61
Lattice="8.42843558953249 0.0 0.0 -4.21421779476624 7.29923593142487 0.0 0.0 0.0 31.03344084160948" Properties=species:S:1:pos:R:3 path_transform=periodic_clearance_graph path_image_index=0 migrant_element=Cr pbc="T T T"
Te       2.10710960       1.21462736       3.47415502
Te       4.21587447       4.86711527       3.47415502
Te       6.32132606       1.21654029       3.46466275
Te      -0.00165665       4.86711606       3.47415503
Te      -0.02695353       0.01556163       6.87246688
Te       2.10710848       3.64961994       6.92340891
Te       4.24117136       0.01556114       6.87246669
Te      -2.10710848       3.61849668       6.87246669
Te       0.00000000      -0.00000000      -0.00000000
Te       2.10710891       3.64961970       0.00000000
Te       4.21421783      -0.00000000      -0.00000000
Te      -2.10710891       3.64961970      -0.00000000
Te       0.04989991       2.46188979      13.94767274
Te       2.10710870       6.02507988      13.94767274
Te       4.16431791       2.46188954      13.94767313
Te      -2.10710870       6.08269937      13.89721196
Te       2.10710913       1.27415951      17.08576449
Te       4.16431791       4.83734960      17.08576449
Te       6.32132652       1.21654002      17.13622527
Te       0.04989991       4.83734985      17.08576410
Te       2.10710868       1.19979071      10.38957074
Te       4.22872293       4.87453439      10.38957074
Te       6.32132698       1.21653976      10.39367857
Te      -0.01450510       4.87453412      10.38957116
Te       0.02695353      -0.01556163      24.16097035
Te       2.10710934       3.64961945      24.11002832
Te       4.18726430      -0.01556114      24.16097054
Te      -2.10710934       3.68074272      24.16097054
Te      -0.00165665       2.43212412      27.55928221
Te       2.10710823       6.08461203      27.55928221
Te       4.21587447       2.43212333      27.55928220
Te      -2.10710823       6.08269910      27.56877447
Te      -0.01450510       2.42470500      20.64386649
Te       2.10710915       6.09944868      20.64386649
Te       4.22872293       2.42470527      20.64386606
Te      -2.10710915       6.08269963      20.63975866
Sb      -0.03010179       2.41569882       8.46835666
Sb       2.10711038       6.11745891       8.46835666
Sb       4.24431962       2.41570051       8.46835705
Sb      -2.10711038       6.08270034       8.40236640
Sb       0.00023601       2.43321348       1.88274910
Sb       2.10711114       6.08242826       1.88274910
Sb       4.21398182       2.43321606       1.88274939
Sb      -2.10711114       6.08270078       1.88196358
Sb      -0.05024943       0.02901154      18.75537477
Sb       2.10710819       3.64962011      18.71413272
Sb       4.26446726       0.02901070      18.75537502
Sb       6.32132747       3.59159704      18.75537502
Sb       0.05024943      -0.02901154      12.27806246
Sb       2.10710964       3.64961928      12.31930450
Sb       4.16396839      -0.02901070      12.27806221
Sb      -2.10710964       3.70764235      12.27806221
Sb       2.10710669       1.21681113      29.15068812
Sb       4.21398182       4.86602591      29.15068812
Sb       6.32132897       1.21653861      29.15147365
Sb       0.00023601       4.86602333      29.15068783
Sb       2.10710745       1.18178048      22.56508056
Sb       4.24431962       4.88354057      22.56508056
Sb       6.32132821       1.21653905      22.63107083
Sb      -0.03010179       4.88353888      22.56508018
Cr       2.10710891       3.64961970      15.51671861
61
Lattice="8.42843558953249 0.0 0.0 -4.21421779476624 7.29923593142487 0.0 0.0 0.0 31.03344084160948" Properties=species:S:1:pos:R:3 path_transform=periodic_clearance_graph path_image_index=1 migrant_element=Cr pbc="T T T"
Te       2.10710960       1.21852515       3.48161973
Te       4.21249889       4.86516638       3.48161973
Te       6.32132606       1.21654029       3.47583315
Te       0.00171894       4.86516717       3.48161974
Te       0.01273303      -0.00735142       6.86324136
Te       2.10710848       3.64961994       6.89884194
Te       4.20148480      -0.00735192       6.86324117
Te      -2.10710848       3.66432279       6.86324117
Te       0.00166133      -0.00095917       0.00032440
Te       2.10710891       3.64961970      -0.00099547
Te       4.21255649      -0.00095917       0.00032440
Te      -2.10710891       3.65153804       0.00032440
Te      -0.08825805       2.38212422      13.88404811
Te       2.10710870       6.18461103      13.88404811
Te       4.30247587       2.38212397      13.88404849
Te      -2.10710870       6.08269937      13.85892865
Te       2.10710913       1.25756786      17.12402027
Te       4.17868669       4.84564542      17.12402027
Te       6.32132652       1.21654002      17.17289718
Te       0.03553113       4.84564568      17.12401988
Te       2.10710868       1.25998147      10.39479737
Te       4.17659622       4.84443901      10.39479737
Te       6.32132698       1.21653976      10.34860606
Te       0.03762160       4.84443874      10.39479780
Te       0.01927205      -0.01112673      24.16341498
Te       2.10710934       3.64961945      24.12923472
Te       4.19494578      -0.01112623      24.16341517
Te      -2.10710934       3.67187290      24.16341517
Te      -0.00315452       2.43125932      27.55743742
Te       2.10710823       6.08634163      27.55743742
Te       4.21737235       2.43125853      27.55743741
Te      -2.10710823       6.08269910      27.56062688
Te      -0.01108834       2.42667766      20.65908479
Te       2.10710915       6.09550335      20.65908479
Te       4.22530617       2.42667794      20.65908437
Te      -2.10710915       6.08269963      20.65741881
Sb      -0.01219953       2.42603470       8.46625157
Sb       2.10711038       6.09678715       8.46625157
Sb       4.22641736       2.42603639       8.46625196
Sb      -2.10711038       6.08270034       8.44988969
Sb       0.00110445       2.43371488       1.88572926
Sb       2.10711114       6.08142547       1.88572926
Sb       4.21311338       2.43371745       1.88572955
Sb      -2.10711114       6.08270078       1.88960547
Sb      -0.03219217       0.01858617      18.77149601
Sb       2.10710819       3.64962011      18.74108501
Sb       4.24641000       0.01858533      18.77149625
Sb       6.32132747       3.61244778      18.77149625
Sb       0.03954475      -0.02283118      12.22385488
Sb       2.10710964       3.64961928      12.90597351
Sb       4.17467308      -0.02283034      12.22385464
Sb      -2.10710964       3.69528164      12.22385464
Sb       2.10710669       1.21506834      29.14832048
Sb       4.21549112       4.86689730      29.14832048
Sb       6.32132897       1.21653861      29.15337074
Sb      -0.00127330       4.86689473      29.14832019
Sb       2.10710745       1.19259029      22.56859802
Sb       4.23495805       4.87813567      22.56859802
Sb       6.32132821       1.21653905      22.61200156
Sb      -0.02074023       4.87813397      22.56859764
Cr       2.17085607       2.92190899      14.66318375
61
Lattice="8.42843558953249 0.0 0.0 -4.21421779476624 7.29923593142487 0.0 0.0 0.0 31.03344084160948" Properties=species:S:1:pos:R:3 path_transform=periodic_clearance_graph path_image_index=2 migrant_element=Cr pbc="T T T"
Te       2.10710960       1.22242294       3.48908445
Te       4.20912331       4.86321748       3.48908445
Te       6.32132606       1.21654029       3.48700355
Te       0.00509452       4.86321827       3.48908446
Te       0.05241959      -0.03026448       6.85401584
Te       2.10710848       3.64961994       6.87427498
Te       4.16179824      -0.03026498       6.85401565
Te      -2.10710848       3.71014890       6.85401565
Te       0.00332267      -0.00191834       0.00064879
Te       2.10710891       3.64961970      -0.00199095
Te       4.21089516      -0.00191834       0.00064879
Te      -2.10710891       3.65345638       0.00064879
Te      -0.22641601       2.30235864      13.82042348
Te       2.10710870       6.34414218      13.82042348
Te       4.44063384       2.30235839      13.82042386
Te      -2.10710870       6.08269937      13.82064535
Te       2.10710913       1.24097622      17.16227605
Te       4.19305547       4.85394125      17.16227605
Te       6.32132652       1.21654002      17.20956910
Te       0.02116235       4.85394150      17.16227566
Te       2.10710868       1.32017223      10.40002401
Te       4.12446952       4.81434363      10.40002401
Te       6.32132698       1.21653976      10.30353355
Te       0.08974831       4.81434336      10.40002443
Te       0.01159057      -0.00669182      24.16585962
Te       2.10710934       3.64961945      24.14844113
Te       4.20262726      -0.00669133      24.16585981
Te      -2.10710934       3.66300309      24.16585981
Te      -0.00465240       2.43039452      27.55559264
Te       2.10710823       6.08807123      27.55559264
Te       4.21887023       2.43039373      27.55559263
Te      -2.10710823       6.08269910      27.55247930
Te      -0.00767158       2.42865033      20.67430310
Te       2.10710915       6.09155802      20.67430310
Te       4.22188941       2.42865060      20.67430267
Te      -2.10710915       6.08269963      20.67507895
Sb       0.00570274       2.43637058       8.46414648
Sb       2.10711038       6.07611538       8.46414648
Sb       4.20851509       2.43637227       8.46414687
Sb      -2.10711038       6.08270034       8.49741299
Sb       0.00197289       2.43421627       1.88870942
Sb       2.10711114       6.08042268       1.88870942
Sb       4.21224494       2.43421885       1.88870970
Sb      -2.10711114       6.08270078       1.89724737
Sb      -0.01413490       0.00816079      18.78761724
Sb       2.10710819       3.64962011      18.76803730
Sb       4.22835273       0.00815996      18.78761749
Sb       6.32132747       3.63329853      18.78761749
Sb       0.02884006      -0.01665082      12.16964731
Sb       2.10710964       3.64961928      13.49264253
Sb       4.18537777      -0.01664999      12.16964707
Sb      -2.10710964       3.68292092      12.16964707
Sb       2.10710669       1.21332554      29.14595284
Sb       4.21700043       4.86776870      29.14595284
Sb       6.32132897       1.21653861      29.15526784
Sb      -0.00278260       4.86776613      29.14595255
Sb       2.10710745       1.20340011      22.57211548
Sb       4.22559648       4.87273076      22.57211548
Sb       6.32132821       1.21653905      22.59293229
Sb      -0.01137866       4.87272907      22.57211510
Cr       2.10710895       1.64961967      13.46980515
61
Lattice="8.42843558953249 0.0 0.0 -4.21421779476624 7.29923593142487 0.0 0.0 0.0 31.03344084160948" Properties=species:S:1:pos:R:3 path_transform=periodic_clearance_graph path_image_index=3 migrant_element=Cr pbc="T T T"
Te       2.10710960       1.22463539       3.49586924
Te       4.20720727       4.86211126       3.49586924
Te       6.32132606       1.21654029       3.49858175
Te       0.00701056       4.86211205       3.49586925
Te       0.08278630      -0.04779671       6.84300764
Te       2.10710848       3.64961994       6.83765985
Te       4.13143153      -0.04779721       6.84300745
Te      -2.10710848       3.74521337       6.84300745
Te       0.00465772      -0.00268914       0.00150734
Te       2.10710891       3.64961970      -0.00347996
Te       4.20956011      -0.00268914       0.00150734
Te      -2.10710891       3.65499797       0.00150734
Te      -0.33174814       2.24154508      13.76805513
Te       2.10710870       6.46576930      13.76805513
Te       4.54596597       2.24154483      13.76805552
Te      -2.10710870       6.08269937      13.78554192
Te       2.10710913       1.22633207      17.19517000
Te       4.20573767       4.86126332      17.19517000
Te       6.32132652       1.21654002      17.23945366
Te       0.00848015       4.86126357      17.19516962
Te       2.10710868       1.36559681      10.40220407
Te       4.08513070       4.79163134      10.40220407
Te       6.32132698       1.21653976      10.27445399
Te       0.12908713       4.79163107      10.40220449
Te       0.00467295      -0.00269793      24.16812366
Te       2.10710934       3.64961945      24.16542636
Te       4.20954488      -0.00269743      24.16812385
Te      -2.10710934       3.65501530      24.16812385
Te      -0.00595868       2.42964034      27.55379774
Te       2.10710823       6.08957959      27.55379774
Te       4.22017651       2.42963955      27.55379773
Te      -2.10710823       6.08269910      27.54332070
Te      -0.00455751       2.43044824      20.68738842
Te       2.10710915       6.08796220      20.68738842
Te       4.21877534       2.43044851      20.68738800
Te      -2.10710915       6.08269963      20.69018935
Sb       0.01447424       2.44143481       8.46300773
Sb       2.10711038       6.06598692       8.46300773
Sb       4.19974359       2.44143651       8.46300812
Sb      -2.10711038       6.08270034       8.53372569
Sb       0.00234209       2.43442944       1.89315326
Sb       2.10711114       6.07999635       1.89315326
Sb       4.21187574       2.43443201       1.89315354
Sb      -2.10711114       6.08270078       1.90399396
Sb       0.00139067      -0.00080290      18.80123528
Sb       2.10710819       3.64962011      18.79139263
Sb       4.21282716      -0.00080374      18.80123552
Sb       6.32132747       3.65122592      18.80123552
Sb       0.01798792      -0.01038533      12.12873616
Sb       2.10710964       3.64961928      13.92851304
Sb       4.19622991      -0.01038450      12.12873591
Sb      -2.10710964       3.67038995      12.12873591
Sb       2.10710669       1.21157607      29.14325797
Sb       4.21851552       4.86864344      29.14325797
Sb       6.32132897       1.21653861      29.15758234
Sb      -0.00429769       4.86864086      29.14325768
Sb       2.10710745       1.21285923      22.57573078
Sb       4.21740465       4.86800120      22.57573078
Sb       6.32132821       1.21653905      22.57652622
Sb      -0.00318682       4.86799951      22.57573039
Cr       2.11047874       2.93528832      12.20800878
61
Lattice="8.42843558953249 0.0 0.0 -4.21421779476624 7.29923593142487 0.0 0.0 0.0 31.03344084160948" Properties=species:S:1:pos:R:3 path_transform=periodic_clearance_graph path_image_index=4 migrant_element=Cr pbc="T T T"
Te       2.10710960       1.21644408       3.49845676
Te       4.21430115       4.86620691       3.49845676
Te       6.32132606       1.21654029       3.51267732
Te      -0.00008332       4.86620770       3.49845677
Te       0.05562079      -0.03211269       6.82099480
Te       2.10710848       3.64961994       6.72667049
Te       4.15859704      -0.03211319       6.82099461
Te      -2.10710848       3.71384533       6.82099461
Te       0.00397860      -0.00229705       0.00566323
Te       2.10710891       3.64961970      -0.00801564
Te       4.21023922      -0.00229705       0.00566323
Te      -2.10710891       3.65421379       0.00566323
Te      -0.23444376       2.29772382      13.78517277
Te       2.10710870       6.35341183      13.78517277
Te       4.44866159       2.29772357      13.78517316
Te      -2.10710870       6.08269937      13.77006813
Te       2.10710913       1.22370997      17.19496500
Te       4.20800847       4.86257437      17.19496500
Te       6.32132652       1.21654002      17.22743933
Te       0.00620935       4.86257462      17.19496461
Te       2.10710868       1.31986851      10.38557742
Te       4.12473255       4.81449549      10.38557742
Te       6.32132698       1.21653976      10.34410023
Te       0.08948527       4.81449522      10.38557784
Te       0.00247065      -0.00142643      24.16927287
Te       2.10710934       3.64961945      24.16870005
Te       4.21174717      -0.00142594      24.16927306
Te      -2.10710934       3.65247231      24.16927306
Te      -0.00608221       2.42956902      27.55231077
Te       2.10710823       6.08972223      27.55231077
Te       4.22030003       2.42956823      27.55231076
Te      -2.10710823       6.08269910      27.52792104
Te      -0.00331196       2.43116736      20.68730668
Te       2.10710915       6.08652395      20.68730668
Te       4.21752979       2.43116764      20.68730626
Te      -2.10710915       6.08269963      20.68955993
Sb      -0.03311923       2.41395670       8.46783421
Sb       2.10711038       6.12094315       8.46783421
Sb       4.24733706       2.41395839       8.46783460
Sb      -2.10711038       6.08270034       8.50083450
Sb      -0.00037052       2.43286331       1.90663253
Sb       2.10711114       6.08312860       1.90663253
Sb       4.21458835       2.43286589       1.90663282
Sb      -2.10711114       6.08270078       1.90521376
Sb       0.00128787      -0.00074355      18.79940084
Sb       2.10710819       3.64962011      18.79254370
Sb       4.21292996      -0.00074439      18.79940109
Sb       6.32132747       3.65110722      18.79940109
Sb       0.00622554      -0.00359432      12.16990487
Sb       2.10710964       3.64961928      13.43349210
Sb       4.20799229      -0.00359348      12.16990462
Sb      -2.10710964       3.65680791      12.16990462
Sb       2.10710669       1.20978538      29.13854311
Sb       4.22006631       4.86953878      29.13854311
Sb       6.32132897       1.21653861      29.16247344
Sb      -0.00584848       4.86953621      29.13854282
Sb       2.10710745       1.21398039      22.57995001
Sb       4.21643369       4.86744062      22.57995001
Sb       6.32132821       1.21653905      22.57656029
Sb      -0.00221586       4.86743892      22.57994962
Cr       2.10823229       3.41150918      11.26642741
61
Lattice="8.42843558953249 0.0 0.0 -4.21421779476624 7.29923593142487 0.0 0.0 0.0 31.03344084160948" Properties=species:S:1:pos:R:3 path_transform=periodic_clearance_graph path_image_index=5 migrant_element=Cr pbc="T T T"
Te       2.10710960       1.20825277       3.50104428
Te       4.22139502       4.87030257       3.50104428
Te       6.32132606       1.21654029       3.52677290
Te      -0.00717719       4.87030336       3.50104429
Te       0.02845528      -0.01642867       6.79898196
Te       2.10710848       3.64961994       6.61568112
Te       4.18576255      -0.01642917       6.79898177
Te      -2.10710848       3.68247729       6.79898177
Te       0.00329949      -0.00190496       0.00981912
Te       2.10710891       3.64961970      -0.01255132
Te       4.21091834      -0.00190496       0.00981912
Te      -2.10710891       3.65342962       0.00981912
Te      -0.13713938       2.35390256      13.80229041
Te       2.10710870       6.24105435      13.80229041
Te       4.35135720       2.35390230      13.80229080
Te      -2.10710870       6.08269937      13.75459434
Te       2.10710913       1.22108788      17.19476000
Te       4.21027927       4.86388542      17.19476000
Te       6.32132652       1.21654002      17.21542499
Te       0.00393856       4.86388567      17.19475961
Te       2.10710868       1.27414020      10.36895077
Te       4.16433440       4.83735965      10.36895077
Te       6.32132698       1.21653976      10.41374648
Te       0.04988342       4.83735937      10.36895119
Te       0.00026836      -0.00015494      24.17042209
Te       2.10710934       3.64961945      24.17197375
Te       4.21394947      -0.00015444      24.17042228
Te      -2.10710934       3.64992932      24.17042228
Te      -0.00620573       2.42949771      27.55082381
Te       2.10710823       6.08986486      27.55082381
Te       4.22042356       2.42949692      27.55082380
Te      -2.10710823       6.08269910      27.51252139
Te      -0.00206640       2.43188649      20.68722494
Te       2.10710915       6.08508571      20.68722494
Te       4.21628423       2.43188676      20.68722452
Te      -2.10710915       6.08269963      20.68893051
Sb      -0.08071269       2.38647859       8.47266070
Sb       2.10711038       6.17589937       8.47266070
Sb       4.29493052       2.38648028       8.47266109
Sb      -2.10711038       6.08270034       8.46794330
Sb      -0.00308313       2.43129719       1.92011180
Sb       2.10711114       6.08626084       1.92011180
Sb       4.21730096       2.43129976       1.92011209
Sb      -2.10711114       6.08270078       1.90643356
Sb       0.00118507      -0.00068420      18.79756641
Sb       2.10710819       3.64962011      18.79369477
Sb       4.21303275      -0.00068504      18.79756665
Sb       6.32132747       3.65098852      18.79756665
Sb      -0.00553685       0.00319670      12.21107357
Sb       2.10710964       3.64961928      12.93847117
Sb       4.21975467       0.00319754      12.21107333
Sb      -2.10710964       3.64322587      12.21107333
Sb       2.10710669       1.20799468      29.13382825
Sb       4.22161710       4.87043413      29.13382825
Sb       6.32132897       1.21653861      29.16736454
Sb      -0.00739927       4.87043156      29.13382796
Sb       2.10710745       1.21510156      22.58416924
Sb       4.21546273       4.86688003      22.58416924
Sb       6.32132821       1.21653905      22.57659435
Sb      -0.00124490       4.86687834      22.58416885
Cr       2.02383596       3.41821602      10.20375228
61
Lattice="8.42843558953249 0.0 0.0 -4.21421779476624 7.29923593142487 0.0 0.0 0.0 31.03344084160948" Properties=species:S:1:pos:R:3 path_transform=periodic_clearance_graph path_image_index=6 migrant_element=Cr pbc="T T T"
Te       2.10710960       1.20006146       3.50363180
Te       4.22848890       4.87439822       3.50363180
Te       6.32132606       1.21654029       3.54086848
Te      -0.01427107       4.87439901       3.50363181
Te       0.00128977      -0.00074465       6.77696912
Te       2.10710848       3.64961994       6.50469175
Te       4.21292805      -0.00074515       6.77696893
Te      -2.10710848       3.65110925       6.77696893
Te       0.00262038      -0.00151287       0.01397501
Te       2.10710891       3.64961970      -0.01708699
Te       4.21159745      -0.00151287       0.01397501
Te      -2.10710891       3.65264544       0.01397501
Te      -0.03983499       2.41008129      13.81940805
Te       2.10710870       6.12869688      13.81940805
Te       4.25405282       2.41008104      13.81940844
Te      -2.10710870       6.08269937      13.73912055
Te       2.10710913       1.21846578      17.19455500
Te       4.21255007       4.86519646      17.19455500
Te       6.32132652       1.21654002      17.20341066
Te       0.00166776       4.86519671      17.19455461
Te       2.10710868       1.22841190      10.35232412
Te       4.20393626       4.86022380      10.35232412
Te       6.32132698       1.21653976      10.48339272
Te       0.01028157       4.86022352      10.35232454
Te      -0.00193393       0.00111656      24.17157130
Te       2.10710934       3.64961945      24.17524745
Te       4.21615176       0.00111705      24.17157149
Te      -2.10710934       3.64738633      24.17157149
Te      -0.00632926       2.42942639      27.54933684
Te       2.10710823       6.09000749      27.54933684
Te       4.22054708       2.42942560      27.54933683
Te      -2.10710823       6.08269910      27.49712174
Te      -0.00082085       2.43260561      20.68714320
Te       2.10710915       6.08364746      20.68714320
Te       4.21503867       2.43260588      20.68714278
Te      -2.10710915       6.08269963      20.68830109
Sb      -0.12830616       2.35900048       8.47748718
Sb       2.10711038       6.23085559       8.47748718
Sb       4.34252398       2.35900217       8.47748757
Sb      -2.10711038       6.08270034       8.43505211
Sb      -0.00579574       2.42973107       1.93359108
Sb       2.10711114       6.08939309       1.93359108
Sb       4.22001357       2.42973364       1.93359137
Sb      -2.10711114       6.08270078       1.90765337
Sb       0.00108228      -0.00062485      18.79573197
Sb       2.10710819       3.64962011      18.79484584
Sb       4.21313555      -0.00062569      18.79573222
Sb       6.32132747       3.65086982      18.79573222
Sb      -0.01729923       0.00998772      12.25224228
Sb       2.10710964       3.64961928      12.44345023
Sb       4.23151706       0.00998856      12.25224204
Sb      -2.10710964       3.62964384      12.25224204
Sb       2.10710669       1.20620399      29.12911339
Sb       4.22316789       4.87132948      29.12911339
Sb       6.32132897       1.21653861      29.17225565
Sb      -0.00895006       4.87132691      29.12911310
Sb       2.10710745       1.21622273      22.58838847
Sb       4.21449177       4.86631945      22.58838847
Sb       6.32132821       1.21653905      22.57662842
Sb      -0.00027395       4.86631776      22.58838808
Cr       1.94056289       3.18681242       9.06490528
61
Lattice="8.42843558953249 0.0 0.0 -4.21421779476624 7.29923593142487 0.0 0.0 0.0 31.03344084160948" Properties=species:S:1:pos:R:3 path_transform=periodic_clearance_graph path_image_index=7 migrant_element=Cr pbc="T T T"
Te       2.10710960       1.23272047       3.53957712
Te       4.20020538       4.85806872       3.53957712
Te       6.32132606       1.21654029       3.54713485
Te       0.01401245       4.85806950       3.53957713
Te      -0.00852029       0.00491919       6.78524806
Te       2.10710848       3.64961994       6.65119420
Te       4.22273812       0.00491870       6.78524787
Te      -2.10710848       3.63978156       6.78524787
Te       0.01472449      -0.00850119       0.02327966
Te       2.10710891       3.64961970      -0.02575459
Te       4.19949334      -0.00850119       0.02327966
Te      -2.10710891       3.66662207       0.02327966
Te      -0.00603891       2.42959348      13.82424025
Te       2.10710870       6.08967250      13.82424025
Te       4.22025674       2.42959323      13.82424064
Te      -2.10710870       6.08269937      13.78373333
Te       2.10710913       1.21541821      17.19650051
Te       4.21518934       4.86672025      17.19650051
Te       6.32132652       1.21654002      17.20099503
Te      -0.00097152       4.86672050      17.19650012
Te       2.10710868       1.20814137      10.34600742
Te       4.22149104       4.87035906      10.34600742
Te       6.32132698       1.21653976      10.49979527
Te      -0.00727321       4.87035879      10.34600784
Te      -0.00380059       0.00219427      24.17214759
Te       2.10710934       3.64961945      24.18222582
Te       4.21801841       0.00219477      24.17214778
Te      -2.10710934       3.64523091      24.17214778
Te      -0.02819022       2.41680495      27.55888915
Te       2.10710823       6.11525037      27.55888915
Te       4.24240805       2.41680416      27.55888914
Te      -2.10710823       6.08269910      27.48455511
Te       0.00090832       2.43360394      20.68800295
Te       2.10710915       6.08165079      20.68800295
Te       4.21330951       2.43360422      20.68800252
Te      -2.10710915       6.08269963      20.69059633
Sb      -0.14389780       2.34999863       8.48514800
Sb       2.10711038       6.24885928       8.48514800
Sb       4.35811563       2.35000032       8.48514839
Sb      -2.10711038       6.08270034       8.42976559
Sb      -0.01349269       2.42528724       1.92954363
Sb       2.10711114       6.09828076       1.92954363
Sb       4.22771051       2.42528981       1.92954392
Sb      -2.10711114       6.08270078       1.90124247
Sb       0.00091259      -0.00052688      18.79536540
Sb       2.10710819       3.64962011      18.79146915
Sb       4.21330524      -0.00052772      18.79536564
Sb       6.32132747       3.65067388      18.79536564
Sb      -0.00398749       0.00230218      12.26380761
Sb       2.10710964       3.64961928      12.29599666
Sb       4.21820532       0.00230302      12.26380737
Sb      -2.10710964       3.64501491      12.26380737
Sb       2.10710669       1.20484172      29.11813956
Sb       4.22434765       4.87201061      29.11813956
Sb       6.32132897       1.21653861      29.19873444
Sb      -0.01012982       4.87200804      29.11813927
Sb       2.10710745       1.21655820      22.59093797
Sb       4.21420125       4.86615171      22.59093797
Sb       6.32132821       1.21653905      22.57416615
Sb       0.00001658       4.86615002      22.59093758
Cr       1.60747039       2.26119814       7.71240004
61
Lattice="8.42843558953249 0.0 0.0 -4.21421779476624 7.29923593142487 0.0 0.0 0.0 31.03344084160948" Properties=species:S:1:pos:R:3 path_transform=periodic_clearance_graph path_image_index=8 migrant_element=Cr pbc="T T T"
Te       2.10710960       1.27952698       3.58707510
Te       4.15966977       4.83466546       3.58707510
Te       6.32132606       1.21654029       3.55068978
Te       0.05454805       4.83466625       3.58707511
Te      -0.01231973       0.00711280       6.80401781
Te       2.10710848       3.64961994       6.88687256
Te       4.22653756       0.00711230       6.80401762
Te      -2.10710848       3.63539434       6.80401762
Te       0.03125575      -0.01804552       0.03436747
Te       2.10710891       3.64961970      -0.03585318
Te       4.18296207      -0.01804552       0.03436747
Te      -2.10710891       3.68571074       0.03436747
Te       0.00576265       2.43640711      13.82481770
Te       2.10710870       6.07604523      13.82481770
Te       4.20845518       2.43640686      13.82481809
Te      -2.10710870       6.08269937      13.84915561
Te       2.10710913       1.21222329      17.19919079
Te       4.21795622       4.86831771      17.19919079
Te       6.32132652       1.21654002      17.20190366
Te      -0.00373840       4.86831796      17.19919040
Te       2.10710868       1.19668751      10.34326131
Te       4.23141037       4.87608599      10.34326131
Te       6.32132698       1.21653976      10.49775818
Te      -0.01719254       4.87608572      10.34326173
Te      -0.00555100       0.00320487      24.17252545
Te       2.10710934       3.64961945      24.19048722
Te       4.21976882       0.00320537      24.17252564
Te      -2.10710934       3.64320971      24.17252564
Te      -0.05757941       2.39983709      27.57226464
Te       2.10710823       6.14918610      27.57226464
Te       4.27179724       2.39983630      27.57226463
Te      -2.10710823       6.08269910      27.47296962
Te       0.00280497       2.43469898      20.68918875
Te       2.10710915       6.07946073      20.68918875
Te       4.21141286       2.43469925      20.68918833
Te      -2.10710915       6.08269963      20.69390445
Sb      -0.14840641       2.34739559       8.49379042
Sb       2.10711038       6.25406538       8.49379042
Sb       4.36262424       2.34739728       8.49379081
Sb      -2.10711038       6.08270034       8.43403926
Sb      -0.02291584       2.41984678       1.91942624
Sb       2.10711114       6.10916167       1.91942624
Sb       4.23713366       2.41984935       1.91942653
Sb      -2.10711114       6.08270078       1.89218887
Sb       0.00071973      -0.00041554      18.79550718
Sb       2.10710819       3.64962011      18.78652436
Sb       4.21349809      -0.00041638      18.79550743
Sb       6.32132747       3.65045119      18.79550743
Sb       0.01800804      -0.01039695      12.26512054
Sb       2.10710964       3.64961928      12.26891446
Sb       4.19620978      -0.01039611      12.26512030
Sb      -2.10710964       3.67041318      12.26512030
Sb       2.10710669       1.20362782      29.10499809
Sb       4.22539891       4.87261756      29.10499809
Sb       6.32132897       1.21653861      29.23268960
Sb      -0.01118109       4.87261499      29.10499780
Sb       2.10710745       1.21662157      22.59290920
Sb       4.21414637       4.86612003      22.59290920
Sb       6.32132821       1.21653905      22.57083933
Sb       0.00007146       4.86611834      22.59290882
Cr       1.79035441       2.17570341       5.89311918
61
Lattice="8.42843558953249 0.0 0.0 -4.21421779476624 7.29923593142487 0.0 0.0 0.0 31.03344084160948" Properties=species:S:1:pos:R:3 path_transform=periodic_clearance_graph path_image_index=9 migrant_element=Cr pbc="T T T"
Te       2.10710960       1.32633348       3.63457308
Te       4.11913417       4.81126221       3.63457308
Te       6.32132606       1.21654029       3.55424470
Te       0.09508366       4.81126300       3.63457309
Te      -0.01611917       0.00930641       6.82278755
Te       2.10710848       3.64961994       7.12255092
Te       4.23033700       0.00930591       6.82278737
Te      -2.10710848       3.63100712       6.82278737
Te       0.04778702      -0.02758986       0.04545527
Te       2.10710891       3.64961970      -0.04595177
Te       4.16643081      -0.02758986       0.04545527
Te      -2.10710891       3.70479941       0.04545527
Te       0.01756420       2.44322075      13.82539514
Te       2.10710870       6.06241797      13.82539514
Te       4.19665363       2.44322050      13.82539553
Te      -2.10710870       6.08269937      13.91457789
Te       2.10710913       1.20902837      17.20188107
Te       4.22072311       4.86991517      17.20188107
Te       6.32132652       1.21654002      17.20281230
Te      -0.00650528       4.86991542      17.20188068
Te       2.10710868       1.18523365      10.34051521
Te       4.24132970       4.88181292      10.34051521
Te       6.32132698       1.21653976      10.49572109
Te      -0.02711187       4.88181265      10.34051563
Te      -0.00730141       0.00421547      24.17290331
Te       2.10710934       3.64961945      24.19874862
Te       4.22151924       0.00421597      24.17290350
Te      -2.10710934       3.64118851      24.17290350
Te      -0.08696860       2.38286922      27.58564012
Te       2.10710823       6.18312182      27.58564012
Te       4.30118643       2.38286843      27.58564011
Te      -2.10710823       6.08269910      27.46138413
Te       0.00470162       2.43579401      20.69037455
Te       2.10710915       6.07727066      20.69037455
Te       4.20951621       2.43579428      20.69037413
Te      -2.10710915       6.08269963      20.69721258
Sb      -0.15291502       2.34479254       8.50243283
Sb       2.10711038       6.25927147       8.50243283
Sb       4.36713284       2.34479423       8.50243322
Sb      -2.10711038       6.08270034       8.43831293
Sb      -0.03233898       2.41440632       1.90930885
Sb       2.10711114       6.12004259       1.90930885
Sb       4.24655681       2.41440889       1.90930914
Sb      -2.10711114       6.08270078       1.88313528
Sb       0.00052688      -0.00030419      18.79564897
Sb       2.10710819       3.64962011      18.78157958
Sb       4.21369095      -0.00030503      18.79564922
Sb       6.32132747       3.65022850      18.79564922
Sb       0.04000358      -0.02309609      12.26643347
Sb       2.10710964       3.64961928      12.24183225
Sb       4.17421425      -0.02309525      12.26643323
Sb      -2.10710964       3.69581145      12.26643323
Sb       2.10710669       1.20241393      29.09185662
Sb       4.22645018       4.87322451      29.09185662
Sb       6.32132897       1.21653861      29.26664476
Sb      -0.01223235       4.87322194      29.09185633
Sb       2.10710745       1.21668493      22.59488044
Sb       4.21409149       4.86608835      22.59488044
Sb       6.32132821       1.21653905      22.56751251
Sb       0.00012634       4.86608665      22.59488005
Cr       1.97135718       3.01794117       5.20079144
61
Lattice="8.42843558953249 0.0 0.0 -4.21421779476624 7.29923593142487 0.0 0.0 0.0 31.03344084160948" Properties=species:S:1:pos:R:3 path_transform=periodic_clearance_graph path_image_index=10 migrant_element=Cr pbc="T T T"
Te       2.10710960       1.33705847       3.66813171
Te       4.10984606       4.80589972       3.66813171
Te       6.32132606       1.21654029       3.62841644
Te       0.10437176       4.80590051       3.66813173
Te      -0.01993478       0.01150935       6.82947697
Te       2.10710848       3.64961994       7.24803320
Te       4.23415261       0.01150886       6.82947678
Te      -2.10710848       3.62660124       6.82947678
Te       0.05562484      -0.03211503       0.05007898
Te       2.10710891       3.64961970      -0.08296599
Te       4.15859299      -0.03211503       0.05007898
Te      -2.10710891       3.71384975       0.05007898
Te       0.02459868       2.44728211      13.83030648
Te       2.10710870       6.05429524      13.83030648
Te       4.18961915       2.44728186      13.83030687
Te      -2.10710870       6.08269937      13.95230749
Te       2.10710913       1.20596344      17.20181734
Te       4.22337742       4.87144764      17.20181734
Te       6.32132652       1.21654002      17.19929624
Te      -0.00915959       4.87144789      17.20181695
Te       2.10710868       1.18024978      10.33957660
Te       4.24564586       4.88430486      10.33957660
Te       6.32132698       1.21653976      10.47772428
Te      -0.03142803       4.88430458      10.33957703
Te      -0.01024280       0.00591369      24.17819158
Te       2.10710934       3.64961945      24.20592143
Te       4.22446063       0.00591418      24.17819177
Te      -2.10710934       3.63779207      24.17819177
Te      -0.10261419       2.37383623      27.59000543
Te       2.10710823       6.20118780      27.59000543
Te       4.31683202       2.37383544      27.59000542
Te      -2.10710823       6.08269910      27.42765758
Te       0.00687767       2.43705035      20.69121452
Te       2.10710915       6.07475798      20.69121452
Te       4.20734016       2.43705062      20.69121410
Te      -2.10710915       6.08269963      20.69929088
Sb      -0.13999597       2.35225135       8.49972181
Sb       2.10711038       6.24435384       8.49972181
Sb       4.35421380       2.35225305       8.49972219
Sb      -2.10711038       6.08270034       8.43076341
Sb      -0.04801556       2.40535544       1.91471904
Sb       2.10711114       6.13814435       1.91471904
Sb       4.26223339       2.40535801       1.91471933
Sb      -2.10711114       6.08270078       1.88481913
Sb       0.00036982      -0.00021352      18.79399639
Sb       2.10710819       3.64962011      18.77830986
Sb       4.21384800      -0.00021436      18.79399663
Sb       6.32132747       3.65004715      18.79399663
Sb       0.05048190      -0.02914575      12.26778717
Sb       2.10710964       3.64961928      12.21982918
Sb       4.16373593      -0.02914491      12.26778693
Sb      -2.10710964       3.70791078      12.26778693
Sb       2.10710669       1.19591887      29.07669496
Sb       4.23207507       4.87647204      29.07669496
Sb       6.32132897       1.21653861      29.28099870
Sb      -0.01785724       4.87646947      29.07669467
Sb       2.10710745       1.21648179      22.59824951
Sb       4.21426741       4.86618992      22.59824951
Sb       6.32132821       1.21653905      22.56732269
Sb      -0.00004959       4.86618822      22.59824912
Cr       2.06185859       3.43906004       4.27242969
61
Lattice="8.42843558953249 0.0 0.0 -4.21421779476624 7.29923593142487 0.0 0.0 0.0 31.03344084160948" Properties=species:S:1:pos:R:3 path_transform=periodic_clearance_graph path_image_index=11 migrant_element=Cr pbc="T T T"
Te       2.10710960       1.23565448       3.65837167
Te       4.19766445       4.85660171       3.65837167
Te       6.32132606       1.21654029       3.92204099
Te       0.01655337       4.85660250       3.65837168
Te      -0.02380064       0.01374131       6.79862487
Te       2.10710848       3.64961994       7.03106388
Te       4.23801847       0.01374082       6.79862468
Te      -2.10710848       3.62213732       6.79862468
Te       0.03644644      -0.02104237       0.03461451
Te       2.10710891       3.64961970      -0.20362472
Te       4.17777139      -0.02104237       0.03461451
Te      -2.10710891       3.69170443       0.03461451
Te       0.01681874       2.44279035      13.84868611
Te       2.10710870       6.06327875      13.84868611
Te       4.19739909       2.44279010      13.84868650
Te      -2.10710870       6.08269937      13.90397777
Te       2.10710913       1.20330246      17.19319509
Te       4.22568189       4.87277812      17.19319509
Te       6.32132652       1.21654002      17.18202975
Te      -0.01146406       4.87277838      17.19319470
Te       2.10710868       1.19537242      10.34425510
Te       4.23254927       4.87674354      10.34425510
Te       6.32132698       1.21653976      10.41013013
Te      -0.01833145       4.87674326      10.34425552
Te      -0.01688537       0.00974877      24.19873971
Te       2.10710934       3.64961945      24.20971129
Te       4.23110319       0.00974927      24.19873990
Te      -2.10710934       3.63012190      24.19873990
Te      -0.07554939       2.38946211      27.56637019
Te       2.10710823       6.16993605      27.56637019
Te       4.28976722       2.38946132      27.56637018
Te      -2.10710823       6.08269910      27.32512420
Te       0.00992198       2.43880799      20.69097976
Te       2.10710915       6.07124270      20.69097976
Te       4.20429584       2.43880826      20.69097934
Te      -2.10710915       6.08269963      20.69754731
Sb      -0.07291778       2.39097898       8.46172818
Sb       2.10711038       6.16689858       8.46172818
Sb       4.28713561       2.39098068       8.46172857
Sb      -2.10711038       6.08270034       8.38647147
Sb      -0.08312565       2.38508462       1.96838361
Sb       2.10711114       6.17868599       1.96838361
Sb       4.29734347       2.38508719       1.96838390
Sb      -2.10711114       6.08270078       1.91987129
Sb       0.00032402      -0.00018707      18.78676753
Sb       2.10710819       3.64962011      18.78024566
Sb       4.21389381      -0.00018791      18.78676778
Sb       6.32132747       3.64999426      18.78676778
Sb       0.02516867      -0.01453114      12.26926758
Sb       2.10710964       3.64961928      12.21361033
Sb       4.18904916      -0.01453031      12.26926733
Sb      -2.10710964       3.67868156      12.26926733
Sb       2.10710669       1.17301176      29.05525523
Sb       4.25191319       4.88792559      29.05525523
Sb       6.32132897       1.21653861      29.23443878
Sb      -0.03769537       4.88792302      29.05525494
Sb       2.10710745       1.21545044      22.60596258
Sb       4.21516059       4.86670559      22.60596258
Sb       6.32132821       1.21653905      22.57688161
Sb      -0.00094277       4.86670390      22.60596219
Cr       2.10710934       3.64961945       3.27265561
61
Lattice="8.42843558953249 0.0 0.0 -4.21421779476624 7.29923593142487 0.0 0.0 0.0 31.03344084160948" Properties=species:S:1:pos:R:3 path_transform=periodic_clearance_graph path_image_index=12 migrant_element=Cr pbc="T T T"
Te       2.10710960       1.13425048       3.64861162
Te       4.28548284       4.90730371       3.64861162
Te       6.32132606       1.21654029       4.21566554
Te      -0.07126502       4.90730450       3.64861163
Te      -0.02766651       0.01597327       6.76777276
Te       2.10710848       3.64961994       6.81409457
Te       4.24188433       0.01597277       6.76777258
Te      -2.10710848       3.61767340       6.76777258
Te       0.01726803      -0.00996970       0.01915004
Te       2.10710891       3.64961970      -0.32428345
Te       4.19694979      -0.00996970       0.01915004
Te      -2.10710891       3.66955910       0.01915004
Te       0.00903879       2.43829860      13.86706574
Te       2.10710870       6.07226226      13.86706574
Te       4.20517903       2.43829835      13.86706613
Te      -2.10710870       6.08269937      13.85564805
Te       2.10710913       1.20064149      17.18457284
Te       4.22798636       4.87410861      17.18457284
Te       6.32132652       1.21654002      17.16476326
Te      -0.01376853       4.87410886      17.18457246
Te       2.10710868       1.21049506      10.34893359
Te       4.21945269       4.86918222      10.34893359
Te       6.32132698       1.21653976      10.34253598
Te      -0.00523487       4.86918195      10.34893401
Te      -0.02352793       0.01358386      24.21928783
Te       2.10710934       3.64961945      24.21350115
Te       4.23774576       0.01358436      24.21928802
Te      -2.10710934       3.62245172      24.21928802
Te      -0.04848459       2.40508799      27.54273495
Te       2.10710823       6.13868430      27.54273495
Te       4.26270242       2.40508720      27.54273494
Te      -2.10710823       6.08269910      27.22259082
Te       0.01296630       2.44056563      20.69074500
Te       2.10710915       6.06772743      20.69074500
Te       4.20125152       2.44056590      20.69074458
Te      -2.10710915       6.08269963      20.69580375
Sb      -0.00583960       2.42970661       8.42373455
Sb       2.10711038       6.08944332       8.42373455
Sb       4.22005742       2.42970830       8.42373494
Sb      -2.10711038       6.08270034       8.34217953
Sb      -0.11823573       2.36481380       2.02204818
Sb       2.10711114       6.21922763       2.02204818
Sb       4.33245356       2.36481637       2.02204847
Sb      -2.10711114       6.08270078       1.95492345
Sb       0.00027821      -0.00016063      18.77953867
Sb       2.10710819       3.64962011      18.78218146
Sb       4.21393961      -0.00016146      18.77953892
Sb       6.32132747       3.64994137      18.77953892
Sb      -0.00014456       0.00008346      12.27074799
Sb       2.10710964       3.64961928      12.20739149
Sb       4.21436239       0.00008430      12.27074774
Sb      -2.10710964       3.64945235      12.27074774
Sb       2.10710669       1.15010466      29.03381549
Sb       4.27175132       4.89937915      29.03381549
Sb       6.32132897       1.21653861      29.18787885
Sb      -0.05753350       4.89937657      29.03381521
Sb       2.10710745       1.21441909      22.61367564
Sb       4.21605377       4.86722127      22.61367564
Sb       6.32132821       1.21653905      22.58644052
Sb      -0.00183594       4.86721958      22.61367526
Cr       2.10710940       3.64961942       2.14592841
