81
Properties=species:S:1:pos:R:3:forces:R:3 energy=-267.64913870859266 mlff_rel_energy_eV=0.0 mlff_fmax_eV_A=2.3308643852862914 calculator_label=/data/pclancy3/yi/flare-data/1-Cr-Sb2Te3/3.fine-tuning/2-layer/MACE-omat/MACE-matpes-pbe-omat-ft.model neb_image=0 neb_protocol=mlff_pre_neb pbc="F F F"
Te      12.83419756       7.42867709      14.99806759      -0.99654298      -0.75607453       0.86942386
Te       2.17560346       3.72087047      15.01610442      -0.66453471       0.02155313       0.46760775
Te       0.03272262       7.41790464      15.00124804      -0.93695503      -0.84232493       1.08113285
Te      14.99305981       3.68473810      14.99806589      -1.22560032      -0.54724374       0.99986181
Te       0.06945868       2.50639035      22.38753635       1.02522015       0.46597040       0.00007723
Te       2.17751924       6.15770160      22.39152392       0.10193614      -0.98448816       0.05489070
Te       4.28561251       2.50182399      22.39152233       0.28464074      -0.93310926      -0.16783803
Te      -2.10198766       6.18695015      22.31193256       0.56660813      -0.30235249       0.38422280
Te       2.19719077       1.29763077      25.03740842      -0.38449492      -1.43414127       0.35540986
Te       4.30518974       4.94885991      25.04141823      -0.18457835      -0.06336689      -0.17398529
Te       6.47669596       1.26833091      25.11694332       0.00169304      -0.91661691       0.11034623
Te       0.08914882       4.95342969      25.03741001      -0.70946797      -0.05562195      -0.02681164
Te       2.18771554       1.23068098      18.64202229       0.02969770      -0.30898803      -0.01857636
Te       4.32262520       4.95890975      18.62332542       0.03740600      -0.55747323      -0.13059540
Te       6.44155407       1.24806430      18.65766683      -0.10048062      -1.15420196       0.70810987
Te       0.02646425       4.97876382      18.64202180      -1.05105553      -0.40226257      -0.89725511
Te       0.05551086       0.03005198      32.42316331       1.06468387       0.78512386      -0.91501868
Te       2.19912366       3.73442427      32.41278173       0.12317733      -0.73039217      -0.23669424
Te       4.34200621       0.03739181      32.42763810       0.04315385       0.54116567      -0.81617123
Te      -2.08075783       3.73481030      32.42316269       1.03499827       0.33361435      -0.74530114
Te       0.05210876       2.49639184      28.80558468      -0.85924722      -0.33536373      -0.84371129
Te       2.18698591       6.22458981      28.78685872       0.10068281      -0.81444122       0.19790312
Te       4.34823036       2.47651552      28.78685750      -0.05578858      -0.18230822      -0.30613335
Te      -2.06683208       6.20723044      28.77124840       0.23407546      -1.56543832      -0.86680319
Sb       0.02387655       2.48010897      16.67609978       1.03344886       1.14848570       0.59800535
Sb       2.18495003       6.20529538      16.70195406       0.04840219       0.31923032      -0.81269294
Sb       4.33050819       2.48441704      16.70195852      -0.23289301       0.44270248       0.57849561
Sb      -2.07966272       6.19982965      16.71435923       1.98244501       0.23794436      -0.46465131
Sb       0.02194412       0.04640019      26.83297972       0.64740093       1.08618528       0.00956000
Sb       2.19133563       3.72994201      26.75502658      -0.01255845       1.43060649       0.87530799
Sb       4.39640547       0.06876643      26.83699314      -0.08496349       0.82163724      -0.26223405
Sb       6.46985837       3.70812629      26.83239915       0.24332985       1.49205682       0.05872193
Sb      12.89842248       7.41504560      20.59649060      -1.10285968      -1.24212186       0.36384723
Sb       2.18337951       3.72534247      20.67398788      -0.74985417       0.20539576       0.24129869
Sb       4.24746818      -0.01712412      20.59189472      -0.03344951       1.27180870      -0.32534528
Sb      15.01344623       3.74714963      20.59648700      -0.82516937      -0.66426537      -0.76500520
Sb       2.18977538       1.24999594      30.72694748      -0.61739836      -0.87785993       2.06908434
Sb       4.35083175       4.97517208      30.75274189      -0.25500799       0.67872007      -0.92462811
Sb       6.45438470       1.25546338      30.71452178       0.05433714      -0.45945836       1.57164262
Sb       0.04420695       4.97087428      30.72694815      -1.19993714       0.00001727      -0.07727551
Te       4.31919401       7.42523591      15.00571599       0.01887065      -0.50624957       0.55256123
Te      10.70750005       3.70795299      15.01653459      -0.12561922       0.34211326       0.46135998
Te       8.62636042       7.44058922      15.00666837      -0.03877765      -0.63649353       0.81755658
Te       6.45546271       3.72047760      15.00571662       0.10409191       0.36614891       0.21071183
Te       8.58782893       2.48567176      22.28998018       0.04996130      -0.89089111       0.27529919
Te      10.75164421       6.20062396      22.29432711       1.11947573       0.39950392      -0.54316608
Te      12.88698552       2.49748402      22.29432356       0.70394301      -0.38523793       0.20501433
Te       6.47932576       6.20253340      22.29835232       0.05482992      -0.99185709      -0.19847313
Te      10.73166552       1.25466907      25.13460180      -0.15518753      -0.99649870       0.33642015
Te      12.89548764       4.96961955      25.13896242      -1.03442213      -0.63557632       0.23547166
Te      15.00398568       1.25275963      25.13058857      -1.45544141      -0.70640706       1.01452620
Te       8.59631908       4.95780901      25.13460194      -0.17960100      -0.39258665       0.17351128
Te      10.71776477       1.24478050      18.66386228      -0.02202946      -1.03040578       0.75446672
Te      12.89110019       4.96708228      18.68586109       0.78110173       0.03350046       0.68334164
Te      15.01176676       1.25723793      18.64075930      -0.46399881       0.27690942       1.28641042
Te       8.58081496       4.95071755      18.66386087      -0.04410662      -0.65819298       0.07552977
Te       8.64911046       0.02660397      32.43076038      -0.06835046       0.55326763      -0.72820165
Te      10.77578914       3.74732464      32.41229851       0.73755362      -0.27689793      -0.40942998
Te      12.85695444       0.01470210      32.42215447       0.98742952       0.88319027      -1.19178944
Te       6.49024992       3.77054466      32.43075866       0.10368989      -0.85063287      -0.13911473
Te       8.59219927       2.48819877      28.74302163      -0.02167725      -0.23980909       0.00221689
Te      10.76555351       6.21051424      28.76503926       0.72811223      -0.80578108       0.78244215
Te      12.90249990       2.50457890      28.76503896       1.17644911      -0.33822741       0.53524599
Te       6.47152928       6.19804142      28.78811144       0.06933721      -0.75452691       0.14167007
Sb       8.58365738       2.48327401      16.71841598       0.05168834       0.87538411       0.02723143
Sb      10.72867714       6.19966275      16.69163740       0.42630320       0.93346145      -1.96017968
Sb      12.87464171       2.47809448      16.69163658       1.42418071       0.86248463      -1.03506669
Sb       6.43997540       6.17984245      16.70324898       0.08701595       0.52692571      -1.27142139
Sb       8.58487528       0.04024059      26.83239897       0.08447505       0.79458709      -0.36754055
Sb      10.75083998       3.73295066      26.81847716       0.61743066       1.73968995      -0.83859514
Sb      12.86436847       0.01899054      26.83641810       1.01800192       1.36978448      -1.20133086
Sb      -2.08343437       3.69757352      26.83298458       1.25447891       1.45208933       1.05939082
Sb       8.62194150       0.00525580      20.59594065       0.02612789       1.24711816      -0.21893580
Sb      10.73246632       3.72234066      20.61044834      -0.05556559       0.58590045      -0.39562354
Sb      12.88809292       0.03266032      20.59250397       0.24718005       1.16865141      -0.65612642
Sb       6.45816320       3.75772807      20.59594092      -0.02821600       1.35140091       0.33844808
Sb      10.75462745       1.25563028      30.73717689      -0.12779787      -0.42315914       0.99749982
Sb      12.89965748       4.97202073      30.71045819      -1.55533636      -0.18795356      -0.74416684
Sb      15.04333261       1.27544373      30.72563546      -2.01480471      -0.31157338       0.45897434
Sb       8.60867486       4.97719000      30.73717428      -0.29246328       0.63327122      -0.92445202
Cr       2.18733961       3.72763026      23.71424376      -0.56283322       0.47127247      -0.41990911
81
Properties=species:S:1:pos:R:3:forces:R:3 energy=-273.67333162992315 mlff_rel_energy_eV=-6.024192921330496 mlff_fmax_eV_A=1.5892354650301461 calculator_label=/data/pclancy3/yi/flare-data/1-Cr-Sb2Te3/3.fine-tuning/2-layer/MACE-omat/MACE-matpes-pbe-omat-ft.model neb_image=1 neb_protocol=mlff_pre_neb pbc="F F F"
Te      12.79737044       7.38607097      15.05217550      -0.61523758      -0.44430969       0.51564200
Te       2.14425906       3.72453240      15.03609180      -0.39785049       0.07900865       0.24594357
Te      -0.01409416       7.37732871      15.05107320      -0.47885165      -0.35504856       0.41474003
Te      14.93261545       3.67105947      15.05665458      -0.77886199      -0.38035980       0.64931470
Te       0.17863836       2.55030403      22.38500187       0.65665815       0.22592051       0.20472675
Te       2.20281476       6.05669331      22.39039578       0.09364535      -0.72363321       0.26220986
Te       4.26148136       2.47838371      22.37715819       0.17425008      -0.59465904      -0.14057130
Te      -2.06194149       6.16207832      22.33659411       0.65381057      -0.35876032       0.51973049
Te       2.19817769       1.11582093      25.06181563      -0.22400659      -0.68217121       0.24254447
Te       4.37751277       4.98179438      25.01953513      -0.30785228      -0.07838294      -0.07128397
Te       6.46252082       1.21485121      25.13282406       0.00876861      -0.58885660       0.08338622
Te       0.02534792       4.95836929      25.03136736      -0.58741196       0.13506909      -0.24012096
Te       2.19488768       1.21952984      18.64142696       0.01363101      -0.29028877      -0.06481185
Te       4.32519737       4.92742679      18.61169837       0.02561564      -0.45343396      -0.17430016
Te       6.43806515       1.18428896      18.69359791      -0.14763862      -0.99190688       0.62460497
Te      -0.02363468       4.95586311      18.59718198      -0.80284863      -0.38631144      -0.57733491
Te       0.10724075       0.06783674      32.37866810       0.62674689       0.44489711      -0.52339161
Te       2.20217518       3.69442783      32.40051315       0.04594154      -0.37738034      -0.26988670
Te       4.34045265       0.05792357      32.39206759       0.02024619       0.15541637      -0.26957384
Te      -2.02496782       3.75254967      32.38148075       0.75903485       0.27612472      -0.58313200
Te       0.00199618       2.47052551      28.74730400      -0.59435168      -0.32640721      -0.70922733
Te       2.20855889       6.17621007      28.80251016       0.13639527      -0.60832835      -0.10495038
Te       4.34520096       2.46617286      28.76863473      -0.09128429      -0.18284934      -0.33562387
Te      -2.05699288       6.12012674      28.72026477       0.10661293      -1.06048717      -0.68649013
Sb       0.08243447       2.54680411      16.71493115       0.62215983       0.85702386       0.53492346
Sb       2.19679414       6.22114477      16.65882244       0.17650357       0.15179123      -0.42381784
Sb       4.32111176       2.51483562      16.73482275      -0.15902977       0.37477051       0.59888659
Sb      -1.97400718       6.20904833      16.67691805       1.08917432       0.01595201      -0.15325209
Sb       0.05992154       0.09812171      26.83879297       0.50536231       0.79744977       0.04723013
Sb       2.19635095       3.80228080      26.81930483       0.12660322       1.10763112       0.65862744
Sb       4.38635754       0.09776290      26.84403366      -0.11595542       0.67315238      -0.10608696
Sb       6.48166768       3.78643859      26.84004819       0.12826688       0.81550467       0.13769140
Sb      12.83782747       7.35125778      20.62127881      -0.68029705      -0.82178265       0.15850674
Sb       2.15145894       3.73681730      20.64336682      -0.37424814       0.08636954       0.25604323
Sb       4.25463906       0.05791221      20.57787627       0.02529103       1.01319471      -0.29608381
Sb      14.96229815       3.71400877      20.55087012      -0.57184162      -0.45237864      -0.64469310
Sb       2.15442707       1.20421645      30.84265240      -0.32913858      -0.44804845       1.16837573
Sb       4.33644524       5.01140533      30.71373874      -0.28403092       0.30788890      -0.52949948
Sb       6.45841084       1.23654628      30.79539659       0.05889124      -0.08657307       0.83684251
Sb      -0.02396705       4.96383109      30.73541799      -0.85425728      -0.14745159       0.20813920
Te       4.32152337       7.39988625      15.02686236      -0.03931847      -0.24220365       0.18080908
Te      10.70863516       3.72798760      15.03848843      -0.09691330       0.17334442       0.28032097
Te       8.61411379       7.40296600      15.04501094      -0.08589353      -0.22947553       0.28985374
Te       6.46484107       3.74060852      15.01353263       0.09725596       0.26343847       0.11264894
Te       8.59584367       2.44381467      22.30674907       0.05925514      -0.50986282       0.23172120
Te      10.81308955       6.22561672      22.26503235       0.65434001       0.29134105      -0.28828263
Te      12.92428841       2.47885591      22.30643280       0.40898092      -0.21977223       0.20596785
Te       6.48964555       6.15570417      22.28894006       0.02817560      -0.63900336      -0.10412337
Te      10.71699831       1.20036417      25.15567854      -0.18484709      -0.57828913       0.19103619
Te      12.83836847       4.93324022      25.15127735      -0.64854932      -0.37279087       0.11985997
Te      14.92685685       1.21475595      25.18753246      -0.96797140      -0.51617284       0.70461481
Te       8.59244042       4.93791212      25.14256950      -0.03196464      -0.18278855       0.04265541
Te      10.72045754       1.18738503      18.70218246       0.01206712      -0.84658741       0.65875820
Te      12.93507490       4.96323119      18.71879060       0.58341687       0.06057152       0.47650540
Te      14.99244742       1.26780246      18.70056522      -0.23685653       0.18742045       1.01211397
Te       8.58065997       4.90975760      18.66559340       0.01334507      -0.55064433       0.08441530
Te       8.64767719       0.06377586      32.40779638      -0.02889842       0.20026339      -0.22675487
Te      10.81350759       3.73157713      32.39058000       0.42590240      -0.21022011      -0.24769351
Te      12.91103286       0.05347874      32.36283143       0.66846438       0.36841863      -0.51314329
Te       6.50331206       3.71966272      32.42393799       0.07205064      -0.58080876      -0.23494974
Te       8.59956579       2.47397133      28.75598707       0.03135463      -0.14714082      -0.05399465
Te      10.79681592       6.16637723      28.80877121       0.51484564      -0.40797577       0.49666702
Te      12.96492525       2.48384672      28.79418260       0.86665004      -0.13490488       0.42214494
Te       6.47092159       6.15750615      28.78954183       0.10838930      -0.39965490       0.04241237
Sb       8.58953888       2.53527325      16.71718683       0.04000499       0.77499635       0.08859208
Sb      10.75769649       6.25517555      16.59119595       0.33414161       0.54059395      -1.11763872
Sb      12.95051189       2.53000529      16.63708100       0.87713659       0.59777950      -0.72969852
Sb       6.44765035       6.20948350      16.63335802       0.04937993       0.25681972      -0.69968805
Sb       8.58465315       0.08166658      26.82376234       0.05898405       0.62258405      -0.17959654
Sb      10.77837914       3.81925306      26.77673900       0.35573672       0.96888848      -0.56178894
Sb      12.92115255       0.09081770      26.77248820       0.78033241       0.80766589      -0.77221260
Sb      -2.01877208       3.78216403      26.89901630       0.88261608       1.01178971       0.85025867
Sb       8.62267211       0.08098833      20.58039563       0.03559901       0.93662541      -0.32118391
Sb      10.73136045       3.75189338      20.58636155      -0.11448294       0.26420494      -0.27715836
Sb      12.90072280       0.09779081      20.55453602       0.14165036       0.79901018      -0.56241655
Sb       6.46834994       3.83089258      20.61676681      -0.00661169       0.84613458       0.23995163
Sb      10.74113370       1.23696527      30.78234822      -0.17704641      -0.11128162       0.39329274
Sb      12.80783091       4.95812624      30.67722789      -1.03837199      -0.15622497      -0.58736466
Sb      14.92873073       1.25509501      30.74734177      -1.27649609      -0.11738898       0.14681354
Sb       8.58840050       5.00565917      30.68295034      -0.31150033       0.29333544      -0.55561383
Cr       2.21384476       3.70227996      23.92962890      -0.51296819       0.21060947      -0.70208845
81
Properties=species:S:1:pos:R:3:forces:R:3 energy=-273.49143486969024 mlff_rel_energy_eV=-5.842296161097579 mlff_fmax_eV_A=1.7631953317033322 calculator_label=/data/pclancy3/yi/flare-data/1-Cr-Sb2Te3/3.fine-tuning/2-layer/MACE-omat/MACE-matpes-pbe-omat-ft.model neb_image=2 neb_protocol=mlff_pre_neb pbc="F F F"
Te      12.80926274       7.38116817      15.05354915      -0.55714656      -0.40192909       0.46497474
Te       2.14549964       3.72850516      15.02875433      -0.35180067       0.09179899       0.20794409
Te      -0.01650866       7.37583023      15.05529816      -0.40215931      -0.27814956       0.30410621
Te      14.93134456       3.68896363      15.06068912      -0.69713613      -0.34288542       0.57985369
Te       0.16673277       2.54633093      22.34716026       0.73941760       0.25569183       0.42931741
Te       2.21484892       6.09684914      22.32823386       0.19018554      -0.81503849       0.33412841
Te       4.27208149       2.47483938      22.38161533       0.17671444      -0.57413559      -0.11690523
Te      -2.04287134       6.15024281      22.31336138       0.66909598      -0.36279567       0.47428032
Te       2.19350852       0.89753478      25.06939919      -0.06370395      -0.38475713       0.31122499
Te       4.52015712       5.05903266      25.01585292      -0.19857791      -0.05934163      -0.08403632
Te       6.43688365       1.20253434      25.14655362       0.01523847      -0.58116334       0.11084857
Te       0.07673913       4.89939439      25.03983680      -0.61147748      -0.05088881      -0.26168295
Te       2.19079282       1.23609711      18.63125263       0.01974087      -0.29747337      -0.09701308
Te       4.32884015       4.92521022      18.61267362       0.00227659      -0.44962925      -0.18016988
Te       6.44446638       1.18015729      18.69109115      -0.16939526      -0.95742668       0.60309860
Te      -0.01850999       4.95193970      18.59228766      -0.76599014      -0.37262709      -0.52968577
Te       0.10036069       0.06744862      32.38237229       0.54151873       0.39173526      -0.45398185
Te       2.19342105       3.68809617      32.41167137       0.04248160      -0.29635181      -0.26323584
Te       4.33270725       0.05348232      32.39761701       0.05401527       0.09293052      -0.17708147
Te      -2.02517627       3.75299720      32.37935992       0.69894534       0.25043931      -0.54193072
Te      -0.01639806       2.44613899      28.74063487      -0.48599609      -0.32010567      -0.65726812
Te       2.22361298       6.18864040      28.82083605       0.11470351      -0.54976591      -0.27868400
Te       4.34583548       2.47428321      28.79287374      -0.06381478      -0.22104235      -0.36188763
Te      -2.06266531       6.10212870      28.72178848       0.09748501      -0.97077170      -0.64505796
Sb       0.10367581       2.55495545      16.72405892       0.57556434       0.80093607       0.54973165
Sb       2.20487515       6.22254917      16.64518341       0.19193302       0.12342184      -0.35036338
Sb       4.31802196       2.52633437      16.73172274      -0.16264277       0.36854790       0.62503614
Sb      -1.96021888       6.20919283      16.66089628       0.96816799      -0.03409998      -0.07631422
Sb       0.04681364       0.06934151      26.85071140       0.42127857       0.63930438       0.10125321
Sb       2.17382454       3.81827420      27.04897893       0.09339088       0.90802053       0.52354440
Sb       4.37764366       0.04145050      26.86441358      -0.06045303       0.66347162      -0.06961471
Sb       6.50527588       3.80515209      26.84152521       0.04086503       0.75117751       0.10190386
Sb      12.82426733       7.35243856      20.60759763      -0.60296876      -0.76800729       0.10357599
Sb       2.14266908       3.75249991      20.64925068      -0.38490225       0.19391706       0.50340279
Sb       4.29357423       0.07678807      20.57169103       0.01457989       0.96523456      -0.25421363
Sb      14.96307363       3.69996587      20.53701860      -0.54747632      -0.41166148      -0.63981882
Sb       2.14746101       1.19725252      30.87705775      -0.28490463      -0.39024418       0.99894318
Sb       4.34646736       5.00199948      30.73163716      -0.20904795       0.19784685      -0.40182675
Sb       6.46486046       1.23506138      30.83551299       0.04148288      -0.07675699       0.68988375
Sb      -0.04628208       4.95453125      30.75583347      -0.85900967      -0.17323523       0.29006274
Te       4.32499833       7.39947338      15.02353605      -0.03674159      -0.20180865       0.12528063
Te      10.71644420       3.73939265      15.03296412      -0.10919772       0.15287020       0.25579242
Te       8.60649362       7.39351488      15.04314286      -0.03126336      -0.15431242       0.19591048
Te       6.46966670       3.74571309      15.00879252       0.10460860       0.26082868       0.09462917
Te       8.60764121       2.44559585      22.30179315       0.04842417      -0.46511466       0.23596400
Te      10.82586634       6.23230009      22.24865048       0.56570939       0.27172548      -0.24355463
Te      12.93290408       2.47811630      22.29761738       0.37564216      -0.19976914       0.20277915
Te       6.49644855       6.15521942      22.27528914      -0.06215542      -0.57690562      -0.02011844
Te      10.70989319       1.19464330      25.15933254      -0.19220885      -0.51844426       0.16616890
Te      12.82084350       4.91647133      25.15196625      -0.54843218      -0.31556837       0.09692865
Te      14.91282272       1.21083777      25.19321789      -0.85491261      -0.46348812       0.62452637
Te       8.60869095       4.93291053      25.14355781       0.00045775      -0.16604434       0.04495493
Te      10.73258026       1.18667299      18.69135609      -0.01477424      -0.82656670       0.66020129
Te      12.93249001       4.96116359      18.69307135       0.59340573       0.05784443       0.51218572
Te      14.99749517       1.27007714      18.69985140      -0.21114486       0.17430847       0.97825976
Te       8.58707090       4.90857772      18.65421433       0.01079232      -0.53925813       0.11186682
Te       8.64417516       0.08882005      32.42280207      -0.00886266       0.10932598      -0.10668866
Te      10.80634802       3.72904828      32.38808457       0.40129706      -0.23827653      -0.19429041
Te      12.92397893       0.06256675      32.34979996       0.53099194       0.22254481      -0.32126685
Te       6.50281157       3.70785767      32.43290825       0.04613099      -0.50164211      -0.19444502
Te       8.60280975       2.48649144      28.78363366       0.06424357      -0.17787795      -0.04086930
Te      10.78014930       6.15169509      28.82847802       0.53011530      -0.29987284       0.41102573
Te      12.96663181       2.47740928      28.80204513       0.81637536      -0.10555760       0.40493032
Te       6.46268525       6.15626966      28.79230832       0.14286882      -0.32743617       0.05279313
Sb       8.60021235       2.54632895      16.70011291       0.04135479       0.76206006       0.08275866
Sb      10.77643731       6.26611325      16.57924230       0.28159246       0.50982361      -1.03319385
Sb      12.96365873       2.54460569      16.62470092       0.80504526       0.54919130      -0.67834266
Sb       6.46058873       6.22208638      16.61625115      -0.01870924       0.17910472      -0.58834521
Sb       8.58327683       0.10218776      26.83050910       0.02261426       0.56258950      -0.17217864
Sb      10.77999452       3.82530770      26.77285092       0.31344513       0.84466472      -0.50421214
Sb      12.92828205       0.10250503      26.76105320       0.70777345       0.70682826      -0.66649466
Sb      -2.01282146       3.80219006      26.90210288       0.86423414       1.01777963       0.71047007
Sb       8.61373228       0.10201510      20.56794556       0.06444526       0.87292636      -0.32184332
Sb      10.74075583       3.76088668      20.56846699      -0.13135323       0.21514349      -0.27329412
Sb      12.90161973       0.10750212      20.53964476       0.13026844       0.74383143      -0.55238967
Sb       6.48294081       3.83498582      20.60977969      -0.03220838       0.76401264       0.22070972
Sb      10.73506211       1.23261308      30.78516446      -0.17777693      -0.04058351       0.29907613
Sb      12.78327130       4.95103642      30.68685210      -0.93380606      -0.14650786      -0.57179396
Sb      14.90400537       1.24181197      30.75353374      -1.05304131      -0.02948050       0.03046319
Sb       8.58582388       5.00390249      30.65351878      -0.34979614       0.27390864      -0.48211263
Cr       2.46480655       3.52858454      24.35719115      -0.92592944       0.48901261      -1.41858349
81
Properties=species:S:1:pos:R:3:forces:R:3 energy=-272.7183218628314 mlff_rel_energy_eV=-5.069183154238715 mlff_fmax_eV_A=1.522189161568148 calculator_label=/data/pclancy3/yi/flare-data/1-Cr-Sb2Te3/3.fine-tuning/2-layer/MACE-omat/MACE-matpes-pbe-omat-ft.model neb_image=3 neb_protocol=mlff_pre_neb pbc="F F F"
Te      12.80919513       7.38548930      15.04352846      -0.55632786      -0.40432166       0.46706177
Te       2.14859406       3.73068599      15.02323703      -0.34562430       0.09168804       0.20070295
Te      -0.01447593       7.37817513      15.05275521      -0.41876964      -0.28463029       0.31257071
Te      14.93584987       3.69293402      15.05667808      -0.69609112      -0.34224630       0.57670357
Te       0.12282978       2.53984050      22.30235088       0.50909920       0.27114357       0.20158572
Te       2.20866789       6.14101693      22.28384490       0.16252355      -0.57909042       0.03318589
Te       4.28742148       2.46898170      22.37149742       0.16924185      -0.58828300      -0.10393286
Te      -2.03634248       6.14845685      22.29511727       0.56388657      -0.30361785       0.37207833
Te       2.14536442       0.78277707      25.05205831      -0.03513986      -0.49991832       0.40771467
Te       4.59039294       5.13801461      25.00755653       0.02236839       0.18688726      -0.14435998
Te       6.41724710       1.20771308      25.14868469       0.01186874      -0.60634372       0.12240323
Te       0.10571510       4.87109271      25.06647339      -0.44558895      -0.31677622      -0.35886431
Te       2.18945249       1.24197041      18.62418930       0.02078663      -0.28621689      -0.11617695
Te       4.33114359       4.92646929      18.61236844      -0.00175206      -0.45713883      -0.19210112
Te       6.44794289       1.18205370      18.68829836      -0.17174587      -0.94767419       0.59228830
Te      -0.01643923       4.95089585      18.58498459      -0.76478447      -0.36673773      -0.51366755
Te       0.09097079       0.06410197      32.38698579       0.55861046       0.40530333      -0.45933484
Te       2.18711582       3.69046496      32.42006885       0.05125217      -0.29504508      -0.26248707
Te       4.32892361       0.04827521      32.40636337       0.06454724       0.08799469      -0.16882275
Te      -2.02995129       3.75111603      32.38260243       0.69569442       0.24827013      -0.53825654
Te      -0.02665966       2.42953414      28.75438978      -0.48289458      -0.34773447      -0.61427376
Te       2.21697675       6.21370061      28.82656790       0.13048941      -0.53628174      -0.28687535
Te       4.35294997       2.47848093      28.83053029      -0.04259705      -0.21033343      -0.35318788
Te      -2.06933917       6.10063799      28.72995593       0.09874849      -0.96383213      -0.63586352
Sb       0.10904519       2.55510482      16.72382880       0.58455651       0.78739394       0.56842552
Sb       2.20535043       6.22178334      16.64153024       0.19153001       0.12688717      -0.33368870
Sb       4.31630355       2.52824881      16.72817647      -0.17501254       0.37524171       0.64190547
Sb      -1.96148931       6.21057900      16.66007376       0.99629556      -0.02686112      -0.08765607
Sb       0.02027038       0.05002926      26.86048032       0.37956501       0.58797923       0.13273014
Sb       2.11712606       3.84597660      27.14672331      -0.00813436       0.82031633       0.55135490
Sb       4.36518175       0.02211055      26.87038963      -0.07212874       0.63344260      -0.08412335
Sb       6.50878590       3.81348530      26.83881406       0.04652471       0.79792575       0.11239165
Sb      12.82166332       7.35979557      20.59648730      -0.61014630      -0.77906977       0.10195376
Sb       2.13304231       3.75924059      20.66531536      -0.47813044       0.25325201       0.71584561
Sb       4.31563839       0.08047323      20.56644061       0.00206147       0.91107474      -0.25779850
Sb      14.97402394       3.68843246      20.53269043      -0.56629237      -0.38934643      -0.64048569
Sb       2.15081732       1.19697190      30.88623453      -0.31139672      -0.40459795       1.01309296
Sb       4.35322879       4.99099911      30.74880772      -0.19813741       0.17013741      -0.39836574
Sb       6.46196168       1.23674186      30.84666091       0.04873249      -0.10087885       0.68854607
Sb      -0.05529018       4.95300054      30.76449317      -0.88830687      -0.17911995       0.29742310
Te       4.32768366       7.40116875      15.02095502      -0.03793847      -0.20438085       0.12745076
Te      10.72006399       3.74311956      15.02726086      -0.10822764       0.14103870       0.25006171
Te       8.60734234       7.39383324      15.03780708      -0.01607008      -0.15572244       0.19617271
Te       6.47193534       3.74782305      15.00582716       0.11515839       0.26353302       0.09002289
Te       8.61066206       2.44841690      22.29617686       0.03774806      -0.46568748       0.23749388
Te      10.82825528       6.23418021      22.24094638       0.56706180       0.27876746      -0.25191413
Te      12.93508328       2.47807476      22.29111113       0.37840848      -0.20173895       0.19642049
Te       6.49682257       6.15680728      22.26711117      -0.10396928      -0.56599831       0.00271588
Te      10.70783191       1.19874914      25.15913653      -0.19452137      -0.52251040       0.16465384
Te      12.81157177       4.90953756      25.15206521      -0.51069055      -0.29349770       0.08453641
Te      14.90953630       1.21026076      25.19224135      -0.84239740      -0.45907353       0.61697500
Te       8.61771468       4.92957601      25.14579741       0.00070562      -0.17756779       0.06453043
Te      10.73764757       1.18975437      18.68464229      -0.02660876      -0.83342979       0.66259839
Te      12.93133480       4.96313929      18.67904315       0.61180359       0.04935311       0.54909084
Te      15.00217568       1.27397103      18.70026307      -0.20328464       0.16168515       0.96077690
Te       8.59193211       4.91272118      18.64883515      -0.00638576      -0.55023665       0.12899429
Te       8.65510397       0.09171287      32.44006889      -0.02708462       0.11687948      -0.10593733
Te      10.79670510       3.72821676      32.38729618       0.42104447      -0.24527770      -0.18630730
Te      12.92164517       0.06358163      32.34705959       0.52439849       0.20638091      -0.29951164
Te       6.49578040       3.71232520      32.44138453       0.05105478      -0.49957954      -0.17016550
Te       8.59006729       2.49596051      28.78526507       0.07517308      -0.19250772      -0.02920517
Te      10.77093341       6.14733167      28.83522421       0.54727602      -0.27834628       0.39246828
Te      12.96485560       2.47683377      28.80348639       0.82271831      -0.10636048       0.41060696
Te       6.46144321       6.15834015      28.79529855       0.15825102      -0.30950645       0.06021777
Sb       8.60562920       2.54957724      16.69205499       0.03816492       0.76766734       0.07734516
Sb      10.78331094       6.26485026      16.57544605       0.26896743       0.53533148      -1.04143048
Sb      12.96653824       2.54982752      16.62116425       0.80554815       0.55094734      -0.68035367
Sb       6.46589989       6.22542734      16.61261407      -0.04669385       0.16564425      -0.57776912
Sb       8.58165500       0.11952681      26.83864293       0.00177351       0.52950435      -0.18114491
Sb      10.78027529       3.82225149      26.77126210       0.30063265       0.82881703      -0.47051445
Sb      12.92762928       0.10414514      26.75911362       0.69978919       0.70136478      -0.65663884
Sb      -2.01771432       3.81050599      26.89757737       0.86133887       1.06667319       0.66133464
Sb       8.60840479       0.10557511      20.56325148       0.08626756       0.86540821      -0.31558452
Sb      10.74517878       3.76348044      20.55985153      -0.12635481       0.21440366      -0.27548156
Sb      12.90255202       0.10715480      20.53242215       0.12262072       0.74221774      -0.54420643
Sb       6.48547368       3.83074798      20.59948275       0.00624610       0.78259636       0.18985645
Sb      10.73144220       1.22784585      30.79288255      -0.17901503      -0.02352944       0.28472858
Sb      12.77923085       4.94869248      30.69118788      -0.93987592      -0.15560817      -0.56784037
Sb      14.90271822       1.23944047      30.75260135      -1.04593372      -0.01691830       0.01510065
Sb       8.58395096       5.00500841      30.64522243      -0.35603385       0.29343875      -0.46580132
Cr       2.79241928       3.34144797      24.60536908      -0.77044686       0.45698408      -1.16398797
81
Properties=species:S:1:pos:R:3:forces:R:3 energy=-272.35823374292625 mlff_rel_energy_eV=-4.709095034333586 mlff_fmax_eV_A=1.497325383840467 calculator_label=/data/pclancy3/yi/flare-data/1-Cr-Sb2Te3/3.fine-tuning/2-layer/MACE-omat/MACE-matpes-pbe-omat-ft.model neb_image=4 neb_protocol=mlff_pre_neb pbc="F F F"
Te      12.80501981       7.38939177      15.03910399      -0.54239055      -0.39738523       0.45764235
Te       2.15050727       3.73206054      15.02180201      -0.34838766       0.08756933       0.20085763
Te      -0.01294470       7.37961772      15.04980948      -0.41967878      -0.28846710       0.31921158
Te      14.93762408       3.69374288      15.05355022      -0.69640415      -0.34385493       0.57734215
Te       0.10917520       2.53626151      22.27830991       0.39535376       0.28483366       0.01872565
Te       2.20835234       6.15041033      22.26986742       0.12399333      -0.47691311      -0.10445108
Te       4.28220336       2.47185415      22.35382467       0.17615173      -0.60340733      -0.20472222
Te      -2.03391344       6.14706848      22.28862717       0.55455435      -0.30528115       0.36957862
Te       2.07663519       0.72510247      25.00865288      -0.17255781      -0.58464900       0.31776470
Te       4.61267471       5.20552319      24.98342946       0.09577206       0.43174323      -0.19549151
Te       6.38671135       1.22382381      25.14722461      -0.04302697      -0.57370286       0.13494061
Te       0.05359500       4.90412672      25.11942878      -0.52947668      -0.30893251      -0.37607161
Te       2.19202104       1.24155868      18.62071389       0.02059997      -0.28303982      -0.12669906
Te       4.33265999       4.92723109      18.61044538       0.00297958      -0.46141406      -0.19783365
Te       6.44895921       1.18268781      18.68801809      -0.17135995      -0.93987181       0.58832638
Te      -0.02161634       4.95540775      18.57552966      -0.76550501      -0.36922102      -0.49368382
Te       0.08547854       0.06245289      32.38831710       0.57471479       0.41718801      -0.46501574
Te       2.18378117       3.69211433      32.42529666       0.05787441      -0.29741877      -0.26753949
Te       4.32755753       0.04430147      32.41141567       0.06593881       0.08670207      -0.16741827
Te      -2.03080880       3.74857496      32.38372430       0.69764554       0.24721548      -0.53883797
Te      -0.02710786       2.42168072      28.75944953      -0.46161984      -0.37071716      -0.58541980
Te       2.21370043       6.22337768      28.82622939       0.14305932      -0.55896034      -0.30134413
Te       4.35642919       2.48396673      28.85318767      -0.05722695      -0.15271401      -0.38060198
Te      -2.07623533       6.10256422      28.73724964       0.07995442      -0.93359769      -0.56609438
Sb       0.10969060       2.55526221      16.72213109       0.59314220       0.77854513       0.57981205
Sb       2.20432269       6.22148977      16.64033651       0.19895232       0.13662560      -0.33060882
Sb       4.31611065       2.52808770      16.72675508      -0.17535147       0.37811753       0.64442695
Sb      -1.95779637       6.20961318      16.66351710       0.98793709      -0.01193406      -0.10865653
Sb      -0.00018881       0.04516960      26.86886462       0.32312181       0.55853551       0.17054412
Sb       2.04212466       3.88529474      27.11185544      -0.12259739       0.84141937       0.51411459
Sb       4.33740630       0.04514281      26.87106613      -0.14023383       0.69836458      -0.17473641
Sb       6.49248177       3.82070201      26.83506413       0.07141250       0.84027961       0.12594279
Sb      12.82167553       7.36322876      20.59305091      -0.61369785      -0.78354097       0.10194048
Sb       2.12793896       3.76131083      20.67071371      -0.56580768       0.27573027       0.82088591
Sb       4.32262489       0.08119787      20.56441990       0.00444858       0.85048381      -0.27652579
Sb      14.97899463       3.68360478      20.52871533      -0.57270475      -0.37965728      -0.63310206
Sb       2.15483118       1.19721037      30.88932251      -0.34441193      -0.41214240       1.03692295
Sb       4.35162178       4.98833729      30.75653840      -0.20178675       0.16622678      -0.41399229
Sb       6.45841409       1.24019305      30.84686467       0.03209479      -0.10668025       0.68861736
Sb      -0.05760799       4.95458987      30.76604829      -0.90529071      -0.17522816       0.27883718
Te       4.33025956       7.40178475      15.01994678      -0.04669226      -0.20669107       0.13010793
Te      10.72202755       3.74382090      15.02472033      -0.10839429       0.13196450       0.24492961
Te       8.60989746       7.39466329      15.03571265      -0.02220977      -0.15429768       0.19330834
Te       6.47390494       3.74888391      15.00440692       0.11728089       0.26288305       0.08853250
Te       8.61142470       2.44949029      22.29427242       0.03743525      -0.46487608       0.23976128
Te      10.82954884       6.23507532      22.23777725       0.56838175       0.28018672      -0.25494896
Te      12.93613948       2.47744340      22.28858542       0.37878426      -0.20492565       0.19302266
Te       6.49835792       6.15821666      22.26434789      -0.10842682      -0.55476860      -0.00200703
Te      10.70639215       1.20079516      25.16123345      -0.20225353      -0.53451809       0.17021385
Te      12.80503739       4.90582550      25.15383452      -0.48500370      -0.27817289       0.07162624
Te      14.90865022       1.20944962      25.19279493      -0.83653208      -0.45733852       0.61210992
Te       8.61804671       4.92702193      25.14765336      -0.01343114      -0.19331652       0.07327691
Te      10.73948844       1.19050237      18.68201688      -0.02881953      -0.83611704       0.66425949
Te      12.93531549       4.96367779      18.67763972       0.60722702       0.05323398       0.55054919
Te      15.00487044       1.27665092      18.69951890      -0.19890552       0.15148924       0.95143322
Te       8.59347990       4.91369147      18.64969043      -0.01171641      -0.54923951       0.12692560
Te       8.67098671       0.08801308      32.45565574      -0.04875299       0.14204711      -0.13042263
Te      10.79250241       3.72803826      32.38587295       0.42436351      -0.24122890      -0.18368426
Te      12.91796839       0.06109249      32.34311064       0.52615333       0.20299690      -0.29269744
Te       6.49311063       3.71620990      32.44549760       0.06310937      -0.50333228      -0.15957182
Te       8.57798026       2.49648301      28.77954480       0.06064991      -0.17406676      -0.04525697
Te      10.76884099       6.14521681      28.83593003       0.54539165      -0.27490051       0.39418429
Te      12.96171228       2.47533958      28.80546191       0.83187045      -0.10599293       0.40622453
Te       6.46149498       6.15942310      28.79636440       0.15889668      -0.29281393       0.08306195
Sb       8.60797094       2.55150548      16.68931960       0.03682783       0.76892964       0.07748762
Sb      10.78492020       6.26492136      16.56995436       0.26179393       0.53374625      -1.01812687
Sb      12.96814758       2.55246856      16.61979148       0.80611009       0.55242855      -0.68208872
Sb       6.46620894       6.22604813      16.61113383      -0.04965672       0.16175922      -0.57087917
Sb       8.58352682       0.12654475      26.85014221       0.01821253       0.51404341      -0.21439616
Sb      10.77829832       3.82100042      26.76866335       0.28525285       0.82367475      -0.44496581
Sb      12.92652953       0.10452808      26.75735798       0.69594646       0.70007374      -0.64983012
Sb      -2.02770777       3.82204544      26.89578024       0.80271256       1.08893744       0.64175626
Sb       8.60754123       0.10645517      20.56252548       0.09850564       0.86250982      -0.31280066
Sb      10.74655089       3.76433205      20.55678108      -0.11986502       0.21302906      -0.27483163
Sb      12.90412770       0.10705166      20.52921241       0.11791079       0.74341179      -0.54030962
Sb       6.48630994       3.82926379      20.59544150       0.04877696       0.79101356       0.16408240
Sb      10.72705346       1.22546923      30.79929690      -0.17881713      -0.03116950       0.29075222
Sb      12.77837184       4.94684811      30.69112614      -0.94756849      -0.16088919      -0.56800932
Sb      14.90157115       1.23890255      30.75260312      -1.05219829      -0.01335073       0.00764098
Sb       8.58081499       5.00699223      30.64405896      -0.35077516       0.30467900      -0.45808791
Cr       3.20254895       3.10959669      24.81121159      -0.03175954      -0.01188030      -0.60991933
81
Properties=species:S:1:pos:R:3:forces:R:3 energy=-272.417386874489 mlff_rel_energy_eV=-4.7682481658963525 mlff_fmax_eV_A=1.492411266979137 calculator_label=/data/pclancy3/yi/flare-data/1-Cr-Sb2Te3/3.fine-tuning/2-layer/MACE-omat/MACE-matpes-pbe-omat-ft.model neb_image=5 neb_protocol=mlff_pre_neb pbc="F F F"
Te      12.80600595       7.38823142      15.04037969      -0.53702103      -0.39349403       0.45348490
Te       2.15163968       3.73158037      15.02187079      -0.35369250       0.08573605       0.20323658
Te      -0.01208309       7.37981097      15.04913787      -0.41798863      -0.28915759       0.31903977
Te      14.93899799       3.69356735      15.05232752      -0.70047324      -0.34531193       0.58054141
Te       0.10217989       2.52890852      22.27554255       0.35524728       0.21143698      -0.03601998
Te       2.20928761       6.15628609      22.27239568       0.13498539      -0.42527790      -0.10722983
Te       4.27765971       2.47037344      22.37251865       0.11217472      -0.58877761      -0.23146225
Te      -2.03588615       6.14265473      22.28457262       0.53892862      -0.29911753       0.34864541
Te       1.97003712       0.79893598      24.90176760      -0.40876464      -0.55244647       0.14668268
Te       4.53774151       5.23717993      24.91040996       0.09088190       0.37589947      -0.19581883
Te       6.38719058       1.22477604      25.14758801       0.02436101      -0.57395649       0.09495916
Te       0.01269584       4.92910761      25.14474888      -0.58338716      -0.23485937      -0.37398441
Te       2.19405646       1.24066096      18.62201075       0.02815228      -0.27221530      -0.12074185
Te       4.33278633       4.92631670      18.61083023       0.00304501      -0.46848780      -0.19832683
Te       6.44982544       1.18230121      18.68813030      -0.16843580      -0.93240645       0.58840167
Te      -0.01915835       4.95729450      18.57780482      -0.79064505      -0.35841123      -0.51109908
Te       0.08797695       0.06309584      32.38649484       0.55950108       0.40739278      -0.45240061
Te       2.18394337       3.69391306      32.42731472       0.05852701      -0.30027050      -0.26825225
Te       4.32857974       0.04090628      32.41375591       0.05897871       0.08508176      -0.16201722
Te      -2.02986078       3.74609517      32.38395011       0.69412341       0.24419346      -0.53618169
Te      -0.01711428       2.42704940      28.75123443      -0.42156243      -0.35716793      -0.60407319
Te       2.21541093       6.21246347      28.81770672       0.15996735      -0.58945320      -0.29764438
Te       4.35996969       2.48723921      28.86685806      -0.06485526      -0.08586492      -0.39140694
Te      -2.07793073       6.10727641      28.73697015       0.07445870      -0.92590163      -0.53684514
Sb       0.10852336       2.55557624      16.72242582       0.60114291       0.78081407       0.58210426
Sb       2.20519244       6.22096719      16.64023955       0.20183075       0.13708131      -0.33051891
Sb       4.31696454       2.52836815      16.72608600      -0.17466771       0.37656164       0.65158948
Sb      -1.95716888       6.20927158      16.66208600       0.99869595      -0.01903875      -0.09445570
Sb       0.01166791       0.04855473      26.86576864       0.38405574       0.57220430       0.12481475
Sb       2.01496146       3.89935594      27.04593124      -0.15755123       0.85251376       0.45900326
Sb       4.31345604       0.10203831      26.86388375      -0.28595452       0.76602800      -0.29697356
Sb       6.46072028       3.81496850      26.83140428       0.10703296       0.97539559       0.08550167
Sb      12.82125750       7.36291065      20.59120928      -0.61624939      -0.78298848       0.10528919
Sb       2.12836026       3.75896356      20.68142884      -0.55919365       0.25599087       0.84169814
Sb       4.32372645       0.08674784      20.57032037       0.01544349       0.87263603      -0.24649679
Sb      14.98032297       3.68314145      20.52881986      -0.57413342      -0.38145306      -0.63700378
Sb       2.15559333       1.19481804      30.89304240      -0.34704793      -0.39935118       1.04260315
Sb       4.35000005       4.99316620      30.76364737      -0.20805598       0.18308820      -0.41001042
Sb       6.45862154       1.24680342      30.85295079       0.02727676      -0.13237217       0.68014125
Sb      -0.05791476       4.95435318      30.76865254      -0.89200694      -0.16598929       0.24459542
Te       4.33150771       7.40244953      15.01935564      -0.05107466      -0.20687577       0.13111125
Te      10.72149652       3.74308784      15.02421551      -0.10683457       0.13738070       0.24629139
Te       8.61047581       7.39330477      15.03480233      -0.02218501      -0.15145980       0.19041616
Te       6.47309407       3.74923782      15.00339362       0.11933718       0.26181500       0.08955726
Te       8.61403092       2.45004118      22.29453691       0.05422977      -0.46171145       0.24141323
Te      10.82963196       6.23455076      22.23802340       0.56986635       0.27801626      -0.25190923
Te      12.93660815       2.47726799      22.28850209       0.38045255      -0.20713197       0.19282310
Te       6.50246106       6.16054468      22.26548679      -0.10893744      -0.55255392       0.02663820
Te      10.70522374       1.20078334      25.16214550      -0.19248752      -0.52905131       0.17182649
Te      12.80422567       4.90575204      25.15424280      -0.49867220      -0.28252226       0.07512280
Te      14.90671466       1.20921061      25.19327066      -0.83176359      -0.45598292       0.60797865
Te       8.60358754       4.92654713      25.14476651      -0.03254008      -0.21754891       0.08044628
Te      10.73983473       1.19160668      18.68051943      -0.02703984      -0.83764568       0.66581878
Te      12.93677964       4.96330929      18.67758731       0.60623045       0.05363283       0.55018636
Te      15.00482050       1.27630738      18.69529777      -0.19933632       0.15312113       0.96040924
Te       8.59192041       4.91224971      18.65249012      -0.00198690      -0.54465035       0.11540456
Te       8.68320156       0.07953844      32.46145618      -0.06166239       0.16570754      -0.15209116
Te      10.79297681       3.72340281      32.38641507       0.41227103      -0.22972295      -0.19012567
Te      12.91805507       0.06128497      32.34312399       0.49387869       0.18963569      -0.27786018
Te       6.49490899       3.71479944      32.44829044       0.06753531      -0.47707591      -0.14537760
Te       8.57042211       2.49539337      28.77637069       0.01530646      -0.15400791      -0.09847160
Te      10.76962274       6.14473609      28.83767790       0.53746680      -0.26492789       0.38381918
Te      12.95883590       2.47570496      28.80610219       0.83109424      -0.10818827       0.39566823
Te       6.46521097       6.15515511      28.79897754       0.11575975      -0.28126966       0.06787359
Sb       8.60908728       2.55146014      16.68790810       0.03231651       0.76902652       0.08190263
Sb      10.78559406       6.26625633      16.56912034       0.25529962       0.52207550      -1.01044384
Sb      12.96902184       2.55228566      16.61974662       0.80854130       0.55248055      -0.68653771
Sb       6.46552235       6.22563056      16.61078939      -0.04986071       0.15833643      -0.56383224
Sb       8.60002386       0.11649744      26.85187370       0.07171337       0.49639839      -0.19333199
Sb      10.77132711       3.82202704      26.76771802       0.27344728       0.83585075      -0.46724300
Sb      12.92632136       0.10316108      26.75603732       0.69233788       0.70087200      -0.64188056
Sb      -2.03450453       3.83026047      26.89562119       0.77061631       1.08495442       0.67551150
Sb       8.60840215       0.10697223      20.56146435       0.09659984       0.86307969      -0.31509781
Sb      10.74795718       3.76431681      20.55624794      -0.12374784       0.21662639      -0.28001863
Sb      12.90480659       0.10727776      20.52932143       0.11853533       0.74377735      -0.54441947
Sb       6.48654039       3.82633465      20.59934355       0.00668880       0.74758590       0.17740933
Sb      10.72413180       1.22686489      30.79776973      -0.17418118      -0.05122238       0.30909685
Sb      12.77518138       4.94430626      30.69094146      -0.93639022      -0.16497784      -0.55938138
Sb      14.89639604       1.23610902      30.75862504      -1.02309063       0.00434496      -0.01716144
Sb       8.57849560       5.00866401      30.63668134      -0.33862747       0.28281926      -0.43274276
Cr       3.51129790       2.92034127      25.02172673       0.48376922      -0.34729361      -0.12216733
81
Properties=species:S:1:pos:R:3:forces:R:3 energy=-272.6425759960106 mlff_rel_energy_eV=-4.993437287417919 mlff_fmax_eV_A=1.4750911890648735 calculator_label=/data/pclancy3/yi/flare-data/1-Cr-Sb2Te3/3.fine-tuning/2-layer/MACE-omat/MACE-matpes-pbe-omat-ft.model neb_image=6 neb_protocol=mlff_pre_neb pbc="F F F"
Te      12.81236426       7.38527886      15.04114559      -0.53800814      -0.39332523       0.45365888
Te       2.15165044       3.73242218      15.02006205      -0.34636355       0.08884530       0.20173329
Te      -0.01036843       7.38042276      15.04893312      -0.41730852      -0.28539607       0.31392140
Te      14.94135591       3.69597797      15.04986535      -0.70450007      -0.34659059       0.58399788
Te       0.10362163       2.52617098      22.28289297       0.39836944       0.12516932       0.05739147
Te       2.21372235       6.15630179      22.27836356       0.17155781      -0.46489230      -0.02463144
Te       4.29578204       2.45747275      22.37314527       0.03511577      -0.58362633      -0.05960549
Te      -2.03461675       6.14453424      22.28698648       0.55041086      -0.30715079       0.38837638
Te       1.92650262       0.93040698      24.84403673      -0.64352766      -0.35736278      -0.02949886
Te       4.45203847       5.16322408      24.90309815      -0.02950998       0.23103922      -0.18760139
Te       6.39401272       1.22114015      25.13265774       0.04430612      -0.55384764       0.00974562
Te      -0.04077704       4.95922005      25.13377730      -0.64013301      -0.15715535      -0.41999638
Te       2.19340385       1.24103324      18.61810157       0.02584906      -0.26385477      -0.13292798
Te       4.33487924       4.92736935      18.60807834       0.00419836      -0.47023419      -0.20203575
Te       6.45357982       1.18312751      18.68230979      -0.15010008      -0.94107047       0.56284855
Te      -0.01665292       4.95539677      18.57869149      -0.80864988      -0.34421159      -0.52968717
Te       0.09035303       0.06381846      32.38552850       0.53872073       0.39702260      -0.44695021
Te       2.18531657       3.69227105      32.42861061       0.05183509      -0.29696974      -0.26886382
Te       4.32703586       0.04272403      32.41485026       0.06807094       0.09814914      -0.18001319
Te      -2.03071893       3.74392185      32.38695911       0.69335823       0.24577924      -0.53288367
Te      -0.02651408       2.42474906      28.76068153      -0.39718435      -0.33681776      -0.64722040
Te       2.22914344       6.21223589      28.83957582       0.12735459      -0.56711479      -0.30928006
Te       4.34385868       2.49470647      28.81967290      -0.06063266      -0.09728358      -0.35791359
Te      -2.07826168       6.10902264      28.73493056       0.07478719      -0.91932084      -0.52236579
Sb       0.11219921       2.55675313      16.72337668       0.59755756       0.77339926       0.58158325
Sb       2.20810962       6.22135983      16.63876875       0.19980184       0.13127411      -0.32843577
Sb       4.31977944       2.52985403      16.72534189      -0.17527318       0.37510834       0.65801964
Sb      -1.95700163       6.21042128      16.65817907       1.00885913      -0.02892999      -0.07583057
Sb       0.03606231       0.05470368      26.84458054       0.44552778       0.61519729       0.07901274
Sb       1.96448795       3.92616369      27.02040936      -0.13004037       0.81772982       0.33388449
Sb       4.30455120       0.11871434      26.85630119      -0.22474351       0.70730719      -0.21572711
Sb       6.46707337       3.82404849      26.82676104       0.13041345       0.97140683       0.08772931
Sb      12.82450767       7.35978241      20.59078020      -0.61830723      -0.78010952       0.10914456
Sb       2.13749660       3.75646685      20.68201536      -0.47351169       0.20751251       0.86484657
Sb       4.32722929       0.09553631      20.57024087       0.04452939       0.92777903      -0.20937597
Sb      14.98013900       3.68867626      20.52960845      -0.57793728      -0.39130765      -0.64352880
Sb       2.14785426       1.19552749      30.89410566      -0.30067794      -0.38135002       1.02636151
Sb       4.34382248       4.99533526      30.75923979      -0.17995497       0.17053691      -0.37511302
Sb       6.46646895       1.24279392      30.85948521      -0.04078625      -0.06905734       0.64683709
Sb      -0.05849176       4.95039276      30.77063876      -0.89479212      -0.17655232       0.23365853
Te       4.33031602       7.40357634      15.01705174      -0.04447232      -0.20706912       0.13196951
Te      10.72293093       3.74439880      15.02282215      -0.10074126       0.14545107       0.24653108
Te       8.61082472       7.39347062      15.03253468      -0.01473272      -0.15143076       0.19149594
Te       6.47310335       3.74948725      15.00101348       0.12012103       0.26556423       0.09070856
Te       8.61755608       2.45051375      22.29418392       0.06054683      -0.45648074       0.23997754
Te      10.83042286       6.23441730      22.23879836       0.57468089       0.27421988      -0.25076266
Te      12.93703770       2.47884813      22.28725198       0.37964812      -0.20596714       0.19642709
Te       6.50482635       6.15853955      22.26296689      -0.07518040      -0.57143506      -0.00401216
Te      10.70268308       1.19300230      25.16144398      -0.18375414      -0.52863319       0.18553187
Te      12.80425739       4.90798022      25.15001404      -0.52402938      -0.29910534       0.08369960
Te      14.90316366       1.21079375      25.19193714      -0.83396645      -0.45537296       0.61207774
Te       8.60314926       4.93205094      25.13157777      -0.00865486      -0.20072968       0.04310628
Te      10.74136604       1.19414213      18.67728751      -0.02396736      -0.83745419       0.67060270
Te      12.93633514       4.96480363      18.67459696       0.61263304       0.04635517       0.55543410
Te      15.00252838       1.27567819      18.69337479      -0.19750194       0.16071355       0.96919330
Te       8.59433173       4.91350108      18.64556246       0.02264483      -0.54449558       0.10167998
Te       8.65846751       0.08629968      32.44431092       0.00959146       0.13191520      -0.11972378
Te      10.79404969       3.72002279      32.39024780       0.39756949      -0.21909787      -0.19599824
Te      12.91477874       0.05617110      32.34560106       0.51130003       0.20107890      -0.29214685
Te       6.50376145       3.71828200      32.44903155       0.05432760      -0.48763461      -0.16807850
Te       8.58143726       2.48281379      28.77673993       0.01605701      -0.17784765      -0.10907321
Te      10.77650814       6.14488490      28.83314059       0.52474179      -0.27036961       0.39354105
Te      12.95598583       2.47359411      28.80757307       0.82488636      -0.10328239       0.37881089
Te       6.46547352       6.15433360      28.79674213       0.09325852      -0.27776495       0.05454012
Sb       8.61147767       2.55221661      16.68665013       0.02897419       0.77242802       0.08710482
Sb      10.78820076       6.26837837      16.56993825       0.24582089       0.51657411      -1.02012589
Sb      12.97169189       2.55017938      16.61631489       0.80797984       0.55496742      -0.68899192
Sb       6.46741171       6.22619598      16.60923240      -0.05077061       0.15598127      -0.56724868
Sb       8.61298871       0.09084369      26.84469904       0.11422745       0.54547782      -0.13204246
Sb      10.76433826       3.82315888      26.76923564       0.28352777       0.84798587      -0.50412102
Sb      12.92608788       0.10123153      26.75660699       0.68881848       0.70071503      -0.64442841
Sb      -2.04098646       3.83567859      26.89477153       0.73567547       1.07109792       0.69815820
Sb       8.61297526       0.10826299      20.56147086       0.08521788       0.86679301      -0.32449940
Sb      10.74898886       3.76464659      20.55502675      -0.13132291       0.22292322      -0.28890886
Sb      12.90518432       0.10742258      20.53098620       0.12035334       0.74703937      -0.55098704
Sb       6.48668711       3.82468668      20.60023594      -0.03851091       0.73142685       0.22226463
Sb      10.73320183       1.23648860      30.78581760      -0.21486321      -0.07633479       0.31253680
Sb      12.77025643       4.94516261      30.69376055      -0.91521769      -0.15125786      -0.56000287
Sb      14.89295507       1.23587564      30.75926276      -1.02132317      -0.01336239       0.00554536
Sb       8.57627602       5.00436135      30.63692986      -0.33104670       0.26285191      -0.43732582
Cr       3.75835692       2.73364881      25.37604314       0.53877284      -0.35615838      -0.10572413
81
Properties=species:S:1:pos:R:3:forces:R:3 energy=-272.7548217872163 mlff_rel_energy_eV=-5.105683078623656 mlff_fmax_eV_A=1.48000928128207 calculator_label=/data/pclancy3/yi/flare-data/1-Cr-Sb2Te3/3.fine-tuning/2-layer/MACE-omat/MACE-matpes-pbe-omat-ft.model neb_image=7 neb_protocol=mlff_pre_neb pbc="F F F"
Te      12.82336324       7.38465029      15.03796330      -0.56681161      -0.40916520       0.47006090
Te       2.15372049       3.73347820      15.01542126      -0.32986419       0.10021537       0.19588787
Te      -0.00624402       7.38198694      15.04718260      -0.42522857      -0.28052494       0.30948449
Te      14.94371272       3.69429253      15.04685155      -0.69475003      -0.33832921       0.57536842
Te       0.11225963       2.53120807      22.28814328       0.48418571       0.11701850       0.13750045
Te       2.22157561       6.15474610      22.27620095       0.18543317      -0.53605451      -0.03255407
Te       4.33664291       2.44819595      22.28558733      -0.01171606      -0.54250809      -0.04922085
Te      -2.02615129       6.15599516      22.29671126       0.58526891      -0.33109026       0.46224273
Te       1.96898740       1.03946349      24.86899321      -0.52781563      -0.23731362      -0.00877415
Te       4.41525107       5.01168249      24.98447300      -0.16771807      -0.05807443      -0.24886003
Te       6.39037147       1.22898131      25.11281936       0.00431123      -0.54192034       0.02584583
Te      -0.06995226       4.96247176      25.09427113      -0.67113886      -0.11778929      -0.52497442
Te       2.19335972       1.24206372      18.61019959      -0.01692589      -0.26289979      -0.16693190
Te       4.33868828       4.93078305      18.60368535      -0.00036021      -0.46063073      -0.21321967
Te       6.46252228       1.18496509      18.66858206      -0.08264545      -0.95811836       0.48564388
Te      -0.01610365       4.94543306      18.57056398      -0.82793151      -0.31026454      -0.53179133
Te       0.08571484       0.06102255      32.39456835       0.55537204       0.40437467      -0.47721962
Te       2.18197985       3.69026296      32.43173201       0.06260748      -0.29490226      -0.29065546
Te       4.32524677       0.04553584      32.40842677       0.08589794       0.12355044      -0.20507544
Te      -2.03320550       3.74400349      32.38699641       0.68867102       0.24448334      -0.52485159
Te      -0.02976676       2.42774722      28.76020590      -0.46467089      -0.35767882      -0.61736702
Te       2.24615022       6.20799491      28.87370328       0.04359079      -0.43691098      -0.30390864
Te       4.32493492       2.49891217      28.76753190      -0.05541283      -0.27590540      -0.38108982
Te      -2.07779612       6.11521291      28.72922338       0.08756363      -0.94533637      -0.53185710
Sb       0.11783351       2.56288055      16.72296826       0.59169541       0.73478221       0.57245907
Sb       2.21044369       6.22174104      16.63528409       0.20882463       0.12628474      -0.33322484
Sb       4.32232457       2.53033981      16.72396105      -0.16975173       0.37953372       0.66147986
Sb      -1.95745758       6.21452155      16.65234834       1.01364402      -0.03347431      -0.07218657
Sb       0.04349138       0.06351846      26.81714906       0.46051457       0.66415971       0.05266300
Sb       1.90782847       3.96528108      27.03758141      -0.19743363       0.82262386       0.20508518
Sb       4.32899617       0.07035300      26.87745707      -0.10516640       0.40537334      -0.04872789
Sb       6.49428708       3.84300717      26.80777073       0.17576326       0.91534282       0.09668999
Sb      12.82956828       7.35833681      20.58895819      -0.61305316      -0.77288326       0.10679698
Sb       2.14520726       3.76110185      20.66456721      -0.46311217       0.22418523       0.85240702
Sb       4.33621437       0.10929377      20.55957879       0.06913254       0.90782102      -0.26117878
Sb      14.98311217       3.69477982      20.52606583      -0.58981667      -0.40142077      -0.63565077
Sb       2.13264075       1.19528884      30.89358092      -0.30942541      -0.38830391       1.06196391
Sb       4.33524772       5.00423849      30.74829406      -0.11632190       0.17883390      -0.30731897
Sb       6.48533818       1.23286723      30.86676093      -0.05175957      -0.05542000       0.63637128
Sb      -0.06042457       4.94712743      30.77751805      -0.91983079      -0.18698348       0.24581960
Te       4.32960191       7.40344729      15.01513246      -0.03789536      -0.20532127       0.13006986
Te      10.72954145       3.74734050      15.01615768      -0.08848318       0.14756722       0.23620773
Te       8.61186731       7.39780317      15.02737320      -0.00461466      -0.15639204       0.19639356
Te       6.47591430       3.75236029      14.99849538       0.11489804       0.26426362       0.08470270
Te       8.61767789       2.45161923      22.29061941       0.04744261      -0.45849386       0.23061408
Te      10.83480023       6.23629248      22.23607380       0.57090539       0.26890711      -0.24700048
Te      12.93824796       2.48122251      22.28160172       0.37422618      -0.20139154       0.19624389
Te       6.49921075       6.14902409      22.25775382      -0.03678363      -0.60133417      -0.08520678
Te      10.69676456       1.18498632      25.15843690      -0.17615150      -0.52867553       0.17803792
Te      12.80555799       4.90921135      25.14473326      -0.53006850      -0.30927390       0.08298299
Te      14.90163738       1.21338078      25.18902299      -0.84113687      -0.45432576       0.61301609
Te       8.62227048       4.94535526      25.11490296      -0.02885816      -0.17941724       0.00642602
Te      10.74400084       1.19644684      18.67652862      -0.02538153      -0.83520295       0.66450977
Te      12.93699295       4.96946519      18.67319614       0.62185501       0.03906088       0.54988322
Te      15.00229462       1.27710448      18.69947834      -0.19291558       0.16297746       0.95080833
Te       8.61034003       4.92240259      18.62570865       0.04202073      -0.54942287       0.08629552
Te       8.63941557       0.09193400      32.43248133       0.03853325       0.09468443      -0.09935067
Te      10.79133824       3.72609584      32.38760859       0.39382891      -0.24987247      -0.19569129
Te      12.92365157       0.05389564      32.34613060       0.44129448       0.19069322      -0.27348412
Te       6.51445855       3.71691144      32.45039838       0.01908630      -0.49828144      -0.21300190
Te       8.59628619       2.47281393      28.78310950       0.05818141      -0.19973669      -0.08399087
Te      10.78164885       6.14683466      28.82258954       0.52462819      -0.28868851       0.41960293
Te      12.95525319       2.47362463      28.80967049       0.80861325      -0.10176485       0.36901231
Te       6.45259489       6.16256877      28.79229418       0.11316128      -0.30724785       0.05852479
Sb       8.61386683       2.55652426      16.68386823       0.02701593       0.77203872       0.09853782
Sb      10.78695772       6.26587932      16.56951339       0.27032618       0.53922618      -1.04890485
Sb      12.97416278       2.54980289      16.60782513       0.79697287       0.55029087      -0.67453918
Sb       6.47365862       6.22768276      16.60578586      -0.05350848       0.16230966      -0.56851701
Sb       8.59700767       0.07168615      26.82578320       0.03810919       0.61474076      -0.15070869
Sb      10.76339319       3.82259493      26.76614658       0.30826831       0.84520885      -0.49559989
Sb      12.92488935       0.09974651      26.75080966       0.68547541       0.70351015      -0.63973712
Sb      -2.04466736       3.83664170      26.88785568       0.71466301       1.08452090       0.70957641
Sb       8.61637499       0.10945651      20.56030780       0.06788880       0.87308478      -0.33191262
Sb      10.74771991       3.76640388      20.54953662      -0.12804877       0.22780273      -0.28561844
Sb      12.90430783       0.10714523      20.52773545       0.12331617       0.75477701      -0.54061042
Sb       6.47973995       3.82050546      20.59299924       0.00272236       0.77803470       0.21956366
Sb      10.73659164       1.24139204      30.76665298      -0.21111058      -0.06598004       0.32825702
Sb      12.76865992       4.94787182      30.69506371      -0.90671667      -0.13142857      -0.58365737
Sb      14.88662851       1.23231244      30.76501357      -0.95287553       0.00775581      -0.01962257
Sb       8.57585757       4.99361101      30.63704250      -0.34897233       0.27967067      -0.47291247
Cr       3.84892174       2.57782443      25.90526422       0.43627292       0.14644578       0.21366855
81
Properties=species:S:1:pos:R:3:forces:R:3 energy=-271.7182642338041 mlff_rel_energy_eV=-4.0691255252114615 mlff_fmax_eV_A=1.7518372410329865 calculator_label=/data/pclancy3/yi/flare-data/1-Cr-Sb2Te3/3.fine-tuning/2-layer/MACE-omat/MACE-matpes-pbe-omat-ft.model neb_image=8 neb_protocol=mlff_pre_neb pbc="F F F"
Te      12.84462298       7.39591874      15.01819083      -0.68714050      -0.49641822       0.56835699
Te       2.16521064       3.73522469      15.00198788      -0.37327599       0.09285089       0.24071870
Te       0.01123223       7.39356609      15.02995290      -0.55900096      -0.39925332       0.47022840
Te      14.96367926       3.70317456      15.03072610      -0.82040555      -0.38911215       0.66831286
Te       0.11686287       2.53757977      22.28047155       0.56696727       0.23646439       0.07981685
Te       2.23105161       6.16650888      22.25919254       0.17306101      -0.61405784      -0.13627849
Te       4.35485101       2.46148589      22.24695364      -0.00127692      -0.58243929       0.00921975
Te      -2.01894107       6.17658904      22.29511865       0.59468757      -0.34225651       0.46736964
Te       2.09236366       1.16524845      24.94620999      -0.36832818      -0.41350530       0.12737089
Te       4.33269145       4.87558817      25.07892105      -0.19042315      -0.33191170      -0.20980733
Te       6.38852260       1.23638280      25.10716692      -0.16176734      -0.64360870       0.14516971
Te      -0.04791525       4.93202062      25.08150199      -0.72170946      -0.24444931      -0.47379023
Te       2.20261602       1.25073558      18.60335638      -0.04208412      -0.29600319      -0.16782907
Te       4.34564446       4.94278733      18.59811819       0.01407435      -0.46900586      -0.22886018
Te       6.47447138       1.20248821      18.64593034      -0.06551904      -1.01122030       0.49332369
Te       0.00101644       4.94762976      18.56679346      -0.88385384      -0.31063565      -0.59015036
Te       0.04354561       0.03449935      32.43216232       0.70918683       0.51463417      -0.59015765
Te       2.16990225       3.70187003      32.44623390       0.07064243      -0.39954851      -0.26156253
Te       4.32039584       0.02828997      32.42264679       0.04387529       0.20471636      -0.29128375
Te      -2.04783579       3.73855325      32.39735167       0.72715479       0.24281587      -0.54164964
Te      -0.00685655       2.44232086      28.76358636      -0.64230160      -0.36871600      -0.56529720
Te       2.24419573       6.19663512      28.87950676      -0.00759562      -0.40359500      -0.21655986
Te       4.34107331       2.50953943      28.98604555      -0.04159335      -0.03059977      -0.04948296
Te      -2.09254542       6.13233976      28.74525623       0.11933505      -1.13143266      -0.62946828
Sb       0.11494481       2.55678361      16.70703933       0.65503346       0.78984450       0.57274240
Sb       2.21401241       6.22084564      16.63599206       0.19342318       0.16593853      -0.41873394
Sb       4.32862846       2.52744110      16.71095611      -0.16299104       0.40744883       0.64433123
Sb      -1.97249582       6.21793016      16.64993822       1.22487703       0.03771681      -0.17637103
Sb       0.09038316       0.08728276      26.76344913       0.49469192       0.73548078       0.07862226
Sb       1.94215239       3.94702931      27.03733745      -0.14479646       0.88818766       0.24917152
Sb       4.34401670      -0.08825662      26.94719932      -0.07763446       0.40727254      -0.29352869
Sb       6.48651460       3.80946461      26.77886617       0.36872635       1.11032658       0.11941054
Sb      12.84228237       7.37331087      20.57447598      -0.69097484      -0.84906281       0.15370843
Sb       2.15852467       3.76505340      20.63471921      -0.58019669       0.28784999       0.98073976
Sb       4.34571566       0.10159675      20.55106790       0.07268195       0.96930113      -0.26327551
Sb      15.00110916       3.71024089      20.53349435      -0.65272184      -0.46800372      -0.66996102
Sb       2.12006262       1.19615199      30.88967590      -0.43925465      -0.54754247       1.32481865
Sb       4.33630384       5.01052478      30.77452519      -0.13092466       0.23038242      -0.48577908
Sb       6.49451629       1.23158785      30.88054250       0.05115688      -0.29671873       0.75898233
Sb      -0.05755231       4.93799757      30.78933537      -0.97485305      -0.16340232       0.14935516
Te       4.33604599       7.40946989      15.00408067      -0.02619887      -0.26035137       0.20562487
Te      10.74120445       3.74933644      14.99932404      -0.09655236       0.18327666       0.27132383
Te       8.61750506       7.40697071      15.01028145       0.01148190      -0.24065776       0.30627296
Te       6.48104970       3.75260957      14.98975236       0.11174097       0.28436303       0.10342750
Te       8.62076119       2.46648739      22.28162585       0.04013957      -0.54384540       0.22921978
Te      10.83572668       6.23757631      22.23501771       0.65990866       0.28243312      -0.30218771
Te      12.93461243       2.48819795      22.27040146       0.42448998      -0.22241765       0.20552224
Te       6.49340524       6.15101599      22.25451054      -0.01852040      -0.69208833      -0.15526912
Te      10.68583689       1.18555903      25.14805790      -0.11859844      -0.58034847       0.20421162
Te      12.82994280       4.91388071      25.13504581      -0.65244336      -0.39346730       0.14667123
Te      14.92201563       1.23029285      25.17402870      -1.02693857      -0.53631668       0.72482239
Te       8.67624440       4.98727966      25.07563972      -0.30278348      -0.31711595       0.12426314
Te      10.75196619       1.21224343      18.66122877      -0.03795284      -0.87046449       0.69082425
Te      12.93515341       4.97337800      18.65986438       0.66125481       0.02811263       0.58558304
Te      15.01033051       1.27635693      18.68705117      -0.23809918       0.19936205       1.00428654
Te       8.62342298       4.93589082      18.60979725       0.02758877      -0.57932199       0.08340097
Te       8.69312762       0.11175326      32.49698899      -0.05482148       0.15304916      -0.16919939
Te      10.77074046       3.72623890      32.38252004       0.46283495      -0.28332551      -0.21481660
Te      12.92167120       0.04474022      32.35365701       0.43505004       0.28934271      -0.40156497
Te       6.50991928       3.70525215      32.44947987       0.07106341      -0.47607505      -0.13949916
Te       8.58107245       2.46336245      28.77776794       0.05079283      -0.19577537      -0.06511537
Te      10.77074831       6.15547185      28.80957051       0.56683221      -0.36201932       0.46398139
Te      12.94672132       2.48137033      28.80217643       0.85220205      -0.16501795       0.40408984
Te       6.44018926       6.15625883      28.78585204       0.14258184      -0.35619888       0.08781482
Sb       8.61923075       2.55249427      16.67491658       0.03655959       0.79507341       0.08967841
Sb      10.78806382       6.25790133      16.57932173       0.32939467       0.64039399      -1.24408952
Sb      12.96350073       2.54391474      16.60567739       0.94139633       0.61655191      -0.74291423
Sb       6.48160661       6.22559928      16.61159138      -0.04905539       0.22210587      -0.68914177
Sb       8.57250982       0.05138844      26.80633323      -0.06324028       0.66306879      -0.22330271
Sb      10.75136886       3.80823243      26.76323912       0.43727515       0.95152791      -0.56865896
Sb      12.91653745       0.07646856      26.74757509       0.78631225       0.90088540      -0.76342252
Sb      -2.07311229       3.79941029      26.88378797       0.92967824       1.27482383       0.76122026
Sb       8.62130585       0.10101669      20.55636148       0.06349630       0.95157674      -0.31512695
Sb      10.75363246       3.76431406      20.54341153      -0.11658080       0.28889235      -0.29407711
Sb      12.90640726       0.09798370      20.52674203       0.15170688       0.83202938      -0.56511636
Sb       6.48511824       3.81011653      20.57942966       0.02502740       0.92168029       0.26653719
Sb      10.71148536       1.23168540      30.75664506      -0.06752831      -0.08092882       0.42860089
Sb      12.77225334       4.94354821      30.71042032      -0.97920952      -0.15174352      -0.64167412
Sb      14.89402939       1.22228150      30.77031983      -1.08274924       0.00388878      -0.00227431
Sb       8.58782697       4.99054575      30.61891431      -0.42248388       0.32140236      -0.53643471
Cr       3.97639703       2.41237436      26.39710630       0.47599553       0.38490732      -0.39543451
81
Properties=species:S:1:pos:R:3:forces:R:3 energy=-265.73273632791364 mlff_rel_energy_eV=1.916402380679017 mlff_fmax_eV_A=2.4358236594703486 calculator_label=/data/pclancy3/yi/flare-data/1-Cr-Sb2Te3/3.fine-tuning/2-layer/MACE-omat/MACE-matpes-pbe-omat-ft.model neb_image=9 neb_protocol=mlff_pre_neb pbc="F F F"
Te      12.89820488       7.43753552      14.96903123      -1.00558596      -0.77903620       0.87303922
Te       2.19789131       3.73360567      14.97679894      -0.61235811       0.03228473       0.44576233
Te       0.06320718       7.43561131      14.97679881      -0.98355437      -0.85970567       1.08269061
Te      15.03040478       3.73434177      14.97791054      -1.22951462      -0.52730008       0.97301038
Te       0.07240212       2.52585091      22.27347359       0.82997187       0.44987491      -0.08389083
Te       2.22190728       6.21391280      22.26179978       0.20711364      -0.84092676      -0.22928784
Te       4.35227335       2.50966079      22.24996534       0.10443077      -0.94960160      -0.01418821
Te      -2.04680699       6.20101708      22.27347531       0.59021569      -0.33362181       0.39721083
Te       2.17769796       1.25572565      24.99263658      -0.57273073      -0.74886615       0.23759845
Te       4.29887265       4.89016213      25.09954412      -0.13090583      -0.56363464      -0.18670483
Te       6.38580089       1.27097931      25.09954543      -0.21473268      -0.89739657       0.12432264
Te       0.00719080       4.93682912      25.08853316      -0.93302595      -0.57923127      -0.24758198
Te       2.20943034       1.27403211      18.60907474      -0.07960205      -0.41857058      -0.15536581
Te       4.34507608       4.97387246      18.60965942       0.08697247      -0.51118122      -0.25127484
Te       6.48139703       1.26902961      18.60965956      -0.04487509      -1.18886236       0.58407302
Te       0.06383309       4.96950068      18.60688633      -1.13530976      -0.34299542      -0.86617118
Te      -0.02419857      -0.01396362      32.48719709       1.05627496       0.80658658      -0.89882046
Te       2.15917489       3.73867366      32.46616943       0.12528553      -0.71708880      -0.18034448
Te       4.31737597      -0.00410990      32.46616836       0.06416736       0.56610926      -0.77435932
Te      -2.10421285       3.71932009      32.43954710       1.03438664       0.31117804      -0.73528663
Te       0.05016394       2.46586174      28.79895617      -0.88261558      -0.32395128      -0.61569675
Te       2.23410044       6.22094215      28.88137257      -0.02479027      -0.71153112      -0.11709243
Te       4.34777946       2.50706826      29.09824492      -0.02290655       0.22943072       0.19831372
Te      -2.10986512       6.21181092      28.79895821       0.24823986      -1.62947890      -0.79728702
Sb       0.06776192       2.50149214      16.66903250       1.00125512       1.08871237       0.61148210
Sb       2.20845481       6.20616269      16.66965763       0.09834126       0.35563361      -0.80357531
Sb       4.33983493       2.50249705      16.67233991      -0.16962698       0.48340446       0.57302488
Sb      -2.07021747       6.20921271      16.66903157       2.02129274       0.26043790      -0.48243478
Sb       0.09069233       0.05229073      26.74471859       0.68775349       0.92945542      -0.03839108
Sb       2.01416676       3.85012797      26.99214269      -0.49664806       1.49441888       0.41376237
Sb       4.34117932      -0.18543386      26.99214560      -0.13341255       0.57763520      -0.47643716
Sb       6.42694594       3.70598911      26.76451677       0.63142109       1.75216163       0.09247368
Sb      12.89693357       7.43679481      20.55300454      -1.05960308      -1.22954627       0.33684597
Sb       2.20686565       3.74422192      20.56129736      -0.98107080       0.41368785       1.34928914
Sb       4.34605679       0.03440346      20.56129844       0.04560863       1.34073093      -0.17832062
Sb      15.05129359       3.74637934      20.57494064      -0.85807258      -0.71820597      -0.76411210
Sb       2.13847127       1.23310201      30.80144489      -0.72918511      -0.99021856       2.10028124
Sb       4.34089700       4.99754436      30.83563548      -0.11686087       0.66500230      -0.84541097
Sb       6.49979816       1.25354251      30.83563347       0.11382828      -0.68665081       1.48223141
Sb       0.01017860       4.93854803      30.78646390      -1.37791866      -0.04565034      -0.06027707
Te       4.33946639       7.43497238      14.97703744       0.02827194      -0.51135202       0.55803920
Te      10.75136544       3.73578888      14.97291562      -0.17438902       0.34863332       0.43863313
Te       8.61898295       7.43380247      14.97291562       0.01359860      -0.58640062       0.76745572
Te       6.47647982       3.73455491      14.97748436       0.09956190       0.38024355       0.20417354
Te       8.62183323       2.51413241      22.26453825       0.04169754      -0.90223685       0.27385737
Te      10.78680746       6.22002353      22.25861574       1.05316825       0.36202326      -0.52713092
Te      12.90127421       2.50660381      22.25551852       0.71411288      -0.37462231       0.20346114
Te       6.49491105       6.20267242      22.26453851      -0.01452267      -1.01209391      -0.20761589
Te      10.68920280       1.23105565      25.12776321      -0.05735748      -0.95499229       0.36964946
Te      12.88780440       4.94192504      25.11978686      -1.00432833      -0.65500132       0.27223819
Te      15.00225368       1.27501053      25.11978680      -1.51237220      -0.72524494       1.00902767
Te       8.72476021       5.03098459      25.04231293      -0.44591486      -0.50574042       0.21870856
Te      10.75772498       1.27056655      18.61372525      -0.07634204      -1.02850408       0.78688492
Te      12.89443725       4.97433950      18.61462544       0.82035787       0.00915169       0.76378252
Te      15.03362670       1.26452185      18.61462572      -0.46903548       0.30720336       1.31133861
Te       8.62384019       4.97278867      18.60398426       0.00467411      -0.64372190       0.06052697
Te       8.72949088       0.10101460      32.56076207      -0.16506489       0.43142903      -0.60643722
Te      10.72559219       3.73612024      32.39750262       0.75755952      -0.34192248      -0.33443311
Te      12.87552979       0.00766322      32.39749977       0.80763329       0.79914770      -1.07639788
Te       6.49354135       3.74437898      32.45442720       0.18551518      -0.74197792      -0.01856319
Te       8.55985422       2.47204097      28.77123218       0.00652749      -0.25648138      -0.05447156
Te      10.73043686       6.18751593      28.77788882       0.73260496      -0.67226294       0.68485045
Te      12.88852461       2.49925015      28.78004239       1.10461359      -0.36216930       0.49064561
Te       6.42743489       6.17011652      28.77123400       0.12205410      -0.63000634       0.26034666
Sb       8.61929403       2.50525541      16.66834957       0.06515116       0.87848735       0.01348176
Sb      10.76912850       6.20983700      16.67361637       0.41884466       0.96750119      -1.97415988
Sb      12.89148396       2.50096669      16.65482422       1.48135766       0.85254109      -1.00853943
Sb       6.48595414       6.20492918      16.66834952      -0.00945814       0.47995533      -1.24781341
Sb       8.57241187       0.01044550      26.82825004      -0.08759734       0.81952907      -0.43096294
Sb      10.70903943       3.73479649      26.79507331       0.70422762       1.59193343      -0.85525541
Sb      12.86608326      -0.00598711      26.79507342       0.99070730       1.49621582      -1.15734439
Sb      -2.14364136       3.69658950      26.83334928       1.41182363       1.78668569       0.86472260
Sb       8.62076029       0.03832288      20.56658901       0.02752126       1.23298896      -0.19289421
Sb      10.76268601       3.73923278      20.55981305      -0.07999492       0.57887678      -0.39889155
Sb      12.89680023       0.03821777      20.55981406       0.26847708       1.18402006      -0.67273099
Sb       6.48967138       3.74215712      20.55675615      -0.06252725       1.35949170       0.42120191
Sb      10.69927793       1.23685863      30.71701541       0.08578010      -0.32342349       0.92811476
Sb      12.83757905       4.94473236      30.75128787      -1.39972390      -0.20937805      -0.77859319
Sb      14.97952916       1.23013321      30.75128405      -1.84188620      -0.22923080       0.35904586
Sb       8.61766521       4.96922216      30.65124715      -0.50648955       0.62895966      -0.84928296
Cr       4.04834793       2.33439988      26.60371583       0.80950944       0.00825289      -0.94176881
