time_fs,stress_xx,stress_yy,stress_zz,stress_yz,stress_xz,stress_xy,pressure_eV_per_A3
0.0,0.0016058149268712906,0.0016236582064314516,0.004424732239380325,0.00013796761044383805,0.0002389056608621035,-1.5056569097854118e-05,-0.0025514017908943557
5.0,0.0016184575961381645,0.0016190931306981687,0.004425836970333038,0.00010763968094820519,0.00025070537684954413,-2.1596100842689554e-05,-0.0025544625657231237
10.0,0.0016080845301705198,0.001600634364889965,0.004371539945306253,7.969859373550576e-05,0.0002601765854985521,-3.0276475849882785e-05,-0.0025267529467889126
15.0,0.00156913088794095,0.0015615742866377205,0.004260719333869376,5.632342186095474e-05,0.0002682010031738977,-4.04261458938624e-05,-0.0024638081694826823
20.0,0.0014984064440377843,0.0014940671687364213,0.0040936210519258295,3.632313853498963e-05,0.00027480929658058295,-5.078760697864726e-05,-0.0023620315549000115
25.000000000000004,0.001396127929694075,0.00139714988024124,0.0038779573991697684,2.0945943534849244e-05,0.0002807149270538943,-6.114331458256377e-05,-0.0022237450697016946
30.0,0.0012654430714334791,0.0012719807077429006,0.0036225982297375644,7.816940409251723e-06,0.0002841209144460926,-7.133692399217736e-05,-0.002053340669637981
35.0,0.0011120191777799974,0.0011216263364776113,0.0033363510121240934,-6.212032438558025e-06,0.00028429189432703793,-8.14101821401581e-05,-0.0018566655087939009
40.0,0.0009407994405928028,0.0009504364115924936,0.0030279590935764693,-1.874579871092333e-05,0.00028010162091181095,-9.08986574568117e-05,-0.0016397316485872553
45.0,0.0007597998158842054,0.0007654109217115022,0.002707592115575974,-3.0041451086185175e-05,0.0002731347858462834,-0.0001009891160315532,-0.0014109342843905606
50.00000000000001,0.000578419326293149,0.0005752852229277799,0.002386301115477889,-4.0483356319800155e-05,0.0002634697237690867,-0.0001112416917438509,-0.0011800018882329392
54.99999999999999,0.00040705414526401036,0.00038999802108504074,0.00207734210889362,-4.9723842650788385e-05,0.0002507746939152482,-0.00012070159786249597,-0.0009581314250808904
60.0,0.00025205617893591493,0.00021585311082038448,0.0017879843975588615,-5.7873368412536826e-05,0.00023389307996430012,-0.0001273220813180752,-0.000751964562438387
65.0,0.00012020075481925462,5.723489418658962e-05,0.0015245282290767895,-6.761818550509703e-05,0.00021479407747498902,-0.00013201401214498428,-0.0005673212926942112
70.0,1.4859008172321721e-05,-8.049332298260234e-05,0.0012938088137791957,-7.693155034068544e-05,0.00019634530879207205,-0.00013517965560633688,-0.00040939149965630504
75.0,-6.252465327721179e-05,-0.00019352325244530787,0.0010996998082015042,-8.67399482045164e-05,0.00017924117390875807,-0.00013622335215713902,-0.00028121730082632815
80.0,-0.0001122362459254589,-0.00027902444733925153,0.000947023967480402,-9.604041246393696e-05,0.00016432479228364232,-0.00013553514159961525,-0.00018525442473856383
85.0,-0.00013497538482236512,-0.0003360983294798288,0.0008380947088332577,-0.00010449225642697423,0.0001521377658127131,-0.00013264389890480717,-0.0001223403315103546
90.0,-0.00013655742201693254,-0.00036751406641275463,0.000769357047561968,-0.00011334481633200214,0.00014300624708671184,-0.00012756539006589587,-8.842851971076027e-05
95.0,-0.0001207021602286542,-0.0003763114209644033,0.0007366704180162223,-0.00012296331297751207,0.00013644074520301118,-0.0001196208665230219,-7.988561227438827e-05
100.00000000000001,-9.358185834359219e-05,-0.000365560535259482,0.0007360631744632764,-0.0001322127419721328,0.0001334752494201011,-0.00010907884719592787,-9.230692695340075e-05
105.0,-5.7079265304831164e-05,-0.0003381602079197605,0.0007647651617470872,-0.00014139432153979965,0.0001344151607992224,-9.867240765184573e-05,-0.0001231752295074985
109.99999999999999,-1.4174521418078926e-05,-0.0002956510732220759,0.0008200071115651894,-0.00015066722501866069,0.00014011951193251802,-8.811455890935303e-05,-0.00017006050564167817
115.0,3.087508568272667e-05,-0.00024236299227393612,0.0008959809067481214,-0.00015742785234658813,0.00015082439357047746,-7.733598801159297e-05,-0.0002281643333856373
120.0,7.927644842424037e-05,-0.00018019521659381403,0.0009907410110714275,-0.0001617808593354857,0.00016814883378647627,-6.716328279544978e-05,-0.0002966074143006179
125.0,0.00012939343868774493,-0.0001131345576221878,0.0010979106208224567,-0.00016563068991895673,0.0001909914300506498,-5.790899547285467e-05,-0.0003713898339626713
130.0,0.0001788247680576014,-4.276429937780538e-05,0.0012091677300091297,-0.0001661345669934708,0.0002164678542427006,-5.0935846845068244e-05,-0.00044840939956297524
135.0,0.0002266493507988543,3.118782853466499e-05,0.0013221529778265828,-0.00016274864168443263,0.00024201424482143432,-4.725978081083524e-05,-0.0005266633857200341
140.0,0.0002739790707885632,0.00010719990451619732,0.0014326625605739908,-0.00015652208780518248,0.0002664812632180323,-4.729301082974192e-05,-0.0006046138452929171
145.0,0.0003176622895592565,0.00018263153074228844,0.0015324521628450349,-0.00014659753444832218,0.00028911917568205447,-5.056503357045924e-05,-0.0006775819943821932
150.0,0.0003578155915024704,0.000258978786801137,0.0016196938907997547,-0.00013334901883894096,0.00030988403953855447,-5.686656606000336e-05,-0.0007454960897011207
155.0,0.0003934605026171271,0.0003319662369867844,0.0016914884028100669,-0.00011688486647182359,0.0003278458514068295,-6.586245638054165e-05,-0.0008056383808046595
160.0,0.0004238638659622497,0.0003970432752206139,0.0017483284917701842,-9.787992559710026e-05,0.00034043123714745416,-7.50276096172156e-05,-0.0008564118776510161
165.0,0.00044879029957874204,0.0004536725511493278,0.0017933175579926731,-7.799049636575793e-05,0.00034843445834951037,-8.351088334446977e-05,-0.000898593469573581
170.0,0.000468370540367144,0.0004989789504039077,0.0018257904525894645,-5.923537097321292e-05,0.000352550830076504,-9.176384117035873e-05,-0.0009310466477868386
175.00000000000003,0.00048211601184147663,0.0005337609101360939,0.0018475966745898312,-4.0382194622872133e-05,0.0003538186770185431,-9.960247443389668e-05,-0.0009544911988558004
180.0,0.000490185793510234,0.0005583285541846014,0.0018587991753338119,-2.1017623357863363e-05,0.00035323091806342243,-0.00010617205293005435,-0.0009691045076762158
185.0,0.000493616964021889,0.0005740299870354154,0.0018624349964698268,-3.1596075023287624e-06,0.0003519703719296533,-0.0001113932474551344,-0.0009766939825090438
190.0,0.0004920077914535699,0.0005809594736357649,0.0018581593736259005,1.293457142210442e-05,0.0003523773474432272,-0.0001163211064538956,-0.0009770422129050783
195.0,0.00048618175140251337,0.0005813193999794391,0.0018482674271522708,2.580619520877624e-05,0.00035393646377967987,-0.00011919615671797942,-0.0009719228595114077
200.00000000000003,0.00048061162247541224,0.0005773364990901447,0.001833148566014355,3.5036907052745354e-05,0.00035666379027265955,-0.00012032718129528213,-0.0009636988958599705
205.0,0.00047403666076279994,0.0005652745905092104,0.0018069614147294831,3.9627115104169054e-05,0.0003598565968742269,-0.00011923717475734583,-0.0009487575553338312
210.0,0.0004654080527878362,0.0005437902140370713,0.0017687078221670378,4.0065775230412786e-05,0.00036215354078393156,-0.00011649930988866952,-0.0009259686963306483
215.0,0.00045712720013962817,0.0005129948488753961,0.0017197711262486937,3.4364665496645243e-05,0.0003619586538992686,-0.00011314857937534479,-0.0008966310584212394
219.99999999999997,0.0004481368710519726,0.00047329937041662917,0.0016597466140120503,2.2987225397099116e-05,0.0003569087528401408,-0.00010824208478804725,-0.0008603942851602174
225.0,0.000437358022699085,0.00042890218542034026,0.0015915085769952922,7.321040990528008e-06,0.00034975236072456507,-0.00010370206430817047,-0.0008192562617049059
230.0,0.000423998340583164,0.00037952356498630513,0.0015162819982010574,-1.1139020127990083e-05,0.0003404918345408992,-9.933869594904684e-05,-0.0007732679679235089
235.0,0.0004098647770157022,0.0003291088855122508,0.0014402677404929732,-3.276615767321026e-05,0.0003302666385371411,-9.556891586262976e-05,-0.0007264138010069755
240.0,0.00039669995634993927,0.0002777195359534877,0.0013649219117634777,-5.4944999072588556e-05,0.00032080371443151697,-9.319021782038507e-05,-0.0006797804680223015
245.00000000000003,0.00038263071032049867,0.0002248928144489682,0.0012880067707394813,-7.55792965139449e-05,0.0003131744863342825,-9.223170688388098e-05,-0.000631843431836316
250.0,0.00036898283870618074,0.00017425895868095875,0.0012145585044765045,-9.478631089569544e-05,0.0003068158950422932,-9.306281902217083e-05,-0.000585933433954548
255.0,0.0003568680478500794,0.00012738585770106288,0.0011489950610834646,-0.00011291494021791177,0.0002997276817614887,-9.37987028461975e-05,-0.0005444163222115356
260.0,0.0003458515825236613,8.298475515498687e-05,0.001091350499830413,-0.00013171243973508548,0.0002905783242823181,-9.356659080375616e-05,-0.0005067289458363537
265.0,0.00033424355707908817,4.409690833661792e-05,0.001043467770979867,-0.00014826966024829462,0.00027915332533564696,-9.090175582303676e-05,-0.0004739360787985243
270.0,0.0003221175199324299,9.461035677715351e-06,0.0010059476440200212,-0.0001631288125091483,0.0002655612519658401,-8.441294540318265e-05,-0.0004458420665433888
275.0,0.0003099399228003879,-1.9497866441381505e-05,0.0009783566159464283,-0.00017629017060029909,0.0002512748258074232,-7.46783426692999e-05,-0.00042293289076847823
280.0,0.0002966292653994913,-4.497280088475305e-05,0.0009586878861621117,-0.0001906785977780925,0.00023570370708579104,-6.215573872424737e-05,-0.0004034481168922833
285.0,0.00028271268496564184,-6.93803700247051e-05,0.0009440208929090814,-0.00020763683704258734,0.00022105842803556866,-4.810827268500833e-05,-0.0003857844026166727
290.0,0.0002678960776133643,-9.395634831914662e-05,0.0009302959287724003,-0.000227076569564052,0.00020872969195540582,-3.392402463287749e-05,-0.0003680785526888727
295.0,0.0002506933872771721,-0.00011695498162381445,0.0009178212742393652,-0.00024366413477136715,0.0001989588248540798,-2.114306494473413e-05,-0.0003505198932975743
300.0,0.00023062946591768374,-0.00014038751955987332,0.0009017688454428089,-0.0002583210594969955,0.00019103461965863295,-8.68198349806418e-06,-0.0003306702639335398
305.0,0.00020524212460209596,-0.00016430260802513725,0.0008796685063012443,-0.00027051315888535773,0.00018358575181582184,3.5696238725230707e-06,-0.00030686934095940105
310.0,0.00017327417477279696,-0.00018785654998092346,0.0008495044169244509,-0.00028107242146894204,0.00017742776071923833,1.4513144055831686e-05,-0.0002783073472387748
315.0,0.00013589251631241828,-0.0002119746842377343,0.00081069216279494,-0.0002925641603641432,0.00017275312564533194,2.2695645986474218e-05,-0.00024486999828987464
320.0,9.187544910563824e-05,-0.0002386923797302711,0.0007623116671682665,-0.0003018323237101866,0.0001683427331329831,2.869355068152392e-05,-0.0002051649121812112
325.0,4.39482251171002e-05,-0.00026518711814828603,0.0007098141382422983,-0.00030648768461425573,0.00016312130251700845,3.1444252883155625e-05,-0.00016285841507037083
330.0,-7.235397596138592e-06,-0.0002924699753357952,0.0006543604081629627,-0.0003075103415375188,0.00015618737215757108,3.135179070425936e-05,-0.00011821834507700964
335.0,-5.9068906000115375e-05,-0.000321457158765263,0.0005967856951100301,-0.00030521945170681997,0.00014836199466521137,2.847822690217315e-05,-7.208654344821725e-05
340.0,-0.00010974995903895361,-0.00035290761687983596,0.0005395948917299237,-0.0003009829943358335,0.00013917654746649095,2.3734466028782144e-05,-2.5645771937044735e-05
344.99999999999994,-0.0001562914213601413,-0.0003847160940346008,0.0004884982264103942,-0.0002967033301126729,0.00012805710138004818,1.8307110448501815e-05,1.750309632811597e-05
350.00000000000006,-0.00020023928796141554,-0.0004176927288567769,0.0004425368537701568,-0.00029204078427272383,0.00011324958526782414,1.423477624727725e-05,5.846505434934521e-05
355.0,-0.00024083601090228393,-0.00045096120667950223,0.00039972444833151895,-0.0002874140342671982,9.936360362059024e-05,9.566118214434784e-06,9.735758975008909e-05
360.0,-0.00027851512860593527,-0.00048500272491793157,0.00036268526666296066,-0.0002820652174248318,8.570496951523275e-05,5.714051289555995e-06,0.00013361086228696873
365.0,-0.0003145272666338249,-0.0005202843389103857,0.00032890698677717127,-0.00027708351840635855,7.26282507331044e-05,3.692401858414061e-06,0.00016863487292234647
370.0,-0.00034446996331880274,-0.0005590540951425387,0.00029641773421590025,-0.0002759072197860075,6.140422030665547e-05,2.862079364562327e-06,0.00020236877474848037
375.0,-0.0003669366844253626,-0.0005968219485782062,0.00026948603563791123,-0.00027606745505425904,5.2321908511926195e-05,2.397286725666927e-06,0.00023142419912188582
380.0,-0.00038225140704535116,-0.0006304861902461609,0.000249757394807201,-0.0002781935110605308,4.475225761976472e-05,3.0342181807381236e-06,0.000254326734161437
385.0,-0.0003939849744285667,-0.000659008080175416,0.00023525632894563943,-0.00027980540594035153,3.865213447343905e-05,2.3477487842478176e-06,0.00027257890855278107
390.0,-0.0004036581009250168,-0.0006838633217788586,0.0002248392089183134,-0.00028059275747123507,3.436750266229988e-05,-6.149714885658441e-07,0.0002875607379285207
394.99999999999994,-0.0004132021890929642,-0.0007016512482517709,0.0002202067402550423,-0.00027651594049179844,3.0270949809867536e-05,-4.502688044681385e-06,0.0002982155656965643
400.00000000000006,-0.00042345537441659765,-0.0007120255778588402,0.0002185767970149265,-0.0002674017462298267,2.5975310608496336e-05,-9.536023492846143e-06,0.00030563471842017046
405.0,-0.0004351284675027735,-0.0007152807717020086,0.0002179076866652571,-0.00025269405356335354,1.9588994275711012e-05,-1.3797746549102965e-05,0.0003108338508465083
410.0,-0.00044813399671901995,-0.0007117722370164764,0.00022099465713610892,-0.00023264727036895384,1.3920005676643213e-05,-1.776915965107937e-05,0.0003129705255331291
415.0,-0.00046045685240155904,-0.0007037115662648815,0.00022494547726581007,-0.00020780216137041048,5.6977502643808e-06,-1.9990168622378766e-05,0.0003130743138002102
420.0,-0.000471921622113022,-0.0006907672783038947,0.00023094654101659583,-0.0001795052173442113,-6.577883277509306e-06,-1.935339397963663e-05,0.0003105807864667736
425.0,-0.00048357671396644683,-0.0006748262403280821,0.00023810090023473435,-0.00014775000846491322,-2.2522479881734067e-05,-1.601278071536122e-05,0.0003067673513532649
430.0,-0.0004968036609591187,-0.0006564054466691396,0.0002432006912523433,-0.00011234706957287375,-4.0970307953687686e-05,-1.004223176624509e-05,0.0003033361387919717
435.0,-0.0005103537058770523,-0.0006344968668851041,0.00024757126901042844,-7.69873837564883e-05,-5.9016213628568e-05,-3.192496500369505e-06,0.000299093101250576
439.99999999999994,-0.0005220394971378692,-0.0006098144229233062,0.00025272583152245677,-4.362934898018767e-05,-7.504445614156294e-05,4.564101900117738e-06,0.0002930426961795729
445.00000000000006,-0.0005314443804485165,-0.0005809006393154354,0.00025916543235690907,-1.1525198137395226e-05,-8.994430590317767e-05,1.236639263493785e-05,0.00028439319580234767
450.0,-0.0005399809279347204,-0.0005506307971581918,0.00026527485678634415,2.0032826379805898e-05,-0.00010263809942683477,2.0560777870888714e-05,0.0002751122894355227
455.0,-0.0005481368189726273,-0.0005214412818885335,0.0002695645606679894,4.947692489112006e-05,-0.00011268077354766315,2.928521925678721e-05,0.0002666711800643905
460.0,-0.0005572815059237909,-0.0004969106818933247,0.00026828777483819553,7.595786707039944e-05,-0.00011949722735213736,3.824527315245125e-05,0.00026196813765964004
465.0,-0.0005681980297935594,-0.00047823607450771217,0.00025940410921428375,9.9805384729958e-05,-0.00012217749073335657,4.7672425021421785e-05,0.0002623433316956626
470.0,-0.0005832327854986475,-0.0004690812971876139,0.00023964061069338058,0.00011865141304768408,-0.00012078402590564615,5.509577049174572e-05,0.00027089115733096026
475.0,-0.0006032302060154086,-0.00046627507685341685,0.00021120324735492767,0.00013544808035913277,-0.00011820164149323035,6.204317527922552e-05,0.0002861006785046326
480.0,-0.0006275286737176563,-0.0004724403346904365,0.00017579670699324382,0.0001496467946034679,-0.00011358421232062696,6.808625752487839e-05,0.0003080574338049497
484.99999999999994,-0.000652945296931147,-0.00048505108464231065,0.00013690430314566756,0.00016120383544818192,-0.00010729910405646999,7.245169378868307e-05,0.0003336973594759301
490.00000000000006,-0.0006790252888097844,-0.0005012737497255829,9.811554039740569e-05,0.00017102153920927918,-0.00010003185490893517,7.378429015865903e-05,0.0003607278327126539
495.0,-0.0007063994974099274,-0.0005185644186848237,5.946863315149298e-05,0.00017786177360465337,-9.232590509789624e-05,7.169907847681053e-05,0.0003884984276477527
500.0,-0.0007355281345368664,-0.0005378491250846087,2.1291736995652975e-05,0.00018087434317106982,-8.254006081925827e-05,6.680728965905252e-05,0.00041736184087527397
505.0,-0.0007661807787740091,-0.0005561517376505401,-1.4134435347038696e-05,0.00018320179564209675,-7.167035123659986e-05,6.074413801621342e-05,0.00044548898392386265
510.0,-0.0007976784605944167,-0.0005743415577501755,-4.856585885389166e-05,0.0001856003428075535,-6.015260982179351e-05,5.275128038755892e-05,0.00047352862573282794
515.0,-0.0008299679308017096,-0.0005922373195377013,-8.144120203570047e-05,0.00018823150998381475,-4.8586171192516684e-05,4.451975112609981e-05,0.0005012154841250371
520.0,-0.0008631566846937328,-0.0006095456554876032,-0.00011114175739610033,0.00019123058054885657,-3.858212828309044e-05,3.701509432907351e-05,0.0005279480325258121
525.0,-0.0008951027185727379,-0.0006269245344910881,-0.00013585424136556767,0.00019472892121599452,-2.9994119267398418e-05,3.120579844084101e-05,0.0005526271648097978
530.0,-0.0009223594844764407,-0.0006444005441663689,-0.00015503762691492455,0.00019846413458674054,-2.2787729059805664e-05,2.7607800789550927e-05,0.000573932551852578
535.0,-0.0009418295781117906,-0.0006608277446365348,-0.00016695482324685632,0.00020165329497648976,-1.564336294401785e-05,2.668566414904221e-05,0.0005898707153317273
540.0,-0.0009534952941826756,-0.0006783919384543789,-0.00017381293616436927,0.000204240634027071,-6.372793325609096e-06,2.6142079365190687e-05,0.0006019000562671413
545.0,-0.0009602620016531246,-0.0006982847777006956,-0.00017610018536745936,0.00020609835303435516,3.5125875685988733e-06,2.702434078798625e-05,0.0006115489882404265
550.0,-0.0009619860617005799,-0.0007199425229284552,-0.0001724291618092667,0.00020662083807685823,1.2651390624067834e-05,2.9186916160083783e-05,0.0006181192488127672
555.0,-0.0009577662864028664,-0.0007439818114902772,-0.000163045717425211,0.00020480124478955436,1.8801308136930344e-05,3.193972484872606e-05,0.0006215979384394515
560.0,-0.000952651629680782,-0.000770211876560617,-0.00015428047177594095,0.00020104437244994607,2.404607293139203e-05,3.3598432765628325e-05,0.0006257146593391132
565.0,-0.0009476106056151948,-0.0007960771726434838,-0.00014669012208127686,0.00019589840567118,2.9163685226163017e-05,3.3470923816614816e-05,0.0006301259667799852
570.0,-0.0009410396844229749,-0.0008187308491401785,-0.0001380446283751503,0.00018944777353854605,3.2737793149893665e-05,3.355630686104126e-05,0.0006326050539794345
575.0,-0.000933706594657426,-0.0008374707919462846,-0.0001286632917316208,0.00018210381436263175,3.472892462483146e-05,3.43649747968325e-05,0.0006332802261117772
580.0,-0.0009254332018532497,-0.0008505942697898183,-0.00011626644862556111,0.00017450971699738957,3.849686034939455e-05,3.4251327288261984e-05,0.000630764640089543
585.0,-0.0009176865142560975,-0.0008579922165177044,-0.0001028140332407982,0.0001689715054533589,4.153726600424428e-05,3.4478103614432705e-05,0.0006261642546715333
590.0,-0.0009124042047271741,-0.000860470093074816,-9.075638495187037e-05,0.0001664251194765463,4.4702060036152556e-05,3.504947891916955e-05,0.0006212102275846202
595.0,-0.0009101624559740912,-0.0008581202732576962,-8.049822201321135e-05,0.0001674825488391007,4.877458314337983e-05,3.3933131345251876e-05,0.0006162603170816662
600.0,-0.0009115425371075335,-0.0008485359199429597,-7.139731908147462e-05,0.00017085910469857155,5.2381456643672466e-05,3.1660251061319986e-05,0.0006104919253773225
605.0,-0.0009143642892997315,-0.0008325775733798758,-6.213315245031791e-05,0.00017675967918524092,5.6133899876844325e-05,2.992846964169641e-05,0.0006030250050433084
610.0,-0.0009192909066219944,-0.0008123655851849343,-5.217614141668946e-05,0.0001854495677225768,5.809678594983465e-05,2.874359237402909e-05,0.0005946108777412061
615.0,-0.000927625681393718,-0.0007912590651472018,-4.364226260401399e-05,0.00019723031893683626,5.8383865475726615e-05,2.685568912146436e-05,0.0005875090030483112
620.0,-0.0009379057623992607,-0.0007688782878702567,-3.754109674064676e-05,0.00020797931394297156,5.669285030824933e-05,2.3201970562507503e-05,0.0005814417156700548
625.0,-0.0009496733650550125,-0.0007445248097918686,-3.563353759763785e-05,0.0002173802346737486,5.225632925862098e-05,1.989615237161056e-05,0.0005766105708148397
630.0,-0.0009600668247217733,-0.0007197094542126129,-3.779831029961848e-05,0.00022457246906707504,4.8311526293339596e-05,1.583871589477692e-05,0.0005725248630780015
635.0,-0.0009677706098704356,-0.0006979642627602915,-4.160652634145284e-05,0.00022691493910274415,4.342537719576948e-05,1.1277516346401419e-05,0.0005691137996573934
640.0,-0.0009754698076021523,-0.0006808104830144921,-4.644021490908235e-05,0.0002247876572625568,3.8758853816703e-05,6.049739996477896e-06,0.0005675735018419089
645.0,-0.0009808741323742195,-0.0006735372108260814,-5.454378234773156e-05,0.00021508180952695304,3.614791349923932e-05,6.492066142958035e-07,0.0005696517085160107
650.0,-0.000981714105463248,-0.0006721059926905788,-6.46034361659674e-05,0.00020218091314798316,3.513406121617193e-05,-3.7986546042877195e-06,0.0005728078447732647
655.0,-0.0009798666803976681,-0.0006764706877607999,-7.934408649080966e-05,0.00018688687690841452,3.305857125829267e-05,-7.3867192641112454e-06,0.0005785604848830925
660.0,-0.0009724356848464442,-0.0006862110283684809,-9.893869197425473e-05,0.00016946939292309966,3.133872249759836e-05,-1.0188439658194645e-05,0.0005858618017297267
665.0,-0.0009591714800585852,-0.0006992332791832916,-0.00012007470088488179,0.0001521478215509371,3.362236632043142e-05,-1.2597399199871666e-05,0.0005928264867089196
670.0,-0.0009418302953619674,-0.0007136836356080502,-0.00014246747989727496,0.00013596380013456251,3.965352853868854e-05,-1.4074989342421356e-05,0.0005993271369557642
675.0,-0.0009220001043648616,-0.0007299884631197339,-0.00017055489354676943,0.00012302329169745982,4.825542823087079e-05,-1.5885761610420056e-05,0.0006075144870104549
680.0,-0.0009030325977258883,-0.0007475986165110652,-0.00020388127357923925,0.00011118254254209318,6.04366734840923e-05,-1.8771170157782596e-05,0.0006181708292720642
685.0,-0.0008863814653735516,-0.000764397848272819,-0.00023908570724124437,0.00010053299212963884,7.694945222633151e-05,-2.3591065419667908e-05,0.0006299550069625383
689.9999999999999,-0.0008720748405247465,-0.0007800675742850369,-0.00027670782644799696,9.252754853654186e-05,9.599509710594041e-05,-3.0277646652103526e-05,0.0006429500804192601
694.9999999999999,-0.000862379934672674,-0.0007939297075603149,-0.0003162465082740653,8.721909769941219e-05,0.00011750179120287348,-3.83716175069947e-05,0.0006575187168356847
700.0000000000001,-0.0008562271347962445,-0.0008061158749848458,-0.00035603405662494277,8.276325993930694e-05,0.0001382815570002998,-4.602168046605068e-05,0.0006727923554686777
705.0000000000001,-0.0008583155969583008,-0.0008166146323193764,-0.00039952568123969315,8.112130224561971e-05,0.00015651717746102215,-5.2461773738839565e-05,0.0006914853035057902
710.0,-0.0008701854321614981,-0.0008290155232674667,-0.0004491477263234244,8.156799501948667e-05,0.0001731218341396641,-5.7518732930389815e-05,0.0007161162272507965
715.0,-0.0008912769713162979,-0.0008426588503590218,-0.0005031643549699717,8.388271900966796e-05,0.00018945480157446073,-6.135416921414157e-05,0.0007457000588817638
720.0,-0.0009200079088993733,-0.0008596604367276627,-0.0005597893341437615,8.70671609294212e-05,0.000204062737671909,-6.483122914457108e-05,0.0007798192265902658
725.0,-0.0009531525907159493,-0.0008775344114183698,-0.0006153758916158387,9.15200697933872e-05,0.00021524513333341677,-6.771305276539226e-05,0.0008153542979167193
730.0,-0.00099048484696785,-0.0008967492374615375,-0.0006695228206011726,9.693476937190816e-05,0.0002230096643948185,-6.97070106801168e-05,0.0008522523016768535
735.0,-0.0010282978972249984,-0.0009149226636406231,-0.0007192000843949397,0.00010124728635929026,0.00023073129204226003,-7.364064697579288e-05,0.0008874735484201871
740.0,-0.0010630939508118973,-0.0009323334483492826,-0.0007642258272340275,0.0001041389788920938,0.0002394259542045531,-7.968914918562916e-05,0.0009198844087984024
745.0,-0.0010936581346252887,-0.0009526528363498343,-0.0008070469483544544,0.00010472976573067118,0.00024815968220380735,-8.627867857036688e-05,0.0009511193064431926
750.0,-0.0011208559270543311,-0.0009756199808995845,-0.0008513541980998018,0.0001035521516090062,0.00025642341348573934,-9.284160845240187e-05,0.0009826100353512392
755.0,-0.00114436537454179,-0.0010002329124098601,-0.0008967969306828173,0.00010196233794650726,0.0002646458278116549,-0.00010101526820457097,0.0010137984058781557
760.0,-0.0011620966443957191,-0.001025481852818314,-0.0009411521547726768,9.966307615088104e-05,0.0002719591198347467,-0.0001092389205936815,0.0010429102173289031
765.0,-0.0011741575095232783,-0.0010513149867585907,-0.000984897304090983,9.653293851633334e-05,0.00027899056036008636,-0.00011711083853215949,0.0010701232667909507
770.0,-0.0011816336194601647,-0.0010763039894835565,-0.001026940840260707,9.286923729721257e-05,0.00028803466065747935,-0.00012503660075050338,0.0010949594830681427
775.0,-0.0011834951875066596,-0.0011001713341818006,-0.001067231868326087,9.003176262640691e-05,0.0002953037684671519,-0.0001305620419163607,0.001116966130004849
780.0,-0.0011799726225407686,-0.0011211504536119403,-0.001101590519329313,8.83153933073639e-05,0.00030136922460001427,-0.00013529942068196858,0.001134237865160674
784.9999999999999,-0.001175358509375577,-0.0011411602233131718,-0.001133623051701311,8.808372887722351e-05,0.0003043503117843955,-0.00013798128031475043,0.0011500472614633533
789.9999999999999,-0.0011692108179876775,-0.0011606897539515437,-0.001159589351232209,8.684376513993512e-05,0.0003056231705858654,-0.0001386095522139198,0.00116316330772381
795.0000000000001,-0.0011597544272202967,-0.0011802312406012996,-0.001179242978311835,8.397956099113032e-05,0.00030493369519667287,-0.00013852067191382636,0.0011730762153778105
800.0000000000001,-0.001148786565421054,-0.0011971396411036108,-0.0011931795253940127,8.004554016560349e-05,0.00030459231996417084,-0.00013701548476747994,0.0011797019106395592
805.0,-0.0011352362417836846,-0.0012088274731424555,-0.0011993009063755754,7.467739667514056e-05,0.0003043314359853198,-0.00013372873292220343,0.0011811215404339053
810.0,-0.0011228259890665806,-0.00121764810306302,-0.0012013952012054972,6.778860987204933e-05,0.00030456253992837076,-0.0001298974783374384,0.001180623097778366
815.0,-0.001113923090725574,-0.0012211986292731103,-0.0011969575783027865,6.345672654029632e-05,0.0003063075991652174,-0.00012670911195286513,0.0011773597661004903
820.0,-0.001105754730367826,-0.0012214579667729575,-0.001185439146448352,5.801615117825568e-05,0.00030759163388156585,-0.00012401914351875586,0.0011708839478630452
825.0,-0.0010976448929730966,-0.0012215085505955818,-0.0011716525376930648,4.94412515347696e-05,0.00030871371575454185,-0.00012195962719772545,0.0011636019937539144
830.0,-0.001089814336633878,-0.0012216109671303117,-0.0011576218412141226,3.8850277636815775e-05,0.00031243090368284,-0.00012058149333210647,0.0011563490483261043
835.0,-0.0010830630490983116,-0.0012226558884239108,-0.0011460628362982323,2.8907820520186856e-05,0.000320793020425004,-0.00012169671601788808,0.001150593924606818
840.0,-0.001077317366548624,-0.001223262285863075,-0.0011345304168733378,1.9989907947971555e-05,0.00033152306834010177,-0.00012399845433601548,0.0011450366897616789
845.0,-0.001070023823949723,-0.0012237460739758666,-0.0011202420634816189,1.0686549766734941e-05,0.0003407721847218326,-0.00012525681551208142,0.001138003987135736
850.0,-0.0010576451893225746,-0.0012222781192764009,-0.0010992960965604825,1.1525551213194296e-06,0.0003487848341084397,-0.00012607111621174968,0.001126406468386486
855.0,-0.0010425548284747523,-0.0012204876905388916,-0.0010748546712944307,-9.1671285324033e-06,0.0003555061553818143,-0.00012649360340729923,0.0011126323967693582
860.0,-0.0010262906578303263,-0.0012174414274109832,-0.001049503052641931,-1.887284500743286e-05,0.0003600492382663569,-0.00012642568310370047,0.0010977450459610802
865.0,-0.001006520358894164,-0.0012135158964572319,-0.0010216004689379973,-3.097193445476337e-05,0.00036013541258812857,-0.0001252467515367305,0.001080545574763131
870.0,-0.000984622838339791,-0.0012064670835402376,-0.0009897801701210193,-4.3895510290479914e-05,0.0003564734291348428,-0.00012185520073848372,0.0010602900306670158
874.9999999999999,-0.0009635756849756514,-0.0011957669182363457,-0.000957155628822218,-5.7621865708984665e-05,0.0003487062703842014,-0.00011658517104242631,0.0010388327440114052
879.9999999999999,-0.0009438077013789817,-0.0011821113578646897,-0.0009277303403673609,-7.224822628349872e-05,0.00033908785753748516,-0.00011044869259749313,0.0010178831332036773
885.0000000000001,-0.0009252047414462054,-0.0011658059913902319,-0.0008993820439174927,-8.705914366256352e-05,0.0003275718516204191,-0.00010531368781102598,0.00099679759225131
890.0000000000001,-0.0009087284089198489,-0.0011459676769055565,-0.0008712027449559705,-0.00010054950836704397,0.00031625232815402093,-0.0001005046504112853,0.0009752996102604586
895.0,-0.0008930875110038703,-0.001122924340313498,-0.0008420234525653602,-0.00011242186181509884,0.00030444775441713657,-9.52079430349401e-05,0.0009526784346275762
900.0,-0.0008787945409906941,-0.0010976596079409421,-0.000809110573163952,-0.0001217902536904603,0.00029190808409880535,-8.91230822077278e-05,0.0009285215740318627
905.0,-0.0008644763117045334,-0.0010715325165939185,-0.0007718581681270555,-0.0001288086041341275,0.00028136838704372253,-8.429776396714578e-05,0.0009026223321418358
910.0,-0.0008496312049846004,-0.0010428590323009795,-0.0007290924560707284,-0.00013193183348575202,0.000272870248881623,-7.905896703616943e-05,0.000873860897785436
915.0,-0.0008317398524840728,-0.0010121314300011273,-0.0006771770268180878,-0.0001341652200883084,0.00026414620217727236,-7.360922173796406e-05,0.0008403494364344293
920.0,-0.0008111394218077602,-0.0009810645574055779,-0.0006199269689669666,-0.0001360334747574222,0.0002565765852057284,-6.836359087312377e-05,0.0008040436493934348
925.0,-0.0007881560505134206,-0.0009520369903745971,-0.0005600014334623721,-0.00013738706949390712,0.00025138122573802236,-6.272165825553111e-05,0.0007667314914501299
930.0,-0.0007646425056495647,-0.0009263221144036155,-0.0005002253852871417,-0.00013835544486411237,0.0002484121735819569,-5.752512942906483e-05,0.000730396668446774
935.0,-0.0007416216544898065,-0.0009072770198034517,-0.0004457880578005979,-0.00013883251837530972,0.0002454833361718247,-5.0554110051871754e-05,0.000698228910697952
940.0,-0.0007203379195075246,-0.0008922105420576717,-0.0003989244550439563,-0.0001363394057579779,0.00024216040456869316,-4.3491079006458515e-05,0.0006704909722030509
945.0,-0.000701721737781766,-0.0008800316929293119,-0.0003595164368924468,-0.00013245522786605393,0.00023662784461235957,-3.595145085019897e-05,0.0006470899558678416
950.0,-0.0006866651276342321,-0.0008712736538746121,-0.00032880310034556407,-0.0001265740885384424,0.00022822681425090723,-2.715812060200655e-05,0.0006289139606181361
955.0,-0.0006752193382375592,-0.0008646122106468481,-0.0003042091196605894,-0.00011953674512868156,0.00021644348240733568,-1.6925488193140324e-05,0.0006146802228483322
960.0,-0.0006668340730204409,-0.0008610490065434725,-0.00028500624482804995,-0.0001123648241182477,0.00019974665789925335,-5.078215331962508e-06,0.0006042964414639878
965.0,-0.0006577687274579062,-0.0008581244739513617,-0.0002675503526802745,-0.00010622252481290327,0.000180974978987051,5.805996163657467e-06,0.0005944811846965142
969.9999999999999,-0.0006450370117093317,-0.0008548889605802407,-0.00025100625034931866,-0.00010389878353187863,0.0001613481537036819,1.4742784439757724e-05,0.0005836440742129637
974.9999999999999,-0.0006286728444246635,-0.0008486066012347289,-0.00023477807840764482,-0.000103976145333822,0.00014198306231483627,2.2550826144409e-05,0.0005706858413556791
980.0000000000001,-0.0006072043218335651,-0.0008366567218781278,-0.0002158300199590168,-0.00010727703362449979,0.00012296900683164664,2.9241299695652206e-05,0.0005532303545569033
985.0000000000001,-0.0005800601496736412,-0.0008201237669672455,-0.000193292935036173,-0.00011405128218201066,0.00010357266459555459,3.618083764870338e-05,0.0005311589505590198
990.0,-0.0005483169918558861,-0.0008019076473591389,-0.00016794872053787482,-0.00012466847517386212,8.337299918885792e-05,4.339940595775595e-05,0.0005060577865842999
995.0,-0.0005116649502940323,-0.0007828963877254068,-0.00013528492942263475,-0.00014029098709281834,6.314762575284517e-05,5.117900754860372e-05,0.00047661542248069133
1000.0,-0.00047453902126608726,-0.0007641341394702558,-9.714504324689309e-05,-0.0001596805170382275,4.544074668097762e-05,5.719004673056173e-05,0.00044527273466107875
1005.0,-0.00043966973783256393,-0.0007473132832858375,-5.572139143328081e-05,-0.00017946733143392763,2.917442791000166e-05,6.093658483963464e-05,0.0004142348041838941
1010.0,-0.00040853279716261323,-0.0007314823337837172,-1.1602541351028454e-05,-0.00019849040686823228,1.4151047798694741e-05,6.404530308578534e-05,0.000383872557432453
1015.0,-0.0003830080062743382,-0.0007164612639291457,3.160318927650169e-05,-0.00021625730295150739,1.418849010680478e-06,6.708812613018649e-05,0.0003559553603089941
1020.0,-0.0003599825393421705,-0.0007005420965356255,7.551908221526673e-05,-0.00023191602574729287,-8.778172191860052e-06,6.962021925924154e-05,0.0003283351845541764
1025.0,-0.0003389992740983212,-0.0006842170381261121,0.0001212581304171209,-0.0002459182342195865,-1.7662320090916112e-05,7.33108461458886e-05,0.00030065272726910415
1030.0,-0.00032058278593034606,-0.0006657111198588345,0.00016845254392516728,-0.0002578685932771089,-2.4645410464691067e-05,7.814752094201761e-05,0.0002726137872880044
1035.0,-0.0003071174503628274,-0.0006436362038109265,0.0002170616662006324,-0.0002650738153201592,-2.8729960359231526e-05,8.359425659960459e-05,0.0002445639959910405
1040.0,-0.00029700530428399447,-0.0006195088759220367,0.0002663987872064593,-0.0002684574904117631,-2.9443573398411616e-05,8.992853124907293e-05,0.0002167051309998573
1045.0,-0.0002883820035535575,-0.0005921026459560156,0.0003174745786816983,-0.0002700547675067022,-2.9653293090588555e-05,9.548851183274305e-05,0.00018767002360929163
1050.0,-0.0002801624550081098,-0.0005633745737143989,0.00037227204994020533,-0.0002701974380311508,-3.001150574913141e-05,9.973291044207075e-05,0.00015708832626076778
1055.0,-0.0002721651814916481,-0.0005366417717044185,0.00042851923508335684,-0.00026805536617116084,-3.3573124783709704e-05,0.00010327513184991604,0.0001267625727042366
1060.0,-0.00026548453285995817,-0.000515017892150932,0.0004785807640447982,-0.00026445457044070857,-3.9835526633476134e-05,0.00010446670559362845,0.000100640553655364
1065.0,-0.00025936818629158654,-0.0004957391497770167,0.0005236695020419496,-0.0002589044685146224,-4.670302125248604e-05,0.00010428818945727359,7.714594467555118e-05
1070.0,-0.0002551433847174113,-0.0004777643211326623,0.0005632089724258763,-0.00024921218027341285,-5.6243717714979973e-05,0.00010549126906149545,5.6566244474732423e-05
1075.0,-0.00025231961244921106,-0.00046259339420815464,0.0005978773665477265,-0.00023595432029068522,-6.625007182603615e-05,0.0001078134822865645,3.9011880036546385e-05
1080.0,-0.0002493525348556188,-0.00045125079009677635,0.0006292205213547186,-0.00022071531437349904,-7.504623253264098e-05,0.00011098947056924967,2.3794267865892207e-05
1085.0,-0.0002456797033409298,-0.0004444219344619439,0.000658572002585878,-0.00020580077000408763,-8.096024867936228e-05,0.00011272520491518602,1.0509878405665245e-05
1090.0,-0.0002388741817915556,-0.00044022248110005475,0.0006877104973924054,-0.00019240254612786834,-8.39672750453418e-05,0.00011264415137230223,-2.871278166931684e-06
1095.0,-0.00022867462926858028,-0.0004379507728008567,0.0007161134908734056,-0.00018218976195996284,-8.4121568999965e-05,0.00011017588002204549,-1.649602960132287e-05
1100.0,-0.00021452272235360462,-0.0004360681473582468,0.0007450110270235642,-0.00017365880274973096,-8.144105571181044e-05,0.00010599739379679534,-3.147338577057094e-05
1105.0,-0.0001965339427753114,-0.0004332176849706815,0.0007733777608998597,-0.00016598746555986527,-7.517325512623896e-05,9.846381978108112e-05,-4.787537771795561e-05
1110.0,-0.00017593235131770643,-0.0004293529023354001,0.0008006533047425837,-0.00016109932122010658,-6.729754004414505e-05,8.946720895529998e-05,-6.51226836964924e-05
1115.0,-0.00015334355077992195,-0.0004254884873687483,0.000824328853145052,-0.00016144631582099418,-5.522640728402385e-05,7.763354248019089e-05,-8.183227166546059e-05
1120.0,-0.00013235367368530612,-0.00041973404162463647,0.0008458044233898268,-0.00016548172464186042,-4.241007059428807e-05,6.26783808809615e-05,-9.790556935996139e-05
1125.0,-0.00011163416619819687,-0.00040976259945438954,0.000867488361918686,-0.00017381306127199324,-2.8743312250876017e-05,4.6597118447609395e-05,-0.0001153638654220332
1130.0,-9.009640953668144e-05,-0.00039331686649919705,0.0008928240259202301,-0.00018460416752544986,-1.5311330024189918e-05,3.070212484946633e-05,-0.00013647024996145054
1135.0,-7.030546701473709e-05,-0.0003743825637276401,0.0009202652847775532,-0.0001970336982492573,-2.440832241063442e-07,1.4387561910661055e-05,-0.00015852575134505864
1140.0,-5.19323765894902e-05,-0.00035339075476804475,0.0009502162638521038,-0.00021010142523493434,1.5317072976931412e-05,6.058909543474875e-07,-0.00018163104416485628
1145.0,-3.4880568028952906e-05,-0.0003340104033718677,0.0009803559582735907,-0.00022415715833946936,3.136749709883506e-05,-1.0320031128057347e-05,-0.00020382166229092336
1150.0,-2.2159840961322293e-05,-0.0003181250330134225,0.0010107040601162415,-0.00023765135506130788,4.7535283618714104e-05,-1.9282008697936163e-05,-0.00022347306204716558
1155.0,-1.3149544391532364e-05,-0.000305645310462989,0.0010402765251210856,-0.0002491702937826265,6.120770522719326e-05,-2.561689414620029e-05,-0.00024049389008885477
1160.0,-7.976240280396862e-06,-0.0002966112019057397,0.0010675592922519276,-0.00025675277265868515,7.320013736567452e-05,-3.007056794543336e-05,-0.00025432395002193036
1165.0,-6.64381768812191e-06,-0.0002938788839881943,0.0010889971153560593,-0.000260179501235294,8.168610458280008e-05,-3.1883199185889604e-05,-0.00026282480455991434
1170.0,-8.02189493142403e-06,-0.0002950041036862853,0.0011063623250593207,-0.0002597188168970518,8.763488192962949e-05,-3.2754216712574615e-05,-0.00026777877548053714
1175.0,-8.604656142911557e-06,-0.0002975736143762007,0.001122550884678382,-0.00025842525306708753,8.867674672662799e-05,-3.112805874535885e-05,-0.00027212420471975655
1180.0,-6.723178994004433e-06,-0.000298572586953653,0.001141460791875775,-0.00025468033703392987,8.493518616571396e-05,-2.577550103389502e-05,-0.0002787216753093725
1185.0,3.512179147110294e-07,-0.0002984404239172526,0.0011646046133938469,-0.0002512594447596362,7.585928516869056e-05,-1.5442403757658382e-05,-0.0002888384691304351
1190.0,1.1433929945104528e-05,-0.0002942847839347922,0.0011912513493391574,-0.0002474846880671079,6.22036008000965e-05,-5.962518327051255e-07,-0.0003028001651164899
1195.0,2.7861492255810763e-05,-0.00028591135037199993,0.0012221653814231564,-0.0002440045655352627,4.4771466707106076e-05,1.8676698773129812e-05,-0.0003213718411023224
1200.0,4.653193849853163e-05,-0.0002731878063317793,0.0012548893871910404,-0.00023963374589330857,2.529001150578616e-05,4.1889969944363e-05,-0.0003427445064525976
1205.0,6.825439717696841e-05,-0.00025687640045913754,0.0012901292629029977,-0.00023714027172614562,5.7590206498597775e-06,6.675761805314211e-05,-0.0003671690865402762
1210.0,9.055933102976577e-05,-0.00023634923591832677,0.0013268545227411964,-0.00023524547561262613,-1.2756303049635941e-05,9.260460784142156e-05,-0.0003936882059508784
1215.0,0.00011605849789407524,-0.00021240647480571124,0.001365153650966233,-0.00023330189237890964,-2.985328383283627e-05,0.00011911163656491606,-0.00042293522468486564
1220.0,0.00014269877298771252,-0.0001901524413054641,0.0013984483645395913,-0.0002333280249450444,-4.313319154430406e-05,0.00014489736399615424,-0.00045033156540727986
1225.0,0.0001674422009664802,-0.00016900461594317144,0.0014256776916340272,-0.00023298958139796475,-5.1992736204384035e-05,0.00016859462335750734,-0.00047470509221911203
1230.0,0.00019002064196324176,-0.00014917996583886374,0.0014460866598689048,-0.0002314507002191862,-5.914337201860249e-05,0.00018988199291447764,-0.0004956424453310943
1235.0,0.00021105793149154124,-0.00013112822159738925,0.0014615663681165863,-0.00022925656220849555,-6.242856351507147e-05,0.00020686690363909074,-0.0005138320260035795
1240.0,0.00023057378480163002,-0.00011512949639925115,0.0014725488223165187,-0.0002262875860178739,-6.272612806740211e-05,0.00022083424965246026,-0.0005293310369062992
1245.0,0.00024711239112819473,-0.00010284250841568851,0.0014769120939709434,-0.00022257039970848184,-6.225138215930654e-05,0.00023150984981256003,-0.0005403939922278165
1250.0,0.0002607182629590942,-9.204281551370601e-05,0.0014773423112180043,-0.00021631909783620038,-6.281786711420478e-05,0.00023935449721615665,-0.0005486725862211308
1255.0,0.00026959134564312064,-8.259873962118157e-05,0.001473750770700278,-0.0002064520028135286,-6.575829130020571e-05,0.0002454294377928207,-0.0005535811255740723
1260.0,0.0002708468709165096,-7.29284304702123e-05,0.0014646269149721494,-0.00019212612883737085,-6.854206617513005e-05,0.0002493855142241179,-0.0005541817851394822
1265.0,0.00026445160470802223,-6.293554191512685e-05,0.0014470893152920914,-0.00017368288357489804,-7.183387685283089e-05,0.00025259698379526146,-0.0005495351260283289
1270.0,0.0002553692949257311,-5.115090831769061e-05,0.0014262108919573695,-0.00015454031025107342,-7.987434804312319e-05,0.0002576207550333956,-0.00054347642618847
1275.0,0.00024319454023131914,-3.446871299965804e-05,0.001405511539689905,-0.00013328453621365145,-9.102267224146543e-05,0.00026330382272135805,-0.0005380791223071887
1280.0,0.00022726453882990338,-1.6117934032292975e-05,0.0013821353470289115,-0.00010976557588879966,-0.00010277915686725825,0.00026967215246087253,-0.000531093983942174
1285.0,0.00020797853616973694,1.0265223207789555e-06,0.0013582110243420332,-8.360104536525439e-05,-0.00011566443974691737,0.00027612058623536703,-0.000522405360944183
1290.0,0.00018494336738980843,1.7556997704210443e-05,0.0013340596578072406,-5.482965103305146e-05,-0.00013084199816329513,0.00028208173910593834,-0.0005121866743004198
1295.0,0.00015717592178574792,3.1690746897775287e-05,0.0013074907931382958,-2.5986076681458666e-05,-0.00015154830089332002,0.000289813628338679,-0.0004987858206072731
1300.0,0.00012470476488747714,4.08815878008653e-05,0.0012786530459822061,2.781526576363336e-07,-0.0001746691814615192,0.0002974017400286634,-0.00048141313289018283
1305.0000000000002,9.025146098448161e-05,4.5562340664612576e-05,0.001251068140253591,2.2904947356389438e-05,-0.00019846931871299493,0.00030383797636150705,-0.0004622939806342284
1310.0,5.490175276531086e-05,4.4993707545946475e-05,0.0012248454591175964,4.2530769739108507e-05,-0.0002211751373729169,0.0003084986156369872,-0.00044158030647628463
1315.0000000000002,2.1854277820781535e-05,4.071965007352073e-05,0.0011994032138908622,5.8972371944909744e-05,-0.0002426790547114702,0.0003119755785979832,-0.0004206590472617215
1320.0,-8.7638661327305e-06,3.279272509234456e-05,0.0011734529569034807,7.113783068268294e-05,-0.0002631635226048874,0.0003132647552751318,-0.00039916060528769824
1325.0,-3.597612753417117e-05,2.292923439822877e-05,0.0011470186882303812,7.976104433101615e-05,-0.00028104386027704597,0.00031058358525774766,-0.0003779905983648129
1330.0,-6.1021875698366845e-05,1.1502350984207197e-05,0.0011183648505734265,8.663530220614908e-05,-0.00029668038627326035,0.0003059811743005743,-0.00035628177528642226
1335.0,-8.171008688652733e-05,2.0966287367363795e-06,0.0010895324503631993,9.28646211423462e-05,-0.0003076418643079768,0.00029923943647196764,-0.0003366396640711361
1340.0,-9.563900917106449e-05,-5.04985696146641e-06,0.0010628634869335703,9.800274577937504e-05,-0.0003131000169395534,0.00028932952593156675,-0.0003207248736003465
1345.0,-0.0001045284692059659,-7.826918983142338e-06,0.0010372464719651225,0.00010336776872555683,-0.00031212127130524016,0.00027756702424390186,-0.0003082970279253381
1350.0,-0.00010675043630493254,-5.973609586199701e-06,0.0010137816073995378,0.00010913839114996,-0.0003065492867570611,0.0002642387772542495,-0.00030035252050280187
1355.0,-0.00010152717848910417,-4.161350151690755e-06,0.000993453787413023,0.0001110891544742516,-0.00029875791819181975,0.000249973418207944,-0.00029592175292407605
1360.0,-9.079312624914654e-05,-3.511408395500518e-06,0.0009753909714819658,0.00010866763371927016,-0.00029075421229732566,0.0002369991991067746,-0.0002936954789457729
1365.0,-7.717009568379675e-05,-6.929803264589578e-06,0.0009568318400808868,0.00010528113556412757,-0.00028164463539934805,0.00022338233479165422,-0.0002909106470441668
1370.0,-6.203557802415141e-05,-1.4420102424376515e-05,0.0009384906620503626,9.987681702441365e-05,-0.0002696773412281454,0.00020776501320792258,-0.0002873449938672782
1375.0,-4.397242693204433e-05,-2.5738810773947616e-05,0.0009243734156978646,9.138681288625642e-05,-0.0002522413309751789,0.00019078795788385447,-0.00028488739266395755
1379.9999999999998,-2.6263051098328598e-05,-3.8834174809979644e-05,0.0009136742469838467,8.079992373414606e-05,-0.00022956007125517067,0.00017226704515472236,-0.00028285900702517953
1385.0,-9.468128374650589e-06,-5.314063819982952e-05,0.0009070573383593342,6.952983941550807e-05,-0.00020397511659389343,0.00015362732154766383,-0.00028148285726161803
1389.9999999999998,6.850015211036466e-06,-6.642345398449795e-05,0.0009076336134700436,5.8072282688155825e-05,-0.00017549117435058841,0.00013524421898331775,-0.0002826867248988607
1395.0,2.2951776709677617e-05,-8.025538265531428e-05,0.0009139965794671831,4.467025795623864e-05,-0.00014560321228852897,0.0001191227879030786,-0.00028556432450718217
1400.0000000000002,3.941006386536666e-05,-9.259754580737897e-05,0.0009268808959363379,3.055037229127494e-05,-0.00011704680427009635,0.00010676354359091616,-0.0002912311379981085
1405.0,5.4739163826615535e-05,-0.00010332937127884554,0.0009447275792615777,1.6887706477170984e-05,-9.0384666570689e-05,9.647675993092159e-05,-0.00029871245726978255
1410.0000000000002,7.03735830310074e-05,-0.0001105549706877565,0.0009690236186876743,4.1743106397550606e-06,-6.719451589804171e-05,8.886715438629398e-05,-0.0003096140770103084
1415.0,8.608695876453097e-05,-0.00011548104398740832,0.0009993967461858677,-8.997751481507324e-06,-4.741830012581187e-05,8.42808864997563e-05,-0.0003233342203209968
1420.0,0.00010329689189152458,-0.00011577514809095563,0.0010376216320334686,-2.3336104379935117e-05,-3.0903782678307147e-05,8.128140530586204e-05,-0.00034171445861134585
1425.0,0.0001240849845027541,-0.00011134123738353155,0.0010846078794208842,-4.045057561140956e-05,-2.002519606516515e-05,8.014334828141206e-05,-0.00036578387551336895
1430.0,0.00014472495754913817,-0.00010570316119864009,0.0011352967031244433,-6.062119683675295e-05,-1.3331959868536024e-05,8.040860329312575e-05,-0.00039143949982498044
1435.0,0.0001657832119830835,-9.900270964397227e-05,0.0011887445880073618,-8.191763540161717e-05,-1.3000943707493909e-05,8.26542840893821e-05,-0.00041850836344882437
1440.0,0.00018610950985633508,-9.193831869086252e-05,0.0012402548211587988,-0.00010328004413742994,-1.580395354926718e-05,8.357703470760531e-05,-0.0004448086707747572
1445.0,0.00020616231580812398,-8.5970032478035e-05,0.0012871779142548912,-0.00012366520738842164,-2.02688935936862e-05,8.489944819692008e-05,-0.0004691233991949934
1450.0,0.0002276219532872343,-8.111388082924339e-05,0.0013330910303401436,-0.0001451774485546948,-2.6257642060624746e-05,8.590485412428341e-05,-0.0004931997009327114
1455.0,0.0002454509656442743,-7.70269774677384e-05,0.0013743304073019534,-0.00016383861773831696,-3.527406382206964e-05,8.699223080391379e-05,-0.0005142514651594964
1460.0,0.0002611028440426418,-7.418963183190056e-05,0.0014112991804720433,-0.00017830959750271576,-4.7368099500998096e-05,8.792547415965025e-05,-0.0005327374642275949
1465.0,0.000275687330501415,-7.272202399553287e-05,0.0014439929597775873,-0.00019104830384038106,-6.0110206637023246e-05,8.828466438136826e-05,-0.0005489860887611565
1470.0,0.0002854188314027063,-7.17213772099463e-05,0.0014723366458049413,-0.00019969430250055479,-7.518772196274554e-05,8.98403522908657e-05,-0.0005620113666659005
1474.9999999999998,0.0002903391106351518,-6.957567275345452e-05,0.0014977376460195888,-0.00020221956347548373,-9.04193659182165e-05,9.18012811961243e-05,-0.000572833694633762
1480.0,0.0002926494758021325,-6.365649834153431e-05,0.0015216203923190009,-0.0001990911440735843,-0.00010721342231166111,9.460640594847419e-05,-0.000583537789926533
1484.9999999999998,0.00029394293273405275,-5.356225398808687e-05,0.0015439106737039395,-0.00019094363592477394,-0.00012794034875199858,9.978482835776903e-05,-0.0005947637841499685
1490.0,0.00029188053823710035,-4.185817873839373e-05,0.0015610095159179474,-0.0001762058536265623,-0.0001506413637714318,0.00010601495017278639,-0.0006036772918055513
1495.0000000000002,0.0002889927001955707,-2.8058014879831354e-05,0.001576242240798677,-0.00015711268507248257,-0.00017423719580751657,0.00011246009247460013,-0.0006123923087048054
1500.0,0.0002843180469840322,-1.3760208458120498e-05,0.00158764655047727,-0.0001331749018536358,-0.00019927771472333394,0.00012005380060540041,-0.0006194014630010606
1505.0000000000002,0.00027571812637538606,1.0451320899946877e-06,0.0015945996596840048,-0.0001047530155403754,-0.00022300252773451543,0.00012689358771808288,-0.0006237876393831286
1510.0,0.00026226547907495703,1.6596125382178552e-05,0.0015944102564892486,-7.328377756913322e-05,-0.0002442017210767541,0.000132456081537523,-0.0006244239536487947
1515.0,0.0002466631961944065,3.0874454307843274e-05,0.0015883482851965767,-4.1737589981171716e-05,-0.00026355373204859793,0.0001370736058616898,-0.0006219619785662755
1520.0,0.0002290787630187833,4.549938920258371e-05,0.0015812392604463903,-1.0364900083420483e-05,-0.0002812744781543616,0.00014181330816749268,-0.0006186058042225857
1525.0,0.00021100058934657036,6.15785203474161e-05,0.0015752826210001904,2.0487196996638493e-05,-0.00029626437688079493,0.00014408823035173588,-0.0006159539102313922
1530.0,0.00019378050522833742,7.61181134685566e-05,0.001568100609740739,4.8510319115348236e-05,-0.00030948532117223293,0.00014441345243603457,-0.0006126664094792111
1535.0,0.0001802731014830361,8.928371133100257e-05,0.001564820627252249,7.157329117780459e-05,-0.00032195250651179287,0.00014341550333356735,-0.0006114591466887626
1540.0,0.00017151538107821457,0.00010304169206806878,0.0015683303323268832,9.273834506872086e-05,-0.0003326088314101328,0.00014035318796769874,-0.0006142958018243888
1545.0,0.00016939285824300602,0.00011846800112213345,0.001579097971246665,0.00011014312887797179,-0.0003418316129496185,0.00013647620081150985,-0.0006223196102039348
1550.0,0.00017328256092843464,0.000136091056932561,0.0015944521564968874,0.000123268649911012,-0.0003515886412996349,0.00013393826121247554,-0.0006346085914526277
1555.0,0.00018076664115565448,0.00015476934556592038,0.0016125200501715766,0.0001334846529308851,-0.00036033239481497395,0.00013469202551895308,-0.0006493520122977172
1560.0,0.00019037819377606374,0.00017238370840679603,0.001631067186709661,0.00014168064225054285,-0.00036715726481952835,0.0001379099904491595,-0.000664609696297507
1565.0,0.00020222099919710955,0.0001867846882663036,0.001647572898807863,0.00014821186497027654,-0.00037045514734405184,0.00014416518833871553,-0.000678859528757092
1569.9999999999998,0.00021548820212627503,0.00019796472660566752,0.0016615113837975533,0.0001539618865542359,-0.0003719896657745685,0.00015446001334704218,-0.0006916547708431652
1575.0,0.0002290722448224624,0.0002076749552306116,0.001675559818056831,0.00016097420573991722,-0.00037119045278403165,0.000168625865926787,-0.0007041023393699683
1579.9999999999998,0.00024204436917441062,0.0002192393836085167,0.0016900615350004726,0.0001704650135937931,-0.0003652608581285888,0.00018512490527351826,-0.0007171150959277999
1585.0,0.0002546846634470377,0.00023343394167096935,0.0017053492678233222,0.000181230935716435,-0.0003530206627444006,0.00020096274735932151,-0.0007311559576471098
1590.0000000000002,0.0002684301254475909,0.0002479712182754222,0.001720627923061361,0.00019132808818216496,-0.00033509162676149663,0.00021526837104325925,-0.0007456764222614579
1595.0,0.0002831096547551368,0.00026350074510324414,0.0017359445478681156,0.0002020353606153354,-0.00031486659961937695,0.0002268227122457205,-0.0007608516492421655
1600.0000000000002,0.0002954320751606055,0.00027753726993387306,0.001747635023184358,0.00021197225525319675,-0.00029082476535608067,0.00023328174856020815,-0.0007735347894262789
1605.0,0.0003059855874528145,0.0002899099363796899,0.0017566079330980351,0.0002206613513076528,-0.00026602605866372204,0.00023612424216889655,-0.0007841678189768465
1610.0,0.0003133691632070334,0.0002988459149212517,0.0017600075728979629,0.00022928234584952234,-0.0002418680328430881,0.00023377906295606138,-0.000790740883675416
1615.0,0.0003196020054195255,0.00030446790311805885,0.0017569587946029358,0.00023564109272385158,-0.0002186384144698477,0.00022646403206839173,-0.0007936762343801734
1620.0,0.0003226915384028383,0.00030578511180364955,0.0017458304817537012,0.00024032454416468332,-0.00019555520362666198,0.00021482410856293448,-0.0007914357106533964
1625.0,0.0003252082450310177,0.0003033264996244381,0.0017291994670590935,0.00024088963168464325,-0.00017321485356290453,0.000199845575469164,-0.0007859114039048498
1630.0,0.0003287753995384752,0.00029784859256499466,0.0017107151035082022,0.0002376108020806586,-0.00015319783146470366,0.00018556287654541013,-0.0007791130318705574
1635.0,0.0003354638652202275,0.0002898019644850283,0.0016924780388660435,0.0002314822306065823,-0.00013728159918604738,0.00017319109620874768,-0.0007725812895237664
1640.0,0.0003469366274329127,0.0002816949987169076,0.0016767872853385869,0.00022099876180156378,-0.00012451969154900203,0.00016263785552904906,-0.0007684729704961358
1645.0,0.0003632788626401381,0.00027611458412010156,0.0016673002876491146,0.00020782125303775735,-0.00011351616027754108,0.0001525063201234193,-0.0007688979114697848
1650.0,0.0003845542179349427,0.0002725243051855244,0.0016646685674800506,0.0001903208925363199,-0.00010315270774042354,0.00014140572888597286,-0.0007739156968668391
1655.0,0.00040881689278173883,0.00027095392575400486,0.001668004508039344,0.00016855569453767873,-9.304554444382622e-05,0.00013033981142438272,-0.0007825917755250292
1660.0,0.0004353137463480065,0.00027115657098736117,0.0016766945046082428,0.0001427028971343837,-8.41199813164868e-05,0.00012071635086025644,-0.0007943882739812035
1664.9999999999998,0.00046119727767226354,0.0002733529043292538,0.0016870779668177347,0.0001155537383292263,-7.523083515606885e-05,0.00011249314481739889,-0.0008072093829397508
1670.0,0.00048475773223942214,0.00027449599161557983,0.0016958985755648971,8.632067850222671e-05,-6.490000580195022e-05,0.00010569597723959279,-0.000818384099806633
1674.9999999999998,0.0005056285974112385,0.0002776557277801542,0.001704597699217224,5.739088244896505e-05,-5.38703860364101e-05,9.98629225510058e-05,-0.0008292940081362056
1680.0,0.0005209998771046029,0.00027823731123295545,0.0017118675269682901,2.7507641913475034e-05,-4.323647661850713e-05,9.408671831835641e-05,-0.0008370349051019495
1685.0000000000002,0.0005290548192864928,0.0002769621443066322,0.0017146110073387327,-2.440317541238853e-06,-3.709204418444885e-05,9.028065190105807e-05,-0.0008402093236439525
1690.0,0.0005306939083165292,0.00027293844709233583,0.0017142400436739509,-3.2898937831666955e-05,-3.14691045966711e-05,8.762803701091352e-05,-0.000839290799694272
1695.0000000000002,0.0005236961925254461,0.0002665502305536403,0.001710897734420875,-6.151756268831996e-05,-2.5565854604637437e-05,8.542255704941707e-05,-0.0008337147191666538
1700.0,0.000510075731813391,0.00025860512650826667,0.0017044084715866243,-8.91292360785351e-05,-2.0601520532152373e-05,8.406482271751828e-05,-0.0008243631099694274
1705.0,0.0004925024298961416,0.00024749433199209393,0.0016960107954009582,-0.00011761247957021996,-1.656205098492262e-05,8.351130820301229e-05,-0.0008120025190963978
1710.0,0.0004738501142591859,0.00023339484540279475,0.0016861781496533387,-0.00014627288248923636,-1.2851083924778318e-05,8.29621833572966e-05,-0.0007978077031051065
1715.0,0.0004538487567560881,0.00021919760737092292,0.001676492923350516,-0.00017112935183337765,-1.0588445536689638e-05,8.150485570832822e-05,-0.000783179762492509
1720.0,0.0004339462988775946,0.00020573663034856415,0.0016658700199844593,-0.00019237369067386694,-8.649043484324814e-06,7.828995888956489e-05,-0.0007685176497368726
1725.0,0.00041232850409707105,0.00019095706314432897,0.0016526985691852753,-0.00020907141154315607,-3.755364154928546e-06,7.241740685793488e-05,-0.0007519947121422252
1730.0,0.0003890716425346283,0.00017497035328846124,0.001637003698966715,-0.0002185449825142032,2.212820106589732e-06,6.438552259237754e-05,-0.000733681898263268
1735.0,0.00036208735880572643,0.00015952615407820511,0.0016185113241730055,-0.00021983207211692316,7.707599540215397e-06,5.53193526523542e-05,-0.0007133749456856457
1740.0,0.0003309459495112277,0.00014318749082470913,0.0015959487314452835,-0.00021538590338422903,1.2327614250209159e-05,4.6106588183405744e-05,-0.0006900273905937401
1745.0,0.00029647326996386957,0.00012843396919020526,0.0015704075510894135,-0.0002050853960868263,1.8501038141188312e-05,3.524460253753579e-05,-0.0006651049300811628
1749.9999999999998,0.000258277844791891,0.00011501369163198064,0.0015410417654121507,-0.00018962144363933713,2.3151928776992678e-05,2.4264420346112864e-05,-0.0006381111006120075
1755.0,0.00021804877861807508,0.00010252395497828643,0.001507798124105297,-0.00017012623966659342,2.6287995527090286e-05,1.3178035653018411e-05,-0.0006094569525672195
1759.9999999999998,0.00017392829180813707,9.060441506236019e-05,0.0014696112707893736,-0.00014585103423428163,2.951245478659216e-05,5.23760481956269e-07,-0.0005780479925532903
1765.0,0.00012790995026155843,8.332102024449317e-05,0.001428037205258815,-0.00011674316535159009,3.216292105937946e-05,-1.1983374714008424e-05,-0.0005464227252549556
1770.0000000000002,8.048058174176496e-05,7.78027324340043e-05,0.001381282502067324,-8.517687976266406e-05,3.528139303609368e-05,-2.4130470166503926e-05,-0.0005131886054143645
1775.0,3.413254009391903e-05,7.336201680960374e-05,0.00133036198501149,-5.264823616715962e-05,3.8670925237754895e-05,-3.438243371688219e-05,-0.0004792855139716709
1780.0000000000002,-9.014902427190434e-06,6.963452920397455e-05,0.0012811122404850798,-1.925601371334375e-05,4.2059649311372144e-05,-4.2293315533360246e-05,-0.00044724395575395466
1785.0,-4.447753811052756e-05,6.576408355140214e-05,0.0012372722372601004,1.4404286025515323e-05,4.333201523382949e-05,-4.755994029374877e-05,-0.00041951959423365835
1790.0,-7.312021743961002e-05,6.154976264575092e-05,0.001199967699389588,4.551831577614628e-05,4.1112266412182254e-05,-4.979152630996476e-05,-0.000396132414865243
1795.0,-9.658690489704354e-05,5.6678750665793416e-05,0.0011683128452585503,7.276493885995823e-05,3.727227190469468e-05,-5.170754509568473e-05,-0.00037613489700910006
1800.0,-0.00011501687867140702,5.0597782230496336e-05,0.0011443638415233352,9.593676816684202e-05,3.371300354334992e-05,-5.340999653836432e-05,-0.0003599815816941415
1805.0,-0.00012926259964286162,4.0651967103850786e-05,0.001125522746830887,0.00011377084721125328,2.9709161350962305e-05,-5.412893299371143e-05,-0.0003456373714306254
1810.0,-0.00014003850714334478,2.6391911902073477e-05,0.0011111095029350494,0.00012729282640188755,2.4235281269077928e-05,-5.320812122318262e-05,-0.0003324876358979261
1815.0,-0.00014592131541512905,8.520086288433575e-06,0.0011006653352928614,0.00013620156342977104,1.7064493017730246e-05,-5.100422774618562e-05,-0.000321088035388722
1820.0,-0.00014831543181969553,-1.0012362687381116e-05,0.0010911664736598617,0.00014377072301613016,8.909792041143465e-06,-4.6918988723692946e-05,-0.0003109462263842617
1825.0,-0.0001478931501997089,-2.8346480724648412e-05,0.0010806113414840283,0.00015017487872697718,8.33133278660725e-07,-4.1127070487913915e-05,-0.0003014572368532237
1830.0,-0.0001421551589208915,-4.486325322024872e-05,0.001069349937294267,0.00015521833678503504,-3.749107088491516e-06,-3.709284683093065e-05,-0.0002941105083843756
1835.0,-0.00013353460498446534,-5.90624000305557e-05,0.001056357448788948,0.00016086489968895215,-4.026050135937395e-06,-3.4760585821264395e-05,-0.0002879201479246423
1840.0,-0.00012127300771311498,-7.08359485028393e-05,0.001042004306056433,0.00016480617910393612,-1.7444100970310944e-06,-3.443279315269446e-05,-0.00028329844994682624
1844.9999999999998,-0.00010774134582713548,-8.181569021026934e-05,0.0010234498390582704,0.000165863440295516,2.5387882472273428e-06,-3.536448873610583e-05,-0.0002779642676736219
1850.0,-9.380687659545455e-05,-9.114845472457869e-05,0.0010029731992327717,0.00016294879126540774,9.226135348071758e-06,-3.728267498569433e-05,-0.00027267262263757947
1854.9999999999998,-8.308668131933696e-05,-9.670042453228304e-05,0.000982241526326133,0.0001610104227106795,1.908528056283471e-05,-4.0419218486933685e-05,-0.0002674848068248377
1860.0,-7.790120488402161e-05,-0.00010178733564219644,0.0009563111550379748,0.00016055184999435457,3.193691152621836e-05,-4.488904133965198e-05,-0.0002588742048372522
1865.0000000000002,-7.932169734008526e-05,-0.00010763679210452991,0.0009244966621093037,0.00016184677511746847,4.7232085675194184e-05,-4.8944064391201346e-05,-0.0002458460575548962
1870.0,-8.69708215087885e-05,-0.0001160443468184443,0.0008876343318396572,0.00016586444559651387,6.06246941634467e-05,-5.143245127038704e-05,-0.00022820638783747479
1875.0000000000002,-9.87717488586891e-05,-0.00012776759114636383,0.000850957479027777,0.00016820771050712576,7.283279836280368e-05,-5.195526985867124e-05,-0.00020813937967424138
1880.0,-0.0001121894514597774,-0.00014106945932943475,0.0008176507540579191,0.00016808581449348205,8.115608326325024e-05,-4.9399476065263314e-05,-0.00018813061442290234
1885.0,-0.00012537223482996874,-0.0001525906637495196,0.0007890500718313434,0.00016778120862735347,8.536149811492136e-05,-4.3047516137586165e-05,-0.00017036239108395167
1890.0,-0.0001384489530876731,-0.0001647205440242022,0.0007610241548336718,0.00016524879460262152,8.528063057772867e-05,-3.347873284643916e-05,-0.00015261821924059886
1895.0,-0.0001529970370300368,-0.00017883086151575906,0.000732756776934227,0.0001598626605775948,7.898339450686081e-05,-1.9062480417168186e-05,-0.0001336429594628104
1900.0,-0.00016880086218826415,-0.00019177142327493908,0.0007056365714991408,0.00015293456442980072,6.935802951045487e-05,-2.3073493515012833e-06,-0.00011502142867864585
1905.0,-0.00018120666173648587,-0.00020276743447135713,0.0006822658046831401,0.00014406745411852588,6.0155993894417616e-05,1.5251285901749922e-05,-9.943056949176572e-05
1910.0,-0.00019069597128678223,-0.00021245335944631265,0.0006616679320681934,0.00013372994790898958,5.129667874830152e-05,3.350734835888946e-05,-8.617286711169949e-05
1915.0,-0.00019815216375581302,-0.00022098592301931393,0.000645207645741543,0.00012326593044272344,4.114231773029643e-05,5.270696314420309e-05,-7.535651965547202e-05
1920.0,-0.0002050145280369281,-0.00022837399426364245,0.0006316498252338704,0.00011183977909717075,3.396021105925579e-05,7.045278835016387e-05,-6.60871009777666e-05
1925.0,-0.00021188180545463512,-0.00023868700401416735,0.0006157152127533909,9.829312336569665e-05,3.1928246512682e-05,8.539479421599103e-05,-5.504880109486282e-05
1930.0,-0.00021856933968325817,-0.0002517921546409869,0.0005966172669013531,8.445759673339904e-05,3.784235971852804e-05,9.476772631360516e-05,-4.20852575257027e-05
1935.0,-0.00022485314869139146,-0.00026697551157434904,0.0005762380487822863,7.258941916317365e-05,5.114727495692738e-05,9.80334254399875e-05,-2.813646283884863e-05
1939.9999999999998,-0.00022844890965507142,-0.0002826799709508893,0.0005543477773911658,6.0086117559786166e-05,6.973887421793004e-05,9.496491399854846e-05,-1.4406298928401718e-05
1945.0,-0.00023146496486938135,-0.00029853748553030696,0.0005313830152916724,4.542282708128259e-05,9.152545450246919e-05,8.591439585305379e-05,-4.601882973280123e-07
1949.9999999999998,-0.00023604933393476876,-0.0003139110394862613,0.0005074298657139812,2.9429391907919087e-05,0.00011569657728180515,7.139214305409633e-05,1.417683590234962e-05
1955.0,-0.0002415300539194895,-0.00033291928356143013,0.0004824013792709079,1.0158515662154022e-05,0.00014269559009002993,5.181462989228464e-05,3.068265273667057e-05
1960.0000000000002,-0.0002478042914301926,-0.0003560125216883835,0.0004552684675107222,-1.2852761053460508e-05,0.00016956509184245098,2.8704835346653017e-05,4.951611520261798e-05
1965.0,-0.0002547523688669102,-0.000381903759834043,0.0004276782755004796,-3.7424511956260784e-05,0.0001943217662661667,3.220380588306519e-06,6.965928440015786e-05
1970.0000000000002,-0.00026343289246297534,-0.00041148683486324686,0.00039706990321770023,-6.106002693867521e-05,0.00021794276688385974,-2.168701444355044e-05,9.261660803617399e-05
1975.0,-0.00027187517957122186,-0.0004458455493068273,0.00036557887116328954,-8.708904505746715e-05,0.00023755804735683248,-4.396717201431981e-05,0.00011738061923825318
1980.0,-0.0002774399798797221,-0.0004780308065075804,0.0003383213506806069,-0.00011186033219306374,0.00025428936047764816,-6.301587165938934e-05,0.0001390498119022319
1985.0,-0.000281204053042819,-0.0005057721871965226,0.000313902248677691,-0.00013446077241911414,0.0002654541037951277,-7.953354227621697e-05,0.00015769133052055022
1990.0,-0.00028153696533718387,-0.0005263058800261261,0.0002949589346424176,-0.00015232520960589224,0.00027030153835197826,-9.206643487982366e-05,0.0001709613035736308
1995.0,-0.00028206841447728676,-0.0005420881155682777,0.00027779011423943723,-0.0001662145924047568,0.00027103482507338984,-0.00010085907805309908,0.00018212213860204242
2000.0,-0.0002843683545584266,-0.0005543328636506644,0.0002599960335774153,-0.00017481991496075424,0.0002674101277068393,-0.00010801428756549741,0.00019290172821055857
