61
Lattice="8.669586889484 0.0 0.0 -4.334793444742 7.508078985966 0.0 0.0 0.0 31.073177673002" Properties=species:S:1:pos:R:3:forces:R:3 branch_id=tetradymite__Bi2Te3__Cr1__ingap_1-7__reused_path_s42 image_index=0 system_id=tetradymite__Bi2Te3__Cr1__ingap_1-7__reused_path_s42 mapping_role=material_transfer_reused_path energy=-224.0849406296275 mlff_rel_energy_eV=0.0 mlff_fmax_eV_A=1.4843128236182923 calculator_label=/home/ycao73/.cache/mace/20231203mace128L1_epoch199model neb_image=0 neb_protocol=mlff_pre_neb pbc="T T T"
Te       2.16739745       1.24924995       3.47721850      -0.00000292       0.00976073       1.25053232
Te       4.33661000       5.00643632       3.47721850      -0.00844588      -0.00487572       1.25052497
Te       6.50218952       1.25134749       3.46781351       0.00000269       0.00000845       1.29253866
Te      -0.00181653       5.00643713       3.47721851       0.00844575      -0.00487894       1.25050017
Te      -0.02760729       0.01593909       6.88148363       0.08292320      -0.04786933      -1.38098456
Te       2.16739629       3.75404152       6.93221801       0.00000203      -0.00000454      -1.21011854
Te       4.36240077       0.01593857       6.88148344      -0.08292311      -0.04786709      -1.38096592
Te      -2.16739629       3.72216336       6.88148344      -0.00000177       0.09574685      -1.38095711
Te       0.00000000       0.00000000       0.00000000       0.00000004       0.00000760      -0.00001098
Te       2.16739674       3.75404128       0.00000000      -0.00000001      -0.00000171      -0.00001056
Te       4.33479348       0.00000000       0.00000000      -0.00000006       0.00000759      -0.00001099
Te      -2.16739674       3.75404128       0.00000000       0.00000012      -0.00000171      -0.00001057
Te       0.05102108       2.53215149      13.96547985      -0.22399856      -0.12932294       1.22926815
Te       2.16739652       6.19782123      13.96547985       0.00000056       0.25864716       1.22927446
Te       4.28377240       2.53215124      13.96548024       0.22399986      -0.12932310       1.22927249
Te      -2.16739652       6.25673533      13.91232491      -0.00000010      -0.00000647       1.48431282
Te       2.16739696       1.31026132      17.10769420      -0.00000060      -0.25864896      -1.22926825
Te       4.28377240       4.97593106      17.10769420       0.22399919       0.12931896      -1.22927355
Te       6.50218999       1.25134722      17.16084913       0.00000015       0.00000270      -1.48430392
Te       0.05102108       4.97593132      17.10769382      -0.22400051       0.12931910      -1.22927796
Te       2.16739650       1.23417327      10.40182580       0.00000111      -0.07869813       0.00684016
Te       4.34966632       5.01397549      10.40182580       0.06816065       0.03934384       0.00683940
Te       6.50219046       1.25134695      10.40442474      -0.00000161       0.00000804       0.25476354
Te      -0.01487284       5.01397521      10.40182622      -0.06816131       0.03934549       0.00683868
Te       0.02760729      -0.01593909      24.19169042      -0.08292294       0.04788563       1.38098461
Te       2.16739718       3.75404102      24.14095605      -0.00000205       0.00000286       1.21011898
Te       4.30718618      -0.01593857      24.19169061       0.08292289       0.04788335       1.38096595
Te      -2.16739718       3.78591919      24.19169061       0.00000203      -0.09574860       1.38095753
Te      -0.00181653       2.50164622      27.59595556       0.00844598       0.00487115      -1.25052129
Te       2.16739604       6.25883259      27.59595556       0.00000282      -0.00976000      -1.25052893
Te       4.33661000       2.50164541      27.59595555      -0.00844578       0.00487436      -1.25049649
Te      -2.16739604       6.25673505      27.60536055      -0.00000272      -0.00000769      -1.29253521
Te      -0.01487284       2.49410706      20.67134826      -0.06816076      -0.03934980      -0.00684046
Te       2.16739698       6.27390928      20.67134826      -0.00000118       0.07869739      -0.00683916
Te       4.34966632       2.49410733      20.67134783       0.06816140      -0.03935147      -0.00683970
Te      -2.16739698       6.25673560      20.66874932       0.00000159      -0.00000786      -0.25476349
Bi      -0.03105023       2.48476558       8.47818076       0.16970596       0.09799613       0.50389752
Bi       2.16739825       6.29259004       8.47818076      -0.00001294      -0.19597506       0.50390263
Bi       4.36584370       2.48476731       8.47818114      -0.16970584       0.09798102       0.50388703
Bi      -2.16739825       6.25673633       8.41377811       0.00001273      -0.00001430       0.56688838
Bi       0.00025797       2.50284047       1.88393550       0.02179026       0.01261035      -0.29794153
Bi       2.16739903       6.25643890       1.88393550      -0.00002132      -0.02518565      -0.29794112
Bi       4.33453551       2.50284312       1.88393579      -0.02179016       0.01258568      -0.29795843
Bi      -2.16739903       6.25673678       1.88288669       0.00002153      -0.00002442      -0.28623818
Bi      -0.05167120       0.02983240      18.78189831       0.14554646      -0.08402206       0.38597757
Bi       2.16739599       3.75404170      18.73689157       0.00000604      -0.00000757       0.94193170
Bi       4.38646469       0.02983154      18.78189855      -0.14554631      -0.08401502       0.38598189
Bi       6.50219097       3.69437691      18.78189855      -0.00000612       0.16805464       0.38598309
Bi       0.05167120      -0.02983240      12.29127574      -0.14554784       0.08403859      -0.38598090
Bi       2.16739749       3.75404084      12.33628248      -0.00000601       0.00000184      -0.94192984
Bi       4.28312227      -0.02983154      12.29127549       0.14554768       0.08403156      -0.38598514
Bi      -2.16739749       3.81370565      12.29127549       0.00000610      -0.16805995      -0.38598110
Bi       2.16739445       1.25164364      29.18923855       0.00002130       0.02518463       0.29795032
Bi       4.33453551       5.00524207      29.18923855      -0.02179026      -0.01261171       0.29794692
Bi       6.50219251       1.25134577      29.19028735      -0.00002156       0.00002342       0.28624738
Bi       0.00025797       5.00523943      29.18923826       0.02179018      -0.01258706       0.29796387
Bi       2.16739523       1.21549250      22.59499330       0.00001294       0.19597333      -0.50389810
Bi       4.36584370       5.02331697      22.59499330      -0.16970599      -0.09800632      -0.50390239
Bi       6.50219173       1.25134622      22.65939594      -0.00001276       0.00001290      -0.56688453
Bi      -0.03105023       5.02331523      22.59499291       0.16970572      -0.09799129      -0.50389171
Cr       2.16739674       3.75404128      15.53658702       0.00000001      -0.00000084      -0.00000058
61
Lattice="8.669586889484 0.0 0.0 -4.334793444742 7.508078985966 0.0 0.0 0.0 31.073177673002" Properties=species:S:1:pos:R:3:forces:R:3 branch_id=tetradymite__Bi2Te3__Cr1__ingap_1-7__reused_path_s42 image_index=1 system_id=tetradymite__Bi2Te3__Cr1__ingap_1-7__reused_path_s42 mapping_role=material_transfer_reused_path energy=-227.86294167610606 mlff_rel_energy_eV=-3.7780010464785505 mlff_fmax_eV_A=1.0912340227288972 calculator_label=/home/ycao73/.cache/mace/20231203mace128L1_epoch199model neb_image=1 neb_protocol=mlff_pre_neb pbc="T T T"
Te       2.16457812       1.25219247       3.76733649      -0.00246358       0.00240923       0.16439220
Te       4.33265329       5.00740712       3.76733642      -0.00331744       0.00092918       0.16439212
Te       6.50487688       1.24979737       3.76168262       0.00025141      -0.00014425       0.16148760
Te       0.00206138       5.00419795       3.75796985       0.00451061      -0.00260439       0.16155474
Te      -0.02657474       0.01534364       6.61162410      -0.00373693       0.00215801      -0.18194912
Te       2.15148445       3.76322753       6.62240284       0.02125912      -0.01227444      -0.16707146
Te       4.34812085      -0.02302247       6.55791823      -0.03145535      -0.00117773      -0.18573791
Te      -2.14079439       3.75401032       6.55791853      -0.01470723       0.02782985      -0.18573782
Te       0.00004375      -0.00002395      -0.00207757       0.00193560      -0.00111677      -0.00271720
Te       2.16890157       3.75317234       0.00110024       0.00083302      -0.00048114      -0.00137500
Te       4.33407602       0.00121379       0.00161957      -0.00131104       0.00149126       0.00100232
Te      -2.16880548       3.75405623       0.00161954      -0.00194632       0.00038993       0.00100234
Te      -0.18018327       2.38798235      14.15297948       0.00245804       0.04629290       0.10560112
Te       2.17664906       6.47013423      14.15297964      -0.03886141      -0.02527550       0.10560111
Te       4.18077177       2.59161922      14.18640459      -0.09415792       0.05436248       0.14470183
Te      -2.18419292       6.26643200      14.15441261      -0.01305417       0.00753630       0.15698579
Te       2.12516351       1.34129727      16.89347622      -0.03640944       0.03838263      -0.17803758
Te       4.23577798       4.99698715      16.89347628      -0.05144487       0.01233949      -0.17803753
Te       6.48247746       1.26272859      16.95647549      -0.01588394       0.00917086      -0.18178213
Te      -0.04547621       5.03164273      16.94424859      -0.06264085       0.03616487      -0.15738863
Te       2.19213962       1.26705365      10.33306015      -0.02117275       0.02341807      -0.01739150
Te       4.33356341       4.97610664      10.33305983      -0.03086652       0.00662677      -0.01739156
Te       6.49276815       1.25678775      10.40025882       0.00498394      -0.00287699       0.00576030
Te      -0.06324291       5.04190072      10.40256342      -0.04091317       0.02362062      -0.00705971
Te      -0.00049290       0.00028620      24.49922052      -0.01634315       0.00943682       0.18062045
Te       2.16899638       3.75311801      24.46300902      -0.00315917       0.00182410       0.16882140
Te       4.32147518      -0.00165700      24.46944777      -0.00465496       0.00044825       0.17117830
Te      -2.17261945       3.76640482      24.46944765      -0.00271469       0.00380785       0.17117821
Te      -0.00046553       2.50458840      27.31047759      -0.00032368       0.00301329      -0.16794591
Te       2.16552330       6.25618978      27.31047747      -0.00277153      -0.00122747      -0.16794598
Te       4.33445851       2.50288730      27.30748194       0.00004986      -0.00002891      -0.17225808
Te      -2.16609522       6.25598242      27.31323980       0.00056759      -0.00032878      -0.17239347
Te      -0.03072356       2.49980429      20.68694641      -0.02605992       0.00282847      -0.00520100
Te       2.15453780       6.28478657      20.68694636      -0.01547928       0.02115367      -0.00520105
Te       4.31905344       2.51178182      20.71989897      -0.02578346       0.01488628       0.00344715
Te      -2.16884232       6.25756886      20.68526034      -0.00660836       0.00381466      -0.01325160
Bi      -0.02300143       2.50910138       8.35585358      -0.00250300       0.01431960      -0.06150063
Bi       2.15034716       6.27345030       8.35585380      -0.01365263      -0.00499298      -0.06150052
Bi       4.37163943       2.48142107       8.26472589      -0.00209176       0.00120776      -0.04153138
Bi      -2.16930116       6.25783367       8.29066459      -0.01101110       0.00635644      -0.06825883
Bi       0.00113496       2.50030862       2.01467992       0.00327600      -0.00036829       0.05306678
Bi       2.17003062       6.25694458       2.01468006       0.00195722      -0.00265343       0.05306673
Bi       4.33345282       2.50346874       2.02384279      -0.00284842       0.00164487       0.05556746
Bi      -2.17057287       6.25856819       2.01997133      -0.00135061       0.00077916       0.05874991
Bi      -0.00758963       0.00438293      18.68675197      -0.01237385       0.00714470      -0.06759016
Bi       2.14915546       3.76457234      18.72967481      -0.04413929       0.02548354      -0.03663899
Bi       4.33202698       0.08109165      18.72167231      -0.01833703       0.02253567      -0.04946985
Bi       6.43058029       3.71589133      18.72167264      -0.02868448       0.00461259      -0.04946976
Bi       0.11415781      -0.06590755      12.22827363      -0.01712038       0.00988542       0.04964258
Bi       2.11174846       3.78617004      12.27840635      -0.00870183       0.00502397      -0.15115655
Bi       4.26857962       0.02986184      12.38868252      -0.03994256       0.02837600       0.02563876
Bi      -2.22636358       3.79645394      12.38868273      -0.04454491       0.02040361       0.02563888
Bi       2.16805937       1.25315128      29.05372861       0.00120763      -0.00069133      -0.05789017
Bi       4.33356296       5.00391188      29.05372835       0.00120292      -0.00070041      -0.05789020
Bi       6.50096103       1.25205750      29.05397614      -0.00160736       0.00092847      -0.05777416
Bi       0.00063819       5.00501900      29.05831597      -0.00064217       0.00037029      -0.05393853
Bi       2.14540086       1.24190282      22.73722965      -0.00820718       0.00372906       0.05942616
Bi       4.33197530       5.02915920      22.73722934      -0.00733262       0.00524286       0.05942608
Bi       6.50834926       1.24779205      22.76019924      -0.01385911       0.00800201       0.05757562
Bi       0.00117900       5.00470692      22.72905865      -0.00342637       0.00197778       0.04544805
Cr       1.58436938       4.09065207      15.05712376       0.80612483      -0.46541683       0.56950999
61
Lattice="8.669586889484 0.0 0.0 -4.334793444742 7.508078985966 0.0 0.0 0.0 31.073177673002" Properties=species:S:1:pos:R:3:forces:R:3 branch_id=tetradymite__Bi2Te3__Cr1__ingap_1-7__reused_path_s42 image_index=2 system_id=tetradymite__Bi2Te3__Cr1__ingap_1-7__reused_path_s42 mapping_role=material_transfer_reused_path energy=-227.3716807280921 mlff_rel_energy_eV=-3.286740098464577 mlff_fmax_eV_A=0.48052646210753713 calculator_label=/home/ycao73/.cache/mace/20231203mace128L1_epoch199model neb_image=2 neb_protocol=mlff_pre_neb pbc="T T T"
Te       2.16481369       1.25142972       3.77441931      -0.00244046       0.00082349       0.14293532
Te       4.33343165       5.00758451       3.77441925      -0.00193269       0.00170200       0.14293527
Te       6.50624870       1.24900537       3.76996683       0.00159627      -0.00092081       0.14158958
Te       0.00249282       5.00394885       3.76452799       0.00590663      -0.00341037       0.13884531
Te      -0.00962860       0.00555979       6.60899478       0.00870559      -0.00502572      -0.15885659
Te       2.16556123       3.75510028       6.60125156       0.04629813      -0.02673067      -0.16012986
Te       4.34683525      -0.03130303       6.54561316      -0.02793984      -0.02245652      -0.17006358
Te      -2.13426601       3.75926393       6.54561346       0.00547847       0.03542471      -0.17006352
Te       0.00011417      -0.00006458      -0.00167617       0.00254247      -0.00146726      -0.00493944
Te       2.16975114       3.75268185       0.00151398       0.00164371      -0.00094918      -0.00139743
Te       4.33440149       0.00128728       0.00212405      -0.00106357       0.00220451       0.00039953
Te      -2.16870636       3.75373765       0.00212401      -0.00244037      -0.00018104       0.00039954
Te      -0.19259790       2.25243367      14.18100309       0.04664845      -0.04053583       0.14572248
Te       2.28783043       6.54865986      14.18100316       0.05842973      -0.02013130       0.14572235
Te       4.28476503       2.53157880      14.14936243      -0.01003862       0.00579623       0.11561006
Te      -2.01439863       6.16840128      14.18211571       0.10777717      -0.06222555       0.14572649
Te       2.16193818       1.27338385      16.94417219       0.00756988      -0.02438293      -0.11483825
Te       4.31298004       4.99909594      16.94417219       0.02490131       0.00563504      -0.11483829
Te       6.47932139       1.26455074      16.98381479      -0.01232454       0.00711576      -0.12003113
Te      -0.02198329       5.01807887      17.11604576      -0.03204536       0.01850047      -0.02747556
Te       2.22010061       1.27872507      10.32642792       0.02657140       0.03219855      -0.01725746
Te       4.33743615       4.94605599      10.32642758      -0.01459868      -0.03911106      -0.01725745
Te       6.54095184       1.22896893      10.38858766       0.07138207      -0.04121194      -0.00325618
Te      -0.02185980       5.01800819      10.37580284       0.00533303      -0.00307948      -0.02249544
Te       0.00030414      -0.00017394      24.53285630      -0.01455628       0.00840503       0.19227696
Te       2.16966681       3.75273094      24.48088995      -0.00443812       0.00256249       0.15817568
Te       4.32750621       0.00046201      24.47939001      -0.00214562      -0.00136470       0.15554003
Te      -2.17143904       3.76012232      24.47938990       0.00010992       0.00254110       0.15553996
Te      -0.00020904       2.50525012      27.30426183      -0.00074027       0.00397424      -0.14515488
Te       2.16507848       6.25563676      27.30426173      -0.00381202      -0.00134704      -0.14515493
Te       4.33459619       2.50280781      27.30055689       0.00121511      -0.00070165      -0.15274750
Te      -2.16459879       6.25511842      27.30614192       0.00198485      -0.00114692      -0.14928979
Te      -0.01151482       2.50232423      20.70619094      -0.00302979       0.00190099       0.01305869
Te       2.16195979       6.26689132      20.70619086      -0.00316103       0.00167285       0.01305864
Te       4.32211539       2.51001395      20.77996398      -0.02052355       0.01184938       0.06368926
Te      -2.16819970       6.25719780      20.70995784      -0.00570325       0.00329216       0.01773143
Bi      -0.01197060       2.51518873       8.34170301       0.01466965       0.01111393      -0.06338056
Bi       2.15059076       6.26085360       8.34170322      -0.00229015      -0.01826200      -0.06338049
Bi       4.38737293       2.47233732       8.23968278       0.01181432      -0.00682090      -0.03958876
Bi      -2.15553407       6.24988520       8.31185067       0.00696706      -0.00402318      -0.04128861
Bi       0.00099579       2.49939280       2.01937555       0.00286275      -0.00048162       0.04684172
Bi       2.17075417       6.25752301       2.01937569       0.00184871      -0.00223880       0.04684166
Bi       4.33444201       2.50289764       2.02947814      -0.00129537       0.00074818       0.05235806
Bi      -2.17061922       6.25859494       2.02382406      -0.00063458       0.00036584       0.05139635
Bi       0.00850273      -0.00490797      18.69259470       0.00185674      -0.00107140      -0.04379609
Bi       2.21664156       3.72560923      18.74765089       0.02795752      -0.01614156      -0.02555753
Bi       4.31685945       0.12318487      18.75890872      -0.01112031       0.03575603      -0.00015678
Bi       6.38654269       3.70798016      18.75890909      -0.03652543      -0.00824754      -0.00015668
Bi       0.19590322      -0.11310323      12.15340695       0.04654319      -0.02687077       0.01652394
Bi       2.16055364       3.75799237      12.39240154       0.02535826      -0.01464065      -0.06757829
Bi       4.33225581       0.03828970      12.37450630       0.03684053       0.01820408       0.03044483
Bi      -2.20182429       3.73709484      12.37450654       0.00265562      -0.04100652       0.03044501
Bi       2.16862245       1.25283542      29.04917256       0.00158767      -0.00098241      -0.05078739
Bi       4.33411805       5.00358215      29.04917229       0.00164495      -0.00088398      -0.05078738
Bi       6.50091913       1.25208170      29.04940786      -0.00211359       0.00122066      -0.04967617
Bi       0.00078200       5.00493596      29.05500740      -0.00056066       0.00032330      -0.04344862
Bi       2.13396021       1.23838393      22.75614738      -0.01574779      -0.00475656       0.08095021
Bi       4.32930243       5.04082654      22.75614707      -0.00375421       0.01601603       0.08095015
Bi       6.52437960       1.23853696      22.76921327       0.00585711      -0.00338120       0.06809341
Bi       0.00384667       5.00316674      22.73529058      -0.00038856       0.00022398       0.04890392
Cr       0.83169815       4.52520719      14.75432111      -0.37519355       0.21661800      -0.20787526
61
Lattice="8.669586889484 0.0 0.0 -4.334793444742 7.508078985966 0.0 0.0 0.0 31.073177673002" Properties=species:S:1:pos:R:3:forces:R:3 branch_id=tetradymite__Bi2Te3__Cr1__ingap_1-7__reused_path_s42 image_index=3 system_id=tetradymite__Bi2Te3__Cr1__ingap_1-7__reused_path_s42 mapping_role=material_transfer_reused_path energy=-227.98026121385837 mlff_rel_energy_eV=-3.895320584230859 mlff_fmax_eV_A=0.38652391688692556 calculator_label=/home/ycao73/.cache/mace/20231203mace128L1_epoch199model neb_image=3 neb_protocol=mlff_pre_neb pbc="T T T"
Te       2.16498949       1.25019335       3.78269440       0.00032262      -0.00047343       0.12809837
Te       4.33459029       5.00805044       3.78269436       0.00057192      -0.00004247       0.12809833
Te       6.50570414       1.24931979       3.77737261       0.00075009      -0.00043236       0.12897087
Te       0.00298074       5.00366715       3.77540989       0.00386097      -0.00222928       0.12377247
Te      -0.01053348       0.00608225       6.60453389       0.02282638      -0.01317842      -0.12345728
Te       2.17797396       3.74793380       6.58673986       0.01524233      -0.00880053      -0.14811124
Te       4.35713638      -0.03241451       6.56483959      -0.02556107      -0.03603926      -0.13775600
Te      -2.12815289       3.75089862       6.56483989       0.01843076       0.04015600      -0.13775603
Te       0.00089982      -0.00051815       0.00093704       0.00162397      -0.00093706      -0.00424524
Te       2.16935593       3.75291002       0.00103063       0.00102646      -0.00059281      -0.00052495
Te       4.33403880       0.00162261       0.00344952       0.00019281       0.00092481      -0.00002056
Te      -2.16917809       3.75388409       0.00344947      -0.00070402      -0.00062929      -0.00002055
Te      -0.04999224       2.28947562      14.27253730       0.06401640       0.02809338       0.10804215
Te       2.32705397       6.40663869      14.27253751       0.00767900      -0.06948688       0.10804211
Te       4.32239699       2.50985198      14.17587835       0.01557289      -0.00899063       0.12611438
Te      -2.09603994       6.21553681      14.25226937      -0.04767598       0.02752535       0.12122394
Te       2.17261989       1.24026062      16.95266917       0.00959318      -0.00426037      -0.10523956
Te       4.34700649       5.00640688      16.95266907       0.00848633      -0.00617837      -0.10523961
Te       6.48695958       1.26014082      16.98352214      -0.00135973       0.00078520      -0.11362749
Te       0.03662778       4.98423981      17.00131478      -0.01767303       0.01020280      -0.03207290
Te       2.22663590       1.26600100      10.36017923       0.03079430       0.01741328       0.00625312
Te       4.35172322       4.94675820      10.36017896       0.00031713      -0.03537569       0.00625323
Te       6.54319574       1.22767348      10.39064427       0.02005327      -0.01157733       0.00926346
Te      -0.00925584       5.01073131      10.36981545       0.01531166      -0.00884057      -0.00590779
Te       0.00421570      -0.00243226      24.51812850       0.00306742      -0.00177010       0.14610329
Te       2.17131766       3.75177782      24.49457922      -0.00201613       0.00116411       0.14130199
Te       4.33668891       0.00602210      24.48790632       0.00081787      -0.00276371       0.13765677
Te      -2.17166284       3.74938983      24.48790625       0.00280316       0.00067409       0.13765675
Te      -0.00102929       2.50492123      27.29833202       0.00012925       0.00050071      -0.12893763
Te       2.16495317       6.25651152      27.29833192      -0.00036907      -0.00036318      -0.12893766
Te       4.33560360       2.50222617      27.29666439       0.00049208      -0.00028419      -0.13534135
Te      -2.16500114       6.25535069      27.29716961       0.00096387      -0.00055734      -0.13093321
Te       0.00533267       2.51011244      20.70930301       0.00272167       0.00107703       0.01076126
Te       2.16363875       6.24840684      20.70930300       0.00042827      -0.00289597       0.01076127
Te       4.34606113       2.49618891      20.74111811       0.00543668      -0.00313874       0.01899911
Te      -2.16562858       6.25571333      20.72045218       0.00109898      -0.00063504       0.01070875
Bi       0.01768660       2.51073163       8.35110548       0.01535238       0.00650325      -0.06018959
Bi       2.16927933       6.23739825       8.35110568       0.00204420      -0.01654782      -0.06018952
Bi       4.37602127       2.47889117       8.24517621       0.00029468      -0.00017004      -0.04747892
Bi      -2.16220191       6.25373484       8.32596283       0.01155192      -0.00667018      -0.02172381
Bi       0.00126614       2.50021550       2.02576293       0.00235206      -0.00004103       0.04200026
Bi       2.17017688       6.25687751       2.02576308       0.00121178      -0.00201675       0.04200019
Bi       4.33368186       2.50333652       2.03624772      -0.00050641       0.00029265       0.04397930
Bi      -2.16939059       6.25788557       2.03110576       0.00095177      -0.00054995       0.04172043
Bi       0.00432122      -0.00249379      18.71632008       0.00007314      -0.00004175      -0.03315240
Bi       2.23450779       3.71529422      18.72040232       0.01903393      -0.01098946      -0.00581943
Bi       4.32656345       0.05393717      18.72731145       0.00278568       0.00482604       0.00164548
Bi       6.45136500       3.73420008      18.72731178      -0.00278629      -0.00482551       0.00164554
Bi       0.11342067      -0.06548195      12.10123982      -0.02999177       0.01731653       0.01242556
Bi       2.13809327       3.77095973      12.49085199       0.03854393      -0.02225348      -0.06323544
Bi       4.38618693       0.00301921      12.43198105       0.00813737      -0.02396171       0.04623501
Bi      -2.14431360       3.70802440      12.43198134       0.02482068       0.00493395       0.04623515
Bi       2.16760088       1.25164373      29.04442909       0.00118623      -0.00119458      -0.04126335
Bi       4.33463929       5.00506269      29.04442881       0.00162792      -0.00043021      -0.04126331
Bi       6.50195474       1.25148379      29.04773020      -0.00120930       0.00069850      -0.04133270
Bi      -0.00044199       5.00564261      29.05051971      -0.00035180       0.00020278      -0.03812221
Bi       2.15167030       1.24580870      22.75471071      -0.00251771      -0.00060363       0.06877043
Bi       4.33172747       5.02177675      22.75471039      -0.00073577       0.00248208       0.06877045
Bi       6.52338037       1.23911390      22.75432550       0.00950952      -0.00548996       0.06324071
Bi       0.00294784       5.00368566      22.75383840      -0.00059826       0.00034509       0.04852365
Cr       0.23698350       4.86856600      14.40211110      -0.26005260       0.15014146      -0.24337404
61
Lattice="8.669586889484 0.0 0.0 -4.334793444742 7.508078985966 0.0 0.0 0.0 31.073177673002" Properties=species:S:1:pos:R:3:forces:R:3 branch_id=tetradymite__Bi2Te3__Cr1__ingap_1-7__reused_path_s42 image_index=4 system_id=tetradymite__Bi2Te3__Cr1__ingap_1-7__reused_path_s42 mapping_role=material_transfer_reused_path energy=-224.7994996468269 mlff_rel_energy_eV=-0.7145590171993774 mlff_fmax_eV_A=1.3380726569034624 calculator_label=/home/ycao73/.cache/mace/20231203mace128L1_epoch199model neb_image=4 neb_protocol=mlff_pre_neb pbc="T T T"
Te       2.16110135       1.24771244       3.52495313       0.01427909       0.00825369       1.11664984
Te       4.33479348       5.01265766       3.52495313      -0.00000011      -0.01649107       1.11664274
Te       6.50848561       1.24771244       3.52495313      -0.01427926       0.00825364       1.11664997
Te       0.00000000       5.00538836       3.51818557       0.00000001      -0.00000286       1.09532513
Te       0.00000000       0.00000000       6.81430336       0.00000001       0.00000618      -1.05029335
Te       2.18389641       3.74451518       6.78221183      -0.36239298       0.20922433      -1.27095227
Te       4.33479348       0.01905219       6.78221183      -0.00000008      -0.41845002      -1.27095949
Te      -2.18389641       3.74451518       6.78221183       0.36239321       0.20922442      -1.27095245
Te       0.00000000       0.00000000       0.01305794       0.00000007       0.00000713      -0.06207254
Te       2.16864507       3.75332055       0.00156126       0.01500777      -0.00866647       0.00087259
Te       4.33479348       0.00144146       0.00156126      -0.00000009       0.01733656       0.00087217
Te      -2.16864507       3.75332055       0.00156126      -0.01500765      -0.00866645       0.00087260
Te       0.00000000       2.35426736      14.24203686       0.00000005      -0.02454954       0.35972964
Te       2.29593815       6.33094887      14.24203686       0.02126500       0.01227281       0.35973193
Te       4.33479348       2.50269418      13.81801103      -0.00000015       0.00000332       1.11850513
Te      -2.29593815       6.33094887      14.24203686      -0.02126485       0.01227284       0.35973186
Te       2.16830324       1.25187046      17.19725855      -0.01307720      -0.00754713      -1.10149192
Te       4.33479348       5.00434163      17.19725855      -0.00000008       0.01509132      -1.10149926
Te       6.50128372       1.25187046      17.19725855       0.01307703      -0.00754711      -1.10149204
Te       0.00000000       5.00538836      16.96030023       0.00000012      -0.00000814      -0.09780723
Te       2.13611185       1.23328474      10.29466250       0.44333579       0.25596763       0.37609792
Te       4.33479348       5.04151307      10.29466250      -0.00000007      -0.51193254       0.37609343
Te       6.53347511       1.23328474      10.29466250      -0.44333609       0.25596770       0.37609788
Te       0.00000000       5.00538836      10.28138029       0.00000005      -0.00000582       0.33972603
Te       0.00000000       0.00000000      24.27587282       0.00000013       0.00000783       0.90123058
Te       2.17744008       3.74824275      24.22539972       0.00466966      -0.00269432       1.13634784
Te       4.33479348       0.01159705      24.22539972      -0.00000008       0.00540144       1.13635544
Te      -2.17744008       3.74824275      24.22539972      -0.00466956      -0.00269435       1.13634798
Te       0.00000000       2.50659620      27.56110809       0.00000014      -0.01573096      -1.18486224
Te       2.16401749       6.25478444      27.56110809       0.01362195       0.00785559      -1.18486956
Te       4.33479348       2.50269418      27.57665428      -0.00000007      -0.00000168      -1.28255418
Te      -2.16401749       6.25478444      27.56110809      -0.01362184       0.00785567      -1.18486969
Te       0.00000000       2.49942374      20.71460143       0.00000014       0.14551104      -0.13566190
Te       2.17022902       6.25837068      20.71460143      -0.12601553      -0.07276223      -0.13566172
Te       4.33479348       2.50269418      20.75286115      -0.00000010       0.00000099      -0.48287758
Te      -2.17022902       6.25837068      20.71460143       0.12601565      -0.07276217      -0.13566174
Bi       0.00000000       2.50189333       8.44616721       0.00000013      -0.10246960       0.10815202
Bi       2.16809030       6.25713588       8.44616721       0.08874214       0.05122764       0.10815534
Bi       4.33479348       2.50269418       8.20720571      -0.00000024       0.00000153       1.00914228
Bi      -2.16809030       6.25713588       8.44616721      -0.08874202       0.05122781       0.10815532
Bi       0.00000000       2.49615035       1.90717768       0.00000017       0.04291776      -0.28205526
Bi       2.17306386       6.26000737       1.90717768      -0.03716366      -0.02146797      -0.28205491
Bi       4.33479348       2.50269418       1.92335457      -0.00000009       0.00000498      -0.30300605
Bi      -2.17306386       6.26000737       1.90717768       0.03716380      -0.02146783      -0.28205496
Bi       0.00000000       0.00000000      18.84333576       0.00000012       0.00001110       0.26322003
Bi       2.16408197       3.75595506      18.74872235      -0.07428131       0.04288163       0.41130407
Bi       4.33479348      -0.00382757      18.74872235      -0.00000005      -0.08576309       0.41130327
Bi       6.50550498       3.75595506      18.74872235       0.07428125       0.04288163       0.41130414
Bi       0.00000000       0.00000000      11.89561598       0.00000018       0.00000802       0.55515634
Bi       2.03509956       3.83042310      12.49915850      -0.01789171       0.01032924      -0.38390868
Bi       4.33479348      -0.15276365      12.49915850      -0.00000011      -0.02065440      -0.38391242
Bi      -2.03509956       3.83042310      12.49915850       0.01789181       0.01032934      -0.38390872
Bi       2.16943848       1.25252589      29.15782371      -0.04554363      -0.02628388       0.39400991
Bi       4.33479348       5.00303076      29.15782371      -0.00000019       0.05258331       0.39400694
Bi       6.50014847       1.25252589      29.15782371       0.04554354      -0.02628400       0.39400991
Bi       0.00000000       5.00538836      29.16113455       0.00000008      -0.00000599       0.37741501
Bi       2.16074172       1.24750482      22.60727926      -0.06702066      -0.03868778      -0.15038957
Bi       4.33479348       5.01307291      22.60727926      -0.00000016       0.07737905      -0.15039203
Bi       6.50884523       1.24750482      22.60727926       0.06702058      -0.03868779      -0.15038964
Bi       0.00000000       5.00538836      22.66191640       0.00000004      -0.00001107      -0.33360687
Cr       0.00000000       5.00538836      14.36954061      -0.00000002      -0.00000096      -0.22899702
