61
Lattice="8.42843558953249 0.0 0.0 -4.21421779476624 7.29923593142487 0.0 0.0 0.0 31.03344084160948" Properties=species:S:1:pos:R:3:forces:R:3 repair_mode=unwrap repair_image_index=0 migrant_element=Cr energy=-223.8444651403962 mlff_rel_energy_eV=0.0 mlff_fmax_eV_A=1.204806306113894 calculator_label=/home/ycao73/.cache/mace/20231203mace128L1_epoch199model neb_image=0 neb_protocol=mlff_pre_neb pbc="T T T"
Te       2.10710960       1.21612744       3.42192680      -0.00000252       0.01062703       1.09995506
Te       4.21457537       4.86636523       3.42192680      -0.00919766      -0.00531019       1.09994932
Te       6.32132606       1.21654029       3.40258279       0.00000235       0.00000670       1.15819400
Te      -0.00035754       4.86636602       3.42192681       0.00919750      -0.00531299       1.09992980
Te      -0.07696737       0.04443715       6.96506176       0.15740548      -0.09087292      -1.19101742
Te       2.10710848       3.64961994       7.10629020       0.00000175      -0.00000413      -1.10925646
Te       4.29118520       0.04443665       6.96506157      -0.15740582      -0.09087116      -1.19100252
Te      -2.10710848       3.56074564       6.96506157      -0.00000157       0.18175290      -1.19099520
Te      -0.00000000      -0.00000000       0.00000000       0.00000013       0.00000752      -0.00001066
Te       2.10710891       3.64961970       0.00000000       0.00000001      -0.00000130      -0.00001022
Te       4.21421783      -0.00000000       0.00000000      -0.00000013       0.00000750      -0.00001067
Te      -2.10710891       3.64961970       0.00000000       0.00000013      -0.00000125      -0.00001020
Te       0.09510216       2.48798733      13.95071521      -0.27547168      -0.15904109       1.05840118
Te       2.10710870       5.97288480      13.95071521       0.00000060       0.31808369       1.05840655
Te       4.11911567       2.48798708      13.95071560       0.27547245      -0.15904092       1.05840430
Te      -2.10710870       6.08269937      14.00926900      -0.00000023      -0.00000556       1.11933185
Te       2.10710913       1.32635459      17.08272201      -0.00000061      -0.31808497      -1.05840126
Te       4.11911567       4.81125206      17.08272201       0.27547235       0.15903776      -1.05840579
Te       6.32132652       1.21654002      17.02416822       0.00000027       0.00000286      -1.11932493
Te       0.09510216       4.81125231      17.08272162      -0.27547314       0.15903759      -1.05840891
Te       2.10710868       1.16191020      10.45735891       0.00000098      -0.13680168      -0.11285716
Te       4.26152840       4.89347465      10.45735891       0.11847921       0.06839604      -0.11285834
Te       6.32132698       1.21653976      10.53271700      -0.00000134       0.00000684       0.15451910
Te      -0.04731057       4.89347438      10.45735933      -0.11847852       0.06839674      -0.11285906
Te       0.07696737      -0.04443715      24.06837547      -0.15740541       0.09088580       1.19101702
Te       2.10710934       3.64961945      23.92714703      -0.00000176       0.00000176       1.10925686
Te       4.13725046      -0.04443665      24.06837566       0.15740573       0.09088402       1.19100213
Te      -2.10710934       3.73849375      24.06837566       0.00000179      -0.18175543       1.19099539
Te      -0.00035754       2.43287416      27.61151043       0.00919770       0.00530643      -1.09994583
Te       2.10710823       6.08311195      27.61151043       0.00000246      -0.01062619      -1.09995171
Te       4.21457537       2.43287337      27.61151042      -0.00919755       0.00530921      -1.09992632
Te      -2.10710823       6.08269910      27.63085443      -0.00000235      -0.00000587      -1.15819047
Te      -0.04731057       2.40576474      20.57607831      -0.11847902      -0.06840116       0.11285702
Te       2.10710915       6.13732919      20.57607831      -0.00000103       0.13680084       0.11285844
Te       4.26152840       2.40576501      20.57607789       0.11847833      -0.06840187       0.11285773
Te      -2.10710915       6.08269963      20.50072022       0.00000133      -0.00000730      -0.15451852
Sb      -0.04783569       2.40546014       8.59398377       0.15412203       0.08899643       0.44581473
Sb       2.10711038       6.13793626       8.59398377      -0.00001095      -0.17797783       0.44581885
Sb       4.26205352       2.40546184       8.59398416      -0.15412194       0.08898362       0.44580588
Sb      -2.10711038       6.08270034       8.39629258       0.00001043      -0.00001177       0.45602580
Sb       0.00077807       2.43352644       1.84259646       0.02879867       0.01665282      -0.15601842
Sb       2.10711114       6.08180234       1.84259646      -0.00001842      -0.03327483      -0.15601745
Sb       4.21343976       2.43352901       1.84259675      -0.02879863       0.01663149      -0.15603259
Sb      -2.10711114       6.08270078       1.84746453       0.00001860      -0.00002089      -0.14669964
Sb      -0.06737878       0.03890117      18.68632111       0.08238929      -0.04755923       0.24917976
Sb       2.10710819       3.64962011      18.79321941       0.00000547      -0.00000701       0.55179238
Sb       4.28159661       0.03890034      18.68632135      -0.08238928      -0.04755321       0.24918343
Sb       6.32132747       3.57181777      18.68632135      -0.00000532       0.09512827       0.24918465
Sb       0.06737878      -0.03890117      12.34711612      -0.08238987       0.04757412      -0.24918235
Sb       2.10710964       3.64961928      12.24021781      -0.00000547       0.00000119      -0.55179060
Sb       4.14683905      -0.03890034      12.34711588       0.08238984       0.04756810      -0.24918599
Sb      -2.10710964       3.72742163      12.34711588       0.00000532      -0.09513317      -0.24918309
Sb       2.10710669       1.21743705      29.19084076       0.00001843       0.03327309       0.15602638
Sb       4.21343976       4.86571295      29.19084076      -0.02879872      -0.01665470       0.15602370
Sb       6.32132897       1.21653861      29.18597269      -0.00001861       0.00001919       0.14670844
Sb       0.00077807       4.86571038      29.19084047       0.02879861      -0.01663339       0.15603792
Sb       2.10710745       1.16130313      22.43945345       0.00001095       0.17797692      -0.44581491
Sb       4.26205352       4.89377925      22.43945345      -0.15412207      -0.08900367      -0.44581828
Sb       6.32132821       1.21653905      22.63714464      -0.00001043       0.00001092      -0.45602289
Sb      -0.04783569       4.89377756      22.43945306       0.15412181      -0.08899096      -0.44580932
Cr       2.10710891       3.64961970      15.51671861       0.00000002      -0.00000075      -0.00000049
61
Lattice="8.42843558953249 0.0 0.0 -4.21421779476624 7.29923593142487 0.0 0.0 0.0 31.03344084160948" Properties=species:S:1:pos:R:3:forces:R:3 repair_mode=unwrap repair_image_index=1 migrant_element=Cr energy=-227.08363600457548 mlff_rel_energy_eV=-3.239170864179272 mlff_fmax_eV_A=0.7684575050500255 calculator_label=/home/ycao73/.cache/mace/20231203mace128L1_epoch199model neb_image=1 neb_protocol=mlff_pre_neb pbc="T T T"
Te       2.10446098       1.21512740       3.69197937      -0.00010203       0.00047832       0.18313232
Te       4.21411823       4.86915937       3.69197924      -0.00046441      -0.00015051       0.18313230
Te       6.31875784       1.21802434       3.68460682      -0.00054858       0.00031770       0.19290515
Te       0.00135535       4.86537679       3.68317676       0.00014614      -0.00008458       0.18401930
Te      -0.05253625       0.03033257       6.67979889       0.03862625      -0.02230038      -0.18609562
Te       2.10659428       3.64991615       6.69802700      -0.00189208       0.00109201      -0.19549181
Te       4.22745345      -0.00117851       6.67107121      -0.01938810      -0.00260207      -0.18169072
Te      -2.09946979       3.63874632       6.67107148      -0.00744012       0.01809154      -0.18169063
Te      -0.00125669       0.00072678      -0.00576184      -0.00117210       0.00067771       0.00089263
Te       2.10658442       3.64992234       0.00639507       0.00113385      -0.00065470       0.00570403
Te       4.21648787       0.00164303       0.00168090       0.00160873       0.00017918       0.00195669
Te      -2.10739570       3.64683269       0.00168091       0.00065007      -0.00148239       0.00195670
Te       0.04525029       2.41975851      14.06811300      -0.01387774      -0.01372030       0.17025936
Te       2.14127119       6.05017169      14.06811340       0.00494357       0.01887825       0.17025950
Te       4.08992743       2.50483943      14.15064968       0.03168188      -0.01829133       0.19646966
Te      -2.06933682       6.06089106      14.02848424       0.02923830      -0.01688122       0.13838760
Te       2.13624925       0.89465717      16.97157513      -0.02166777      -0.03138233      -0.16609735
Te       4.50754744       5.00186393      16.97157477       0.01634467       0.03445551      -0.16609763
Te       6.25100866       1.25713834      16.93157095       0.09750914      -0.05629674      -0.13647358
Te       0.24785324       4.72306035      16.89888182       0.06217275      -0.03589631      -0.15924066
Te       2.11865768       1.20314635      10.37027907       0.00231622       0.00413078      -0.00157409
Te       4.23159206       4.86285443      10.37027894      -0.00241870      -0.00407162      -0.00157429
Te       6.32507510       1.21437656      10.38966876       0.00490540      -0.00283155      -0.01894542
Te      -0.06423533       4.90324499      10.39672906       0.02349829      -0.01356743      -0.00418910
Te       0.07548035      -0.04357710      24.38485653      -0.02326149       0.01343131       0.19210475
Te       2.07487954       3.66822747      24.29575222       0.05252733      -0.03032656       0.21216067
Te       4.20360257      -0.05406858      24.42316362       0.06440805       0.07800783       0.20622473
Te      -2.06559044       3.68584791      24.42316338      -0.03535161      -0.09478223       0.20622463
Te       0.00790780       2.43283004      27.34796115       0.00492673       0.00109205      -0.17822170
Te       2.11127897       6.07597443      27.34796106       0.00151751      -0.00481400      -0.17822170
Te       4.20845420       2.43640727      27.33369663      -0.00280771       0.00162090      -0.16884358
Te      -2.10609386       6.08211195      27.36870382       0.00355836      -0.00205566      -0.18581492
Te       0.03347096       2.40225159      20.72758086       0.04953326       0.03741740       0.01469706
Te       2.15054258       6.06912574      20.72758071      -0.00763773      -0.06160670       0.01469698
Te       4.33396143       2.36394602      20.65357905       0.03039546      -0.01754869      -0.00403449
Te      -2.14024606       6.10182998      20.60897782       0.02798770      -0.01615975       0.02131021
Sb      -0.00269646       2.44344406       8.41747899       0.00779757       0.00502382      -0.09341166
Sb       2.09678494       6.07985126       8.41747918      -0.00045203      -0.00926579      -0.09341159
Sb       4.22103559       2.42914353       8.39351222      -0.00600367       0.00346615      -0.08698764
Sb      -2.13241674       6.09730972       8.33708391      -0.00222260       0.00128228      -0.06312079
Sb       0.00085989       2.43054077       1.96862826      -0.00158489      -0.00127402       0.09167228
Sb       2.10973820       6.08322366       1.96862833       0.00031111       0.00200895       0.09167220
Sb       4.21160884       2.43458665       1.97535848       0.00006167      -0.00003536       0.08909157
Sb      -2.10893138       6.08375076       1.96852077      -0.00060305       0.00034744       0.08923458
Sb      -0.13007885       0.07510199      18.73734011       0.02156905      -0.01245227      -0.02834293
Sb       2.21231971       3.58887562      18.95273660       0.03910948      -0.02258016       0.01443485
Sb       4.31446034      -0.10074402      18.72494817       0.00480251      -0.00807690      -0.08041165
Sb       6.45869558       3.61317899      18.72494843       0.00939665      -0.00012050      -0.08041156
Sb       0.01156178      -0.00667393      12.32826099      -0.00534794       0.00308855       0.07601181
Sb       2.07300913       3.66930721      12.28294649       0.01450347      -0.00837358       0.09537064
Sb       4.21529621      -0.01010627      12.34477039       0.01867437      -0.00527016       0.06097891
Sb      -2.09781623       3.65373959      12.34477052       0.01390217      -0.01353689       0.06097895
Sb       2.11156762       1.22356210      29.07046627       0.00086848       0.00158982      -0.08089727
Sb       4.21036635       4.85878662      29.07046618      -0.00094214      -0.00154737      -0.08089747
Sb       6.31809008       1.21840924      29.05297451      -0.00031925       0.00018484      -0.08287312
Sb       0.00422260       4.86372082      29.07644272       0.00323509      -0.00186837      -0.08539658
Sb       2.16455013       1.18997418      22.65603316       0.01503405       0.00815895       0.10081308
Sb       4.26594572       4.82969663      22.65603295       0.00045166      -0.01709955       0.10081282
Sb       6.34213741       1.20452561      22.81904378       0.01611151      -0.00930146       0.03604901
Sb      -0.04494221       4.89210634      22.59708579       0.01208291      -0.00697663       0.15956241
Cr       2.65556722       3.33296720      16.39655208      -0.57203570       0.33026475      -0.39271783
61
Lattice="8.42843558953249 0.0 0.0 -4.21421779476624 7.29923593142487 0.0 0.0 0.0 31.03344084160948" Properties=species:S:1:pos:R:3:forces:R:3 repair_mode=unwrap repair_image_index=2 migrant_element=Cr energy=-226.96582379721872 mlff_rel_energy_eV=-3.1213586568225082 mlff_fmax_eV_A=0.5290257205231784 calculator_label=/home/ycao73/.cache/mace/20231203mace128L1_epoch199model neb_image=2 neb_protocol=mlff_pre_neb pbc="T T T"
Te       2.10482475       1.21524696       3.70390377       0.00203426       0.00110557       0.14572320
Te       4.21419659       4.86878456       3.70390366       0.00006042      -0.00231428       0.14572322
Te       6.31684410       1.21912927       3.69917659      -0.00340894       0.00196901       0.15245668
Te       0.00121064       4.86546034       3.69445875      -0.00179430       0.00103576       0.14999348
Te      -0.04883267       0.02819432       6.62548714       0.02315166      -0.01336615      -0.17894181
Te       2.10691733       3.64972960       6.66393720      -0.00006170       0.00003533      -0.16600672
Te       4.21465051      -0.00431070       6.65646647      -0.01537738       0.00384581      -0.15547920
Te      -2.10315868       3.65140006       6.65646670      -0.01101883       0.01139423      -0.15547918
Te      -0.00124214       0.00071842      -0.00734498      -0.00214750       0.00124071       0.00272080
Te       2.10663752       3.64989168       0.00633500      -0.00006870       0.00003960       0.00354858
Te       4.21590958       0.00171193       0.00188934       0.00066430      -0.00093343       0.00198720
Te      -2.10774449       3.64729907       0.00188935       0.00114128      -0.00010824       0.00198722
Te      -0.01149685       2.42447481      14.04809573      -0.02974180       0.00659812       0.12169648
Te       2.10881319       6.09695813      14.04809598      -0.02058481       0.02245782       0.12169646
Te       4.09275677       2.50320613      13.97736795       0.04347923      -0.02510241       0.04475246
Te      -2.06399648       6.05780783      14.00778351       0.01731190      -0.00999544       0.11144819
Te       1.95643681       0.90111651      16.94126685      -0.09876820       0.02865918      -0.18818800
Te       4.41204738       5.15435655      16.94126643      -0.07420309       0.07120573      -0.18818827
Te       5.98517788       1.41061567      16.87765762       0.06668978      -0.03850334      -0.12274471
Te       0.12857825       4.79192366      16.99492918      -0.02530298       0.01460784      -0.10122548
Te       2.10799819       1.22409936      10.35741938      -0.00444741       0.00990150      -0.00957413
Te       4.20811648       4.86160932      10.35741927      -0.01079819      -0.00109947      -0.00957431
Te       6.32731975       1.21308062      10.35918824       0.00422246      -0.00243730      -0.02538140
Te      -0.06520480       4.90380475      10.31596415       0.01339102      -0.00773185      -0.04166524
Te       0.05928793      -0.03422835      24.39904454      -0.03873474       0.02236466       0.15736176
Te       2.03876266       3.68907952      24.34557982       0.01900072      -0.01097006       0.19206522
Te       4.20859048      -0.02725360      24.43669226       0.04995591       0.09725752       0.16890831
Te      -2.08631888       3.66812082      24.43669206      -0.05924857      -0.09189126       0.16890836
Te       0.00494765       2.43237048      27.33673883       0.00087790      -0.00044652      -0.14331741
Te       2.11019688       6.07876773      27.33673875       0.00082556      -0.00053817      -0.14331737
Te       4.20673488       2.43739992      27.31944409      -0.00408492       0.00235833      -0.13191230
Te      -2.10536300       6.08168994      27.35255584       0.00208888      -0.00120711      -0.15255483
Te       0.02338280       2.45889111      20.74374855       0.02264745       0.07690534       0.00324662
Te       2.09644720       6.04954250      20.74374842      -0.05527823      -0.05806674       0.00324662
Te       4.28669903       2.39123294      20.69242408      -0.02430341       0.01403169      -0.00023219
Te      -2.23554032       6.15684797      20.63378698      -0.04754925       0.02745158       0.00107509
Sb       0.00116748       2.43039117       8.38137602      -0.00167875      -0.00314019      -0.10570242
Sb       2.11002104       6.08303137       8.38137617       0.00188008       0.00302311      -0.10570241
Sb       4.21559928       2.43228219       8.37549685      -0.00417635       0.00241114      -0.07619388
Sb      -2.15618220       6.11103064       8.32656953      -0.01058513       0.00611052      -0.07580598
Sb       0.00031087       2.43013747       1.97674774      -0.00208875      -0.00041061       0.07748614
Sb       2.10981298       6.08390080       1.97674783      -0.00068862       0.00201369       0.07748600
Sb       4.21173143       2.43451589       1.98443999      -0.00017851       0.00010322       0.07101622
Sb      -2.10902074       6.08380235       1.97639464      -0.00006572       0.00003733       0.07453886
Sb      -0.23128854       0.13353535      18.90618352      -0.00254257       0.00146840       0.02493993
Sb       2.24107687       3.57227273      18.67052870      -0.00434366       0.00250772      -0.05808791
Sb       4.19255395      -0.08761180      18.74558811      -0.02855881       0.03464030      -0.08732755
Sb       6.38636975       3.71218684      18.74558814      -0.04427817       0.00741263      -0.08732771
Sb       0.00169563      -0.00097764      12.32530285       0.00019833      -0.00011371       0.07390053
Sb       1.99984757       3.71154706      12.25783730      -0.01695465       0.00978878       0.06208776
Sb       4.22782169      -0.04584854      12.30704752       0.00007379      -0.01317567       0.02060696
Sb      -2.06059963       3.66076342      12.30704756       0.01144818       0.00652447       0.02060690
Sb       2.11174734       1.22222612      29.05965541      -0.00021569       0.00028029      -0.06834638
Sb       4.21161320       4.85929893      29.05965533      -0.00035021       0.00004641      -0.06834657
Sb       6.31714920       1.21895246      29.04633581      -0.00084635       0.00048907      -0.06897296
Sb       0.00314182       4.86434477      29.06812421       0.00184357      -0.00106486      -0.07562261
Sb       2.15164954       1.22869173      22.68870427      -0.01431790       0.01705884       0.08189213
Sb       4.22596506       4.82151011      22.68870415      -0.02193200       0.00387005       0.08189191
Sb       6.34326149       1.20387670      22.76621181       0.00097609      -0.00056310       0.00651555
Sb      -0.07856728       4.91151976      22.63848389      -0.00003959       0.00002238       0.15525608
Cr       3.58880797       2.79416020      16.49091478       0.39680158      -0.22909381       0.26444800
61
Lattice="8.42843558953249 0.0 0.0 -4.21421779476624 7.29923593142487 0.0 0.0 0.0 31.03344084160948" Properties=species:S:1:pos:R:3:forces:R:3 repair_mode=unwrap repair_image_index=3 migrant_element=Cr energy=-227.643453974939 mlff_rel_energy_eV=-3.798988834542797 mlff_fmax_eV_A=0.7489535396329211 calculator_label=/home/ycao73/.cache/mace/20231203mace128L1_epoch199model neb_image=3 neb_protocol=mlff_pre_neb pbc="T T T"
Te       2.10973617       1.21701047       3.71179374      -0.00732594      -0.00452168       0.09480499
Te       4.21512510       4.86364942       3.71179369       0.00025346       0.00860546       0.09480505
Te       6.31301550       1.22133975       3.71645948       0.00643722      -0.00371592       0.10256029
Te      -0.00097018       4.86671943       3.70758045      -0.00110821       0.00063968       0.09835834
Te      -0.01448750       0.00836516       6.61132351       0.00460583      -0.00265882      -0.12608986
Te       2.11272843       3.64637454       6.60067769      -0.00091062       0.00052555      -0.11694372
Te       4.20606494      -0.00925844       6.61431704      -0.00148110       0.00990957      -0.11957804
Te      -2.10316658       3.66130918       6.61431721      -0.00932217      -0.00367216      -0.11957814
Te      -0.00299269       0.00172915      -0.01099227      -0.00200233       0.00115664      -0.00691907
Te       2.09991719       3.65377165       0.00223743       0.00458871      -0.00264936       0.00351274
Te       4.21493987      -0.00217647      -0.00678983      -0.00024813       0.00738793      -0.00269151
Te      -2.10486183       3.65008308      -0.00678985      -0.00652166      -0.00347884      -0.00269149
Te      -0.03053222       2.43246495      14.02066565      -0.01035863       0.01725050       0.08986137
Te       2.09237587       6.10944815      14.02066577      -0.02011851       0.00034535       0.08986122
Te       4.17369575       2.45647597      13.97661455      -0.00503658       0.00290806       0.07840035
Te      -2.08192208       6.06815716      13.98291477      -0.00377497       0.00217917       0.09887484
Te       1.99845841       1.20795721      16.75081297      -0.07431151       0.07718558      -0.00252475
Te       4.16732602       4.96454439      16.75081258      -0.10400014       0.02576250      -0.00252496
Te       6.09877890       1.34502817      16.83387076       0.06125657      -0.03536637      -0.12957055
Te      -0.05288683       4.89669248      16.93742014      -0.04094581       0.02363945      -0.29385848
Te       2.10532650       1.23094358      10.32259906      -0.01008544       0.00043847      -0.02071766
Te       4.20085337       4.86050093      10.32259900      -0.00542213       0.00851483      -0.02071774
Te       6.33378037       1.20935062      10.30348150      -0.00311837       0.00180079      -0.01967852
Te      -0.02041625       4.87794608      10.30875081       0.00190854      -0.00110226      -0.03005537
Te       0.01357801      -0.00783764      24.41064482      -0.03830819       0.02211809       0.14000962
Te       2.01678536       3.70176819      24.29154338       0.03170296      -0.01830372       0.14320513
Te       4.13891431      -0.06235648      24.38221136       0.01904157       0.09171154       0.14084576
Te      -2.09075684       3.74601365      24.38221101      -0.06990288      -0.06234582       0.14084570
Te       0.00107048       2.43310101      27.30596817      -0.00131340       0.01381839      -0.10434633
Te       2.10762562       6.08176009      27.30596808      -0.01262383      -0.00577264      -0.10434627
Te       4.20530641       2.43822462      27.28935419      -0.00474200       0.00273773      -0.09781256
Te      -2.11725780       6.08855730      27.32942694       0.00626183      -0.00361613      -0.10477447
Te      -0.10636457       2.37466595      20.67946513       0.00427850       0.07489991      -0.02105399
Te       2.10451485       6.20401953      20.67946475      -0.06272584      -0.04115589      -0.02105406
Te       4.18096086       2.45228082      20.65923198      -0.07010490       0.04047519       0.11756346
Te      -2.25491804       6.16803570      20.56019934       0.01722366      -0.00994480       0.05740681
Sb       0.00533859       2.44160541       8.33472238      -0.00311190      -0.00345150      -0.07901713
Sb       2.10239478       6.07381186       8.33472252       0.00143310       0.00442014      -0.07901712
Sb       4.21777473       2.43102618       8.32154223      -0.00114375       0.00066030      -0.05425465
Sb      -2.12623072       6.09373802       8.34121176      -0.00105008       0.00060568      -0.07413561
Sb      -0.00326856       2.42856428       1.98804259      -0.00281975      -0.00197684       0.04804335
Sb       2.10938572       6.08778724       1.98804271       0.00030219       0.00343000       0.04804317
Sb       4.21390468       2.43326121       1.97846883       0.00092072      -0.00053150       0.05381904
Sb      -2.11063332       6.08473334       1.98174697      -0.00070580       0.00040705       0.04341408
Sb      -0.13493633       0.07790658      18.51698767       0.03233984      -0.01867094       0.01228913
Sb       1.80064966       3.82655315      18.90052948      -0.04161024       0.02402343      -0.18114816
Sb       4.09879827      -0.00967088      18.70597529      -0.04478282       0.01735462      -0.11537160
Sb       6.27199288       3.75441103      18.70597505      -0.03742062       0.03010571      -0.11537179
Sb       0.00707626      -0.00408401      12.29331087      -0.00839479       0.00484734       0.05325411
Sb       2.07401645       3.66872564      12.29604070      -0.00052158       0.00030117       0.03112896
Sb       4.22153724       0.01680234      12.28105841      -0.00750199      -0.00135607       0.03047846
Sb      -2.11799916       3.63488049      12.28105859      -0.00257606       0.00717534       0.03047844
Sb       2.11223754       1.22882930      29.04228852      -0.00144250       0.00239771      -0.05250642
Sb       4.20613975       4.85557275      29.04228843      -0.00279748       0.00005024      -0.05250653
Sb       6.31356912       1.22101941      29.02445182      -0.00197956       0.00114319      -0.05469171
Sb       0.00346408       4.86415867      29.03404686      -0.00049870       0.00028763      -0.04118149
Sb       2.08225917       1.23432619      22.65040617      -0.03778613       0.00318751       0.07094651
Sb       4.18639031       4.87878678      22.65040599      -0.02165329       0.03112984       0.07094632
Sb       6.29064631       1.23425408      22.84419446      -0.00695009       0.00401290       0.00342825
Sb      -0.06220111       4.90207090      22.50722511      -0.01417893       0.00818592       0.13208085
Cr       3.84111111       2.64849287      17.90893637       0.61218464      -0.35344484       0.24746338
61
Lattice="8.42843558953249 0.0 0.0 -4.21421779476624 7.29923593142487 0.0 0.0 0.0 31.03344084160948" Properties=species:S:1:pos:R:3:forces:R:3 repair_mode=unwrap repair_image_index=4 migrant_element=Cr energy=-223.85224320526925 mlff_rel_energy_eV=-0.007778064873036783 mlff_fmax_eV_A=1.282310985367223 calculator_label=/home/ycao73/.cache/mace/20231203mace128L1_epoch199model neb_image=4 neb_protocol=mlff_pre_neb pbc="T T T"
Te       2.07681118       1.19904749       3.41874951       0.06815396       0.03935701       1.12282373
Te       4.21421783       4.90114442       3.41874951      -0.00000009      -0.07870063       1.12281780
Te       6.35162447       1.19904749       3.41874951      -0.06815406       0.03935696       1.12282383
Te      -0.00000000       4.86615959       3.44214538       0.00000001      -0.00000279       0.98809752
Te       0.00000000       0.00000000       6.91110412       0.00000001       0.00000543      -1.13270071
Te       2.16533053       3.61600542       6.92505787      -0.07310421       0.04220361      -0.97716099
Te       4.21421783       0.06722856       6.92505787      -0.00000008      -0.08440804      -0.97716788
Te      -2.16533053       3.61600542       6.92505787       0.07310432       0.04220366      -0.97716109
Te       0.00000000       0.00000000      -0.01585640       0.00000008       0.00000736      -0.00570418
Te       2.13183918       3.63534166      -0.00539679       0.01563109      -0.00902576       0.02454014
Te       4.21421783       0.02855607      -0.00539679      -0.00000008       0.01805679       0.02453980
Te      -2.13183918       3.63534166      -0.00539679      -0.01563097      -0.00902574       0.02454014
Te       0.00000000       2.49282831      13.88098103       0.00000006      -0.30344744       0.74421755
Te       2.05536521       6.05282524      13.88098103       0.26279554       0.15171942       0.74422411
Te       4.21421783       2.43307980      13.79989804      -0.00000012       0.00000344       0.97522120
Te      -2.05536521       6.05282524      13.88098103      -0.26279542       0.15171949       0.74422402
Te       1.96138091       1.13240375      17.15032516       0.59263322       0.34216004      -0.86778567
Te       4.21421783       5.03443189      17.15032516      -0.00000005      -0.68432123      -0.86779247
Te       6.46705474       1.13240375      17.15032516      -0.59263330       0.34216005      -0.86778579
Te      -0.00000000       4.86615959      16.23850217       0.00000002      -0.00000114       0.92307228
Te       2.07052235       1.19541663      10.38043244      -0.09288845      -0.05362286       0.10136096
Te       4.21421783       4.90840613      10.38043244      -0.00000011       0.10725217       0.10136002
Te       6.35791330       1.19541663      10.38043244       0.09288834      -0.05362289       0.10136096
Te      -0.00000000       4.86615959      10.35109097       0.00000005      -0.00000659      -0.01176560
Te       0.00000000       0.00000000      24.37414111       0.00000011       0.00000598       0.93430113
Te       2.06440396       3.67427542      24.10437237       0.12652264      -0.07304705       1.17378777
Te       4.21421783      -0.04931145      24.10437237      -0.00000006       0.14610320       1.17379407
Te      -2.06440396       3.67427542      24.10437237      -0.12652255      -0.07304706       1.17378789
Te       0.00000000       2.48047182      27.59663590       0.00000012      -0.07632698      -1.01817960
Te       2.06606623       6.05900348      27.59663590       0.06609986       0.03815592      -1.01818481
Te       4.21421783       2.43307980      27.57130687      -0.00000006      -0.00000101      -1.02965401
Te      -2.06606623       6.05900348      27.59663590      -0.06609977       0.03815599      -1.01818491
Te      -0.00000000       2.44919457      20.67789053       0.00000010       0.01662821      -0.21742864
Te       2.09315313       6.07464211      20.67789053      -0.01440112      -0.00831953      -0.21742806
Te       4.21421783       2.43307980      21.01492299      -0.00000006      -0.00000070      -0.18510698
Te      -2.09315313       6.07464211      20.67789053       0.01440121      -0.00831950      -0.21742807
Sb      -0.00000000       2.43246271       8.46789382       0.00000008       0.08203560       0.18531610
Sb       2.10764333       6.08300804       8.46789382      -0.07104391      -0.04102395       0.18531985
Sb       4.21421783       2.43307980       8.62437001      -0.00000013       0.00000169       0.08958792
Sb      -2.10764333       6.08300804       8.46789382       0.07104402      -0.04102383       0.18531981
Sb      -0.00000000       2.43434111       1.84055693       0.00000012       0.07307365      -0.19991272
Sb       2.10601658       6.08206883       1.84055693      -0.06327974      -0.03654500      -0.19991207
Sb       4.21421783       2.43307980       1.87858587      -0.00000011       0.00000465      -0.13824712
Sb      -2.10601658       6.08206883       1.84055693       0.06327986      -0.03654487      -0.19991212
Sb       0.00000000       0.00000000      18.93507092       0.00000007       0.00000974       0.60547356
Sb       1.97526166       3.72574175      18.57680326      -0.47035315       0.27155452       0.12415852
Sb       4.21421783      -0.15224410      18.57680326      -0.00000005      -0.54311415       0.12415657
Sb       6.45317400       3.72574175      18.57680326       0.47035315       0.27155456       0.12415854
Sb       0.00000000       0.00000000      12.37598846       0.00000008       0.00000640      -0.20870475
Sb       2.10086875       3.65322246      12.20931014       0.05117479      -0.02954712      -0.16178237
Sb       4.21421783      -0.00720553      12.20931014      -0.00000013       0.05909824      -0.16178583
Sb      -2.10086875       3.65322246      12.20931014      -0.05117468      -0.02954704      -0.16178236
Sb       2.10847988       1.21733143      29.16138514      -0.02884475      -0.01664517       0.09711688
Sb       4.21421783       4.86457654      29.16138514      -0.00000018       0.03330062       0.09711474
Sb       6.31995578       1.21733143      29.16138514       0.02884464      -0.01664526       0.09711686
Sb      -0.00000000       4.86615959      29.23540596       0.00000007      -0.00000663       0.13499738
Sb       2.03423865       1.17446823      22.63158697      -0.14733142      -0.08505615      -0.26123558
Sb       4.21421783       4.95030294      22.63158697      -0.00000013       0.17011599      -0.26123743
Sb       6.39419701       1.17446823      22.63158697       0.14733134      -0.08505617      -0.26123565
Sb      -0.00000000       4.86615959      22.48200101       0.00000003      -0.00000861      -0.26605321
Cr       4.21421783       2.43307980      18.58850245      -0.00000002       0.00000046      -1.28231099
