61
Lattice="8.669586889484 0.0 0.0 -4.334793444742 7.508078985966 0.0 0.0 0.0 31.073177673002" Properties=species:S:1:pos:R:3:forces:R:3 branch_id=tetradymite__Bi2Te3__Mn1__ingap_1-7__reused_path_s42 image_index=0 system_id=tetradymite__Bi2Te3__Mn1__ingap_1-7__reused_path_s42 mapping_role=material_transfer_reused_path energy=-223.69820950287865 mlff_rel_energy_eV=0.0 mlff_fmax_eV_A=1.488405944804918 calculator_label=/home/ycao73/.cache/mace/20231203mace128L1_epoch199model neb_image=0 neb_protocol=mlff_pre_neb pbc="T T T"
Te       2.16739745       1.24924995       3.47721850      -0.00000292       0.00975560       1.25064945
Te       4.33661000       5.00643632       3.47721850      -0.00844144      -0.00487315       1.25064210
Te       6.50218952       1.25134749       3.46781351       0.00000269       0.00000845       1.29265139
Te      -0.00181653       5.00643713       3.47721851       0.00844131      -0.00487638       1.25061729
Te      -0.02760729       0.01593909       6.88148363       0.08245658      -0.04759992      -1.38358857
Te       2.16739629       3.75404152       6.93221801       0.00000203      -0.00000455      -1.21296017
Te       4.36240077       0.01593857       6.88148344      -0.08245649      -0.04759769      -1.38356993
Te      -2.16739629       3.72216336       6.88148344      -0.00000177       0.09520804      -1.38356113
Te       0.00000000       0.00000000       0.00000000       0.00000004       0.00000760      -0.00001098
Te       2.16739674       3.75404128       0.00000000      -0.00000001      -0.00000171      -0.00001056
Te       4.33479348       0.00000000       0.00000000      -0.00000006       0.00000759      -0.00001099
Te      -2.16739674       3.75404128       0.00000000       0.00000012      -0.00000171      -0.00001057
Te       0.05102108       2.53215149      13.96547985      -0.31484316      -0.18177207       1.10637507
Te       2.16739652       6.19782123      13.96547985       0.00000057       0.36354555       1.10638136
Te       4.28377240       2.53215124      13.96548024       0.31484456      -0.18177228       1.10637938
Te      -2.16739652       6.25673533      13.91232491      -0.00000009      -0.00000644       1.48840594
Te       2.16739696       1.31026132      17.10769420      -0.00000060      -0.36354722      -1.10637520
Te       4.28377240       4.97593106      17.10769420       0.31484378       0.18176814      -1.10638051
Te       6.50218999       1.25134722      17.16084913       0.00000014       0.00000271      -1.48839706
Te       0.05102108       4.97593132      17.10769382      -0.31484520       0.18176833      -1.10638489
Te       2.16739650       1.23417327      10.40182580       0.00000110      -0.08255856      -0.00693686
Te       4.34966632       5.01397549      10.40182580       0.07150389       0.04127403      -0.00693762
Te       6.50219046       1.25134695      10.40442474      -0.00000161       0.00000805       0.23386509
Te      -0.01487284       5.01397521      10.40182622      -0.07150459       0.04127571      -0.00693832
Te       0.02760729      -0.01593909      24.19169042      -0.08245633       0.04761622       1.38358863
Te       2.16739718       3.75404102      24.14095605      -0.00000206       0.00000287       1.21296061
Te       4.30718618      -0.01593857      24.19169061       0.08245627       0.04761395       1.38356997
Te      -2.16739718       3.78591919      24.19169061       0.00000203      -0.09520979       1.38356154
Te      -0.00181653       2.50164622      27.59595556       0.00844154       0.00486858      -1.25063842
Te       2.16739604       6.25883259      27.59595556       0.00000282      -0.00975487      -1.25064606
Te       4.33661000       2.50164541      27.59595555      -0.00844134       0.00487179      -1.25061362
Te      -2.16739604       6.25673505      27.60536055      -0.00000272      -0.00000769      -1.29264795
Te      -0.01487284       2.49410706      20.67134826      -0.07150401      -0.04127999       0.00693653
Te       2.16739698       6.27390928      20.67134826      -0.00000117       0.08255782       0.00693788
Te       4.34966632       2.49410733      20.67134783       0.07150469      -0.04128168       0.00693726
Te      -2.16739698       6.25673560      20.66874932       0.00000159      -0.00000786      -0.23386505
Bi      -0.03105023       2.48476558       8.47818076       0.16888232       0.09752059       0.51045497
Bi       2.16739825       6.29259004       8.47818076      -0.00001294      -0.19502400       0.51046008
Bi       4.36584370       2.48476731       8.47818114      -0.16888219       0.09750548       0.51044448
Bi      -2.16739825       6.25673633       8.41377811       0.00001273      -0.00001429       0.58164073
Bi       0.00025797       2.50284047       1.88393550       0.02179134       0.01261097      -0.29794086
Bi       2.16739903       6.25643890       1.88393550      -0.00002132      -0.02518690      -0.29794045
Bi       4.33453551       2.50284312       1.88393579      -0.02179124       0.01258630      -0.29795776
Bi      -2.16739903       6.25673678       1.88288669       0.00002153      -0.00002442      -0.28623511
Bi      -0.05167120       0.02983240      18.78189831       0.16189800      -0.09346257       0.35056995
Bi       2.16739599       3.75404170      18.73689157       0.00000613      -0.00000774       0.98281202
Bi       4.38646469       0.02983154      18.78189855      -0.16189785      -0.09345545       0.35057429
Bi       6.50219097       3.69437691      18.78189855      -0.00000619       0.18693558       0.35057556
Bi       0.05167120      -0.02983240      12.29127574      -0.16189934       0.09347920      -0.35057330
Bi       2.16739749       3.75404084      12.33628248      -0.00000609       0.00000179      -0.98281009
Bi       4.28312227      -0.02983154      12.29127549       0.16189919       0.09347209      -0.35057755
Bi      -2.16739749       3.81370565      12.29127549       0.00000617      -0.18694102      -0.35057349
Bi       2.16739445       1.25164364      29.18923855       0.00002130       0.02518587       0.29794965
Bi       4.33453551       5.00524207      29.18923855      -0.02179134      -0.01261233       0.29794625
Bi       6.50219251       1.25134577      29.19028735      -0.00002156       0.00002342       0.28624431
Bi       0.00025797       5.00523943      29.18923826       0.02179125      -0.01258768       0.29796320
Bi       2.16739523       1.21549250      22.59499330       0.00001294       0.19502226      -0.51045554
Bi       4.36584370       5.02331697      22.59499330      -0.16888234      -0.09753080      -0.51045984
Bi       6.50219173       1.25134622      22.65939594      -0.00001276       0.00001290      -0.58163689
Bi      -0.03105023       5.02331523      22.59499291       0.16888207      -0.09751577      -0.51044916
Mn       2.16739674       3.75404128      15.53658702       0.00000001      -0.00000096      -0.00000050
61
Lattice="8.669586889484 0.0 0.0 -4.334793444742 7.508078985966 0.0 0.0 0.0 31.073177673002" Properties=species:S:1:pos:R:3:forces:R:3 branch_id=tetradymite__Bi2Te3__Mn1__ingap_1-7__reused_path_s42 image_index=1 system_id=tetradymite__Bi2Te3__Mn1__ingap_1-7__reused_path_s42 mapping_role=material_transfer_reused_path energy=-227.99848821556952 mlff_rel_energy_eV=-4.300278712690869 mlff_fmax_eV_A=0.09723373246764945 calculator_label=/home/ycao73/.cache/mace/20231203mace128L1_epoch199model neb_image=1 neb_protocol=mlff_pre_neb pbc="T T T"
Te       2.16031598       1.25423538       3.85196148      -0.00100517       0.00058852      -0.08248158
Te       4.32875320       5.01007702       3.85196159      -0.00101241       0.00057601      -0.08248171
Te       6.50408046       1.25025738       3.84161242      -0.00286786       0.00165559      -0.08720983
Te       0.00810758       5.00070727       3.83580879      -0.00133632       0.00077139      -0.08018864
Te      -0.03939814       0.02274736       6.49042288      -0.00864859       0.00499334       0.04934391
Te       2.16372601       3.75615954       6.51554593      -0.00456467       0.00263545       0.07340686
Te       4.32958242      -0.01781830       6.44616996       0.00087213       0.02079070       0.07160844
Te      -2.15457032       3.76746277       6.44616991      -0.01756911      -0.01115056       0.07160855
Te       0.00236061      -0.00136124      -0.00745480       0.00000467      -0.00000297      -0.00309927
Te       2.16959448       3.75277223      -0.00117134      -0.00184572       0.00106554      -0.00301658
Te       4.33270846       0.00412235       0.00251435      -0.00082852       0.00064079      -0.00080886
Te      -2.17200781       3.75378644       0.00251430      -0.00096945       0.00039691      -0.00080881
Te      -0.05608338       2.48310725      14.14645155       0.04407667       0.04550779      -0.04281452
Te       2.15631864       6.31509801      14.14645160      -0.01737249      -0.06092530      -0.04281440
Te       4.25494810       2.54879379      14.19281610       0.02011033      -0.01161069      -0.07635554
Te      -2.18702481       6.26806686      14.23594695      -0.00273326       0.00157795      -0.07435718
Te       2.13320436       1.29773217      16.87218991      -0.00288873       0.00057644       0.06596977
Te       4.27752675       5.01180578      16.87219023      -0.00194345       0.00221375       0.06596961
Te       6.47602347       1.26645473      16.84019317      -0.00549154       0.00317061       0.05288765
Te      -0.07317364       5.04763354      16.90376196       0.04490078      -0.02592329       0.04016532
Te       2.16824867       1.26725010      10.29632801      -0.00916140      -0.00843812       0.00664233
Te       4.32144776       4.99669865      10.29632785       0.00272685       0.01215307       0.00664247
Te       6.49791269       1.25381757      10.38399815      -0.01590239       0.00918121      -0.00635291
Te      -0.07425565       5.04825891      10.34632680       0.01583772      -0.00914381      -0.01746205
Te      -0.02235120       0.01290659      24.61834274       0.00014237      -0.00008248      -0.07815942
Te       2.15809831       3.75941012      24.56139014      -0.00807663       0.00466298      -0.08333126
Te       4.31612377      -0.00380202      24.58396453      -0.01222649       0.00150757      -0.05785011
Te      -2.17343703       3.77211212      24.58396447      -0.00741909       0.00983445      -0.05785017
Te      -0.00063659       2.51026694      27.22757855      -0.00116020       0.00015278       0.07904774
Te       2.16051999       6.25349812      27.22757856      -0.00071235       0.00092872       0.07904770
Te       4.33370988       2.50331948      27.21588147      -0.00105931       0.00061167       0.07910146
Te      -2.16551432       6.25564652      27.22674005      -0.00350883       0.00202614       0.08074472
Te      -0.04618172       2.49928510      20.72370343      -0.00504777       0.00075491       0.01305003
Te       2.14725841       6.29843304      20.72370318      -0.00317762       0.00399431       0.01305006
Te       4.30047563       2.52250776      20.76358827       0.00789516      -0.00455823      -0.01441068
Te      -2.18503973       6.26692009      20.68848172      -0.00731931       0.00422607      -0.00129933
Bi      -0.02886323       2.51652403       8.26579309      -0.00994054      -0.00531430       0.03090326
Bi       2.14098809       6.27481486       8.26579289      -0.00036797       0.01126627       0.03090335
Bi       4.37327123       2.48047910       8.20228408      -0.01094154       0.00631713       0.06137871
Bi      -2.18884410       6.26911622       8.20077435      -0.00828639       0.00478445       0.02334459
Bi       0.00142002       2.49802193       2.06497730      -0.00020158       0.00188787      -0.05453339
Bi       2.17215361       6.25784100       2.06497747      -0.00173582      -0.00076929      -0.05453368
Bi       4.33063730       2.50509446       2.08293878      -0.00270650       0.00156250      -0.05432453
Bi      -2.17097259       6.25879886       2.08071690       0.00084448      -0.00048744      -0.05405492
Bi      -0.06723775       0.03882088      18.65960928      -0.01944615       0.01122711       0.04203438
Bi       2.11764262       3.78276605      18.76038505       0.00068000      -0.00039260       0.02904329
Bi       4.35744624       0.08294026      18.69469916       0.00758488      -0.01772302       0.02407400
Bi       6.44168904       3.69295322      18.69469967       0.01914098       0.00229277       0.02407375
Bi       0.07774685      -0.04488505      12.32175516      -0.02503579       0.01445400      -0.00508006
Bi       2.10745352       3.78864962      12.26219834       0.01339261      -0.00773237      -0.00042846
Bi       4.24619226       0.01333069      12.40408883      -0.00364890      -0.02176137      -0.04864016
Bi      -2.22324041       3.82410774      12.40408853       0.01702121       0.01404058      -0.04864015
Bi       2.16988288       1.25346089      28.99238183      -0.00130603       0.00130011       0.05061253
Bi       4.33420649       5.00217752      28.99238179      -0.00177900       0.00048121       0.05061257
Bi       6.49858050       1.25343179      28.99312532       0.00028229      -0.00016304       0.05215643
Bi      -0.00212605       5.00661468      29.00726882      -0.00165224       0.00095416       0.05246786
Bi       2.13833845       1.23200852      22.82940375       0.00068914       0.00009259      -0.05084105
Bi       4.33701314       5.04022285      22.82940357       0.00026418      -0.00064317      -0.05084107
Bi       6.48808529       1.25949174      22.84394752      -0.01473899       0.00850932      -0.01951886
Bi      -0.01636294       5.01483493      22.80272016      -0.01786109       0.01031219      -0.04098645
Mn       2.03805832       3.82871448      15.48432320       0.06903077      -0.03985486       0.05568431
61
Lattice="8.669586889484 0.0 0.0 -4.334793444742 7.508078985966 0.0 0.0 0.0 31.073177673002" Properties=species:S:1:pos:R:3:forces:R:3 branch_id=tetradymite__Bi2Te3__Mn1__ingap_1-7__reused_path_s42 image_index=2 system_id=tetradymite__Bi2Te3__Mn1__ingap_1-7__reused_path_s42 mapping_role=material_transfer_reused_path energy=-227.45228777700297 mlff_rel_energy_eV=-3.7540782741243106 mlff_fmax_eV_A=0.26746117949896886 calculator_label=/home/ycao73/.cache/mace/20231203mace128L1_epoch199model neb_image=2 neb_protocol=mlff_pre_neb pbc="T T T"
Te       2.16163295       1.25022289       3.82060039      -0.00060501      -0.00176621       0.00273811
Te       4.33288654       5.01094268       3.82060044       0.00122713       0.00140698       0.00273806
Te       6.50842493       1.24774904       3.81473349       0.00141450      -0.00081660       0.00130329
Te       0.00942563       4.99994625       3.80354189       0.00345162      -0.00199291      -0.00047936
Te      -0.00864785       0.00499365       6.53968356      -0.00026224       0.00015155      -0.01424656
Te       2.19543762       3.73785097       6.52999582       0.01720417      -0.00993289      -0.01680028
Te       4.33832074      -0.04175161       6.47080921       0.00639818      -0.00402407      -0.00732298
Te      -2.12947434       3.77186190       6.47080922       0.00668428      -0.00352894      -0.00732293
Te       0.00329173      -0.00189896      -0.00886500       0.00125096      -0.00072218      -0.00323037
Te       2.17230286       3.75120853       0.00105545       0.00037230      -0.00021504      -0.00213512
Te       4.33387743       0.00518380       0.00351882      -0.00003613       0.00105585       0.00031402
Te      -2.17234268       3.75224327       0.00351877      -0.00093241      -0.00049668       0.00031406
Te      -0.13633360       2.27504710      14.17961607       0.01708892      -0.01178327       0.01022832
Te       2.29637885       6.48862648      14.17961593       0.01874925      -0.00890792       0.01022836
Te       4.29004027       2.52853334      14.17138302       0.01261556      -0.00728345      -0.00135599
Te      -2.03332059       6.17932587      14.18997825       0.00413344      -0.00238660      -0.00113339
Te       2.17417925       1.25288650      16.92280555       0.00307569      -0.00556627       0.00709521
Te       4.33685175       4.99874330      16.92280572       0.00635843       0.00011947       0.00709517
Te       6.47317017       1.26810208      16.94021463      -0.00097212       0.00056131       0.00319451
Te      -0.04884064       5.03358480      17.11649979       0.00629702      -0.00363577       0.01848230
Te       2.22950440       1.28308485      10.30027033       0.01698436      -0.00240368      -0.01369064
Te       4.33836233       4.93573235      10.30027026       0.01057385      -0.01350730      -0.01369059
Te       6.57631484       1.20855215      10.36650189       0.01012003      -0.00584260      -0.01701909
Te      -0.02144737       5.01777009      10.36288766       0.00912029      -0.00526569      -0.02395008
Te      -0.02025043       0.01169354      24.63724318      -0.00627979       0.00362567       0.01486909
Te       2.15967827       3.75849789      24.55178641      -0.00450797       0.00260265       0.01892675
Te       4.32655926      -0.00510643      24.55192121      -0.00011698       0.00209035       0.01627216
Te      -2.16708976       3.76372683      24.55192113      -0.00186875      -0.00094387       0.01627213
Te      -0.00086342       2.51220029      27.26153137      -0.00100629       0.00281652       0.00031668
Te       2.15873227       6.25272802      27.26153133      -0.00294230      -0.00053680       0.00031669
Te       4.33552351       2.50227239      27.24552492       0.00101455      -0.00058573      -0.00403928
Te      -2.16113452       6.25311796      27.26015789       0.00053768      -0.00031047      -0.00331698
Te      -0.00961126       2.49966975      20.72960925       0.00150443      -0.00096548       0.01690485
Te       2.16521047       6.26656987      20.72960907       0.00158839      -0.00082015       0.01690486
Te       4.29743424       2.52426361      20.83451124      -0.00269291       0.00155481       0.02645878
Te      -2.17843719       6.26310823      20.73243496      -0.00458173       0.00264520       0.02114791
Bi      -0.00287420       2.52209948       8.27848712       0.01284994      -0.00262279      -0.00858363
Bi       2.14915410       6.24952020       8.27848709       0.00869639      -0.00981694      -0.00858351
Bi       4.40885436       2.45993517       8.19504439       0.01437846      -0.00830132      -0.00817563
Bi      -2.15711135       6.25079547       8.25866119      -0.00023263       0.00013426       0.00065541
Bi       0.00155410       2.49617260       2.04403416       0.00091392      -0.00147247      -0.00908076
Bi       2.17382217       6.25864954       2.04403428       0.00173218      -0.00005528      -0.00908092
Bi       4.33398824       2.50315974       2.06526083      -0.00032390       0.00018703      -0.00376638
Bi      -2.16943938       6.25791368       2.05491269       0.00047355      -0.00027344      -0.00824743
Bi      -0.00310622       0.00179455      18.67155446       0.00235188      -0.00135784       0.00472671
Bi       2.21433896       3.72693848      18.72981996       0.01406119      -0.00811826       0.00855844
Bi       4.32874583       0.13824249      18.77852229      -0.00184273       0.00973494       0.02093474
Bi       6.37944561       3.69015734      18.77852278      -0.00935202      -0.00327164       0.02093458
Bi       0.21060293      -0.12158963      12.16384767       0.01801640      -0.01040159      -0.03540499
Bi       2.16750701       3.75397774      12.34205698       0.01286029      -0.00742503       0.00804311
Bi       4.34693772       0.04380701      12.38823767       0.01604931      -0.00260888      -0.00696026
Bi      -2.19926114       3.72162150      12.38823770       0.01028409      -0.01259463      -0.00696005
Bi       2.17143488       1.25348292      29.01409013       0.00100105       0.00023743       0.00506754
Bi       4.33496344       5.00082256      29.01409006       0.00029490      -0.00098568       0.00506758
Bi       6.49837378       1.25355119      29.01670354      -0.00059931       0.00034601       0.00803158
Bi      -0.00100275       5.00596625      29.03509626      -0.00207260       0.00119659       0.01260382
Bi       2.11900304       1.22853246      22.83519161      -0.00491708       0.00277575       0.00966178
Bi       4.33035565       5.05870569      22.83519139      -0.00486238       0.00287038       0.00966175
Bi       6.51968948       1.24124495      22.82613463      -0.00257494       0.00148666       0.00340380
Bi      -0.00196518       5.00652233      22.77592607      -0.00189208       0.00109239       0.00092209
Mn       0.85261241       4.51313217      14.81483865      -0.21625430       0.12485457      -0.09581701
61
Lattice="8.669586889484 0.0 0.0 -4.334793444742 7.508078985966 0.0 0.0 0.0 31.073177673002" Properties=species:S:1:pos:R:3:forces:R:3 branch_id=tetradymite__Bi2Te3__Mn1__ingap_1-7__reused_path_s42 image_index=3 system_id=tetradymite__Bi2Te3__Mn1__ingap_1-7__reused_path_s42 mapping_role=material_transfer_reused_path energy=-227.86458356590697 mlff_rel_energy_eV=-4.166374063028314 mlff_fmax_eV_A=0.02508118764027585 calculator_label=/home/ycao73/.cache/mace/20231203mace128L1_epoch199model neb_image=3 neb_protocol=mlff_pre_neb pbc="T T T"
Te       2.16543958       1.24675584       3.82380383      -0.00068273      -0.00157161       0.00047223
Te       4.33779237       5.00937956       3.82380388       0.00101992       0.00137699       0.00047211
Te       6.50782992       1.24809254       3.82256902       0.00350046      -0.00202073       0.00019417
Te       0.00581638       5.00203009       3.81001738       0.00063904      -0.00036918      -0.00299798
Te       0.00662711      -0.00382536       6.54549845       0.00543269      -0.00313631      -0.00021268
Te       2.17650435       3.74878213       6.50706920      -0.00912223       0.00526659      -0.01739752
Te       4.34988814      -0.04086320       6.50122342       0.00180711      -0.00333344      -0.01772369
Te      -2.12446014       3.76139997       6.50122332       0.00379069       0.00010174      -0.01772354
Te       0.00249606      -0.00143958      -0.00550373       0.00086398      -0.00049871      -0.00204589
Te       2.17115717       3.75187001       0.00173400       0.00247553      -0.00142939       0.00058438
Te       4.33572486       0.00293861       0.00278950       0.00106789       0.00130775       0.00071532
Te      -2.16947458       3.75176594       0.00278946      -0.00059851      -0.00157878       0.00071537
Te       0.01526472       2.35671726      14.24129942       0.00021507       0.00209872      -0.00815096
Te       2.30144949       6.31650363      14.24129945      -0.00171006      -0.00123575      -0.00815095
Te       4.34283406       2.49805277      14.21739145       0.00830576      -0.00479516       0.00200517
Te      -2.23689130       6.29685722      14.24361397      -0.01186206       0.00684842      -0.00796211
Te       2.17989305       1.24749571      16.92583390       0.00237611       0.00158277       0.00583028
Te       4.34437724       4.99649048      16.92583394      -0.00018249      -0.00284930       0.00583022
Te       6.49612624       1.25484835      16.92945711       0.00258700      -0.00149341       0.00247766
Te       0.01439173       4.99707765      17.04115611      -0.00704015       0.00406440      -0.00203820
Te       2.21850334       1.26050468      10.33316034       0.00640859       0.00001140      -0.00824508
Te       4.35241682       4.95654941      10.33316040       0.00319460      -0.00555606      -0.00824503
Te       6.51347137       1.24483482      10.34288534      -0.01864770       0.01076649      -0.01286125
Te       0.00902987       5.00017411      10.33845178       0.00140050      -0.00080880      -0.00359711
Te       0.00493867      -0.00284937      24.60467649       0.00012662      -0.00007292       0.01472739
Te       2.16707253       3.75422879      24.55613536      -0.00246126       0.00142100       0.00886864
Te       4.33921951      -0.00050009      24.55290716       0.00070115      -0.00579081       0.01239164
Te      -2.16474887       3.75045958      24.55290716       0.00536574       0.00228828       0.01239155
Te      -0.00003314       2.50763388      27.25676030       0.00121306       0.00007609       0.00161661
Te       2.16310202       6.25429220      27.25676027       0.00054065      -0.00108876       0.00161657
Te       4.33612478       2.50192525      27.24732807       0.00061270      -0.00035373      -0.00319353
Te      -2.16153679       6.25335024      27.25557925       0.00079085      -0.00045678       0.00218210
Te       0.00658429       2.50075737      20.73331388      -0.00032259      -0.00136232       0.00448660
Te       2.17236636       6.25200034      20.73331381       0.00101861       0.00096049       0.00448661
Te       4.34252672       2.49822952      20.79527125       0.00087369      -0.00050435       0.00014271
Te      -2.16794451       6.25705025      20.73614932       0.00178538      -0.00103088       0.00289834
Bi       0.02141598       2.51068292       8.29715669       0.00101230      -0.00527101      -0.00884321
Bi       2.17118629       6.23419260       8.29715677       0.00507099       0.00175874      -0.00884303
Bi       4.36912124       2.48287505       8.18140360      -0.00772007       0.00445720      -0.00607171
Bi      -2.14930733       6.24628975       8.29309849       0.00408454      -0.00235828      -0.00591495
Bi       0.00188393       2.49562020       2.05169160       0.00137874      -0.00041565      -0.01117312
Bi       2.17446549       6.25864015       2.05169174       0.00104936      -0.00098633      -0.01117343
Bi       4.33550487       2.50228411       2.06847180       0.00101474      -0.00058583      -0.00835637
Bi      -2.16843419       6.25733335       2.05389218       0.00089868      -0.00051900      -0.01105209
Bi       0.00199584      -0.00115116      18.69066285       0.00176187      -0.00101709       0.01425496
Bi       2.24252133       3.71066753      18.72300633       0.00155521      -0.00089795       0.01892990
Bi       4.33865163       0.06938750      18.72690554       0.00138456      -0.00113429       0.01683929
Bi       6.44402872       3.71600614      18.72690595       0.00167471      -0.00063189       0.01683901
Bi       0.04276084      -0.02468615      12.08441742      -0.00868019       0.00501177      -0.01257764
Bi       2.19281589       3.73936548      12.44507886      -0.00626469       0.00361685      -0.00726833
Bi       4.36237500       0.00824356      12.45045409      -0.00457360      -0.01265651      -0.00492855
Bi      -2.16074351       3.72603412      12.45045437       0.00867412       0.01028907      -0.00492842
Bi       2.17061666       1.25241289      29.01375900       0.00086684      -0.00057138       0.01045804
Bi       4.33548097       5.00206615      29.01375895       0.00092836      -0.00046495       0.01045797
Bi       6.50024053       1.25247338      29.01609346       0.00095742      -0.00055264       0.00972949
Bi       0.00042710       5.00514070      29.02739971       0.00027039      -0.00015610       0.01555054
Bi       2.14732120       1.23821584      22.81604596       0.00218353       0.00007876       0.00449420
Bi       4.33612869       5.02933980      22.81604583       0.00102355      -0.00193053       0.00449407
Bi       6.53235484       1.23393267      22.81310030      -0.00184772       0.00106678       0.00518515
Bi       0.00085245       5.00489557      22.78929068       0.00171762      -0.00099177       0.00206106
Mn       0.04123324       4.98158251      14.38983927      -0.01390486       0.00802808       0.00727701
61
Lattice="8.669586889484 0.0 0.0 -4.334793444742 7.508078985966 0.0 0.0 0.0 31.073177673002" Properties=species:S:1:pos:R:3:forces:R:3 branch_id=tetradymite__Bi2Te3__Mn1__ingap_1-7__reused_path_s42 image_index=4 system_id=tetradymite__Bi2Te3__Mn1__ingap_1-7__reused_path_s42 mapping_role=material_transfer_reused_path energy=-224.5000799362657 mlff_rel_energy_eV=-0.8018704333870517 mlff_fmax_eV_A=1.3418718009396498 calculator_label=/home/ycao73/.cache/mace/20231203mace128L1_epoch199model neb_image=4 neb_protocol=mlff_pre_neb pbc="T T T"
Te       2.16110135       1.24771244       3.52495313       0.01424711       0.00823523       1.11675166
Te       4.33479348       5.01265766       3.52495313      -0.00000011      -0.01645414       1.11674457
Te       6.50848561       1.24771244       3.52495313      -0.01424728       0.00823518       1.11675179
Te       0.00000000       5.00538836       3.51818557       0.00000001      -0.00000286       1.09538273
Te       0.00000000       0.00000000       6.81430336       0.00000001       0.00000618      -1.05009313
Te       2.18389641       3.74451518       6.78221183      -0.36513590       0.21080796      -1.27390754
Te       4.33479348       0.01905219       6.78221183      -0.00000008      -0.42161727      -1.27391476
Te      -2.18389641       3.74451518       6.78221183       0.36513614       0.21080805      -1.27390771
Te       0.00000000       0.00000000       0.01305794       0.00000007       0.00000713      -0.06207301
Te       2.16864507       3.75332055       0.00156126       0.01500795      -0.00866658       0.00087204
Te       4.33479348       0.00144146       0.00156126      -0.00000009       0.01733676       0.00087162
Te      -2.16864507       3.75332055       0.00156126      -0.01500783      -0.00866655       0.00087205
Te       0.00000000       2.35426736      14.24203686       0.00000005      -0.03964036       0.19421684
Te       2.29593815       6.33094887      14.24203686       0.03433435       0.01981844       0.19421923
Te       4.33479348       2.50269418      13.81801103      -0.00000015       0.00000318       1.10289075
Te      -2.29593815       6.33094887      14.24203686      -0.03433421       0.01981847       0.19421915
Te       2.16830324       1.25187046      17.19725855      -0.01614710      -0.00931955      -1.11956158
Te       4.33479348       5.00434163      17.19725855      -0.00000008       0.01863612      -1.11956878
Te       6.50128372       1.25187046      17.19725855       0.01614694      -0.00931952      -1.11956171
Te       0.00000000       5.00538836      16.96030023       0.00000012      -0.00000767       0.05931466
Te       2.13611185       1.23328474      10.29466250       0.44143845       0.25487210       0.35901579
Te       4.33479348       5.04151307      10.29466250      -0.00000007      -0.50974165       0.35901132
Te       6.53347511       1.23328474      10.29466250      -0.44143875       0.25487217       0.35901576
Te       0.00000000       5.00538836      10.28138029       0.00000005      -0.00000591       0.33030124
Te       0.00000000       0.00000000      24.27587282       0.00000013       0.00000783       0.90172029
Te       2.17744008       3.74824275      24.22539972       0.00500319      -0.00288688       1.13670257
Te       4.33479348       0.01159705      24.22539972      -0.00000008       0.00578656       1.13671017
Te      -2.17744008       3.74824275      24.22539972      -0.00500309      -0.00288691       1.13670271
Te       0.00000000       2.50659620      27.56110809       0.00000014      -0.01573563      -1.18489639
Te       2.16401749       6.25478444      27.56110809       0.01362599       0.00785793      -1.18490371
Te       4.33479348       2.50269418      27.57665428      -0.00000007      -0.00000168      -1.28257852
Te      -2.16401749       6.25478444      27.56110809      -0.01362589       0.00785801      -1.18490384
Te       0.00000000       2.49942374      20.71460143       0.00000014       0.13952191      -0.12955035
Te       2.17022902       6.25837068      20.71460143      -0.12082880      -0.06976766      -0.12955018
Te       4.33479348       2.50269418      20.75286115      -0.00000010       0.00000103      -0.47289134
Te      -2.17022902       6.25837068      20.71460143       0.12082891      -0.06976760      -0.12955020
Bi       0.00000000       2.50189333       8.44616721       0.00000013      -0.11923323       0.11951537
Bi       2.16809030       6.25713588       8.44616721       0.10325988       0.05960948       0.11951872
Bi       4.33479348       2.50269418       8.20720571      -0.00000024       0.00000152       1.02514293
Bi      -2.16809030       6.25713588       8.44616721      -0.10325977       0.05960964       0.11951869
Bi       0.00000000       2.49615035       1.90717768       0.00000017       0.04291972      -0.28206241
Bi       2.17306386       6.26000737       1.90717768      -0.03716536      -0.02146895      -0.28206207
Bi       4.33479348       2.50269418       1.92335457      -0.00000009       0.00000498      -0.30300843
Bi      -2.17306386       6.26000737       1.90717768       0.03716550      -0.02146881      -0.28206212
Bi       0.00000000       0.00000000      18.84333576       0.00000012       0.00001108       0.27074557
Bi       2.16408197       3.75595506      18.74872235      -0.12550320       0.07245460       0.36756071
Bi       4.33479348      -0.00382757      18.74872235      -0.00000005      -0.14490931       0.36755971
Bi       6.50550498       3.75595506      18.74872235       0.12550315       0.07245460       0.36756078
Bi       0.00000000       0.00000000      11.89561598       0.00000018       0.00000820       0.64361976
Bi       2.03509956       3.83042310      12.49915850       0.03116307      -0.01799269      -0.35109339
Bi       4.33479348      -0.15276365      12.49915850      -0.00000011       0.03599007      -0.35109720
Bi      -2.03509956       3.83042310      12.49915850      -0.03116296      -0.01799258      -0.35109343
Bi       2.16943848       1.25252589      29.15782371      -0.04554347      -0.02628378       0.39401121
Bi       4.33479348       5.00303076      29.15782371      -0.00000019       0.05258312       0.39400823
Bi       6.50014847       1.25252589      29.15782371       0.04554337      -0.02628390       0.39401120
Bi       0.00000000       5.00538836      29.16113455       0.00000008      -0.00000599       0.37741637
Bi       2.16074172       1.24750482      22.60727926      -0.06910365      -0.03989040      -0.15249211
Bi       4.33479348       5.01307291      22.60727926      -0.00000016       0.07978428      -0.15249455
Bi       6.50884523       1.24750482      22.60727926       0.06910357      -0.03989040      -0.15249218
Bi       0.00000000       5.00538836      22.66191640       0.00000004      -0.00001107      -0.33534621
Mn       0.00000000       5.00538836      14.36954061      -0.00000002      -0.00000200       0.11424063
