2050
Lattice="85.54299859362168 0.0 0.0 -21.345801068062194 37.01821938339822 0.0 0.0895635195275219 0.05165086255082877 47.428887855240575" Properties=species:S:1:pos:R:3:momenta:R:3:forces:R:3 step=462200 time_fs=462200.0 energy=-4491618.391804908 free_energy=-4491618.391804908 stress="0.004572444450476641 -0.00010233444474388676 0.0019250431380223138 -0.00010233444474388676 0.0026509048885665137 0.002694422623748168 0.0019250431380223138 0.002694422623748168 -1.3307590692558973e-05" pbc="T T T" phase1_source_path="/scratch16/pclancy3/yi/mace_four_model_MD_continuation_20260930/1-from-scratch/segment_from_000200000.extxyz" phase1_source_sha256=38140e3252961d7e2b470232a179ffbeb65d29f2dca4eb0e1d42c9d94c0b45c7 phase1_source_frame_index=1310 phase1_selected_step=462200
Te      12.67497388       7.73984386      15.03245649       0.79012589      -3.45779463       2.61852398       0.26698305       0.07234093      -0.10348180
Te       2.07303838       3.82892655      15.43019285       2.67208568      -0.65664251       2.06299474       0.04236933       0.34088772      -0.10759639
Te      -0.19344496       7.46605651      14.70259876      -0.69830399      -2.36228292       5.57976311      -0.10283443      -0.01440009       0.53755772
Te      15.43821077       4.03375574      15.30614341       0.40636732       0.80158299      -1.72304317      -0.59333418      -0.22496073      -0.60073638
Te      -0.16046329       2.37352401      22.25662772      -1.57670652       0.89264087      -2.12388614       0.08070502      -0.04371794       0.48936662
Te       2.21332547       6.40196533      22.31415747      -2.41466660       1.50535376       4.15356868      -0.16541764       0.23459871       0.13262485
Te       4.41305747       2.39011579      22.21015300      -3.60645607      -2.98064537      -4.39273687      -0.63674370       0.09281655       0.53479477
Te      -2.09406292       6.39219445      22.21779531       0.05419651       2.05188335      -3.05409186       0.30635575      -0.53919044       0.10006164
Te       2.16249366       1.45157769      25.03870108      -5.55214783       1.06680548       2.20783228      -0.76967220       0.55159148      -0.50405355
Te       4.09399519       5.16566040      24.74471854      -4.12621004       5.12886403      -0.46023648       0.10655539      -0.24994415      -0.01953617
Te       6.38586707       1.46182776      24.89822791      -1.70046274       1.35760014      -1.02735086       0.19245488      -0.33264790       0.45752426
Te      -0.10488667       5.04522552      24.72366495      -1.46932071      -0.64643525       5.24420110       0.54113461      -0.37223336       0.47411602
Te       1.99586657       1.17709167      18.87776810      -6.17685207       0.48676565      -3.82801615       0.22208859       0.18683333      -0.53254501
Te       4.10937823       5.05288284      18.89372854       0.95982930      -1.50182741      -3.51323992       0.28055561      -0.19803972      -0.29167154
Te       6.35835206       1.33889813      18.57756042       2.84993115       3.76845568      -0.93758966       0.50930222       0.06421087       0.31287951
Te       0.10897839       5.02200097      18.87384196      -1.23813174       1.66039963       8.79424641      -0.28504752       0.10605015       0.01260732
Te       0.02778105       0.13806726      32.07946033       2.27339951       5.22210112       0.07189843       0.10157126       0.30967169      -0.18160165
Te       1.98647812       3.75409844      31.76491131      -0.22394776       0.14383545       0.79953131       0.31297171       0.33920393       0.33475296
Te       4.11585913       0.13874748      32.24021887      -0.24571054      -1.27735504       0.58429493       0.21647360       0.04111212      -0.72384017
Te      -2.30251749       4.03886579      31.85462786      -0.37452972       7.18559539       0.42373357      -0.52952628      -1.02474650       1.38799787
Te      -0.09585674       2.83724100      28.73925922      -2.25180214       0.68746031       0.97118955       0.17615573      -0.66836857      -0.88683371
Te       2.04237128       6.32086599      28.70166794      -1.51167863       1.91463360       1.17867376       0.22337359       0.11224795      -0.59707134
Te       4.49256600       2.89932457      28.30126117       2.69163258      -0.46387738       2.04321491      -0.77436018      -0.63461661       0.31345911
Te      -2.27888114       6.22929741      28.60677774      -3.18727745      -0.67771138       1.24790805       0.06532937       0.68706020      -0.84717720
Sb      -0.14186880       2.55900703      16.96032152       1.54979768       4.50166086       2.28599070       0.44769575      -0.28801523      -0.55434570
Sb       2.09908224       6.81690979      16.33977478      -0.19002930      -1.36824397      -1.01702072      -0.05830740      -0.92892890       0.24860469
Sb       4.49762413       2.53855840      16.38641086       5.76223692       3.37750630      -0.74417933      -0.54027532      -0.60777451       0.26822530
Sb      -2.06741505       6.08135748      16.63548952      -0.90479284       1.14940133       0.39753827      -0.03013512      -0.17224479      -0.09476345
Sb      -0.47792405       0.28382353      26.68697967       0.66639372      -1.17146387       0.63516121       0.72161900      -0.00749680      -0.26208838
Sb       2.16950853       3.97297999      26.57129702      -1.34317452       1.73489638       2.47736348      -0.74627303      -0.17694234       0.17066619
Sb       4.18261202       0.29897043      26.67882957      -3.22656507       2.57328712      -0.07810569       0.63147876      -0.29065359      -0.10408431
Sb       6.41783742       3.95825128      26.41515933      -6.05263763       1.04709679       0.63389737       0.17314596      -0.23748454      -0.38762942
Sb      12.64956104       7.56259231      20.74838913       0.04189738      -1.48382917       6.19676698       0.33998616      -0.32429464      -1.33745766
Sb       2.14486466       3.55929222      20.61256119      -0.77321547       2.83254650      -2.29321358       0.10707202       0.32577490      -0.68619045
Sb       4.25494566      -0.02218701      20.28939626       1.23628817       2.14097152      -1.35770249       0.40332100       0.10351714       0.66134734
Sb      14.64673894       3.69063141      20.66668813       3.60865831       1.05308375      -0.43503565       0.36954334       0.44898595      -0.07294884
Sb       2.13005760       1.29443628      30.35607360      -2.42794786      -0.73467568      -1.37046634      -0.11281265       0.20307420       0.27761923
Sb       4.37692004       5.12149156      30.36642628      -2.21726826       0.27844287      -0.02908399      -0.73045325      -0.23552868      -0.15824120
Sb       6.21006767       1.57157550      30.55132101       0.14818744      -0.02117364       2.07028339       0.00233210      -0.36134351       0.46780433
Sb      -0.25773284       5.22386605      30.50171321      -0.81301926       2.82679199      -1.45577534       1.16482827       0.24993346      -0.51789171
Te       4.23972611       7.92318183      14.86036953      -2.32983502      -0.99336309       4.96088727       0.18789851      -0.57934374      -0.42371612
Te      10.85284693       4.01648183      15.17317899       4.77438946       1.24189867       3.02478284       0.00650222      -0.06071721       0.47185219
Te       8.42065685       7.63239072      14.89419824       1.53496480      -2.53696398       3.82600806      -0.15097532      -0.66950895       0.49417361
Te       6.71530114       3.72202122      15.11051465       0.03767596      -3.32534871       1.34771397       0.26735134      -0.34442487      -0.80090519
Te       8.49746018       2.47148266      22.32078548      -1.83965242      -1.96432651       0.59803092      -0.87694679      -0.33556487      -0.10620659
Te      10.46141900       6.40492178      22.07509596       1.41481432       2.27718734       3.11487252      -0.57100969      -0.45491471       0.65382610
Te      12.50394818       2.35883074      22.42433039       1.42238682      -0.52645391      -2.05894088       1.18100735      -0.47878790       0.15107467
Te       6.62324893       6.40136126      22.25514146       1.09053215      -3.10149525       0.98907058      -0.51496463      -0.37375139       0.05854865
Te      10.58115906       1.27723824      25.08629201      -0.83041831       4.96458480       0.72260576       0.01662517       0.75663906      -0.11667205
Te      12.53345196       4.94142523      25.19892462      -1.21526012      -1.57913153       0.53799884      -0.65292560       0.47229541      -0.97358087
Te      15.01471510       1.38358951      24.99038933       2.35945005      -1.35139014       1.32008855      -0.47474561      -0.03074659      -0.33469948
Te       8.84232797       4.94666194      25.01368765       1.34895421      -1.71256057      -1.52061449      -0.00288355      -1.01093090      -0.55447283
Te      11.01849470       1.14057512      18.61470633      -0.57220852      -4.07940721      -0.34451430      -0.11761256       0.41827700       0.17677971
Te      12.66097339       5.13162953      18.59019696      -2.17516908      -2.37503422      -3.60512439       0.22294421       0.27808942       0.58349492
Te      15.23131656       1.28819233      18.82652079       1.86644610      -0.86905378      -2.20620435      -0.02776191       0.09492714      -0.20023405
Te       8.45877045       5.18729363      18.68259406      -0.33859492      -7.35614676      -1.95227143      -0.15026696       0.04805403      -0.11440637
Te       8.39635072       0.32869061      32.05584484      -0.97377498       1.24324585       1.53851996      -0.26080803      -0.51872844      -0.03668447
Te      10.43408429       3.38375454      32.29223683      -2.40027437       0.14607858      -1.08617300       0.04698975       0.63120379      -0.55645879
Te      12.47924189       0.17416826      32.16936217       1.48274476       0.47716582       6.78889440       0.22668543      -0.37075134       0.22713264
Te       6.11631479       4.07809325      32.31624848      -0.15471230       1.01522208       2.46367364       0.65422719      -0.57286669      -0.43369090
Te       8.32077780       2.74060789      28.44020601       2.81608499      -1.38391673       6.37642357      -0.09041007      -0.42132598       0.43372090
Te      10.55090377       6.46031059      28.59926193      -4.26350057       2.48056256       2.29617334       0.03193541      -0.83164537       0.45900643
Te      12.63242328       2.60895260      28.78928309      -0.27225602      -0.49755407       1.08694831       0.66193714      -0.21229735       0.19910311
Te       6.59194819       6.43336713      28.60871281      -0.29384392      -3.21341506      -1.35694325      -0.67766671      -0.58691939      -0.46010248
Sb       8.82774339       2.64667859      16.79351268      -1.59081290       1.90988927      -0.67329403       0.40571983      -0.04336958       0.33371000
Sb      10.73719292       6.83640419      16.85411941      -3.09458957      -0.18594998       2.52719585      -0.69796719      -1.49768140      -0.46675579
Sb      13.12079403       2.77020702      16.68078491      -1.17996752      -0.87606979       0.68148154      -0.39806102      -0.04460994       0.17040139
Sb       6.27466780       6.11729874      16.44937726      -0.06618790       2.68059372       0.89132094       0.47897029       1.02128002       0.51860978
Sb       8.41571889       0.13270818      26.83746234       0.81905736      -3.82646258      -5.02939728      -0.12144073       0.20235970      -0.52046579
Sb      10.70386681       3.63720869      27.02514220       2.49508433      -0.06937746       1.01215992      -0.61218298       0.61563243      -0.34661661
Sb      12.90297239       0.02567293      26.45819882       1.44841037       0.79727130       0.24092420       0.27171629      -0.04277185       0.71987248
Sb      -2.32906678       3.71923521      26.85463511       0.40629501      -4.93553074      -5.19938934       0.32341956       0.05301668      -0.40427130
Sb       8.71541446      -0.07374376      20.58255276      -5.98680407       2.36542419      -0.61913965       0.47117125       0.54652568      -0.09699031
Sb      10.89520357       3.81435778      20.65581956      -0.88514780       2.79628349       1.44740410      -0.99553841      -0.00968621      -0.88763016
Sb      13.01557323      -0.12029599      20.58453060       3.26265134       1.51262770      -1.08058752      -0.15252827       0.23803802      -0.49972357
Sb       6.35403395       3.81253992      20.66536208       0.91461697       2.07797857      -2.14465366       0.32346978       0.27356361      -0.68725242
Sb      10.52708680       1.21206019      30.38321173       2.99027039      -2.97150726      -0.04697515      -0.32908851       0.33415442      -0.11207277
Sb      12.75491421       5.02194035      30.77793757       2.81385917       2.63043966      -5.96169008      -0.30279886       0.26204541       0.03015925
Sb      14.79308936       1.40965898      30.90180451      -3.09076653      -0.24241934      -0.87552983      -0.09342017      -0.23802717      -0.59705766
Sb       8.42397550       4.97921723      30.54669524       3.10053643      -2.11015682      -1.66328336       0.33466700      -0.07938597       0.59654479
Cr       1.93042432       3.89180341      23.01985369       0.04417639       0.54156931      -0.46640108       0.46708493      -0.37118793       0.94894370
Cr      10.42030462       3.71230509      23.18578402      -0.35375427      -0.84578425       1.55802015       0.83236228       0.87421898       0.64045260
Te       7.10709122      14.76835290      14.90516161     -11.64076638     -29.29074496      -7.75738640       1.70683269       2.09673265       3.67016725
Te      -2.01989691      11.04085073      15.19968333       1.76153145     -10.27744684      -2.79437504      -0.17763491      -0.79308546      -1.06183968
Te      -4.08305552      14.86260804      14.92539475       1.42353453      -1.75950345       1.88046963      -0.13000931      -0.19049668       0.35788447
Te      10.42889820      11.02038436      14.66619747      -2.20262542      -1.68975738      -4.01576839       0.37704167      -2.14877401      -0.62507642
Te      -3.83926880      10.15657846      22.31493371       2.08526962      -1.51407316       4.04243834      -0.74146218      -0.15770944      -0.74300545
Te      -2.03382090      13.41099373      22.21930839      -0.05470742      -0.45417470      -2.27918637       0.52291528      -0.48417542       0.28864782
Te      -0.34343930      10.19670596      22.30090089      -3.25496016      -5.14045783      -0.01398982       0.93560018      -0.65960746      -0.34583054
Te      -6.43103740      13.34381791      22.28015152      -5.77006233      -1.21706951       5.54394560      -0.21511444      -0.21592721       0.44490427
Te      -2.04579286       8.53575719      24.97370228       3.23349548      -0.43310734      -0.92095586      -0.05302306       0.36479358      -0.21196095
Te       0.44391113      12.30536845      24.84803419      -2.44701742      -8.25247706       2.50977294      -0.98902776       0.02517734       0.96845414
Te       1.81194557       8.89114765      24.90973008      -0.02200383      -0.61402936      -0.43077750       0.70686597      -0.16741132       0.94868984
Te      -4.30665579      12.33802688      24.98992233      -4.94848456      -0.07212483       0.28734441       0.15002371       0.26403657      -0.05452992
Te      -1.84157389       8.65753620      18.54210316      -1.00314389       3.76460438      -1.21985408      -0.60254059      -0.44011510      -0.07463995
Te      -0.07138931      12.47307615      18.57076733      -3.31120188      -0.87274159       7.65952569      -1.34701648      -0.54964182       1.64429873
Te       2.05868653       8.99182558      18.78456911      -2.34542983       3.01267384      -1.32033130       0.28444396      -0.14951589       0.18935660
Te      -4.36984676      12.56256659      18.53944392      -4.82267698      -4.55660494      -2.08113535       0.13324242      -0.57696401      -0.09300674
Te      -4.41839301       7.71206585      32.30921148      -2.48692546      -1.91080036      -3.42573702       0.28192277      -0.10090475      -0.30989244
Te      -2.47921882      11.12012238      32.23452630      -2.51630340       3.97390095       0.75941936       0.13940476       0.70890999       0.03259370
Te      -0.07688796       7.65896597      32.11114401      -1.23893176       4.24460249      -5.21979029       0.30143963       0.02628582       0.44895999
Te      -6.37226115      11.87486522      32.11369965      -2.33404659      -0.78850267       1.57946011      -0.18841985      -0.07435328      -0.49083571
Te      -4.33752298      10.17463322      28.43921869       5.44170856      -2.88120354      -1.78770704       0.75942069      -0.20363508       0.50378305
Te      -2.07437576      13.94084419      28.29597771       0.61299852       4.85057557       2.84158970      -0.01167075      -0.72831929       0.82512127
Te      -0.03006754       9.77313940      28.69114820      -1.31889309      -2.53972000      -1.10801680       0.48851358       0.29340758      -0.32702028
Te      -6.40662981      13.70479414      28.26617643       0.47398647      -1.66839161       1.51342223       0.38541646      -0.19757832       0.88932315
Sb      -4.08403048       9.91169616      16.79819010       4.04459560      -4.14276581      -2.68803807      -0.58976122      -0.23388391       0.08060790
Sb      -2.11169559      13.29093912      16.73429189      -0.30422136      -3.03187487      -6.63335330      -0.21922938       1.17132049      -0.44432907
Sb       0.21935874       9.74230351      16.61708589       0.08154352      -5.34725585      -1.55355174      -0.28043808      -0.03849991      -0.24293379
Sb      -6.33148751      13.52076652      16.25148015       2.55734982      -0.51371892       3.50231908      -0.33226997       0.29019968       0.16553574
Sb      -4.31188769       7.90504585      26.60192569       3.75092375      -1.25428747       0.29450906      -0.49430341      -0.96103984       0.00973395
Sb      -1.94822284      11.12027843      26.60175435      -1.85100204      -0.22629643       2.61045226      -0.12313948       0.37113697       0.23208455
Sb       0.01075675       7.58589678      26.72599146       0.01983770       0.49696577       4.14437281       0.13745664      -0.59705718      -0.12401338
Sb       2.12174023      11.23574655      27.05251716       0.38507515       2.37736101      -0.56450930      -0.17796737       0.03236296      -0.71647813
Sb       8.68957878      14.48627726      20.71163392       0.99176053      -0.74926879       0.75015748      -1.88204878       1.22975776      -0.94126390
Sb      -1.91216022      11.12265026      20.17087279      -1.84273444      -0.62679073      -0.63073340      -1.12726275       0.57034545       0.43375070
Sb       0.10650161       7.52325152      20.60497013      -0.36541023      -1.29499650       3.99632512       0.02346841      -0.15148137      -0.01974907
Sb      10.76493305      11.48115693      21.00203780      -5.20750009      -2.26298970       0.15723688      -1.38349783       0.77131803      -0.88140655
Sb      -2.11618511       8.85013984      30.67432396       3.40348089       1.47663412      -4.40802121      -0.62713512      -0.79680618      -0.31068372
Sb      -0.33067760      12.24004241      30.42816030       3.40167198      -2.78382760       2.18774164       0.57280657       0.69280577       0.50793041
Sb       2.46978614       8.73435987      30.67317647      -1.82712191      -1.08012103      -6.88793667      -1.60515764      -0.26944436       0.09708931
Sb      -4.13494503      12.59246587      30.32438955      -5.05804734      -5.04173971       3.18441647      -0.47207224       0.44900991       0.52150079
Te      -0.26951848      14.14817685      14.38352082       2.99002930     -11.31193192     -13.69359848       0.32639818       0.11647603       0.52161022
Te       6.09255537      11.69607999      15.31543315       0.90747955      -9.95688566      -0.18179581       0.65867232      -0.87880259      -0.80666901
Te       3.69395752      14.31740391      15.75966481     -11.07378663     -14.24164434     -27.98475772      -0.36717161       0.45441776      -1.02430997
Te       2.05659554      11.02107699      14.69730118      -0.68836827     -16.12539744     -17.34422157      -0.12357394      -0.36220479      -0.49614290
Te       4.29329918       9.99198723      22.49122229       2.48802897      -4.47303877      -0.34290213       0.56605912      -0.04364203       0.08233440
Te       5.87066299      13.67280755      22.04692068       2.65437681      -3.22885345      -4.99513313       0.88108598       0.40184570      -0.08833162
Te       8.22912074      10.14171836      22.14337171      -2.35660584      -2.33531275      -3.11685019      -0.10544585       0.30957521       0.02745000
Te       1.81815504      13.91627302      22.76975861       6.98813874      -1.29107541       0.00373655       0.41341913       0.00154504       0.11431155
Te       6.43022040       8.55453442      24.95699261       4.98110746       3.96528979       3.31986148      -0.54437135       0.62784071       0.27617752
Te       8.49921785      12.57661233      24.65479065       0.19209829       1.67260812       0.67869628       0.72344549       0.44732125       0.83961126
Te      10.38202046       8.81730472      24.79287922       0.86592420      -3.24681428      -0.51169321       0.45818920       0.28359781       0.07871688
Te       4.57619128      12.47123341      24.97050555       0.34983486       2.46720167       3.73460005      -1.35496283      -0.19990108       0.51850136
Te       6.08978122       8.87510498      18.30902280       1.84060035       1.33707062       0.28685267       0.78613665      -0.39904792       0.65906220
Te       8.55848725      12.40190852      18.73090017       4.63413605       2.08255581      -4.35493607      -0.05837595      -0.04764467       0.62751979
Te      10.69601153       8.99105351      18.76666743      -5.46694600       0.81774743       0.48464942      -0.42310557       0.44152948       0.05832726
Te       3.73235195      13.22264529      19.39409209      -5.60960621       7.51460544       7.03520698      -0.34864940      -0.64999449       0.18553213
Te       4.11863715       7.15886617      32.29088496      -4.01741869      -1.70351522       1.90896465       0.40036475       0.31075455       0.33812076
Te       5.96816040      11.36295676      32.09272644      -0.07754116      -5.35194848       1.30415596       0.86577601      -0.47330523       0.06989545
Te       8.42354714       7.19021637      32.35998486      -3.54698500       2.61231226      -2.12702750      -0.19869161       0.45501557      -0.27414722
Te       1.84067093      11.15018415      32.11004776      -1.92180893       1.36015923      -0.89948006       0.16287355       0.58537031      -0.29261952
Te       4.12192925      10.05565736      28.77415456       2.09770760       0.01027848      -0.19290322       1.16934467      -0.47063517      -0.81283041
Te       6.35265592      13.60598436      28.47522223      -0.31629819       1.54973640       0.38010147       0.23481728      -0.27848041       0.42019788
Te       8.33803158       9.71261079      28.70495676      -1.96062397      -0.16668561       2.42306283       0.51246601       0.22912507      -0.02945275
Te       1.74200412      13.95282858      28.63016389       2.18457764      -0.17075704      -0.47929963       0.39219582      -1.00846506      -0.39946298
Sb       4.17381990      10.12286806      16.54780317      -1.66596442      -2.21204870      -6.54902107      -0.55730116       0.49397994       0.22324724
Sb       5.91808782      13.68253282      17.45301738      16.09618433       2.81241983      10.63563959       0.71260324       4.00288916       1.77538568
Sb       8.50330856       9.74568499      16.73379985       2.74483351       1.14634792       1.36409472      -0.60775999       0.85071641      -0.16415953
Sb       1.77033848      12.61375042      16.91042911      -7.93540002      -6.07365277       6.13556504       2.68515328       1.52792672      -1.16131709
Sb       4.10226334       7.33295268      26.72899999       2.78639032      -2.10210565       4.72926572      -0.21342906       0.85795515      -0.28296540
Sb       6.53868532      11.01310578      26.82775825      -1.98661232       2.28595799       1.40790124      -0.44065486       0.06938634      -0.57736011
Sb       8.62940544       7.31571264      26.41527646      -1.49526828      -0.36584236      -0.10942579      -0.27850604       0.90605165       0.86888785
Sb      -6.44324525      11.10296691      26.71631974       1.78674911      -4.89833829      -2.93466344      -0.13394161      -0.23113722      -0.50902185
Sb       4.46898990       7.35462138      20.56812131       2.20524211       6.30103129       0.07904938      -0.37497204       0.04175466      -0.04039538
Sb       6.05681510      11.35293722      20.55060606       0.12395903       4.87994310       5.72588009       0.04674582      -0.04733150      -0.95233253
Sb       8.30031520       7.64643717      20.34840049      -0.51567148      -1.03545888      -3.31004725       0.09622696      -0.20822493      -0.34446468
Sb       2.23551758      11.53018157      21.31383872      -3.69117924       2.03679915       2.19425613      -0.47058514      -0.30550302      -0.37738978
Sb       6.18162170       8.50400960      30.49171113       0.02989765      -0.87770139       4.04037730       0.47466000       0.71839080       1.04344730
Sb       8.51374859      12.35986990      30.66122246       3.43281867      -2.23526438       1.62122850      -0.31220876       0.31474098      -0.02444094
Sb      10.45301168       8.90024802      30.83163561       0.99718859       0.24508932      -3.93754570      -0.21058491      -1.00373779       0.46656141
Sb       4.06764798      12.54190652      30.48103401       0.73675482      -1.05593539      -4.95703704      -0.66937013       0.44303263       0.04455370
Cr      -2.01522831      11.11942257      24.08439453      -1.63244495      -1.41870746      -1.83873637       0.06553953       0.45069612      -0.28927284
Cr       6.51513196      11.23254769      24.05794229       1.42384387      -0.88681748      -1.71388723      -0.07141312      -1.17892031      -0.33989817
Te       5.41550467      22.37178735      14.66057984      14.14519624      33.63237827      11.59338091      33.68103345     -13.30275515     -66.33281739
Te      -6.34431444      18.71274771      15.16120969      -0.04554109      -1.17033452       0.50189638      -0.27967048      -0.63020970      -1.39477888
Te      -8.52201447      22.30874017      14.58362654       1.70836332       0.90283468       1.33065554       0.02280212       0.28046746       1.29604859
Te       5.88128854      18.42783614      15.44704710      23.74966587      25.11047575     -21.21615585      -3.28731844     127.86796872      62.14369788
Te      -8.20134172      17.68389525      21.96650883      -1.92019494      -1.00646593      -0.26727850      -0.72244554      -0.81190705      -0.75855962
Te      -6.49212682      20.77402103      22.20936615      -3.29755204      -0.73004433       5.82912600       0.06989240       0.15736584       0.75171599
Te      -4.93160660      16.71146386      22.37402502      -8.21236828      -6.04193499       6.80984993      -0.48585316       0.42383803       0.51327197
Te     -10.59944728      21.18478810      22.37930489      -1.08603188      -3.45508140      -1.20778871       0.00697869       1.00921421       0.58643491
Te      -6.52498265      16.03571202      25.21366715       2.48012275       0.92929535       2.18763529      -0.23516962      -0.17643060      -0.25234155
Te      -4.45803472      19.21442444      25.33502616       2.29523491      -0.99285814       3.50856145      -0.29039400       0.88114612      -0.54900636
Te      -2.13299301      16.44099864      24.89437068      -7.93848843      -9.23138524      10.34783858      -0.95088641      -2.15778946       1.96106098
Te      -8.76554487      19.85727552      24.73194635       2.30913732      -0.65363433       0.32462323       0.12081937      -0.26498498       0.67195137
Te      -6.75162247      15.83774411      18.76252472       1.86924140      -2.45006416       0.78083476       1.17120091       0.96112288      -1.36787950
Te      -4.10152782      19.76114768      18.21333958       5.69591577       3.46803745       3.83968718      -0.00788922      -0.50396560       0.83758183
Te      -2.66511150      15.94371519      18.97878550      -5.77792406     -10.48468405       9.65635032      -1.97858638      -2.63695254      -1.23930563
Te      -8.36021315      19.92977053      18.61323553       0.49944978       7.07366453       1.31579612      -0.27308626      -0.14399186       0.02938884
Te      -8.40989021      14.92931228      31.85998263      -1.72544815       0.59678007       0.93844061      -0.06269020       0.26659998       0.11175915
Te      -6.18609819      18.29415392      32.20614864      -0.84850730      -3.52414244      -1.36590618      -0.49329907       0.20313935      -0.02206378
Te      -4.32862995      14.95645829      32.17312422       1.31708747       1.52659007      -1.34941203      -0.67247035      -0.37906683      -0.29050257
Te     -10.55192112      18.25241095      32.38845391       4.09630160      -3.05052758      -3.95745338       0.56656664       0.82377756       1.01926945
Te      -8.69225002      17.42763549      28.81532543       0.09416729       1.38712847       2.25306618      -0.29483072      -0.00029949      -0.27621399
Te      -6.32601300      21.07926033      28.80336146       3.54830448       2.13400627      -0.90618832      -0.81046224      -0.10161081      -0.26063420
Te      -4.07560534      17.46558328      28.43522127      -3.14546570      -0.66827357       1.06090722      -0.30122160      -0.32930302       0.17779237
Te     -10.81440248      21.17412376      28.64728466      -0.62365691       0.85466204       0.26781303       0.52960122      -0.49977035       0.20031020
Sb      -8.34316744      17.27910170      16.49823077      -3.64370760       1.61568274      -0.93198920      -1.30869429      -0.10930899       0.57323157
Sb      -6.25400230      20.96556483      16.71621971      -0.13349153       0.02015445       2.28491330      -0.48386088       1.30717684       0.15150918
Sb      -4.81561770      16.93261064      16.81976953      -9.57430215       2.98478448      -6.06307439       0.34772361       0.08193814       0.15143803
Sb     -10.38996233      21.23075327      16.73838456      -1.22263152      -2.24373869       5.05219779       0.26212965      -0.32651313      -0.20415976
Sb      -8.58308682      14.91683485      26.77827344      -2.10496294       3.90251069      -2.03362229      -0.90382794      -0.22489105      -0.16307712
Sb      -6.88906686      18.50417552      26.85066834       0.29450303       2.32318534       6.40712419       1.17343342       0.66775367      -0.59610063
Sb      -4.21238633      14.84943332      26.64469034      -1.24346651       0.47847941       1.12775913       0.36982381       0.38280991      -0.21494465
Sb      -1.80908381      18.69400179      26.40470861       0.70423961      -1.96444107      -6.00326115       0.09306214       0.68763453       0.26276339
Sb       4.18937690      21.86524384      24.33329057       0.56262438      -7.85646198      17.29731937       1.82565223       0.62847252       1.09347417
Sb      -6.09461051      18.79083984      20.25893400      -1.11343567       1.35647049      -2.92382122      -0.52979532      -0.74765476      -0.56982517
Sb      -4.22702864      14.37208743      20.86906753       0.08856250       3.41302089       0.44171732      -0.22797465       0.20543954      -0.27796980
Sb       6.58172874      21.17374426      18.44274032     -11.10818594      14.91525681      17.29794722     -43.96726489      -6.16442784      12.92084485
Sb      -6.33495675      16.23039118      30.19418261      -3.91368872       0.64265940      -2.13243754       0.67011982      -0.50462434       0.37922287
Sb      -4.33668500      19.76000665      30.56287071      -1.14982894       0.13522939       0.73251912       0.48554493      -0.39204913      -0.35654079
Sb      -2.15442762      16.07784293      30.87463557      -0.25408704       0.55853192      -0.66924350      -0.28166456       0.89000736      -0.75262103
Sb      -8.32626614      19.89433263      30.88864473       0.46750998      -0.22689580       0.87446823      -0.09801871       0.42077077       0.00030469
Te      -3.76320385      21.62018790      15.17680329       3.58887572      -1.88031144      -0.47338097      -0.63781884       1.33412277      -1.01364123
Te       3.87457133      19.76667852       9.72875501      30.15513576      -4.43607878     -47.30345339       0.00600692       0.06531165      -0.28917076
Te       0.67432380      22.47936958      13.43011015       6.00767774     -11.98130004       0.83244611       4.86446118      -7.03661628       3.35022738
Te      -2.09378806      18.35792989      14.69063918       7.80907299       3.94061610      -2.00490980       0.58253232       0.68684440      -1.08206159
Te      -1.39208461      17.51960804      22.81688703      -5.64515925       0.93447306       7.59781298       2.59754232       1.08459571      -1.14601490
Te       1.95406285      21.42198401      22.80063449     -26.79654693       4.57187166       9.44424835       0.64257833      -0.35524178      -4.88502034
Te       2.33619604      18.46825050      22.29186487     -17.28444944      -3.15966648      -1.54929593       7.16539717       3.17984674      -8.60596478
Te      -2.41077784      20.63532881      22.48092567      -1.56890800      -5.28730519       4.36484835       1.06262610      -0.82844845      -0.16678354
Te       2.31405088      15.98022473      24.94616658       1.42440477       4.40532417       0.90996758      -0.30838499       1.09864313       0.04852217
Te       4.37797561      19.55737355      25.93120769      -3.26118166       6.60105441      -0.06152018      -0.13383183      -0.31673165       0.12731889
Te       6.43247880      16.12436860      24.90825220       1.19126377      -0.71111641       1.18980010       0.15855652       0.41356607      -0.44589503
Te       0.72024829      19.71179565      24.20678838       0.25881890      -5.59872648      -4.47323648      -3.04717810       1.68622498       3.84374683
Te       2.37125449      20.30301760      17.60589727     -76.29260119      -0.14327596      -4.11045213     -30.30072751     -40.20877627      51.35424641
Te       3.79506781      21.07890230      18.84857674      -3.58554486     -12.45317846       7.94687783      77.06686828      80.27620916     -66.86115696
Te       5.58638211      16.96882155      17.92422785       0.35225571      13.68975591     -34.12599469      -1.42850222      15.96967662     -11.27598312
Te      -0.59226194      17.91739107      19.68888621      -4.44249622      -4.25169181      15.78684504       0.31641633       4.03063328      -3.30017059
Te      -0.18652939      14.65924750      32.18860508       1.81820604       2.89774366      -2.34307719       0.62690337      -0.38626073       0.07296673
Te       1.62012272      18.54356803      32.17669961       0.76870331      -0.27497646      -0.54701717      -0.28823563      -0.03563624       0.71037794
Te       4.11097933      14.84157495      32.33114587       0.02157060      -1.12149012      -2.15822792      -0.72800532      -0.03530593      -0.15298506
Te      -2.21077648      18.57949057      32.37679017      -0.39599483      -0.20965476      -0.94104116       0.04563850      -0.05121290      -0.30021311
Te      -0.27415172      17.38407380      28.67721656      -5.98830110      -1.69256150       1.76166040      -0.02279796      -0.39183437      -0.20179154
Te       2.14617296      20.78108697      29.07838379       2.39350310      -3.65318909      -0.14799271      -0.00546344       0.41607390      -0.71193996
Te       4.29344673      17.23606799      28.88785560      -2.27763394      -2.97588974      -2.11899077      -0.15478462      -0.35434368      -0.48525598
Te      -2.29229999      21.07441298      28.49033299      -1.00083935       0.96893031       0.52965015       0.54698271      -0.33720158       0.49575180
Sb      -1.26139033      16.25665668      16.06692395     -20.40575524       5.33509136     -10.59382159       0.79019882      -0.76188746       0.49296490
Sb       2.27149426      19.53568942      15.33462963     -23.22785478     -16.36541618     -13.71440038     177.21902044      57.74547160      18.21204729
Sb       2.74549140      19.52420638      14.92129731      12.11880808       9.91095727      62.46259933     -21.75327931      39.75727815      57.85074012
Sb      -1.68501608      20.34240380      16.52221240      -0.21312133       4.80603822       2.83000062      -0.70146506       1.19344678       0.46484628
Sb      -0.04977988      14.87823393      26.47774700      -1.00304219      -3.51615469      -0.24330160       0.21207991       0.08884034      -0.11114233
Sb       1.96873034      18.21260849      26.91637356      -2.14588141      -4.40073535       2.97352303       0.16689745       0.31912762      -0.85700015
Sb       4.53258400      14.93451786      26.39417607       0.55946775      -0.21759270      -3.25559841      -0.69916941      -0.42764553       1.44101707
Sb     -10.62754831      18.42530821      26.66858076      -4.18984179      -4.29470723      -1.31634870      -0.53296773       0.38566352      -0.36217020
Sb       1.00391717      15.26531508      20.50000512      -0.80949394     -14.16394736      14.04156254       0.64068891      -0.23636564      -0.82943043
Sb       6.10446101      22.09364308      18.29199099      29.07423352     -25.08708857     -55.16968564     -95.91337539      -0.82725900      -3.88658114
Sb       4.02048619      15.81452690      20.27655905       3.10881804     -19.82947838      14.98253508       0.85200025      -0.32046901       0.69316394
Sb      -3.06470308      18.21581857      20.66754581      -3.64746926      -1.63444823      -8.62971332      -0.64732550       1.15419370      -0.42049071
Sb       1.82315440      16.21939223      30.45721064       2.25933042      -1.34435355       2.10888117       0.35531523      -0.54877919       0.66181334
Sb       3.97561991      19.36853991      30.94244935      -1.57717758       1.46830689      -4.48771351       0.79651041       0.38568831      -0.10459112
Sb       6.14780401      15.97666127      30.86838178       1.82821000       2.22387042       2.48132094       1.03200976      -0.10813777      -0.05815554
Sb      -0.32944447      19.81472841      30.44814109      -0.29588249      -1.14442385      -2.59219006      -0.10480121       0.49543919       0.55203360
Cr      -6.76086885      18.21681664      23.94255520      -1.07065979       0.98611799       0.95044856       0.89270971       1.11793302       1.08914157
Cr       0.98391055      17.54272980      21.29893915     -10.61926821       2.04012363       0.66337503       0.57587253      -4.59454536       3.37689979
Te       0.10648659      29.67395896      15.10435850       3.17877953       0.98172372      -4.71816659       0.52485805       0.79587590       0.07398463
Te     -10.35850273      26.60936392      15.05309137       0.12849185       0.21097138       0.01095037       0.03354029      -1.07694820       0.07945428
Te     -12.07162872      29.67569839      15.20725443      -0.14528238       5.17592481       2.03329407      -0.56242788      -1.02860656      -0.57658287
Te       2.72304417      26.44471301      17.41479552      25.51028917      -5.78146191      23.97981165      21.13911431       5.53685941     -12.94347332
Te     -12.61456112      24.79594076      22.68929399       1.56160724      -0.55272632      -1.95947474      -0.04056725      -0.00038058      -0.43988358
Te     -10.51499477      28.64924847      22.53495504      -0.18726516      -0.21849022       0.61487124       0.16319607      -0.02654454       0.00536213
Te      -7.99739924      24.75747336      22.47201526      -0.42215491       0.26172939      -0.28354857      -0.27518278       0.23175832       0.01967559
Te     -14.99543547      28.46765486      22.62618782       0.85326215       1.91272520      -0.57423875       0.00210865       0.14936488      -0.04058654
Te     -10.34111064      23.66373614      25.08212537      -0.92743314       2.15455214      -2.70275521      -0.63760939       0.50422265      -0.06701580
Te      -8.40570182      27.43366153      25.19250153       4.12086096       1.22268259      -0.02131661      -0.55638657      -0.40602726      -0.13500251
Te      -6.31473049      23.44919482      25.41611010       1.98348633       0.94816185       1.60477428      -0.32349878       0.26423431      -1.04385248
Te     -12.53102525      27.20807683      25.07317296       2.42841227       1.66888094      -6.64681540      -0.45731763       0.40025151       0.39646376
Te     -10.26875018      23.89381985      18.90211967       1.07983290      -0.95356016       0.54326929      -0.55761575      -0.09998824      -0.52746047
Te      -8.31613450      27.47202306      19.05850417      -3.67946039       1.35662280       6.27423651       0.55686781      -0.92888470      -0.08533024
Te      -6.39271478      23.37946518      18.84862812      -2.95084440      -3.67533962      -3.79883389       0.59401194       0.73723681      -0.74554201
Te     -12.58585391      27.03809104      19.16824202      -2.36745712      -1.34971425      -0.48389759       0.11426297       0.11410540      -0.91928912
Te     -13.05581125      22.21864868      32.47607684      -1.49330180      -2.77847909       0.41107020       0.03238863       0.21231975      -0.68642497
Te     -10.54486753      26.09324426      32.12825847       0.00672989      -0.55201460      -2.27009442      -0.71403612      -0.09493172       0.45391960
Te      -8.65184798      22.51596997      32.44541942      -0.75460797      -1.92890887      -0.26610969      -0.06149536      -0.30952097      -0.77980847
Te     -14.80259749      25.95811738      32.01468774      -0.92327015      -0.61414868      -2.12979032      -0.45224224      -0.09540515       0.96744719
Te     -12.99830807      24.70680000      28.90182566      -0.64256676      -1.36408374       2.54056786      -0.07003520       0.04665492      -1.38803746
Te     -10.63003156      28.82334051      28.88567657       0.95928228       1.46402577       1.28662351       0.19553196      -0.18279523      -0.27886998
Te      -8.81580624      24.66096548      28.68936479       0.21449796       3.71091259      -0.79660761       0.51810983       0.21216729       0.14062213
Te     -15.15092156      28.51933689      28.98091555       3.31715817       3.79614793       0.03814876       0.46741850       0.18660935      -0.43197507
Sb     -12.38879672      24.51858993      16.57202547       2.94019952      -3.30129353       0.84819890      -0.24466217       0.70721032      -0.39158858
Sb     -10.27764760      28.48320082      17.11928188      -1.93818523       2.71368189       1.29866415      -0.52008735       0.28204196       0.66796016
Sb      -8.33492890      24.81432318      16.34120842      -0.52665562      -1.38486343      -1.72890093       0.22729261      -0.22319132      -0.52258847
Sb     -14.66375149      28.46012547      16.76288580       1.81411211      -2.43341622      -1.70108733       0.23308409       0.15717990      -0.05396554
Sb     -12.67274270      22.37667376      26.73347454       5.00073601      -0.56911911       0.32027028      -0.06832623       0.49910215      -0.18370387
Sb     -10.55622728      26.39021320      26.99116096      -0.70542767       0.78387110      -1.02330804      -0.11681327      -0.19844217       0.01121602
Sb      -8.51183765      22.31412050      26.74353598       1.10077849      -1.41195159       2.48388129       0.06305821      -0.79128985       0.71643583
Sb      -6.60186653      25.87554137      26.91477141       0.59895682      -0.21131517       0.16196780       0.51288089       0.47176828       0.18515058
Sb       0.30799488      29.39559420      20.96258805      -0.38435325       5.26047792       6.70966521      -0.67741272       1.20468447       0.81105651
Sb     -10.38632048      26.10714269      21.02920105       1.13037588      -3.55624958      -1.70296041       0.34169544      -0.17156598       0.03658172
Sb      -8.42196841      22.51395939      20.59438516      -3.40964386       6.21088186      -3.41814448      -0.11640146      -0.57895540       0.34446398
Sb       0.73962845      24.78292126      19.52099221      14.52216708       1.26994975     -34.33815349       4.30752671     -16.44726631     -24.15730241
Sb     -10.93434817      23.64747666      30.57123169       1.45019143       2.27095794      -0.82929779       0.39029217      -0.99272132       0.99682981
Sb      -8.40823614      27.21976864      30.71835359      -0.04915534       0.14037770       1.64926002      -0.20389230       0.69769134      -0.33823461
Sb      -6.69352046      23.68635082      30.56337028      -0.32239776      -2.69832419      -3.57423879       0.16495999      -0.56235111       0.45026750
Sb     -12.81474278      27.21101449      30.49617139       3.02322775       1.15675771      -1.33993686       0.11373434       0.60384824      -0.33251904
Te      -8.30259245      29.75572761      15.54375068       0.61431844       1.68891166      -1.32987154      -0.08155869      -0.07008511      -0.90146722
Te      -1.97782699      26.04982106      15.36282971     -13.99489095       8.48628810      -6.32723523      -0.64105480      -1.20467497      -0.78772783
Te      -4.03451853      29.95840982      14.97447195      -1.29251593       1.52516785      -2.89612224      -1.08975948       0.84599600      -0.39646142
Te      -5.99101077      25.98731582      15.07257721      -0.35512974       0.02803162       4.86767278       0.18876578      -0.44353770       0.53339231
Te      -3.93564856      24.66956684      22.66940480      -3.10259809       4.03778991       2.15320484      -0.29220190      -0.00203568      -0.56782885
Te      -2.12894659      28.21580217      22.62227040      -4.16326663       2.79031920       4.89333448       0.37716692       0.94090297       0.38402765
Te       0.63712762      24.81778206      21.57064489      -4.36423090       0.15478698      10.79828848      -8.79354933       2.23980937      49.45567408
Te      -6.48088861      28.29066348      22.43582692      -0.43010788       5.16594617       0.39435048       0.54207183       0.36128054      -0.26131057
Te      -1.52043107      23.21125044      24.96695753       4.05426015      -6.61911128      -0.14355094      -0.37667810       0.45053897      -0.17306359
Te       0.03638491      27.26722896      25.06677913       2.61111310       0.82848614       3.23155774      -0.15427201      -0.84530851       0.09149321
Te       1.77591810      23.87916464      25.29267542     -10.50085157       8.59565573       4.86717153       0.92711827      -0.83133244       0.28130029
Te      -4.29079369      27.13094282      25.38068009      -1.02345535      -0.66849382      -3.44073688      -0.30370070      -0.20275618      -0.05098297
Te      -1.63492844      22.45736937      18.91630804      11.90558063     -14.62081735     -14.27750878       3.28527093       1.81479317       0.78014438
Te      -0.19510769      27.75273603      18.65434058      -0.51397654       5.36711165      -2.50968267       0.46177924       0.54125870       3.73516110
Te       2.98982900      22.66634923      17.65603763     -60.60845365     -41.44592511      13.96529875     124.50549682     -85.40350972      54.28957707
Te      -4.01065032      27.19259203      18.67046706      -5.21686415       1.63104520       0.58399897      -0.35707855      -0.03697086       0.15654304
Te      -4.50099103      22.18666811      31.95960774       1.46502006      -1.88762349      -0.79558673      -0.09071723       0.43924879       0.85940035
Te      -2.30793332      25.94218030      32.16817446       1.44782168       1.98984811      -3.81716082      -0.26447739      -0.36110900       0.30663687
Te      -0.33810640      22.40092102      32.07696407      -2.45741349       0.87203568      -3.59972696       0.74139875      -0.40431162       0.13853570
Te      -6.41597263      26.15899735      32.40039216      -0.37638964       1.09956736       0.97223734       0.32288073      -0.45392044      -0.09369769
Te      -4.47785474      24.48401673      28.54851499      -1.51314746      -0.40556203       4.63228173       0.36297038       0.54560477      -0.02524998
Te      -2.03333054      28.48503626      28.64823794       2.38042092      -2.65367928      -1.85906542       0.10438414      -0.31546320       0.00982024
Te       0.23159491      24.35906861      28.62107880      -0.16905416       1.13162054       5.64776937      -0.41756473       0.47247346      -0.26871609
Te      -6.67246888      28.59527243      28.62574942       0.32091085       4.05583996       4.10215933       0.77101269      -0.62371623      -0.55511974
Sb      -3.71850939      24.30468901      16.53629491       2.12214850      -3.76593067      -0.75921993      -0.27804322      -0.40411387      -0.23298676
Sb      -2.10558969      28.69454675      16.48239955      -0.24243405       0.91282137      -4.85596574       0.11725066      -0.29977664       0.64171729
Sb       1.41703424      24.55732529      17.47072233      32.34135907      16.92007146       4.07904017     -61.01894459       3.64786755     -35.39491211
Sb      -5.94150194      28.57208466      16.61889883       0.61636408      -1.37659112       0.89089031       0.07852961      -0.33155505       0.41098774
Sb      -4.01945210      22.27362833      26.56291860      -1.29000371      -4.53763404      -0.71231309       0.02525454      -0.39594051      -0.40398519
Sb      -1.96539897      25.92903897      26.73285209       0.25455928       0.10206299      -3.04369846       0.21410080      -0.10287618      -0.27213482
Sb       0.44471852      21.69062183      26.66209047      -2.70597085      -3.85019872       1.84662231      -0.24068556       0.20852384      -0.12014754
Sb     -14.85509345      25.90565891      26.75233017       0.86070970      -2.76479720      -1.64708649      -0.14028996       0.93886142       0.45485194
Sb      -4.40395069      22.28318963      20.86498506      -5.17205840      -0.57431222       3.17607467       1.36713269      -0.01389994       0.02039649
Sb      -1.80471498      25.74170343      20.50265771      -0.04571358       4.82998467       1.11741287       5.74150165      -2.86404927      -2.74200874
Sb       0.13454733      21.91941387      21.91780194      24.13193764      17.50454678      11.09061704      -1.66930537       1.21325476      -1.33210936
Sb      -5.94316199      26.04155533      20.65161383       2.92025759       0.95498701       1.79392048      -0.56075926      -0.16278785      -0.06854986
Sb      -2.42221560      23.46649941      30.46675940       1.94249230       1.69183346      -2.06972495       0.55152477       0.03444823      -0.44428593
Sb      -0.02919713      26.70049175      30.74607871      -2.03133283       0.54675725       0.93950154       0.30629361       0.35089078      -0.59807510
Sb       2.22105605      23.48157357      30.63685233      -3.44938423       3.43989690       1.48845814      -0.75653353      -0.01272657       0.00479609
Sb      -4.38993703      27.09791616      30.58508486       0.14882701      -3.02767601       2.11259283      -0.05131981       0.02094756      -0.75309965
Cr     -10.42809906      26.11867625      23.70530291       3.88874547       0.35743941      -2.22723841       0.17877935      -0.03887347      -0.50251337
Cr      -1.46145479      25.90709544      23.25728862       3.66452384      -1.50047718      -4.94736755       0.81035574      -1.57170929      -0.89158567
Te      -3.63121287      37.46153041      15.11493895      -1.51780923      -1.78914512      -2.57956772      -0.51555695      -0.41169612       0.18022151
Te     -14.62126008      33.31642838      15.22990654      -0.84380063      -0.34497174       2.55708034      -0.73507600       0.47625528      -0.26264480
Te     -16.86572417      36.87900865      14.96280626       2.56819097      -1.64074125      -0.09746675       0.16818763       0.27831371       0.30793371
Te      -1.89435680      33.35696869      15.20847507      -1.55584276      -1.12630787      -4.31382809      -0.33135010       0.06576667       0.80086663
Te     -16.56985045      32.14140993      22.17380606      -0.23993992      -0.36048029       0.84220152      -0.35562976       0.54566597       0.02313404
Te     -14.74852810      35.72375714      22.13117577      -2.61169324       4.66697610       1.62075398      -0.54292726      -0.41770773       0.22693704
Te     -13.07261858      32.27951458      22.22460845      -7.56716050      -1.38309118       3.54579872       1.04910996      -0.55927426       0.56702494
Te     -19.02296214      35.82763975      22.20228905      -2.81003214      -4.09943530       3.60854641      -0.34770528       0.16775320      -0.09525118
Te     -14.81985473      30.95501898      25.00623647       3.89183104      -0.99121061       1.99286167      -0.05458767      -0.91301503       0.59924835
Te     -12.74281881      34.79416834      25.02963088       1.53271002      -4.79566245      -0.31960476      -0.04160272      -0.39756902       0.05322306
Te     -10.82892265      30.78288672      25.06438007      -5.75365651      -1.58473049       1.07212860       0.18357970       0.65578102      -0.17212160
Te     -17.04505555      34.62012521      24.93227442      -0.45496449      -0.45078392      -0.25352666       0.51983424       0.08674791       0.06474224
Te     -14.81667978      30.65043326      18.76652635       0.69366146       1.52619935       2.51416898      -0.09539450       0.56610523       0.38703758
Te     -12.54702888      34.83701958      18.69584962       1.02860648       1.81751180       1.97503268       0.39881760      -0.77931410      -0.43648026
Te     -10.61455346      31.06257413      18.81770323      -1.26093642       1.03670319       0.81032831       0.36328532      -0.16184312       0.64607918
Te     -16.98464439      34.58885051      18.62952351      -1.75645993      -2.26961139       0.96907811       1.02602449      -0.21254591      -0.07050486
Te     -17.09088367      29.63075960      32.51821584       0.36922452      -4.58298344       2.79368089       0.20536916       0.51313588       0.03859339
Te     -15.12655635      33.61718058      32.23058201      -8.43437875      -0.72757247       1.51578740       0.41815724       0.47024903       0.48067044
Te     -12.97693102      29.34993738      32.42854121       2.86875192      -2.29428449      -3.91698489       0.34678022       0.41385777       0.14914784
Te     -19.24974235      33.64825701      32.56682133       1.13771939      -2.27391260       2.78249835       0.05179542       0.37839541      -0.67367106
Te     -17.17008030      31.88292091      28.84429540       2.59565106      -2.68167346      -6.19962665       0.52752144       0.60756231      -0.35152310
Te     -14.98537768      36.03772263      28.51247607       0.13995528      -3.73954582      -0.02609160      -0.46181266      -0.41445318       0.47582687
Te     -12.75090857      32.11277725      28.84754431      -1.39675795      -0.91895861       4.37951257      -0.29827013       0.18898635       0.02364480
Te     -19.45635392      36.05905883      28.36380324      -0.72653712      -6.57898719       1.57584953       0.26133965      -0.28237256       0.15427926
Sb     -17.09863672      31.84792051      16.44437095       1.03732640       0.87955678      -0.46523184       0.09580680       1.98929441       1.61975983
Sb     -14.65466041      35.82234434      16.73716519      -0.14938916      -1.80545784      -3.56945341       0.23508967       0.39757294      -0.40790164
Sb     -12.73437359      31.85427425      16.62702732      -0.51842792      -3.17861733      -2.87406623       0.52549731       1.09384960       1.02356587
Sb     -18.86487832      35.72876428      16.76012148       0.69707003      -1.61297194      -1.50724489      -0.67163194       0.94772169      -0.18497653
Sb     -17.07514341      29.71836032      26.55411893      -7.19041700      -2.38403399      -5.46228217       0.35683012      -0.26263195       0.10087730
Sb     -15.04397002      33.25964293      26.86376073       1.04980916       1.46108726       0.16340509       0.34581969       0.52766135      -0.46508405
Sb     -12.70215570      29.83497970      26.93140453       5.67934634      -2.60284057      -3.15307675      -0.51110958      -0.61136528       0.21258219
Sb     -10.77964224      33.18702710      26.78975122       0.18295140      -2.40051837       1.03743516      -0.07519594       0.48573350      -0.09867344
Sb      17.56477857      -0.11739509      20.84244738      -3.18580865       2.05504802      -1.61450791       0.14698073       0.21995080      -0.15269872
Sb     -14.67038111      33.35736868      20.26764412       2.77592546      -1.01352539       1.72586030      -0.67603941       0.17029780      -0.66048879
Sb     -12.84103595      29.31674573      20.80904503       4.07315468       1.32559709       5.17475023      -0.04562876       0.98145026      -0.04114696
Sb      -1.90282353      33.18483356      20.55936587      -2.99060551      -1.03566145       2.32846181      -0.30385045      -0.24100048       0.13519588
Sb     -14.87747728      31.06035698      31.03058899       0.45404408       7.75815109      -0.31918326      -0.47508686      -1.21415048      -0.57753634
Sb     -12.93828954      34.73205723      30.48270391       0.08736909       0.91277501      -1.09576431       0.10804923       0.46238212       0.34093871
Sb     -10.76790469      31.03672499      31.28368534      -3.28193347       2.28306612       5.01656815       0.03576324      -0.16302269      -0.13628074
Sb     -17.17436167      34.61437948      30.62756407       1.60124354       3.00771272      -2.63207603      -0.38250266       0.49529825      -0.21480304
Te     -12.55941486      37.39602799      15.09133100      -0.50662396       0.11334484      -2.85182041      -0.32763379      -0.50618325       0.16869980
Te      -6.37326019      33.50383507      15.12386422       0.90979491      -3.14823295       2.11064778       0.03456768      -0.07444857       0.25384348
Te      -8.22089753      37.54269147      14.89867494       2.02201226       1.65926728      -0.01502709       0.04189254      -0.39914182      -0.05887954
Te     -10.34297892      33.11941138      15.36863246      -1.86530171      -5.49696831       2.20097979      -0.31483030       0.27639105      -0.24414977
Te      -8.25212477      32.33168955      22.44708303       0.34614453       1.26827460      -0.38309593      -0.19982058       0.12574109      -0.42255762
Te      -6.27912528      35.64886988      22.39753877       2.54458004       1.46901322       3.17513774       0.29171406       0.57801941      -0.24855798
Te      -4.51968073      32.09748454      22.35668567       1.11412677       1.05750234      -0.48780818       0.58717222       0.43180025      -0.39783375
Te     -10.30654355      35.90032231      22.33688226       4.33409795      -1.61404065      -4.05354501      -0.78238342      -0.25895754      -0.06249138
Te      -6.25361759      31.17099407      25.03489041       5.33144823       2.97080020       0.38757484      -0.06697336      -2.05824458       0.25664122
Te      -3.97564969      34.88403888      24.65834037       3.41241288       0.64889954       1.05027879       0.40620547       0.01261301       0.80593944
Te      -2.09767587      30.82345447      25.28793359       3.73672829       3.82345032      -0.92914084      -1.23898423       0.99576366      -1.20611708
Te      -8.54676239      34.55972141      25.06353680       0.66939893      -3.65781267      -1.05250514      -0.02964097      -0.01344640      -0.05469618
Te      -6.12472782      30.78033504      18.84921937      -0.85079086      -1.41673103       0.58983637       0.06049359       0.28140528      -0.05474152
Te      -4.15152813      34.80682227      18.60648704      -3.86319387       0.62824672      -3.26764453       0.17266647      -0.01479521       0.44223550
Te      -2.30485720      30.77318857      18.76700611      -4.52938788      -2.95642403      -1.18471734       0.56239302      -0.29071321       0.27067979
Te      -8.14939620      34.79698513      18.31797622      -4.89142879      -2.03802740      -0.22979815      -0.04931975       0.72292877       0.98419080
Te      -8.20645321      29.80256357      32.27163294      -2.91399408       0.11909121      -3.27303018      -0.29602831      -0.04907320      -0.15271033
Te      -6.17243313      33.32647293      32.05310464       1.97922822      -1.95148826      -1.96705040       0.11900530       0.40426895      -0.35786546
Te      -4.40150358      29.54557409      32.06489064      -2.61284050      -4.76354845      -0.04664487       0.72200385      -0.24644181       0.99642011
Te     -11.01434411      33.76961577      32.61897987      -1.52765259       3.13588955       0.34114451      -0.02905243      -0.18582344      -0.73020091
Te      -8.67559307      32.28865485      28.55403231      -1.83606846      -1.42080423      -1.66240178       0.37860172      -0.13976264       0.52338555
Te      -6.46879327      35.93828389      28.72198110       1.08715010       2.08942332       3.17296893       0.05081984       0.17779723      -0.39393541
Te      -3.88096244      32.04793434      28.43954485       1.68433375       0.06920933       3.07754814      -0.26454998       1.10335732       0.93377763
Te     -10.58959827      35.73828715      28.57293390      -0.54821975       1.37491107      -2.75698647      -0.44560422      -0.05525160      -0.09328531
Sb      -8.23736768      32.17133802      17.08337828      -1.90281663       5.14433033      -1.40528919      -0.24752260      -0.26269410      -0.12682338
Sb      -6.07845201      36.18390658      16.43342608      -1.92572651      -0.83119570      -0.58114399       0.28068660      -0.13239124       0.02525195
Sb      -4.33304610      32.40637529      16.88778621      -0.44160345      -0.94723161      -0.46444977       0.89425358      -0.52816636      -0.61462395
Sb     -10.16894839      35.97669164      16.49264415      -5.45886114       0.64150509      -1.86495227      -0.52842040       0.08584426      -0.16583636
Sb      -8.54806115      30.00683649      26.71344929       2.92998757      -3.02081377      -0.46491747      -0.01646563      -0.22511745       0.25363390
Sb      -6.34276480      33.35018815      26.80356868       0.16936998      -2.15191330      -2.94593378       0.18955088       0.74161650       0.64494818
Sb      -4.16332855      29.63637493      26.86475856      -0.72407229       0.53321968      -4.96649317      -0.45335390      -0.65028586      -0.00015614
Sb     -18.94627322      33.53588147      26.88981170      -2.22858092      -1.03436014       1.24278389      -0.46456709      -0.37375387      -0.37252795
Sb      -8.41789974      29.84320700      20.69617052       2.47875835      -0.23335479       0.99987439       0.23990840      -0.19053247       0.05160448
Sb      -6.23141513      33.53754551      20.46151289      -2.70710169      -1.35978772       1.62785904       0.03243808      -0.73427744      -0.17345306
Sb      -3.96064046      29.16481162      20.74812137      -2.56914485      -1.54320712       0.65752678      -1.05213833       0.31360061      -0.27045256
Sb     -10.52731596      33.32772603      20.87013995      -0.70644348       1.30580854       0.69991275      -0.15783363       0.23903859       0.21735174
Sb      -6.16196952      30.89096028      30.48779598       0.56818059       2.71703534       0.64961294      -1.01796850       0.87496500      -0.60328514
Sb      -4.04435934      34.54046289      30.25411337      -3.65481939       1.48569475       1.88734310      -0.71468367       0.38169799       0.34011897
Sb      -2.13696359      30.87004299      30.85397877      -0.25968369      -3.46780549       4.83343566       0.51122256       0.00387800      -0.11434156
Sb      -8.88219576      34.55935551      30.69617544      -2.72738574       0.88377016      -2.33976733       0.77004005       0.23862592       0.30178458
Cr     -14.67316330      33.31034684      24.06011663       1.80957585       0.68057834       0.19170709      -0.68683800       1.23582712       0.18386509
Cr      -6.12243573      33.51113900      24.17360835       2.54989333      -1.49292369      -1.79644802      -0.40560925       0.84172644      -0.26405394
Te      29.96493409       7.33759423      14.73538133       5.43802520      -0.87555789       4.22477741       0.01342345       0.15374501       0.70603261
Te      19.62947543       3.63325293      15.18011512       6.98815624       3.72389178       1.53238800      -0.64250217       0.02284810      -0.10175898
Te      16.66820074       7.55240281      15.03371774      -1.19560477       3.62022188       1.87700791       0.66145051      -0.13556989      -0.38122686
Te      32.14033932       3.89452629      15.08246921       2.98689285       2.03072991      -0.83737363       0.23639269      -0.36403984       0.15191462
Te      16.98851936       2.63487268      22.35021312       2.39767434       1.33179117       0.06031143       0.01588466       0.26074232      -0.03181236
Te      18.65466096       6.17871979      22.36814709      -4.84052928       0.91522989       4.61339068       0.44299738      -0.30542286       0.26449565
Te      21.55470715       2.71224912      22.05678759       4.64539421      -1.72185929      -2.60335061      -0.65225825      -0.17208699       0.85632668
Te      14.45275505       6.28470616      22.37671409      -0.01250136      -1.01149282       3.31518619       0.62358430      -0.51922510       0.22550968
Te      19.00389462       1.57397719      24.62709036       0.73877977      -2.93209701      -2.12506996       0.45021966      -0.52954623       0.27718529
Te      21.04271047       4.95938283      24.92935869      -1.62357050      -5.56224346      -1.86489044       0.22008854       0.56044818      -0.12775198
Te      23.64365296       1.45579181      24.75206267      -3.99513116      -0.05010501      -2.88134166      -0.34040916      -0.19094015       0.25875108
Te      16.47392104       5.16420254      25.31304235       1.38093127      -3.74270748      -0.04071885       0.14980836      -0.31494213      -0.94666614
Te      19.52818901       1.32646836      18.70108465       0.63784321       2.24071020      -1.17111318      -0.32452112      -0.12150676       0.75389370
Te      21.10822934       4.91559467      18.53428746       0.90405812       2.76169515      -3.69066226       0.45915619       0.25935673       0.07409743
Te      23.97905505       1.34715191      18.72223775      -3.83922192      -1.13865210      -5.60233286      -0.55183032      -0.01437297       0.12806515
Te      16.91885896       5.10005473      18.93680940       0.26554241       5.40448526      -3.18878443      -0.21940462       0.02017785      -0.16841032
Te      17.03874977       0.32540546      32.16851111       1.90142559       3.64090920      -0.28080852       0.39675210      -0.50614787      -0.09253591
Te      19.43607157       4.13088559      32.27096601       1.37247118      -2.78492609       2.81936363      -0.37849594      -0.18028006      -0.38898507
Te      21.32735973      -0.07036489      31.84496910       0.44732327      -1.25574707       2.08920522      -0.51179368       0.25252044       0.20993528
Te      15.08223774       4.03977274      32.27271254       2.99603201       1.68558054       3.34515196      -0.17244214      -0.12950296       0.17314387
Te      16.89292925       2.82187160      28.33626688       1.54960854       0.30528868      -3.96031456      -0.21978472      -0.95655792       0.87413872
Te      19.23912934       6.62815998      28.53879196       0.55963384       4.07201275      -0.98678547       0.12407361      -0.23848323       0.29913642
Te      21.16036321       2.57291834      28.20370463       1.59986278      -3.00159030      -1.80971175       0.10155722      -0.04070070      -0.04823654
Te      14.63103855       6.14393471      28.66484241      -1.22338650      -1.13939288       1.05589382       0.23278295      -0.24083632      -0.51707986
Sb      17.20543991       2.60407600      16.93615173      -0.03365790       2.26910990       2.92790742       0.90438122      -0.08439840       0.33282690
Sb      18.95194213       6.19156843      16.60148197      -0.34186449       0.33784298      -1.05696788       0.14320929       0.59586086      -0.19686202
Sb      21.70113803       2.37826793      16.65251977       0.77304446       4.61861276       1.21840179      -1.07594045      -0.85393517       1.17155892
Sb      14.69516230       6.42177531      16.70453978      -1.19131921       1.40143385       0.36961826       0.07421596       0.11525195       0.32441780
Sb      17.18877368       0.30953619      26.55287751       0.68208628       0.36492497       1.02748523      -0.22610614      -0.46800519       0.57407509
Sb      18.95135570       3.98131300      26.89729603       1.73011855       2.68746177       2.31648672       0.52365053       0.48569719      -0.27025504
Sb      21.28736490       0.04844368      26.19648399      -0.42259685      -1.65672945      -2.03357452       0.30748724       0.68518798      -0.24806018
Sb      23.43068211       3.74917219      26.64082076       5.07534956       1.22260534       0.23658247      -0.04872417      -0.01649726       0.01650067
Sb      30.20012636       7.54098025      20.79781877      -2.54870031      -4.76854307      -4.35997257      -0.35292260       0.49055793      -0.21876256
Sb      19.10537337       3.81027643      20.52602155      -1.55252159       1.07483926       2.43263120      -0.32349630       0.12496791       0.05676353
Sb      21.84716584       0.25416947      20.62322803       0.52461250      -0.68477085      -1.20561195      -0.49433209      -0.40725898      -0.58770288
Sb      32.09710855       3.89544998      20.98330560       4.30239580       0.70111762      -2.82368832      -0.48214093       0.00162435      -0.35044160
Sb      19.04514103       1.68503115      30.58527317      -7.45487446      -1.12055692      -0.22672892       0.34133333      -0.36002527      -0.01347014
Sb      21.36568093       5.50828882      30.57112317       0.45349459      -2.59232252      -3.00523539       0.27060862      -0.84942842      -0.20067780
Sb      23.28556047       1.51885407      30.44160710      -5.40061451       1.76543451      -0.56306210      -0.40590216      -0.00852221      -0.98183149
Sb      17.11439002       5.18747450      30.64070301       0.19371176       2.76097012       2.06552915       0.02739761       0.17557863      -0.32776561
Te      21.17146203       7.81101749      15.22052406       3.55988291       0.49158867      -3.58647828       0.16260867      -1.01393756      -0.04505057
Te      27.98055976       3.92576597      15.14030847       2.22856952       2.02961095      -1.22894194      -0.20270877      -0.20741166      -0.03529149
Te      25.70911100       7.48964139      15.10042314       1.61892705       3.54793303      -2.35715633       0.02337018      -0.57510980      -0.12939762
Te      23.52327136       3.61975958      15.17189068       3.61434971       1.54642943       3.87551510       1.46433547       0.64440604      -1.08290753
Te      25.99797533       2.47652150      22.30259903       3.37884309       5.88367520      -0.25943667      -0.53394251       0.72967993      -0.39813725
Te      28.00971690       6.20184197      22.58073514       1.41876524       0.90686814      -0.52557724      -0.30577980      -0.28091586      -0.85994778
Te      29.79546639       2.58306514      22.40868249       0.88772711       0.54346810       4.02058671       0.09403340       0.15610271      -0.19469329
Te      23.22884318       6.48849528      22.10598817       1.98935658       0.57725916       2.09603526       0.39621889      -0.62102859       0.51286974
Te      27.69204604       1.07548317      24.80759487      -2.88813145       2.74198416       1.13025532       0.26876597       0.18662741       0.42849539
Te      30.05843117       5.07234501      25.24229863       1.16586752      -2.61736440      -0.41794992       0.37093831       0.22727823      -0.41858130
Te      32.10732302       1.30846395      25.00834249      -1.11959563       2.35112833       3.51107239       0.21194657       0.04840424       0.34557734
Te      25.66321060       5.17910419      24.91463541      -0.32972946       1.73569462       4.32080717      -0.39337821      -0.56625439      -0.32446295
Te      28.05716361       1.38692601      18.64725180      -3.16462159       4.52128384      -0.85769516      -0.35692640       0.29801369       0.38163680
Te      30.18021236       5.30395609      18.96172165      -1.04185843       0.70144805       1.91262228      -0.32509003      -0.56591183      -0.97744625
Te      32.18950419       1.38450864      18.69687209       3.83192953      -0.22207113       1.14298409       0.14907503       0.20926280      -0.04195993
Te      25.63240609       5.28978032      18.76841511       2.55017301       1.22071614       4.66656861       0.42617486      -0.27361826      -0.47299594
Te      25.49825263       0.44151204      31.75917583      -2.44600056      -1.20986000       1.18867842       0.70181296      -0.04408323       0.78564182
Te      27.96944076       3.95613182      32.08217929       4.85020417       0.15076135       2.12843979      -0.05405500      -0.45327723       0.39073541
Te      29.83127851       0.39345314      31.97569670      -0.09941984       3.52888497       1.71780191       0.40709141      -0.54999408       0.22280975
Te      23.22983535       3.74754464      32.18600799       1.36888197       1.26267137      -0.66628721      -0.18867255       0.78788127       0.39585819
Te      25.50748137       2.72611975      28.45542364       2.87333561       3.64809156      -2.07480578      -0.01111506      -0.04943076      -0.09734971
Te      27.48402068       6.35393294      28.83815231      -3.51677234      -0.96904253      -1.58067314       0.90278601      -0.38549656       0.08146455
Te      30.18965538       2.47795122      28.47186864      -1.46349784       3.82245945       2.14285045      -0.33546898      -0.15078906       0.09270555
Te      23.41079848       6.42664103      28.37944417      -0.04276655       1.82742982      -4.22474881      -0.50286337      -0.07732667       0.49522203
Sb      25.90528081       2.84481024      16.94098057       3.62695202      -1.02116161      -2.33138165       0.02859224      -0.41732381      -0.29725298
Sb      27.94636610       6.40020661      16.72218405      -2.25926242       4.21547483       3.70806964      -0.11611642      -0.17064289       0.12811476
Sb      30.01087147       2.75924563      16.86797050      -2.74172898      -1.59140195       0.99162919       0.69365052      -0.19078365      -0.02558430
Sb      23.43383090       6.08521388      16.63754559      -4.08207809      -2.98551362       0.20055431      -0.33624791       0.91539574       0.08971373
Sb      25.45144051       0.03353453      26.50321848      -1.09307528      -1.09098757      -0.19971407      -0.16726851       0.69151423       0.97996887
Sb      27.89890180       3.97304314      26.60450330      -0.59045810       0.41089690      -2.20011817      -0.49668597      -0.63756989       0.03356552
Sb      29.96431675       0.18454688      26.56589219       5.09779929       1.93605898       1.52802524      -0.15800020      -0.30586364       0.14122140
Sb      14.48517675       3.67850839      26.72127140      -0.35410652       2.57967023       5.18333470       0.61798351      -0.42206041       0.57285613
Sb      25.89888728      -0.13079322      20.71498521       5.32120197      -1.03466682      -4.02499505       0.63727279       0.12666370      -0.48095891
Sb      27.94330301       3.82302122      20.44872550      -2.17319562      -1.63510899       2.95571866      -0.08126073       0.24979947       0.15136668
Sb      30.24788658       0.08505180      20.47769410       3.70544949       1.43700583       0.53506184      -0.67205557       0.03424576       0.15163387
Sb      23.34422245       4.09594393      20.45302379      -1.57771201       1.79709834       2.33151002       0.59738412       0.07072244      -0.42095670
Sb      27.91566131       1.55239937      30.30354933       0.09534348       2.50583905      -0.95502701      -0.34421455      -0.31346276      -0.31942824
Sb      29.99932073       4.90696371      30.36029640      -2.08889590      -2.46664262      -0.20377159       0.31951020       0.34177836      -0.42613120
Sb      32.50742984       1.29777433      30.54138199      -0.24951218      -2.19007741      -2.73795370      -0.42922519      -0.80670938      -0.79341103
Sb      25.55673816       5.07724177      31.11799169       2.30100523       1.77820915      -7.26788420      -0.31541112       0.51636348      -0.50698891
Cr      18.56378437       4.07802496      24.32755894      -1.31460942       0.12992723       1.58194228       0.31609565       0.20712475      -0.69846348
Cr      27.79998031       3.71386891      23.88856983      -1.13592478       2.76500080       1.74890268       0.30112452      -0.03371577       0.76476028
Te      25.66046930      15.02939589      15.10660770       0.20298662       0.62623355      -1.22332754       0.11716725      -0.39255763       0.48788929
Te      14.69567310      11.27198549      14.82469535       2.11329963       3.47802856      -3.67632189      -0.08179155      -0.08542978      -0.11259030
Te      12.27332173      14.75596519      14.96465547       0.82912535      -7.16170460       2.99403625       0.67327539      -0.02070907      -0.16239367
Te      27.62204236      11.29389747      15.03019145      -3.87449408       1.95623879      -2.21073748       0.56479024       0.05653689       0.05210486
Te      12.72675099      10.03158665      22.16776980       0.48246440      -2.42783074      -0.23423419       1.19652399      -0.01729449       1.19760434
Te      14.84767136      13.33953106      22.19850137      -0.33415461       3.87401801      -3.50254561       0.09691296      -0.01211884       0.01033309
Te      16.25628363      10.33871367      22.07308229       0.88011863       6.12208807       0.56669407       1.13687900      -0.31564101      -0.21323524
Te      10.65102290      14.13774977      22.38398615       6.89247629       1.13054916       5.21638168       1.43101747      -1.22640643       0.45171637
Te      14.93184186       8.62797521      25.17550113      -2.33377812      -5.95012297       1.53579285      -0.81259208       0.60247233      -0.51698086
Te      17.23860267      12.46090043      24.96719135      -0.81902541       0.13753390      -0.64443628      -1.16986707      -0.99081442      -1.06837412
Te      19.00413044       8.74591649      24.71337275      -1.84017175       2.35044528      -1.50718278      -0.08067621      -0.64385658      -0.14722184
Te      12.40552566      12.34868843      24.80516860       1.68610702      -3.92153632       0.14139483       0.53456831      -0.61024076       0.41767933
Te      14.65617953       8.85903669      18.56065834      -0.72221389      -1.36224249      -4.20215236       0.17286203      -0.25502377      -0.03914500
Te      17.06271596      12.36286567      18.36493798       3.04975388       0.84438641       5.01357708      -0.40944687       0.50994686       0.23623181
Te      18.66489544       8.55685836      18.49173283       0.38444156      -0.41154254       0.08191533       0.44000794       0.36754311       0.29528737
Te      12.10476762      12.84690595      18.29515152       5.34441309       1.26378917       2.42674755       0.86002481      -0.27664080       0.75726515
Te      13.03467008       7.75038882      32.11740354      -3.41264937      -4.30645655       0.09327799      -0.57227288      -0.18147657       0.12159418
Te      14.99627440      11.16556676      32.01460289       1.63455244      -0.46438170       0.19079029      -0.21796521      -0.43379598      -0.11182188
Te      16.94698351       7.57460328      32.08584803      -3.10180196       0.16998302       3.95772290      -0.14640107       0.56986418      -0.53778397
Te      10.75235123      11.33894209      32.32224441      -0.13282574      -1.07056678      -3.26586616      -0.58444705      -0.06991263       0.40882675
Te      12.14220790       9.90744123      28.75218366      -3.11220272      -0.03050728      -0.66272424       1.10898764       0.15405890      -0.79454736
Te      14.78317442      13.53114282      28.58138950       0.70911786      -0.21058289       0.67981777       0.83705800      -0.13614317       0.00149272
Te      17.22014280      10.14619717      28.33498375       1.89723468       4.44597545       5.01041515      -0.33914783      -0.30067013       0.25022082
Te      10.60983824      13.69900711      28.46116470      -0.24223079      -4.28491533       3.35919630      -0.24345044      -0.68236503       0.54348545
Sb      12.65456003      10.13335561      16.79484590       0.81053558      -2.98852159      -0.33387724       0.07699749       0.29043971      -0.64972233
Sb      14.56926075      13.72306357      16.29281067      -1.32927782       2.57141703       2.03198338       0.05207773       0.24319888       0.55321181
Sb      16.92904247      10.13857757      16.26756057       2.13646800      -4.65576446       7.35205669      -0.35403271      -0.44166167       0.91837606
Sb      10.25170828      13.09070570      16.16988363      -0.91798165       0.56501643      -6.53563752      -1.61566504       2.47695559       0.92738391
Sb      12.39508656       7.61642291      26.57087367       2.45764918       0.83052471      -0.96369188       0.47949702      -0.19040748       0.24573043
Sb      14.62087509      11.03393340      26.81310554       2.79533610      -1.40752851       3.92883845       0.20800533       0.02439720      -0.58433306
Sb      17.09223772       7.50383695      26.65610279       0.26204028       1.15921167      -2.70094236       0.25911809       0.66047230       0.78543824
Sb      19.21572489      10.99883258      26.31058846       0.11535727      -3.92924308      -2.31781403       0.53352359       0.24409127       0.99741963
Sb      25.55391862      14.67471722      20.63016839      -2.84843705       1.35713974      -6.63534028       0.24552342      -0.62802441       0.15978567
Sb      14.53251022      11.35130106      20.10785238       2.68395866      -2.01080635      -3.69539076       0.13575630       0.43596424      -0.51848928
Sb      16.55274720       7.61108506      20.80300161       0.99140403       3.76981189      -3.73280820       0.27304140      -0.44705464       0.00341371
Sb      27.73929561      10.98067844      20.77576295      -3.09604461       2.12825443       0.49296845      -0.06657042       0.27325372      -0.36575303
Sb      14.59316074       8.64077462      29.99541679       0.03573303       0.95369028       0.92894166       1.04921462       0.74031949       0.76689935
Sb      17.05656076      12.36455994      30.42089223      -2.48579453      -2.00088011      -1.64216199       0.02770723       0.37665998      -0.06064993
Sb      19.45614855       8.94246163      30.67721645      -2.44012452       0.21578272      -1.50284659      -1.00413419       0.18621085       0.12223891
Sb      12.76011413      12.37968481      30.68309801       0.83864720       0.59841543       1.31158596       0.30882516      -0.32883013      -1.16086876
Te      16.89821624      15.09952531      14.93433830      -0.54529237       3.30426245      -4.39231902       0.29887958      -0.24029968       0.21518325
Te      23.35414198      11.22536460      15.24877866      -0.27716948      -2.12803498      -0.87509297      -0.19289274      -0.47365737       0.13510811
Te      21.75789034      15.25851249      14.94725729      -2.61868430      -3.60249106       3.34699041      -0.81397208       0.14444083       0.00185758
Te      19.12824113      10.73966039      14.67983518      -3.89491789      -0.82087451      -2.13906080       0.60846138       0.58243804      -0.08175530
Te      21.25610486       9.85582482      22.33841745      -3.53934338       1.74224274      -2.85198805      -0.80463458       0.42134336       0.42695179
Te      23.48356430      13.50189075      22.59120272      -1.41854525      -0.13805901      -2.18192788       0.05308792       1.06155049      -0.56867196
Te      25.53827868       9.87495005      22.45398469      -0.92751657      -0.07977648       3.82822117       0.89441778      -0.30807132       0.35066532
Te      19.43943909      12.91546588      22.46464756      -5.17909285       1.20429661       3.73433059      -0.51232759       0.82641669      -0.16689304
Te      23.54276351       8.85278839      24.87518320       2.33991152       1.19926619      -1.89022172      -0.00730363      -0.59924531       0.29277969
Te      25.56959510      12.16680154      25.34592623       4.30198142      -2.64202731      -0.05655684       0.34364174      -0.07298781      -0.76832513
Te      27.77878155       8.54125299      24.95370410      -0.27800261       6.17965039       0.42854335       0.15294702      -0.23171708       0.67700132
Te      21.74580024      12.31945414      25.17649969       2.74433359      -0.50110942      -1.79798461       0.05250639      -0.50724075      -0.03347419
Te      23.06016033       8.42514049      18.83716851       1.95153772      -1.21357026       6.51536483       1.32045169       0.91584844      -1.35521315
Te      25.60640836      12.03440078      19.05208251       2.48557138      -0.77526691      -1.20995586      -0.10783084       0.60392792      -0.45294440
Te      27.90203083       8.66531514      18.74310557      -4.70008872       0.97807122       0.81965916       0.10395953      -0.03248664      -0.26140203
Te      21.41081267      12.43878372      18.79490799       0.85536577       4.10841448      -0.81269425      -0.16048922      -0.12803500       0.21224794
Te      21.41131702       7.62890678      32.37714058       0.71937743       2.89151849       2.99189305       0.29809303       0.47825745      -0.16011078
Te      23.20462480      11.42294739      32.35320143      -4.92987050      -1.76662621      -2.77778196       0.42578691      -0.44805342      -0.59378421
Te      25.29131780       7.78822819      32.44422432      -3.10279633       1.27264218      -4.13353751       0.58895693      -0.42791417      -0.26677334
Te      19.00725827      11.57700481      32.33726739       3.12868454      -1.81730179      -0.53850949       0.80563620      -0.45636112      -0.58943032
Te      21.41032262      10.26698787      28.75266992      -1.19497722       0.97396009      -1.20457769      -0.80589211      -0.77685348      -0.43175357
Te      23.68148738      13.69065444      28.64050825       1.42278633      -2.38895842       1.58259943       0.21130463      -0.58197824       0.67377584
Te      25.92216284       9.75946332      28.76158752      -2.19995502       1.26198662      -5.08553153      -1.11002518       0.41335787      -0.38428682
Te      19.12495667      13.61584905      28.27878085      -1.14034863      -3.13432717      -2.89745536       0.15496457      -0.16622931       0.90856898
Sb      21.07775897      10.11123562      16.82720862       0.98034429       2.63651734       0.19400303       0.13623951      -0.39692116       0.07984741
Sb      23.44907122      13.71482525      16.53250428       2.88762335       0.50873754      -3.87578713       0.71952172       0.15790467       0.44383196
Sb      25.93726798       9.77125686      16.66507425       0.98886246      -1.75864822      -0.34369160      -0.72416731       0.52443577       0.66564531
Sb      19.38051137      13.62288672      15.92050898      -2.71046630       0.86045870      -2.01596671      -0.38923555      -0.00188427       0.00561562
Sb      21.28433298       7.58736125      26.46405726      -2.72703312       4.90994518      -3.31745179      -0.18284341      -0.32324416      -0.15926609
Sb      23.70559636      10.77576342      26.94532325       4.87776224      -1.01337579      -1.09034631      -0.26092690       0.98199277       0.11587317
Sb      25.71496858       7.22597123      26.84091747      -0.42333753       2.47246285       2.54934963       0.11373677       0.87652386      -0.47617939
Sb      10.40060850      11.11476384      26.71076716       1.95910820      -1.17006253       0.08895742      -0.47062970       0.51987506      -0.37048547
Sb      21.15176564       7.64863867      20.54415306       0.35723573      -1.31733411       4.33783761      -1.27834140      -0.90089299       0.30333055
Sb      23.42418970      10.84309854      20.73360367       1.69045400      -3.59291743       0.22064656      -0.24634724       0.71580152      -0.97291431
Sb      25.65543484       7.54962840      20.69433659       2.10052250       3.22670991       3.66569208      -0.15968823      -0.09349938       0.14482645
Sb      19.00584527      11.26224936      20.17276373      -0.82386975       2.55573708      -1.99351094       0.26783074      -0.76308090      -0.21966239
Sb      23.46964986       8.94575918      30.52468721       3.62131498       1.35796730       1.54558886      -0.05921544      -0.02453314       0.50146773
Sb      25.63711829      12.28984637      30.59010672       1.72586777      -2.16434246       3.53990462      -0.41999167       0.41690891       0.17361239
Sb      27.65141435       8.91579626      30.75015036       0.14113150       1.86639117       0.31363207       0.67509801      -1.32064484       0.75090803
Sb      21.31567564      12.54350977      30.53293144       0.61400095       3.01098092       2.30483700      -0.28287285       0.61396309       0.44704922
Cr      14.72375451      11.16108460      24.02748448       1.69338113      -0.86111430       1.63014224      -0.21631672       0.00033767       0.78122364
Cr      23.38870811      11.10176470      23.28175204       0.89949278       0.92494638      -0.10923776      -0.24068611      -0.61966383       0.32355500
Te      21.43774821      22.46612443      15.44001144      -4.54107581       2.12275822      -2.19528284       0.32074614      -0.26943847      -0.23210771
Te      10.10041541      17.80283666      14.75377299       2.21201584      -6.66497442       1.43755396       5.38115342       2.30716009       0.05053625
Te       9.16179938      22.55962746      15.05279116      23.52268029      15.70921786     -16.60770900      -2.17072662       2.88226291      -2.02302700
Te      23.78694823      18.29494285      15.40847215      -1.45241360      -1.37142971      -3.17603157      -0.35115488       0.54200082       0.06047195
Te       8.87882092      17.69457396      22.33236638       1.04372372       4.07735071      -2.28217316       0.15812781      -0.08339355      -2.35169921
Te      11.61978868      21.18182214      23.66178496       9.15351333       3.82763111       3.64486860      -2.47815667       1.04377204      -1.13815664
Te      13.13107253      17.17736758      22.78618750       1.29057362       1.52247909       0.13787272      -0.26878496       0.59495820      -0.75840455
Te       6.32620824      19.64299988      20.00881378     -12.90674818     -25.85637086      21.57238098     -13.18442917     -59.97953086      63.10448115
Te      10.80680438      15.69893280      25.01318542       2.65717574      -2.58240025      -0.87707383      -0.69994327       1.19931634       0.50104251
Te      13.10391893      19.68915419      24.94483286       9.30072310      -2.88487875       4.19798987       0.80981468      -0.91692901       0.77421363
Te      14.71804681      15.77438251      24.94078011      -2.77898991      -1.72177333       1.51509518       0.91673138       0.47646880      -0.17353316
Te       8.19653254      19.73241561      24.90746133      -1.88193751      -2.37822222      -4.27941568       0.53734658       0.66669048      -0.05667406
Te      10.41104250      16.63807507      18.65878185      -1.91589470       1.43286996       0.52741335      -1.17252461      -0.93674899       0.35635249
Te      12.95244110      19.97055364      18.17484019      -4.32897259      -1.97981306       1.26513137       1.45473199      -0.81896899       2.22220752
Te      14.85309310      15.99999966      18.61034920      -0.45883650       2.88553697       1.14361331       0.11531358       0.23339336      -0.24272400
Te       9.17114301      21.68782380      19.57346844      19.40311116      25.77256272      30.43711039      18.11849880      -4.74257492      -6.01842481
Te       8.69901115      14.58514724      32.58575362      -1.68454349       2.57256060       6.60839834       0.02765392       0.24853766      -0.99792518
Te      10.86629616      18.44379075      32.11569462       1.32089156      -3.92267266      -0.31187040       0.08019237      -0.09155060       0.12813830
Te      12.89244022      14.62603439      32.23948146       0.26417873       0.60374658       2.02569870       0.58080264       0.64908194       0.76686507
Te       6.41231666      18.27359995      32.55439841      -2.55901471       2.74652176      -3.65625013       0.12997528       0.21512754      -0.42199840
Te       8.95078758      17.00251299      28.89400151       7.63389283      -5.38496670       5.00969914      -0.96931425       0.90093233      -1.02170838
Te      10.80352517      20.64229651      28.69489455       1.79348661       2.44758853       1.63763267       0.63501067      -0.75549093       0.52385800
Te      12.88802453      17.12243258      28.54458536      -1.33436175      -3.37322187      -2.96438395      -0.15971947      -0.89296479       0.27791358
Te       6.38838695      20.58131130      28.90676692      -3.56999795       0.47063817       0.24954894       0.05709717      -0.08114693      -0.57612447
Sb       8.32016120      16.85883529      15.80431485      10.62363957      32.87957477      -5.79310006     -11.50745743       2.10240982      -0.40810973
Sb      10.92324052      20.39702965      16.54721231      -3.93072981       0.38026140      -6.34426199       0.25308446      -4.32477525      -3.56627333
Sb      12.66999149      17.22865234      16.77767070      -0.61644289       1.04087511       4.25833304       0.61981132       0.04822208       0.35455141
Sb       4.90811300      20.60747333      16.32624767      -3.71269823     -20.71028993     -69.69055676    -174.23098149    -116.55838536     -94.58185881
Sb       8.41682744      14.91180660      26.72788723       2.04559764      -0.88189639      -1.16304051       0.46413749      -0.54639814      -0.20276748
Sb      10.93273882      18.29002204      26.62662901      -3.55930811      -7.32933737       7.97684701      -0.32362071      -0.04834998       1.04620103
Sb      12.92487566      14.45736312      26.65544424      -2.45069755       2.05634802      -4.19796087      -0.76230647       0.61058115       0.59587886
Sb      14.70831165      18.31509004      26.66776139       3.38405159      -4.63169738       5.96633640       1.75146242      -0.99179569       1.16617793
Sb      21.53373308      22.12498571      21.23375903       1.42715917       1.52063091       0.99962496      -0.19794285      -0.09765744       0.12550668
Sb      11.10085205      18.14393598      20.67474605       1.12555621      -9.71982118       9.97523823       1.07958077       0.07092589       1.44705386
Sb      12.94528316      15.04188065      20.64237339      -6.13907971       0.99696431      -4.00357443      -0.33390694       0.02462352       0.08435168
Sb      23.65885910      18.38272461      21.07183183       1.78287467       0.26844186       3.25181977      -0.04472446       0.75223673      -0.64488608
Sb      10.85538653      15.91642143      30.70133551      -2.63132686       2.32311904       0.25129934      -0.30321684      -0.43601034       0.63347281
Sb      13.20321581      19.33665316      30.58590470       3.98279432       0.47009701      -0.07464368       0.19341565       0.14416965       0.28639723
Sb      15.11391393      15.91198208      30.63620123       0.17493495       0.19836749      -1.99356537      -0.39918770       0.10036145      -0.18740047
Sb       8.46598698      19.46208165      30.64637866       3.09140970      -2.37730830       0.14277496       0.15639315      -0.10541795       0.63206884
Te      13.29099458      22.32261723      15.09498379       2.49129699       3.80247120      -0.39882059       0.10418762      -0.06496061      -1.03440678
Te      19.45756736      18.56407700      15.28255481      -3.06278605       3.80840481      -1.83958301      -0.40494306      -0.00124847      -0.40282143
Te      17.36898218      22.51471169      15.02696976       2.71727945       6.08383382       2.67078892       0.19892172       0.23082393       0.18435542
Te      15.29908555      18.43061962      14.94012706       2.51728234       0.62650411      -0.88618574      -0.26003746       0.19764299       0.13156314
Te      17.34109363      17.14979213      22.29643698       3.48409492      -0.04403367       0.94890764      -0.89050809      -0.22836794      -1.12913329
Te      18.96361464      20.55131014      22.19504556      -2.89472022      -2.20226151       3.58366933       0.77686680      -0.26408149      -0.06237726
Te      21.07777390      17.40476594      21.77722439      -1.70099195       0.16563342       1.76021580      -0.32617321      -0.28203802       1.76624311
Te      14.85384113      21.09195084      22.10836737       1.82872571      -1.02829601       1.78913975      -0.27804096       0.37655865       0.16496263
Te      19.60616887      15.69131213      24.80189430      -3.86494645       2.00507450      -2.26762738      -0.34852947      -0.29416032      -0.07762198
Te      21.27409267      19.61023432      24.90648978       1.45212383       2.09286579       3.11500143       0.04454021      -0.10782609       0.20837218
Te      23.19099620      16.14522493      25.07921256      -1.39244064       1.28929015       1.00339360       0.78466800      -0.12063081       0.17935924
Te      16.82533431      19.23261404      24.80075284       0.06055694      -0.33107394       1.96648395       0.54152829       0.43203844       0.18650980
Te      19.29320409      15.51358690      18.65234990      -0.38102369      -3.58628233      -2.18384734      -0.17637727       0.23578219      -0.47891632
Te      21.59993079      20.00251907      19.00872109       2.94686368       0.28651538      -2.17506854      -0.47154560      -0.41374030      -0.42693785
Te      23.48181338      16.02599190      19.02113556       3.20202744      -3.12510547      -2.58001970      -0.04402426       0.07858429      -0.29327457
Te      17.14738273      19.93261689      18.68633022      -3.06200880      -0.00198666      -1.26703139      -0.27108439      -0.33403148       0.03290061
Te      17.22239387      14.86810064      32.17224484      -2.35557781       2.58135031      -3.51167757       0.15975717      -0.32932320      -0.27732523
Te      19.60076259      18.67795806      31.80847682      -1.11517441      -0.99052787      -4.72773428      -0.38449042      -0.41452527       0.16418353
Te      21.20736240      15.07482877      32.18901666       4.15957245       3.72422021      -1.71080348      -0.57948221      -0.34754810       0.13795071
Te      15.55455514      18.34514123      32.16368899       2.15765563      -5.16751865      -1.69048310      -0.31508690      -0.02381716      -0.40882049
Te      17.01987492      17.11473474      28.43323486       3.34286787       0.24365245      -3.82814597      -0.34921516      -0.09104607      -0.03426237
Te      19.40942973      20.68063443      28.18268172      -0.17634072       0.47472075      -0.34445398      -0.09067364      -0.00546485       0.31049819
Te      21.51405206      17.24843316      28.74146166       1.62478204       3.25137103       4.72094879       0.02312472      -0.03346056      -0.61349477
Te      15.03163809      20.72554296      28.52914958       4.25974989      -3.74805384       2.40074428       0.33147163       0.15645804      -0.09429815
Sb      17.09599796      17.32383001      16.77639978      -5.87977158       1.81162555       1.01985159       0.02869791      -0.49630918       0.09052588
Sb      19.24890959      21.02022506      16.72831325      -3.90221749       5.78178180       1.06530711       0.62591869       0.69183408       0.46174431
Sb      21.43568565      17.47977936      16.94063144       1.08951979       1.36972477       0.44810068       0.63629738      -0.27857428       0.49010357
Sb      15.47053464      20.94213537      16.51181823       1.58088057      -0.50288358      -1.70444951      -1.01569721       0.17599898      -0.32827683
Sb      17.09152649      14.67995281      26.51536534      -0.31747263      -2.49637400       4.26716945      -0.44425339       1.14230635       0.40102500
Sb      19.33428414      17.90704820      26.53684165       1.56369442       1.22490972       0.77350617      -0.08743217       0.95818840      -0.47925704
Sb      21.61368588      14.77246134      27.09025441       0.93215461      -2.23202194      -0.93459609      -0.35793535       0.32252098      -0.51832171
Sb       6.83818023      18.17574052      27.06429407      -0.56530864      -1.59084932      -1.20909965      -0.17986535       0.39461109      -0.39147342
Sb      17.43679620      14.61310809      20.81235031      -0.14952699       3.60993165       3.95871382      -0.13893633      -0.45977058       0.04106239
Sb      19.17613875      18.19575451      19.94713487      -2.58314186       1.23862618       0.01942803      -0.18295722       0.70783897      -0.25604344
Sb      21.07029127      14.62841336      20.79593760       1.12806605      -1.74141244      -1.19435656       0.91753461      -0.33524021       0.08842551
Sb      14.96153405      18.81006381      20.58850906      -2.85390166      -4.44350500       3.17028995      -0.26113197      -0.95240028      -0.26848203
Sb      19.08690143      16.06575007      30.22265410      -0.15588331       0.69390992       0.30448565       0.48095375      -0.14545861       0.67398941
Sb      22.04636293      19.61524639      30.76868822      -0.07300777       1.55626968      -0.11507901       0.38342759      -0.56795831      -0.50954427
Sb      23.54137443      16.00491231      31.03167944      -0.42779794      -0.62973844      -1.90512244      -0.19465479       0.75385829      -1.13697949
Sb      17.40787528      19.64683834      30.12416086       2.30781448      -3.51195215      -1.11645462      -0.24594112      -0.45163198      -0.27307750
Cr      10.63871705      18.69800144      24.30321886      -0.61536725      -2.80135712      -0.36414580       0.52281639       0.35561112      -1.18271132
Cr      19.13415923      18.11993701      23.67846010      -0.43618450       0.51953007       0.78197055       0.98612342       0.52348260       1.04700783
Te      17.50416488      29.70712941      14.86733659      -0.03250191      -0.97521430       0.22342651       0.36480021       0.41032019      -0.12983199
Te       6.70904877      26.14688510      14.51195555       1.51401912       5.59613030     -15.12374638      -2.44817796      -1.99501509       0.33930283
Te       4.80570621      29.75554654      15.28080496       2.26078563       0.44859052      -1.87885530      -0.43302759       1.37081239      -0.79440600
Te      19.29393912      25.82385162      15.21111532       0.28126529       3.91323810       2.30492322       0.51463157       0.45437540       0.01218341
Te       4.22086764      25.01673258      23.42524148       1.24691946      14.90488077      12.06367785      -3.09184683       0.39480190       3.52496321
Te       6.57279325      28.69390013      22.85394819       1.91974717      -1.26518884       3.05376914      -0.00577422      -1.16828928      -0.33954250
Te       9.16445671      25.39697503      23.11351010       6.12292230       6.75487695      -0.28161152      -0.56719104      -0.52750082       0.99893669
Te       2.35392081      27.61805421      21.94923996      -6.66767920       0.39393837       0.70359031      -0.91582845      -2.40174950       0.02314530
Te       6.64712193      23.80817990      25.63506285      -4.58718559      -0.02592758      -5.30177754       0.51427837      -1.86473188      -3.54231454
Te       9.25864383      27.50606935      25.25707796       3.36268187       5.37776914       0.03522148      -0.17627697      -1.15320261      -0.45098074
Te      10.93518333      23.54058596      25.52947693      -1.63583669       4.55753699       1.26076126      -0.49721150      -2.70462374      -2.40377625
Te       4.49943070      27.40448250      24.95948686       0.53055790      -0.31837485      -2.38691066       0.16531014       0.89157685       0.08845089
Te       7.69410619      25.00942595      18.95582108      -5.56069884      48.41716130      -6.84240279      -2.39837270      -1.77958231      -5.63954480
Te       9.17050857      27.86113152      18.41283780       2.89524341      19.99922378      -3.32208775       1.18107892       3.88927127      -0.27387207
Te      11.23409905      22.81804316      17.48989761      11.68095417      -3.82262442       0.30917107      -1.57174197       0.60217933       3.81629044
Te       4.56959524      27.88294897      18.48904411       7.71065944      -8.13986690     -12.92086927       8.07210058       3.53929068       2.79870911
Te       4.27898231      22.08587958      32.01302450       2.39797701       0.14999502      -1.07953815       0.05324528      -0.29488546       1.09563504
Te       6.11058506      25.48391170      31.79527109      -0.17266811       0.48903778       3.52257000       0.58258915       0.32974620       0.97000496
Te       8.39078795      22.10781977      32.28090121      -4.41917691      -2.39789569       1.21118887       0.31339260      -0.59457972       0.46370566
Te       2.25737237      25.93752986      32.28938764      -0.81002306      -1.62205251       1.71199479       0.07929815       0.09104021      -0.25062771
Te       4.57884440      25.06625273      28.44019927      -0.37402111       2.11391338       0.59458234       0.31420413      -0.78542728       1.14520867
Te       6.50955556      28.82507901      28.49509418      -2.29683215       0.23686398       2.18363643      -0.04728669      -0.51736773       0.54062704
Te       8.56850654      24.24175582      28.76101706       0.89311921       3.28778795       1.76896915       0.34182125       0.46922965      -0.13080624
Te       2.16569879      28.45187123      28.31202069      -0.47306405       2.52674974       2.87025022      -0.13832590       0.49005232       1.17078106
Sb       5.43119582      25.24736940      17.45433469      13.24007798      40.31760974      23.71322089       6.62278468      17.15203319      -3.08856598
Sb       6.66397149      27.91279342      16.69574448       6.76654295      15.47155193       2.91319549       2.45783845      -0.55020468       0.48763758
Sb       9.30690064      25.16726609      14.69713428       3.51687095      -8.50354404     -21.91895730       1.07736319      -0.57125871       0.93043607
Sb       2.53205599      28.89153198      17.13722553      -2.00143718      -1.61996272       1.94151883      -0.64858414       2.17308455       1.10546161
Sb       4.15930095      22.46573292      27.07074319       2.12658264      -3.40082434       3.14987798       0.05515106      -0.54327448      -0.16532618
Sb       6.65668693      26.36107742      26.48910785       0.13081590      -0.52093989      -4.97369328       0.49449144       0.88473315       0.04265601
Sb       8.76189211      21.60914957      27.18873259       0.95691570      -3.83335960       1.82310743      -1.15719194       0.75665455      -0.78951869
Sb      10.58941558      25.58743122      26.97012313      -2.03047837       3.40472935       6.40006043      -0.25223061       2.72508022       2.14775518
Sb      17.13241494      29.43775829      20.85374998       2.51098492       2.88146715      -1.55151766       0.65139294       0.86168655       0.43096832
Sb       5.29627353      24.02462429      20.24057587     -18.97361579      15.55525885       0.72716692      14.05321705     -19.23417253      28.87499368
Sb       6.80720560      22.52226487      21.03190012      49.60553352     -17.72843422     -33.07393273     -40.83715898       0.79948361     -68.43132242
Sb      19.19070341      26.07849060      20.62830236       4.25247103      -2.32951749      -1.50370245      -0.05562497       0.12461286       0.25910291
Sb       6.44583386      22.98337258      30.54253998      -3.42468745      -0.62984967      -3.56898959      -0.11716448       0.37660184      -0.69773218
Sb       8.50622163      26.79271291      30.52118364      -0.13921801      -5.81042376       4.70639846       0.28909447      -0.16719646       0.60850289
Sb      10.72099907      22.98660629      30.82202431      -2.22454618      -0.82845852      -5.06924497       0.29799554      -0.10019073      -0.10688991
Sb       4.41992554      27.31182289      30.62589471      -1.70308561       3.15811644       7.60334538      -0.67681419       0.47879818      -0.29548405
Te       8.80485257      29.69435160      15.01390795       3.81559548      -1.37142136      -3.04647526      -0.09345823       0.39298874      -0.30289575
Te      15.64234082      26.40591000      14.87675951       0.95093528       0.04700355       1.34033056      -0.24319374      -1.86631963      -0.28117865
Te      13.33795887      29.64429898      14.75506704       2.25064983       4.54331936      -4.41625388       0.02374073       0.38745007       0.21236965
Te      11.77365611      26.17166748      14.50599746      -0.13349440      -2.84025186      -5.77137128       1.68163583       0.97818844      -0.27712094
Te      12.69201066      24.58552399      22.17666401       3.37187697      -2.02033943       1.84558874      -0.38885884      -0.03268300       1.04536543
Te      15.00831344      28.44476783      22.42648934      -1.53012154       1.71017507      -0.36181159      -0.57370672      -0.25066277       0.31999485
Te      16.96886650      24.67678318      22.16165102      -2.42974459      -0.16750892      -4.72682617       0.27007712       0.02278097       0.63161804
Te      11.32787297      28.55910618      22.29322527       1.22435279       3.20779375      -1.20052667      -0.77538679       0.07115849       0.60956140
Te      14.95831753      23.38440101      25.17033129       6.40307805      -4.06982002       0.43838378      -0.11622190       0.72465810      -0.06207239
Te      16.80670227      26.73155528      25.16536237       1.41550701      -2.51331761       1.46251540      -0.21413599      -0.23884358      -0.59048041
Te      19.47955187      23.22834776      24.92050937       2.53157485       1.26315804       2.82171694      -0.55656105       0.58309617      -0.69357062
Te      12.88092819      26.83988848      25.00607657       1.33271956      -3.37162833      -1.52702071       0.54981088       0.18034117       0.32668770
Te      15.14332402      23.40757018      18.67450767       0.60877496      -5.00953356      -0.88694603      -0.54655451      -0.11658842       0.26158026
Te      16.94441355      27.33033239      18.98769750       1.18878704       1.31145435       0.22340946       0.39464768      -0.81600820      -0.60346070
Te      19.32315830      23.48922997      19.01382346       1.95188213       5.01043305      -3.91247459       0.08814910       0.00870556      -0.35029545
Te      13.06829760      27.34667483      18.44794257      -0.90976843      -1.89070730      -3.96662245      -0.30480509       0.15399884       0.63129364
Te      13.02988931      21.58669026      32.31918144      -4.00402693      -2.08441450      -0.96870296      -0.05768956       1.08310468      -0.35340594
Te      15.08812228      25.74382369      32.36602727       1.71369106       0.11772905       5.04731662      -0.02910114       0.44128700      -0.24113692
Te      16.91988570      21.43894025      32.18580896      -0.31448600      -1.58943500       0.89120910      -0.03439089       1.09949366       0.44134565
Te      10.85319376      25.54994857      32.01074319      -4.67182738      -1.28990230      -6.52743733      -0.32767986       0.70345349      -0.00960474
Te      12.79748388      24.46712248      28.82575271      -0.35754551       0.62476558       3.56811351       0.16171220      -0.17427570       0.40145820
Te      15.29356742      28.38512248      28.96898959      -6.95053053      -0.25222584       0.53248673      -0.58470284       0.30241171      -0.87270846
Te      17.36831020      24.48011739      28.56004682       0.38253947       3.12239515       3.12290258      -0.59427823      -0.32796735       0.02009313
Te      10.63356941      28.34746402      29.00375433      -2.36712076      -0.25361673       0.22577661       0.43052202      -0.25940138      -1.03142883
Sb      13.15716551      24.78435831      16.50515955       0.79749505      -5.51730137       2.98632098       0.69104383      -0.19990100       0.02154236
Sb      15.44399276      28.56298280      16.39986991      -1.00616307       3.08774040       1.21592693      -0.76826735       0.89238939       1.08170233
Sb      17.27481690      24.79357343      16.91353553      -2.11389534      -2.03857632      -0.17005578      -0.17384186      -0.17741588       0.15787107
Sb      11.07754803      28.68797201      16.44488577       4.47612447       5.49416207      -1.55516892       0.65403978       0.02421587       0.19652586
Sb      12.86663139      22.09798610      26.99702404       2.40526456       2.26712635       1.84628030       0.58429325      -0.27472290      -0.04728092
Sb      14.73105774      25.74972415      27.01502828       1.24765978       2.50403356      -2.96258193       0.67725404      -0.41391437       0.12462901
Sb      17.36358697      21.89633799      26.33660884       0.78101450      -1.94092391       0.17711871      -0.18273288      -0.17834348       0.42466902
Sb       2.69748521      26.17291296      26.81276079       0.64699397       3.28251988       0.41634785      -0.84351036      -0.56927508      -0.57687799
Sb      12.62691319      22.28517385      20.41171932     -11.15772702      -5.58660961      -3.21879912      -0.27218279      -0.64001291      -1.53443495
Sb      14.68775032      25.72829616      20.66027893      -2.59172765       0.48629040       1.54262789       1.05200822       0.77150968      -0.71205298
Sb      17.05543737      22.17848439      20.63609905       3.22202346       2.12464299       0.33885225       0.26834825       0.56452976      -0.44627628
Sb      10.90541202      26.38501202      20.61773614     -10.63970896      -2.39246764      -5.26019873      -1.37320770       0.01619806      -2.09820465
Sb      15.07061416      23.45526592      30.74216069      -3.12306495      -1.84378206       2.48421995      -0.04412771      -1.01521080      -0.15347530
Sb      17.23792892      26.83312688      30.58638598      -4.91580293      -6.69764275       0.43320876       0.32416100      -0.18441409       0.45261563
Sb      19.23383687      22.82783249      30.86972019       2.05942482      -3.21610938      -1.47610955      -0.84164794       0.84500745      -0.59809705
Sb      13.03339427      27.31449002      30.55904546      -0.30627817       3.60287356       1.10600466      -0.27556587      -1.03664185       0.17583939
Cr       6.57364008      25.61097064      23.39899914      -1.19234005       0.42123689      -6.97644261      -0.02311408       1.34239132      -0.14753696
Cr      14.81775902      25.87542717      23.37863915       2.73045349       2.60876038       0.00457621      -0.03119771      -0.06851520      -0.47390325
Te      13.02942554      36.71831206      14.97074123       1.45505789      -0.90449328       7.30592616      -0.38685019       0.81041284      -0.65221391
Te       2.19535555      32.92512824      15.37748972       2.53766243       2.31956772       3.86770226       0.09689462       0.17924644       0.59717285
Te       0.34749864      36.76060527      15.01814404      -1.35742300      -0.54446239       0.67392779      -0.09433074       0.48168786       0.23172549
Te      15.15230561      33.35611604      15.19062392      -2.33726313      -0.41008572       4.23334219       0.55677702       0.40346504      -0.03044186
Te      -0.00086320      31.87842957      22.56814177      -4.17879938       2.71363236       2.23411687      -0.35306719       0.91176852      -0.80287889
Te       2.46166793      35.91899330      22.33795956      -0.95669612       2.48242769      -1.51202841      -0.35800834      -0.22457211       0.18024334
Te       4.72707532      32.03584714      22.42542396       2.12225531      -1.01564718      -1.70423430      -0.27453354       0.78526137      -0.43922114
Te      -1.42356334      35.59267389      22.12116749      -4.07240473       2.39591073       5.10931538      -0.45730125       0.60099054       0.24919200
Te       2.20850985      30.99460874      24.48037460      -1.61178865      -2.63158468      -1.87426778       0.58424176      -0.86021408       0.87219112
Te       4.05398304      34.55713018      25.07182908       6.07225120       4.01854129      -0.96258421       1.21014851      -0.27627813      -0.84200864
Te       6.67356343      30.81013139      24.95382106      -4.70918873       0.85335215       1.61849532      -0.14492690       0.62437940       0.92576903
Te       0.27451269      34.26870325      24.71631591       2.08487315      -0.54670472      -3.42180760      -0.35083199       0.96280569       0.05338762
Te       2.07907868      30.91727452      18.95666529      -4.60033770       3.59639444       6.07908760      -0.21356940       0.19484542       1.16072222
Te       4.87829710      34.85107256      18.44051569       5.49279683       5.72857951       0.77034980      -0.71590095      -0.13620333       1.24626232
Te       6.75531957      30.93441864      19.02194163       0.49231783      -1.25204723       1.36760596      -0.36760966      -0.60717312      -0.01673972
Te       0.05789304      34.61165109      18.76165940      -3.62191674      -3.27646200      -0.33266958       0.88307348      -0.56489592       0.43167298
Te      -0.00322001      29.19974652      32.26273430       1.23812536       3.84939135      -1.98660263      -0.03422337       0.63822121      -0.36733961
Te       2.29212984      32.99733607      31.95055778      -0.20692726      -2.04408728       0.59330287      -0.30284002       1.06111146       0.43918111
Te       4.26838733      29.48846088      32.48472505       2.56326001       0.13274725      -0.98549045      -0.04270195       0.38182716      -0.75729473
Te      -2.23853030      33.70160713      32.36054265      -3.19797585       1.83109472       3.15289878       0.13357462      -0.52034928      -0.50180630
Te       0.11426899      32.02848608      28.46760107       1.86127567      -2.63055997       2.78820867      -0.23245239      -0.22400401       0.49529415
Te       1.55086971      36.20925190      28.56755352      -0.82334080      -4.24880757       2.70212995       1.23059123      -0.89586272      -0.49982914
Te       4.07322709      32.10213057      28.55944714      -5.41132527       1.31518780       1.50749302       0.76092511      -0.06219060       0.19545813
Te      -1.98848092      36.12903819      28.34601184       1.60550720      -2.83357840       1.97111048      -0.40421636      -0.34842622       0.23097245
Sb      -0.05382946      31.91138819      17.04972592      -1.87236143       2.99170517      -3.03050379       0.08662142       0.36365177      -0.91910436
Sb       2.40138784      35.82531633      16.77414472       3.89972627      -3.38549411       4.15186465       0.03927429      -0.45293248       0.16832508
Sb       4.28021507      32.02916355      17.28788241       3.67581674      -3.81038659      -2.37723156       0.47393319       0.13197035      -0.56882137
Sb      -1.68710334      35.92405640      16.93074607       0.77905528       1.33863068       1.61027887      -0.71551290      -0.07870907      -1.12549563
Sb      -0.05028017      29.67696103      26.56303152      -0.36796938       1.90570697       0.05492351       0.85217718       0.06359356       0.86641662
Sb       2.20635259      33.05527194      26.46944542      -1.29933050       1.72535019       2.97900289      -0.69926452       0.02855495       0.78603700
Sb       4.31478587      29.69140198      26.81362117       0.80333200      -1.90434485       2.61102338       0.45088762       0.50405973      -0.63871050
Sb       6.43289966      33.19610007      26.83083263      -2.22324655       3.35593772       1.15721708       0.07455409      -0.06085243      -0.09749367
Sb      34.24784102      -0.01255060      20.69727080      -4.45877784      -2.90366429       0.42204823      -0.38393264       0.40281583      -1.05135259
Sb       2.43408584      33.46244446      20.44031390      -0.47747954      -0.46747275       0.89831735       0.47153348       0.30233356       0.42854057
Sb       4.32702611      29.37334755      21.18929090       4.27786136      -3.45350068       6.26073037       0.85597892       0.64300033      -0.41378398
Sb      15.05263703      33.34186455      20.47345370      -2.39799821       1.59841433       5.73490697      -0.11448782       0.26709581       0.20641192
Sb       2.00708787      30.65314770      30.53566091       0.07511187      -0.48621117       2.12433117      -0.02038787      -0.91337659       0.00020512
Sb       4.04630937      35.06068963      30.30752548       1.34727047       3.69001352       2.60261717       0.27993327      -0.56466699      -0.31435889
Sb       6.11202254      31.05233085      30.63193701      -2.08735269      -1.62246541       3.28389453      -0.02260431      -0.67662979       0.27354525
Sb       0.02628235      34.23266126      30.56597919       0.81854459      -6.64777782      -0.69623742      -0.01209741       0.64442382       0.13150417
Te       4.48620170      37.25933726      15.45340684      -2.23282158       1.06903580       2.40604002      -0.59138657       0.53751779      -0.87954059
Te      10.85648388      33.05775024      15.03988605      -3.12234269      -7.38623627       0.62190949      -0.09809673       0.40224858       0.14391447
Te       9.06440654      37.47933568      15.05685397       0.76966556       4.16057037       4.55296151      -0.32041590       0.13158734       0.02404865
Te       6.26878116      33.54095430      15.73860979      -1.67932997      -0.39347386      -0.09071862       0.21710389      -0.61320509      -0.67371115
Te       8.58134998      32.21626624      22.31019843       2.92096277       0.06273522      -1.95465513       0.48502140      -0.33942137       0.96133679
Te      10.74159398      36.17158870      22.48865265       7.21003514       2.64337189       1.84364948       0.11865840      -0.58889927       0.47578510
Te      12.92887226      32.35535093      22.40190007       4.65865409       2.01682647       5.11535863       0.80527233      -0.62885159       0.10129483
Te       6.62436767      35.91534357      22.41276410       0.35349594      -2.33532046      -0.08166797       0.46162313      -0.34439099      -0.31155232
Te      11.05101229      31.12410153      25.26858757       2.96464804       1.22326774      -4.28884528       0.20184083       0.44626816      -0.30805562
Te      12.73194840      34.39313903      25.26743038       4.29803840       1.23148506       2.18048544      -0.35286445       0.23440178       0.16415109
Te      15.01015027      30.91018382      25.34278189       0.10294121      -0.81699108       0.61876981      -0.38748480      -1.39310080      -1.12731375
Te       8.92312753      34.38308237      25.37650028      -2.85383945      -0.31181529      -0.82015339       0.04396699      -0.07091596       0.01521869
Te      10.98598008      31.23438740      18.68081113       0.80372846       1.97858536      -3.41343912      -0.05618672      -0.81898598       0.22190831
Te      12.93704169      34.76053554      18.76653982      -1.31366045      -1.97603924      -1.10960807       0.01448243      -0.29605529      -0.00532404
Te      15.06661837      30.95610349      18.80982346      -2.41908050       0.63089442      -7.36063465       0.72430483       0.28636566      -0.61201225
Te       8.69160208      34.88078529      18.66685658      -3.50957804       2.36365192      -2.61076699       0.61497020      -0.45829872       0.06439597
Te       8.67666983      28.87465137      32.61382368      -5.47851318       0.25014808      -3.46168195      -0.28105605       0.11522243      -0.39284088
Te      10.45642657      33.34432782      31.89513487       1.07270991      -0.09415259       3.34558722       1.18370688      -0.27169268       0.68733740
Te      12.93938935      29.25013646      32.57642161      -2.93852041       1.66056514       2.75259423      -0.41802038       0.24079444       0.24976551
Te       5.82793586      33.35125430      32.20345988      -2.11387273       3.27015729       3.07093727       0.24333902       1.04634847      -0.23145601
Te       8.52002542      31.72145541      28.66170315      -3.42582507      -4.39297810       2.05626888      -0.12730000       1.16439966       0.60325957
Te      10.57768769      35.90189085      28.72978036      -0.89916412      -0.49503199       1.01025494      -0.00363097      -0.51417687       0.01890697
Te      13.21528832      31.89057188      29.09528550       3.10207837       0.37061695       1.63441025      -0.43689587      -0.22236200      -0.56891521
Te       6.45886218      35.90583969      28.57757943       0.51646513      -2.89037440      -1.74235486      -0.48046083      -0.06926340      -0.12024639
Sb       8.64942987      31.89715429      16.74060651       0.65492183       0.56353472       4.10130519      -0.22490853       0.48231876       0.36446425
Sb      10.84177066      35.78398510      16.49473508      -1.86067467       2.02364352       0.83465089      -0.17519312      -0.33845333       0.53374739
Sb      13.08425736      31.98073295      16.51539024      -4.02063165      -0.74217602       0.08833539      -0.21359530      -0.11517214       0.29302581
Sb       6.75664909      36.19810946      16.69678321      -3.02698370      -0.44952438      -0.45318433       0.77580407      -0.25705328      -0.06654128
Sb       8.92654042      29.80948271      26.53641822       3.91509119       6.04734373       4.48196069      -0.85655310       0.54502442       0.77931876
Sb      10.82593852      33.17731485      27.39734025      -3.38504434      -0.51488017      -2.80939488       0.22165778       0.37662452       0.17701508
Sb      12.98249955      29.53924034      26.97483440       5.85710950       1.22789769      -1.39477866       0.22196331       0.21769177       0.34612870
Sb      -1.98411242      33.67051454      26.60087287      -3.70746989      -2.06126414       0.91775273      -0.42555908      -0.37491267       0.05454827
Sb       8.81235357      29.56807729      20.81693255       2.69267196       1.18301325       3.85391828       0.12786506       1.08107004      -0.07618224
Sb      10.83423298      33.33175481      20.95220652      -0.50938364       5.05193688       1.18622717      -0.35229665       0.96622852      -1.04838486
Sb      13.12315377      29.74494602      20.53175614      -2.79023337      -0.26450654      -0.38741554      -0.15470531      -0.09833064      -0.47783447
Sb       6.82304295      33.55065506      20.53953524      -0.05232692      -1.05759598       0.68228706      -0.83255224      -0.14463330      -0.24445186
Sb      10.50700224      30.32686983      31.01866873      -1.11741040       2.20579201      -0.48398349       0.24708876       0.33638453       0.41479098
Sb      12.86413693      34.60631302      30.77329680      -0.52778349       0.76048000       3.29657429      -0.04066731      -0.73183774      -0.16933023
Sb      15.08953470      30.59797797      31.23393907      -1.72197805      -1.88498512      -1.16957205       0.58766033       0.63756406      -0.38505344
Sb       8.30506677      34.60255152      30.83127554      -2.54558431       2.25512547       1.93442522      -1.00684263       0.63755745      -0.47715061
Cr       2.42328116      33.23564154      22.95954681       0.49059755      -0.32507606      -2.68699955      -0.31955975       0.06572040      -0.26803830
Cr      10.72301199      33.69631760      23.56233564      -0.09660054       1.35938138      -0.12264102       0.13506433      -0.16292803      -0.14273803
Te      46.88620618       7.42789022      15.46704884       1.37306728       0.44572827       2.60425773       0.22769875      -0.06566259      -0.35661730
Te      36.29562752       3.73051148      14.60736444       1.68513754       0.74756718       1.45524756       0.01788388      -1.01480358      -0.39308454
Te      34.27645142       7.81698663      14.86015843      -3.95937777      -2.46619203       3.29466131       0.07792783      -0.52731845       0.62288491
Te      49.20098375       3.44209907      15.03215740       0.42366617      -0.68558494       2.67212436       0.23286754       0.37243571       0.76178589
Te      34.11007186       2.51305474      22.47952193       1.81074090      -1.18565829      -2.89122532      -0.44107684      -0.39120207       0.15169752
Te      36.58956450       6.46819951      22.49387968       3.39202842       3.49127893       3.10004359      -0.53909146      -0.39242206      -0.20651535
Te      38.56876694       2.61744308      22.33201450       2.44407202      -1.87516587       3.18273553      -1.00591361      -0.41847935       0.30966871
Te      32.20384112       6.47720770      22.41509135      -1.90084251      -2.55059359      -0.61080847       0.32346620      -0.43732392       0.40624388
Te      36.05318846       1.33236637      25.21377631       0.16958282       2.03017113       2.88531299       0.49596376       0.18722205      -0.17859488
Te      38.59730310       5.04332069      24.93159353      -0.03096031      -1.01336299      -0.27152091       0.14915225       0.14460848      -0.08448959
Te      40.65826048       1.26190136      24.82665156      -1.04151034      -0.60390596       0.78405536      -0.13262906      -0.40953701       0.63617909
Te      34.40452846       5.05368423      25.25234217      -2.47767903       2.70578601      -0.01176328       0.30393162       0.07248706      -0.72270064
Te      36.30379322       1.42613782      18.63916139      -0.35443390       2.94443010      -1.20104828      -0.05949170       0.05056953       0.30866234
Te      38.55819923       4.56107307      18.77655985      -2.04667825      -0.89351626       0.68142608      -0.03151886       1.54629171       0.92549165
Te      40.38996030       1.25212035      18.80431731      -0.72367592       0.85412122      -3.25701585       0.20675180      -0.64051469      -0.26745476
Te      33.84755898       4.90857896      18.83175566       3.41478920      -1.26489698      -1.93484643       0.58451198      -0.08170103      -0.46191254
Te      34.39242351      -0.03853649      32.32305472       0.39873312      -0.54353143       0.28680979      -0.31367251       0.03669545       0.59628057
Te      36.85530832       3.67368710      32.23127139       1.19712826      -0.45802938      -3.77969647      -0.28636803      -0.00831648       0.31078909
Te      38.51069145      -0.23990833      32.47162153       5.50986151      -6.14935646      -4.37362776       0.70580605       0.15289577      -0.28539832
Te      32.06592095       3.59026776      31.92468607       2.73313832      -1.91074000      -2.00321937      -0.25690794       1.18821075       0.90195738
Te      34.64319123       2.37539121      28.66736086       1.81255281       0.65249925       2.10834894      -0.54938212       0.34946438       0.13291015
Te      36.55145047       6.03468350      28.86908175       0.79018177       2.60158609       0.13710813      -0.60386052       0.28740532      -1.09159258
Te      38.68885783       2.37961861      28.65270662      -2.56480730      -2.12586673      -0.64572752       0.03855583       0.05783533      -0.03009054
Te      32.37783109       6.26146702      28.50067540       1.48723352      -0.17596827      -0.61138887      -0.15737626      -0.19529290       0.12009870
Sb      34.39931327       2.38708730      16.43091645       2.78870338      -0.07721784      -3.71926699      -0.57125511       0.05712379      -0.27361285
Sb      36.21208359       5.86740343      16.20975523       0.32702904      -1.92719854       0.45699483       0.26202669       1.43882204       0.79687130
Sb      38.59414052       2.63342898      16.71614860      -1.84288330       0.30071368       2.69311549      -0.71692618      -0.33907594       0.12980445
Sb      32.08373506       6.30521494      16.52916062       9.40907851       0.41542098       3.06513737       0.23013217       0.61703729      -0.05681464
Sb      34.03134738      -0.09227189      26.99774391      -0.91872883       0.72678937       2.39401567       0.07756884       0.30565794      -0.51414231
Sb      36.65267875       3.89992382      26.63647687      -4.22666662      -1.85086648      -0.35174935      -0.33518338      -0.76565113       0.52963315
Sb      38.24896840       0.03751542      26.94333229      -1.26341599       0.40524398      -1.95363762       0.61385947       0.25946697      -0.66615831
Sb      40.91629395       3.60968528      26.49401135      -1.13166832       2.06464839       1.50978021      -1.56912070      -0.22536462       0.62997075
Sb      47.17299534       7.18132948      20.63585689      -3.61058936      -3.32068973       2.86380700       0.15145434       0.30735352       0.48422892
Sb      36.02286869       3.88860652      20.74855399      -3.70461689       0.90644671       1.46635405       0.59001515       0.01331404      -0.27033355
Sb      38.15035296      -0.00618635      20.62989491       2.31760380      -0.63171721      -2.77850687       0.92795390       0.53644485      -0.22790296
Sb      49.45467293       3.58674305      20.59705504       2.26592126      -0.63877721      -1.71398124      -0.61334637       0.52810170       0.33075327
Sb      36.57769074       1.07710117      30.93792881      -1.64560445      -2.06067437      -4.38850100       0.44810458       0.32451489      -0.87605545
Sb      38.74625101       4.93751283      30.42482120      -1.82272199       2.32988391       5.66301362       0.62189250      -0.70161894       0.03032200
Sb      40.90808058       1.06119386      30.55789685      -2.66414490      -2.92571204      -0.23227772      -0.80564437       0.05072238       0.64543564
Sb      34.53822174       4.86745591      30.89541836       0.36944736      -3.40278601      -3.64185009      -0.07098106      -0.14366541      -0.44070913
Te      38.80561386       6.91167001      15.19810774      -1.04188538       3.44501047      -0.26622811      -0.43043339       0.48477511       0.36499485
Te      44.81492961       3.90268117      15.85047014      -1.65918273      -6.41745580      -2.47851967      -0.15371753      -0.35959435      -0.84239326
Te      43.03184764       7.55053512      15.46876225       2.55094976      -4.20858992      -3.50887882      -0.20013948      -0.16991814       0.50837559
Te      40.87276529       3.60935128      15.55159098       4.03638906      -2.42789071       4.01520391       0.61450485       0.81343946      -0.66884073
Te      42.82200736       2.11068212      22.59242289      -0.91820250      -2.07872267      -1.66573136       0.12670132       0.91094391      -0.21407419
Te      44.94691194       6.11156458      22.59922674      -0.55442932      -2.82656880      -2.11059684       0.66510377       0.97596916      -0.07542696
Te      47.12172730       2.33753309      22.63897247      -1.36311027      -0.62748543      -3.60371709      -0.09197169       0.29636080      -0.62150309
Te      40.86616081       5.82225582      22.36463271       2.82419524      -5.89485220       3.34049962      -0.33358133       0.54052865       0.01878920
Te      44.96011378       1.37173665      25.11473420       1.96434812      -1.93055115      -4.09678127       0.08342582       0.32000997       0.22462920
Te      47.02133885       4.82094270      25.12161905       5.10230948      -4.73180717       1.93171197      -0.09173623      -0.33022071       0.40955812
Te      49.05087072       1.18878920      24.90331806       3.36530903       3.71133918       0.03484088       0.29566455       0.25500281       0.17715759
Te      42.99733454       4.81705633      25.16378120      -2.67654391      -5.79477054       0.06280910       0.90552387       0.19777680      -1.08973956
Te      44.97417603       1.24005075      18.85281207       4.31800097       2.25784698      -1.88544865       0.13722559      -0.15590066       0.65898801
Te      47.46311905       5.01180793      18.71900565       3.80719327      -3.01200462       0.91941824      -0.11639286       0.06800628       0.43399973
Te      48.87266933       1.18719929      19.03840515      -1.40135579      -0.72498203      -1.19669119       0.57021230      -0.63091495      -0.24197356
Te      42.97409693       4.90834504      19.13003782      -3.73922696       3.62586500      -1.55203851      -0.67271789       0.10506659      -0.18173289
Te      43.03707580      -0.28173660      32.21888596      -3.18376342       0.65207235       3.71581050      -0.32771688       0.11681469      -0.19308578
Te      44.80892276       3.76571854      32.24781070       0.99649647      -2.92885553      -6.15616317       0.72380570      -0.49907742       0.19645298
Te      46.83816726       0.05686372      32.37345364       2.02120581       2.14629934      -1.75720922       0.12012649      -0.25579697      -0.61164430
Te      40.73487355       3.63893925      32.25682557       3.64156437       1.68944186      -3.96059322       0.32066369       0.00547362      -0.70936098
Te      42.69453357       2.32955869      28.45881339       3.19853434       1.19256562       2.54130229      -0.03472040      -0.38187637       0.66678764
Te      45.10904859       6.31560276      28.70647242       6.19801689       0.14158897      -2.81881505       0.11507094      -0.87755631      -0.48676128
Te      47.16017231       2.45792416      28.97847730       4.38396889      -0.34478447       1.76316615      -0.23623566      -0.20714488      -1.04335629
Te      40.82598411       6.21536011      28.53180702       1.21683656       2.04437941      -2.00570432      -0.20777125      -0.21116873       0.07654803
Sb      42.78945209       2.35098977      17.25048729       0.69740831      -3.23103521       1.15243375      -0.12035053       0.17064829      -0.29652195
Sb      44.98209583       6.32140576      17.34298215      -1.05836044      -1.06351916      -1.81613262      -0.12636011      -0.11672294      -0.54740017
Sb      47.20763010       2.66702768      16.91159293       0.44479421       3.98921757       3.00179175      -0.11363351      -0.48321012       0.00077088
Sb      40.85417473       6.15863266      17.15488640      -0.70690146       0.14179760       0.89508650      -0.06586048      -0.04717635      -0.38875180
Sb      42.74194176      -0.19929276      26.48203155      -2.24599075       0.19778367       3.92879466       0.01828874       0.51889461       0.27943387
Sb      44.83991361       3.72874581      27.12436761       4.02307415       2.76546438       2.42361256       1.29191743       0.10401753      -0.25480798
Sb      47.21216319       0.10904810      26.88532155      -2.73807014       2.65875421      -2.03181913      -0.25152453       0.14732823       0.02769482
Sb      32.26153564       3.73669068      26.77615902      -2.36877324       3.03733430      -4.03494313       0.27364758      -0.24654283      -0.03423428
Sb      42.65747752       0.00489180      20.56439909      -1.70904710      -1.10684728       0.53371649       0.34662009       0.05710105       0.24325774
Sb      45.17288476       3.92259622      20.60989282      -1.49241072      -3.73742911       1.29390003       0.37107535      -0.91189945       0.47491727
Sb      46.68998828      -0.01622518      20.90432424      -3.37113411      -1.65004030      -1.54688719       0.44189503      -0.05728907       0.02985983
Sb      40.76084868       3.44020878      20.70633554      -0.24208519       0.87408410       1.95359835       0.09642675       0.68818939       0.19295375
Sb      44.83836966       1.22642197      30.50704820       3.38954221      -2.70690032       0.06357602       0.48142380       0.06164762       0.51676063
Sb      47.29475156       4.79298881      30.81957592      -1.42659856      -2.13804822       4.84601961      -0.42446337      -0.22284605      -0.55558369
Sb      49.19937029       1.20910645      30.87844853      -5.24553330      -0.65399811      -5.67560254      -0.38498925       0.22111944      -0.02721903
Sb      42.93518703       4.82133074      30.50664572      -1.35337517      -0.74274921      -1.13287663      -0.64970757       0.28236033      -0.09906666
Cr      36.00967304       3.96276868      23.33468701      -3.00607881      -0.27422133       2.60982103       1.32680258       0.32323369       0.57989943
Cr      44.89758812       3.65574201      23.20877614      -3.34169320       0.18767263       1.03414927      -0.05464503      -1.06026998       0.33676717
Te      42.70605104      14.75735488      15.22479005       1.80699968      -1.34335575      -1.48445302      -0.03138481      -0.25044991      -0.35240606
Te      32.51030273      11.07491258      15.15535642       1.12796852       1.88982277      -5.57732259      -0.09576914      -0.21633117       0.03876136
Te      29.82538774      15.07092607      15.55088825      -2.28837026      -0.48559209      -0.11335947       0.04231952      -1.01897465      -0.68220786
Te      44.92449881      11.04771899      15.29005670      -2.36568698      -0.82739214       0.37731159       0.30013083       0.12784095      -0.40771888
Te      29.80658846       9.90165037      22.67801316      -0.32605486       0.50726140       1.40175557       0.78862038       0.41020112      -0.54562951
Te      32.20231690      13.72645637      22.64774205      -2.61380013       2.26343698      -2.05482415       0.11740450      -0.73664622      -0.20927640
Te      34.24302407       9.89043786      22.25531251       8.06605622       0.66924456       5.85605565      -0.97908458      -0.11464914       0.35439846
Te      27.76951018      13.41360244      22.23380547       3.32305423       0.99024816      -0.24022606      -0.21374546       0.26389090       0.71990683
Te      31.87147918       8.76076859      25.00459791       5.32766953      -2.98426526       0.64425840       0.61972261      -0.15748626       0.60191459
Te      34.30886528      12.20495828      25.23947817       4.05898882       1.47397725      -0.64913366       0.37948963       0.79004554      -0.19186614
Te      36.64107491       8.99586959      25.30402704      -4.67900651       2.49171922       0.23599653      -0.11911497      -1.41058578      -1.28617035
Te      29.78706151      12.32811797      25.15811503       4.76615832       2.86222615      -4.12795412       0.61155815       0.59706058      -0.13887651
Te      32.31504489       8.85282816      18.60527479       2.14876392      -0.81831184       1.76327531      -0.39284868      -0.05584220       0.38986586
Te      34.36896800      12.42256812      18.81194094      -1.26784056      -1.91459382       0.39653311      -0.35831974       0.22894979      -0.01783772
Te      36.54559841       8.46163171      18.97109064      -1.81802163      -0.94798424       5.59948201      -0.24826570       0.16864710      -0.96418545
Te      29.68918896      12.13267444      18.64011396      -7.34477219       1.12835646      -2.82536638       0.71763541       0.04097491       0.27698215
Te      30.16750868       7.33149012      31.80246364      -2.93950655       1.06362008      -2.47780329      -1.18002572      -0.54750705       1.12865031
Te      31.81366166      10.65933106      32.40094047      -4.58472941      -1.27206654       0.65807880      -0.11620898       0.37352597      -0.22269732
Te      34.50628243       7.48333124      32.20619406      -1.30403719       2.38721689      -1.16868720       0.15890948      -0.07325753       0.19915854
Te      27.50041696      11.19923752      32.40989528       2.57601658      -2.91600074      -2.51186442       0.58077669       0.40784591       0.21396318
Te      29.88249735       9.77953433      28.75989976       3.71872142       1.32702106       2.76441517       0.21866505       0.80164510       0.42432745
Te      32.13564823      13.56688440      28.96570028       3.27077977      -3.93429531       2.27266669      -0.35368007      -0.17006276       0.12827067
Te      34.21238477       9.84363350      28.63766579      -1.31972408      -0.51992056      -1.12872209       0.35561400       0.69194099       0.46220233
Te      27.82326697      13.35391650      28.65774473       0.48098320      -1.02596265      -2.76175103      -0.40493482      -0.16293269      -0.07882318
Sb      30.03713314       9.84628334      16.42251802       2.84957745      -1.56199376      -2.05437524       0.12696383       0.04530481       0.29214455
Sb      31.98663826      13.35810107      16.81893775       2.84036640       0.68493566      -4.47306462      -0.17315997       0.23937902       0.45663749
Sb      34.66796069      10.02782928      16.81171859       3.15502284       0.06199709       1.48779806      -0.49795121      -0.28152387      -0.02150753
Sb      27.70758493      13.56523895      16.91123973      -1.51999185      -2.90872519      -0.88139497      -0.31307512       0.07494100      -0.07119329
Sb      29.91239924       7.51097002      27.15545869      -1.35003247      -3.05229504      -3.07695623      -0.01637043      -0.61985377      -0.82385839
Sb      32.18329774      11.22859716      26.76596337      -2.47985443       3.21419592      -4.64631615      -0.65356328      -0.26833743       0.19663208
Sb      34.47762345       7.68938041      26.76070398      -0.63433309      -3.14250912       0.54705355      -0.52020307      -0.43131809      -0.27894923
Sb      36.56774486      11.08243546      26.93180867      -5.11328764       0.19968001       0.00176828      -0.35006510       1.40854995       1.02922552
Sb      42.70251242      15.00141903      20.43771683       0.27825002       1.47389856       2.58491249       0.87798648       0.10094835       0.90376270
Sb      31.98745321      11.18420931      20.72401450      -0.68097032       4.19198440      -1.53701592       0.18168174      -0.13760523       0.11462916
Sb      34.30892351       7.22815954      20.50576696       4.73379803       0.41787212       2.48753890      -0.16723151       0.41714271       0.32752174
Sb      45.21165042      11.30750814      20.66468905       4.47839997       3.27833696       3.85710247      -0.78670474       0.45753961      -0.09783926
Sb      32.32162094       8.45852164      30.63962673       3.84677985       3.41013660       2.43038983       0.38382270       0.60131519      -0.75830087
Sb      34.16819795      12.07759143      31.07051628      -2.53492418       0.15576914      -1.67329403      -0.43653281       0.57214852       0.03462429
Sb      36.50085777       8.61423678      30.39201397      -1.79572727       1.77630090       0.21200239      -0.34488166      -0.20252894       0.13642704
Sb      29.81288481      12.26863390      30.71710440       1.64667392       1.33930595      -0.91682675       0.27307662       0.16512879       0.71640056
Te      33.97891989      14.88947092      15.27553096       3.87248454       4.66372989      -1.43756348      -0.00500112      -1.01820246      -0.96227187
Te      40.71395847      10.97254993      15.25761153       0.11492450      -3.07607486      -3.45448110       0.05784577      -0.21120435       0.33616659
Te      38.74399981      15.26543701      15.18415490      -3.97373044       4.91809905       0.24056584      -0.23282006      -1.42233827      -0.22434219
Te      36.70826079      11.38189141      15.24647049       1.34712188       1.83542668      -0.94902535      -0.07776210      -0.18736294      -0.21034772
Te      38.67305299       9.84781825      22.56692322      -3.74190425       3.33981645       1.21050624      -0.20873546       0.02321930      -0.47426183
Te      40.70109785      13.83377257      22.28248948       0.31475468      -3.26637250      -2.53955996      -0.37378063       0.48602155       0.48880178
Te      42.98789923      10.37226713      22.60116394      -0.78870773       1.20298791      -1.35365038       0.33404676      -0.84651978      -0.22114954
Te      36.43810574      13.54001746      22.63292148      -4.61569369       0.21390667      -1.07291413      -0.39603827      -0.28290221      -0.42328637
Te      40.62004615       8.74535978      25.13121885       1.70430813      -1.40588400      -0.59735063       0.38076354       0.00504956       0.31884887
Te      43.06564534      12.13501757      25.50858554       2.04427239       3.04141931      -0.77912709      -0.68553761       0.36391866      -0.20574907
Te      45.29099384       8.53246365      25.25112761       2.78108585       0.35507455       2.28695846       0.06685025       0.24939363       0.03650124
Te      38.67420522      12.48250118      25.42699817       3.52401079      -0.23303979      -3.62018119       0.31999725      -0.33551781      -0.04610419
Te      40.88094414       8.76000788      19.09744252       0.95009195       2.79626169      -5.65421852      -0.09653263       0.01197309      -0.44360002
Te      42.91561392      12.62637662      18.88250226       0.81707110       2.30364183      -0.79756653      -0.01343714      -0.88564544      -0.49384837
Te      45.12393786       8.71122805      18.94284945      -1.51455444      -1.23582846      -0.40562008      -0.55155972       0.72353049       0.67591273
Te      38.15241321      12.31576867      18.62547271       1.43389830       3.06771160       2.13992665       0.82729317       0.22218581       0.24699368
Te      38.37124822       7.18316725      32.08503033      -0.71452382      -0.85164698       0.72485729       0.44512439       0.45530990       0.46798911
Te      41.01053131      10.74393462      32.54786564      -2.60013818       3.17462609       0.65670806      -0.38375825       0.71808657      -0.35860540
Te      43.20733789       7.13891958      32.23004488       0.30032397      -2.02380840      -0.41660022      -0.67290042       0.25706457       0.00075452
Te      36.40035410      10.77442574      32.27841192      -7.17576486      -1.03356083      -0.38530346       0.33079259       0.11179785       0.49322389
Te      38.64137265       9.92337306      28.72613552       2.45678698      -2.16607707      -4.33098157      -0.20657159      -0.58121470       0.80515205
Te      40.77512669      13.51455412      28.94523992      -3.06389345      -5.95399466      -0.98255604      -0.13730965      -0.19926104      -0.05785110
Te      43.08505388       9.49999590      28.74944297       2.44551640       3.22350890       2.13761602      -0.58806920       0.87388513      -0.02453159
Te      36.01309744      13.44713617      29.19712268       3.69211550      -1.07012710       0.05534405       0.93408580       0.32504369      -0.01380546
Sb      38.53236825       9.67509318      16.78290044      -0.15430605       2.42280057       0.08206701       0.46091598       0.17556886      -0.16824317
Sb      40.58567291      13.49450099      16.83021461       1.57553760       1.27518340       1.36581583      -0.40583496      -0.00479859      -0.09218217
Sb      42.93948165      10.02869264      17.01535287       1.85366834       1.54902408      -2.35458451      -0.52991412      -0.33865649       0.11581378
Sb      36.26598056      13.84367827      16.79075526       2.37241766       0.19550590       2.15722310       0.62349140      -0.04634018       0.02080347
Sb      38.59921315       7.41737515      26.86468955      -0.35195743      -0.06748647       1.17584432       0.27503103      -0.06527055       0.07871710
Sb      40.76102373      10.92912964      27.24625513       0.68367037       0.96738314       0.10816902       0.95849301       0.46375344      -1.01013821
Sb      42.93417038       7.36366049      26.63571291      -1.70012283      -0.06900026      -4.29765820       0.35333336       0.39133672      -0.00433387
Sb      27.92256704      10.79646247      26.70333365      -2.59458152      -8.52400340       3.97063999      -0.05845852       0.26397413       0.04997378
Sb      38.73757142       7.26259344      20.30831974       1.01351268       1.59593306       1.69150037       0.39688241      -0.59491592       1.03146957
Sb      40.61431576      11.48037153      20.70076419      -3.26592151       1.51755909      -4.64927928      -0.20078188      -0.54842626      -1.17159053
Sb      42.87266006       7.46367986      21.19231615      -3.03274869      -1.24296354      -4.11771613      -0.52630040       0.33619952      -0.22143392
Sb      36.32283218      10.85520490      20.61906666       3.70379955      -1.09964219      -0.87381331       0.67913048       0.84041676       0.31609281
Sb      40.82363796       8.50509142      30.90233745      -0.42061879       1.18252419       1.00697832       0.29718331      -0.62914374      -0.30576047
Sb      42.91276314      12.00203679      30.53076285      -0.60704787      -2.16743076       0.15701113       0.58594302      -0.08123805       0.80751422
Sb      45.23042147       8.53896076      30.59912636      -3.97840360       0.66752542       3.14530003      -0.77787769       0.55763875       0.20289149
Sb      38.56691159      12.24640822      30.96185604       1.53830799      -0.64442541       3.55085918       0.13457158      -0.17813870      -0.07057357
Cr      32.08471717      11.26676006      24.07451888       2.96670238       1.18700813       2.11502858      -0.40379068      -0.34723262      -0.03284161
Cr      40.72058692      11.37021491      23.17659604       1.09586533      -0.06399051       0.10963395      -0.23873654      -0.15909399       0.77423871
Te      38.79757608      22.06604483      15.39951636       2.80579337       2.45475363       3.24581716      -0.36153122       0.11171458       0.32160013
Te      27.94657856      18.33482139      15.36075197      -0.66942084      -3.59201170      -0.59407418      -0.10151678      -0.31572115       0.19196694
Te      25.92978261      22.37485065      15.52127700      -0.42313547      -3.45098270      -5.32255891      -0.20544464       0.07000070       0.33749831
Te      40.68912916      18.59075686      15.11707096       0.42876122      -1.71422085      -2.72938560       0.33550345      -0.08103328       0.59896933
Te      25.51946583      16.95871776      22.55380684       0.56444995       2.66088213      -2.93598427       1.21250325       0.08986446       0.84628641
Te      28.05943887      20.97086668      22.58181108       0.96336465       0.37708323       1.87964576      -0.29846506       0.06650293       0.18250777
Te      30.34479772      17.09096990      22.81467846      -1.73358075      -6.56118279      -2.84380526      -0.85594086      -0.06613342      -0.15459762
Te      23.80426900      20.89855337      23.09134403      -2.65377153      -0.72540156      -4.22052316      -0.64484147      -0.22006638      -0.72596067
Te      27.93285156      16.08742199      25.10972768      -2.69505978      -0.92323480       1.27615784      -0.05952689       0.34686668       0.42041961
Te      29.82057519      19.51913490      25.30189574      -1.71059366       2.45005636       4.55338689       0.44617604       0.27631030      -0.11927177
Te      32.00831986      16.11320507      25.56398364      -2.97399343      -1.88294340       0.20969949       0.91466476       0.23407140      -0.01488813
Te      26.01921184      19.55495639      25.17928742      -1.46911606      -6.29282476       1.72934661       0.33343999      -0.45563103      -0.06691481
Te      27.86788975      15.98199265      19.08672078      -1.49783159      -1.88024793      -1.70241873       0.07635150      -0.44805730      -0.25241570
Te      30.11108681      19.98472664      19.11094713      -2.24722817       2.59512087      -0.23127706      -0.06071284      -1.17774199      -1.03311643
Te      32.07770464      15.69363133      18.97604015       0.84233211      -0.57196580      -2.85180751       0.21556498       0.29969164      -0.15267884
Te      25.70019026      19.40686037      19.17841898       2.12888493       4.25499789       6.78313169       0.41199496       0.69212526       0.00284277
Te      25.59682004      14.77824762      32.28810283       2.82984432       0.68855498      -2.02919067       1.19078838      -0.71581970       0.23769870
Te      28.04736886      18.08124949      32.18398953       3.42142124      -1.15244145      -1.92924432       0.16498766       0.28997996       0.32024853
Te      29.81038415      14.65747285      32.44485067       1.18077142       3.71130457       0.41823387      -0.28506722       0.01548572      -0.83850617
Te      23.96239777      18.43289297      32.61683422       4.40229136       0.90379331      -3.20756378      -0.12537320       0.14692855      -0.29729277
Te      25.58184426      17.23948038      28.54179197      -4.41229705       0.46904955      -1.20226430       0.10651701      -0.18202932       0.40519656
Te      28.22763854      20.98959547      29.10839960      -1.97258204       1.29940083      -2.74474256      -0.29028521      -0.06659588      -0.48692794
Te      30.08520969      17.17592051      28.95263404      -4.02141628       1.25194713       0.06516396      -0.03971912       0.18278348       0.53114088
Te      24.08122105      21.03313454      28.37661664       0.56655983       0.19229367       4.07652320      -0.49331102      -0.49123437       0.64040866
Sb      25.75091908      17.10142089      17.18384467      -0.48267514       2.10879110      -1.06079694      -0.08127433       0.03073541      -0.08497159
Sb      27.83495852      20.65631236      16.94350431       1.96844120       2.84213774      -5.52739234      -0.27800692       0.68917619       0.36689996
Sb      30.09794037      17.28811250      17.11655786      -1.14840187      -0.83237719      -0.37071613       0.16702540       0.90888167       0.16614352
Sb      23.63406663      21.00525935      16.80295410      -0.28407096       0.66863275       3.31259571      -0.15933947      -0.04526447       0.26862938
Sb      25.61949737      14.84148128      26.59096254      -1.10684209      -1.96616650      -0.75043905      -0.17658270       0.58464072      -0.08307677
Sb      27.95408205      18.53698683      27.26059627      -1.54399790       4.01724393      -1.68800195      -0.52780877      -0.24820991      -0.20275655
Sb      30.03716173      14.86920590      27.10981978      -0.64382397       1.19634833       0.57042871      -0.23966083      -0.51010798      -0.09560099
Sb      32.16588591      18.52970428      27.34708527      -0.85999964      -2.71697635      -1.27773783       0.37300856       0.12830077      -0.24156961
Sb      38.59672958      22.32438352      21.07087767      -3.73233762       0.48290069      -1.93627698      -0.03368650      -0.49890664      -0.36229334
Sb      28.23022635      18.29663719      20.82718128       5.42247103       1.02300859       2.40873001      -0.68760555       0.46820737       0.01329759
Sb      29.98111542      14.73432259      20.95680500      -2.09235939       3.19124048      -0.38245443      -0.19427812      -0.18431178      -0.17656881
Sb      40.97055534      18.69548214      20.70386514       5.24547531      -1.95968114      -2.94919751       0.00580347      -0.45239723      -0.34385672
Sb      27.76548406      15.75635227      30.36775232       0.67443585      -3.80022839      -0.57985958      -0.08355850       0.04149040       0.80171254
Sb      30.24037514      19.80308125      31.10353117       0.29017583      -1.02587631      -0.68826330       0.18653820      -0.29461698       0.10228797
Sb      32.23534489      16.16811055      31.03020252       1.81257529      -1.04397199      -3.83059780      -0.32821225      -0.42380037       0.64216979
Sb      26.15271943      19.86376543      31.11202877      -0.45962236      -0.01151049      -2.76726333      -0.57112934       0.18363127      -0.20968159
Te      29.67302769      22.25195939      15.43599268      -3.47708692      -2.87833872      -3.53160378       0.52169199       0.10080542       0.02710526
Te      36.22152458      18.43437118      15.23282135       2.10257693      -0.52118715       0.74169101       0.22473192       0.27110983       0.55003374
Te      34.33465850      22.38463703      15.39290705      -1.02386278       0.94409173       5.65577667       0.39224469      -0.00774172       0.12762043
Te      32.03456355      18.43306304      15.07592363       5.47907630      -1.15343493      -0.76248448      -0.13723947      -0.11748637       0.76309975
Te      34.31830886      17.26399256      22.78467519      -1.32212200       1.42385777       1.70117689       0.27566248       0.25309481      -0.60226147
Te      36.33454003      20.74913154      22.66832353       1.38151889      -4.58446976       0.43365118       0.67054903      -0.17638278      -0.07786475
Te      38.72236912      17.59593859      22.33444732       0.98170447      -2.51388105       0.27095525      -0.77646431      -0.84621946       0.30355841
Te      32.24000020      20.63866327      22.31070425      -3.86936971       1.94312403      -2.97855517      -0.31082831      -0.18472507       1.13818589
Te      36.41835780      15.77692475      25.09731785       2.15253969      -2.98249318      -1.83278098       0.13131250      -0.26702235       0.61678423
Te      38.63624581      19.61689669      24.90217314      -3.35298648       0.09231451      -2.70435393       0.56988126      -0.17753763       0.77123555
Te      40.36756470      15.78633020      25.37014911       0.03087691      -1.41975366      -0.55065303       0.20907534       0.00032869      -0.53315880
Te      34.22828692      19.91836432      25.55026079       3.59397919       2.71973072       2.32381050      -0.08135801      -1.43779389      -0.79812691
Te      36.27422249      16.30679003      18.71326292       6.82761004       0.32380532       0.98102888       0.47395096      -0.69515219       0.39328716
Te      38.82722326      19.79250871      18.86634435       1.96377706      -0.87732450      -4.55239811      -0.79787530       0.32442283       0.34922369
Te      40.58774771      15.88749233      18.66935278      -1.51158978       1.04502941      -1.47748698      -0.67806915       0.59073212       0.36302458
Te      34.34226202      19.68820309      18.95578199       1.13806678       1.24456047      -1.75608215      -0.24083139      -0.49903883      -0.65664704
Te      34.16791478      14.79590944      32.93861373      -2.93622012       0.24915733      -1.43356630      -0.44285418      -0.41847635      -0.32172075
Te      36.54559860      18.59352592      32.86885564      -0.36857956       1.10028194       2.54508677      -0.19012145       0.03875889      -0.57105335
Te      38.81733478      14.60318495      32.57219697       1.46998662      -1.66310090      -0.36688949      -0.47578407       0.11268325       0.06853967
Te      32.35342308      18.55622246      32.71964519      -4.44969158       0.84038675      -5.11737324       0.09911130       0.16489916      -0.46168886
Te      34.28463133      17.25082231      29.27695136      -0.01267609       0.33990514      -0.01381749       0.34707395       0.31014025      -0.84543905
Te      36.42696571      21.14042582      28.83586065       0.57379642      -1.02405548       1.26539754       0.33454778      -0.42286511       0.29347077
Te      38.51929435      17.53922820      28.87160592       2.01854500       3.99182896      -0.50642855       0.05831534      -1.15245540       0.06507734
Te      32.23586562      21.30000066      29.01601337      -1.52528571       4.04355265      -0.32793288       0.06224711      -1.02215291      -0.40110828
Sb      34.11211268      17.09524044      16.80945256      -1.99953971       2.05989411      -2.25451992      -0.24186202       1.48945391       0.52013449
Sb      36.41271500      20.96789646      17.06564160      -0.15847452      -2.61585881      -1.62771122       0.15620658      -0.22007155      -0.35765675
Sb      38.63085479      17.45340985      16.82688664      -2.46966352       1.24773480       1.02699176      -0.55389070       0.49689606       0.33518454
Sb      32.09815082      21.05755206      16.68647418       1.83613387       0.94264611      -4.09108102      -0.15153104      -0.60169268      -0.41196601
Sb      34.13313307      14.77704720      27.19103060      -0.52312029       0.29249136      -1.86963639       0.30122361       0.24583998      -0.26417590
Sb      36.44728632      18.18858200      26.79845606      -2.86112740       4.17390048      -1.06536066      -0.41979331       0.19325795       0.07526672
Sb      38.61922592      14.77704760      27.29206283       2.55331374       1.20252108       1.37191041      -0.90570890       0.08979139       0.24216199
Sb      23.39647694      18.58511465      26.78089760       0.59172345       0.37703813       1.86983772       0.07391116      -0.40375113      -0.16912680
Sb      34.37765068      14.94151701      20.86951391      -1.28734211      -2.48656836       0.28183814       0.13135431      -0.37183231       0.19481498
Sb      36.48389019      18.49879877      20.72799293      -3.33190234      -1.13198453      -0.62451889      -0.10229633       0.22002835       0.19658148
Sb      38.19717074      14.85361804      20.94054774      -1.27406575       2.43449013       1.80427820       0.44013345      -0.00237680      -0.34948722
Sb      31.96620711      18.21715274      20.78067062       0.04162975       1.03150910       1.91636688       0.69978072       0.30162640      -0.52149482
Sb      36.25628092      15.79089445      31.43202327       5.95977139       1.39754837       0.02266832       0.49494149       0.34474425      -0.50960242
Sb      38.45308492      19.73558602      30.99767528       1.45864829      -2.63622836      -1.04969736       0.29667636      -0.42032095      -0.05546038
Sb      40.85567199      15.79551419      30.99441086       0.37927733       1.51810596      -3.47754099       0.13669665       0.14531689       0.20376311
Sb      34.66386236      20.10435500      31.06809998      -0.96485807      -5.34356892      -1.96064393      -0.58553774      -0.54929865       0.24126588
Cr      27.92918667      18.39664207      23.33235709       0.57830800      -3.52585595       1.69876039       0.01613785      -0.44294779       0.39099563
Cr      36.53225074      18.24847235      24.24205069      -4.15960065      -1.82916171       1.52330201      -0.39584038       0.58734869      -0.45931891
Te      34.09898415      29.68350227      15.34535752      -2.79331002      -2.41734286       2.69619539       0.89783440       0.49733458      -0.62003452
Te      23.89199224      25.87590480      15.56087404       2.76250653      -3.43520262      -1.35718793      -0.22527068       0.12874031       0.04559576
Te      21.58475289      29.81951411      15.27696165       6.81906016      -0.30781516       5.57855746      -0.24642284      -0.10471599       0.30135609
Te      36.30305209      25.91579565      15.59953158      -4.65295379       1.59855740       0.20420211       0.59660494      -0.79397108      -0.46904179
Te      21.51637817      24.87876055      22.44839573       2.18077747       3.29677256       1.24766891       0.02118191      -0.26750545       0.07936069
Te      23.57748499      28.25277464      22.47773143      -2.00860100       2.49330127      -1.88518892      -0.39185345       0.55908241       0.28005914
Te      25.82044893      24.72300178      22.39901089      -1.63771781       1.89956944      -1.16750449       1.10561263      -0.82478285       0.19029271
Te      19.35454646      28.42930892      22.52391132      -2.77514560       0.16898635      -1.48952902      -0.22898138      -0.08036216      -0.42842946
Te      23.99814288      23.59368590      25.62110794       1.38687081       3.33532236      -2.24550903      -0.13531742       0.69837239      -0.18602633
Te      25.29059350      26.78831097      25.59156981       1.47390246       0.13740974       3.63980465       0.39210229       0.30796919       0.50145291
Te      28.00391303      23.59600905      24.93127008      -0.94943140       1.78428680      -1.83285383       0.44949873      -0.41465769      -0.10076751
Te      22.10238961      26.52583150      25.70773662       1.64831632      -1.96946782      -1.57938289      -0.16504131       0.26923817       0.18873024
Te      23.55902417      23.40960218      19.20253428      -2.58836491       2.56092463       3.98382919      -0.30479756      -0.84057653      -0.41395973
Te      25.68654104      27.46428288      18.90640981       1.90858653       3.30496149      -1.58969586       0.54490681      -0.69568169       0.06113243
Te      27.81005941      23.32739469      19.15173986      -0.40161773       1.30014325       0.79496501       0.22446882      -0.86027844       0.00474884
Te      21.33373908      27.31537288      19.00186356       4.34493110      -2.29047204      -2.33138452       0.15422664      -0.05053025      -0.30726825
Te      21.55689528      21.96904740      32.08167156      -0.15249640       2.66883660       2.31126120       0.82500605       0.59557288       0.80893308
Te      23.39393377      25.53645264      32.05290022       2.03364246      -4.58744557       1.61464036      -0.38654760       0.35644809       0.58515627
Te      25.38473083      22.64366283      32.37583245       3.64578915      -0.13982380       0.86000185       0.04676163      -0.38485911      -0.60368865
Te      19.34584861      25.55813888      32.15791698      -0.40740565       0.51156606       3.09982445       0.38011776       0.02944539      -0.19071845
Te      20.77762170      24.44919642      28.76231308      -5.20299851      -1.03963232       2.81220602       0.86495526       0.00994271      -0.17532905
Te      23.91265160      28.40997963      28.81510784       1.10959334      -2.72654623       1.21111034      -0.68775341       0.22409922      -0.33128070
Te      26.47198941      24.46850965      28.64833940       2.15220677      -0.31667459       6.88318017      -0.97648097       0.17686571      -0.01226991
Te      19.17070340      28.06126627      28.48112645      -2.06874208       1.00948434      -0.78212710       0.03897916       0.49417140       0.29788184
Sb      21.50303095      24.94179297      16.89855287       4.11800236       0.87537784      -2.24307093      -0.05481822      -0.29015408       0.35718362
Sb      23.61752760      28.61220414      17.16942557      -0.31462699       0.07522635       0.18535642      -1.42500443      -1.00567842       0.28363439
Sb      25.69013674      24.65854697      17.51225377      -0.81578081      -1.04549593       2.54536052       0.30435354      -0.09039111      -0.60287262
Sb      19.41192167      28.44927307      16.67229408       2.35157110       1.68863417      -0.56517730       0.31735873      -0.09019494       0.12590163
Sb      21.46065657      22.20801049      26.56705547      -0.29143983       1.05587209      -0.83641381       0.39687586      -0.23278341       0.57270221
Sb      23.81366147      25.65641143      28.14066762       1.05176249       0.56398525      -3.24355666      -0.71990165      -1.21735427      -1.41753715
Sb      26.35761456      22.05080809      26.80504583      -0.85399035      -0.49269078       2.60273214      -0.12285211       0.02001578      -0.16152441
Sb      27.92638595      25.91894967      26.56670538       1.38197368       3.35806563      -1.82013633       0.55001149       0.26429547      -0.30679343
Sb      34.09619569      29.87621418      21.08225046      -0.34878592      -2.42075364       2.75426642       0.42939450      -0.66611394      -0.43532433
Sb      23.80229507      25.82200414      20.77368246      -2.91435927      -3.54593023       0.17211485      -0.96665132       0.72125605      -0.04063137
Sb      25.60712266      21.85042124      21.17562092       1.24142438       0.85425355       1.43009178       0.67235220       0.42111686      -0.52010841
Sb      36.12126414      25.96474274      20.95702531       4.02992607       0.83949239       0.30446375       0.25653263      -0.16039073      -0.65236746
Sb      23.42365219      23.35525628      30.15001452      -2.33528501      -0.32795335       1.98267653       0.04354148       0.15079838       0.04741831
Sb      25.54154853      26.89190890      30.83229579       2.65315958      -3.37719712      -5.48016837       0.53011138      -0.12597740      -0.26698715
Sb      27.71344203      23.66968506      30.98633600       0.60383794       1.73055405      -3.07099177       0.67656506      -0.53108845       1.07831679
Sb      21.41855674      27.18388160      30.41499044      -3.47150412      -2.73196768       1.03850562      -0.29150838      -0.67168369       0.44055698
Te      25.37825339      29.58235984      15.42888525       0.28293023       1.34075340      -2.86264198       1.36985488       0.73256578      -1.25152030
Te      32.09016157      25.87253325      15.66831073       3.12319348       3.12272656      -2.13489500       0.25946495      -0.14075969       0.10003118
Te      30.02184028      29.55973196      15.10370343       0.96165126      -3.27713251       3.40691037      -0.28859117       0.42450018       0.23276149
Te      27.79579816      25.73116340      15.67524485      -1.80643906       0.01631610       3.88353321      -0.39714916       0.03852770      -0.27496464
Te      30.18931737      24.86617399      22.21181165       0.96394190      -2.97213014       1.82135268       0.16121373      -0.23985779       0.44058037
Te      31.88122720      28.16909688      22.26742721      -1.60395077       5.96840946      -3.00489779       1.51478674      -0.61592298       0.57349955
Te      34.12117255      24.29703268      22.40663505       0.96245155      -3.43761090       1.38636600      -0.29531926       1.50644720      -0.05907139
Te      27.57864397      28.05445864      22.32475688       2.60854155       3.80699133      -0.16408208       0.24977806       0.16515409       0.55798702
Te      32.40508667      23.33330565      25.00273029      -1.79276588      -3.36398298       2.38511789      -0.50300691      -0.64238219       0.20587005
Te      34.28615796      27.35883651      25.07812032       0.28305677      -1.21580495       2.84851948      -0.05614739      -0.26648602      -0.06891642
Te      36.21711014      23.39280052      25.32565355       3.89623493      -0.51840795      -2.08033288       0.75162648       0.43686103      -0.82491678
Te      30.13830631      26.99408913      24.79129775       0.02469712      -0.87956023       5.98149129      -0.25154649       0.31824269       0.50226774
Te      32.26175104      23.11812191      18.72053433       0.97858445       2.32658148       0.03848676      -0.38842868       0.58275608       1.16263775
Te      34.31180721      27.42930448      18.81509305      -0.71908754      -0.35564962      -0.77056852       0.03108820      -0.16029069       0.34070868
Te      36.41188973      23.39474113      19.24259824      -1.55324096      -1.18727631      -0.68687794       0.32093794      -0.32987162      -0.56099579
Te      29.84045871      27.37357775      18.67792339      -2.17696634       2.09822912       0.16707396       0.58443884      -0.60115662       0.43461615
Te      30.12766698      22.08613656      32.88814171       0.60400325       2.59846131      -1.76682901      -0.43868252      -0.13948321      -0.15224601
Te      32.25511730      26.01011116      31.92503582      -3.13764803       0.03494133       2.91433459      -0.30338089       0.33058295       0.91552752
Te      34.23919895      22.60401882      32.54528483      -4.38716209      -4.61488510      -6.20352265       0.46325861      -0.06045920      -0.39855015
Te      27.81920333      26.17520970      32.57772892      -3.32926146       0.48258330      -2.15040584       0.41991677      -0.25552320      -0.54174410
Te      29.88337789      24.58806434      28.65050504      -1.82478953      -0.27754400       0.40477653       0.36987063       0.23191445       0.06104467
Te      32.41463976      28.45745551      28.38860585       1.69483045      -0.84583994      -2.27842098      -0.66170493      -0.52509553       0.55099989
Te      34.36891602      24.78969443      28.67180744       3.57700420       0.32530504       1.60306177      -0.51070769      -0.10026991       0.06265080
Te      27.88955430      28.36736074      28.50151301       3.08787516       2.14921072       1.41838936      -0.15656057       0.11175941       0.63390988
Sb      29.93283483      24.68815357      17.21880618       1.17665358      -0.34468527       1.22818523       0.25094894      -0.49726914      -0.08818064
Sb      32.08250354      28.59678733      16.80228060      -0.74651150      -0.15014216      -3.98612475      -0.31795606      -0.97238565       0.83518758
Sb      34.46715265      24.60345192      17.33164083      -1.14025223      -1.74519754      -0.22863251      -0.67844045       0.64779063      -0.36231879
Sb      27.77769062      28.38597119      16.84470853       1.02434570       1.28603554       2.08884708      -0.26881821       0.46970401      -0.34419432
Sb      30.17616682      22.19524304      26.90704200       5.61600512       4.81601180       2.32506590      -0.15893974       0.14148431      -0.31329024
Sb      32.00478255      25.66125659      26.62285544       0.08756555      -2.30006398      -4.56039933       0.53021187       0.56886116       0.30101128
Sb      34.41352229      22.22205670      27.00115294       1.49928083      -2.57642902      -0.77176602      -0.71015079       0.42374417       1.07597604
Sb      19.31929886      25.86071493      26.45684639      -0.91309516      -0.00259757      -0.45455709       0.32319236      -0.55504054      -0.17009909
Sb      30.24539421      22.10767752      20.89042407      -1.36506103      -0.29430463       1.14762652      -0.36443665       0.84867970       0.12584416
Sb      32.13530948      25.85384123      20.33871719       3.57874520       1.57237267       0.93335270       0.39429613      -0.07527343      -0.26109575
Sb      34.32693801      21.77383800      20.84689814      -6.13256733       1.42029634       2.84045069      -0.16972543       0.41140261      -0.50873706
Sb      27.98635394      25.83266909      20.47449091       0.18578732      -0.10027569      -4.01982946      -0.44801293       0.32929784       0.08089735
Sb      31.85600653      23.35658824      31.08655133       1.28557788       3.47764048       1.91854671       0.10901435      -0.10078879      -0.36616823
Sb      34.35048595      27.22671186      30.54161908      -2.76090110       0.48541460      -4.03552595       1.10868357       0.58949904      -0.27234958
Sb      36.40005717      23.59217944      30.50497575       0.15246766       0.12212701       1.21714654       0.20573355       0.20111293       0.43770479
Sb      29.92569588      27.09283944      30.66568850       2.07782051       0.41600912      -1.44298565      -0.26057281       0.12836445      -0.08985404
Cr      23.88012403      25.78840042      23.60900766       0.99183647      -2.35883243       0.68642024      -0.91008717      -0.04704051       0.43216279
Cr      32.50513624      25.76514833      23.95551286       0.35052386       0.38837906       2.31564634      -0.55441202       0.26607359       0.28282448
Te      29.69332150      37.18041761      15.29835074       1.41577176       1.96007425       0.96076375       0.35942414      -1.32405080      -0.39728503
Te      19.14197501      33.49736188      15.07146583       2.51205175       1.00761818       3.24780984       0.45982419      -0.13022960       0.48854485
Te      17.26685726      37.18241950      15.42457274      -2.52196895      -1.73161679       5.62192775      -0.05754096      -0.11205953      -1.50711228
Te      32.17529122      33.22097751      15.41489253       0.07829835      -1.53725889       0.46019083      -0.31860191      -0.04669089      -0.19200241
Te      17.08945592      32.10703935      22.72045972      -0.90442116      -2.69153932       3.59022368       0.37652673       0.44101466      -0.72191991
Te      19.19382949      35.82108218      22.54847303      -2.34547294      -0.97927793      -2.06660617      -0.30265520      -0.86045674      -0.57476087
Te      20.86222624      32.11687630      22.53243972       1.51077951      -0.38859650      -1.10397654       0.91503108       0.01451613      -0.21758484
Te      14.88411097      35.86774124      22.21486433      -2.14218170      -1.15258829       4.76603084       0.15998097      -0.70680071       1.10004658
Te      19.35731749      30.66386153      25.02721582      -1.97862647       3.28564594       1.29737621      -0.23005314      -0.36374695       0.40691495
Te      21.85786917      34.41479444      25.03413960      -1.30575658       3.71427532       4.65381390      -0.80908468      -0.30748849       0.20208980
Te      23.39781204      30.84480732      25.03271935      -0.41195128       3.43595571       0.38256074       0.29017180      -0.52175082       0.27217682
Te      16.87785396      34.54696770      25.14304821       2.46941009      -0.94958924       2.90639303       0.62011515       0.21068139      -0.56369861
Te      19.33180925      30.88938250      18.69727890      -3.07888315      -0.69079618       0.84906932      -0.44468828      -0.13577460       0.33671284
Te      21.40100820      34.58433516      18.91017024       1.79292254      -4.09220379       2.24112393       0.20436409      -0.10184791      -0.19146726
Te      23.52423229      30.92314346      18.87598304       4.40534289      -1.45725906      -5.89011706       0.13925038       0.74426461       0.20450057
Te      17.21064935      34.61709947      18.73356621      -1.03083112       2.13202231       0.04887471      -0.26465909       0.05607746      -0.14031083
Te      17.66548824      29.34785105      32.13332907      -0.28032189      -2.27322173       3.36389734      -0.28629231      -0.05226154       0.11447306
Te      19.51125189      33.15705911      32.19952642       4.49368229       0.85886064       4.32080460       0.02994615       0.25434386      -0.48791157
Te      21.60841966      29.52101775      32.27505088      -4.34919446      -1.77144136       0.15581347      -0.01174572      -0.16272508      -0.41314292
Te      15.07748744      33.42606895      32.38731906      -2.44755508      -3.20870647      -0.41835649      -0.03253882      -0.03195940      -0.44252899
Te      17.26485054      32.13177532      28.77704746      -4.07418488       1.62141331       0.60183909      -0.01768283      -0.65667763      -0.48571213
Te      19.24239858      35.78508947      28.49609280      -2.73761763       2.17963577      -3.60901123       0.18703392       0.08081417       0.13781743
Te      21.63838991      31.89462441      28.57131158       1.91872267      -0.54471203       0.72340652       0.41391010       0.27831655      -0.11281108
Te      15.05538771      35.71003640      28.62998708       2.67042938      -1.97536456      -0.67353881      -0.42394598      -0.08822446       0.63736667
Sb      17.31963206      31.98716151      16.68586861      -1.95934237      -2.98892519       0.37032998      -0.62225781       0.63438385      -0.21083687
Sb      19.30990145      35.90278294      16.80063766       3.05508439      -2.33407684       0.20307737       0.66327089      -0.42768520       0.28777343
Sb      21.39942905      32.25423135      17.03730410      -2.69224682       3.06086629      -6.11840050       0.17028270      -0.22352912      -0.77613882
Sb      15.03690754      36.09848237      16.71009271       4.81980156      -2.21741185      -3.24698534       0.27963596      -1.31085668       1.11474905
Sb      17.04360238      29.24609406      26.40423996       0.22961892      -1.86918009       1.26694093       0.49765690       0.68148557       0.57564553
Sb      19.36219861      33.33170194      26.63587396      -0.28722442       2.30747321      -2.32605882       0.05146853      -0.25162246       0.99879611
Sb      21.42704256      29.33661014      27.05883462      -2.54172655      -0.90706133      -1.41009403       0.29894507       0.27823924      -0.76278308
Sb      24.03506697      33.02828746      26.70045231      -3.20345049       3.33399197       1.31749583      -1.05199684       0.51613108       0.30794858
Sb      51.31036945       0.06364067      20.90218025       2.92002572      -0.28752094      -2.25604953       0.24321737      -0.24695976       0.20966363
Sb      19.18965593      33.43858065      20.57213989      -1.30168295       0.75509477      -1.71454993      -0.49779651       0.23850104       0.33035707
Sb      21.27078180      29.86669837      20.59489936      -0.63764606      -0.08416205      -1.86448100       0.05343013      -0.99338165       0.47287090
Sb      32.19547614      33.36014989      21.06927703      -1.56167162      -1.76929381      -1.34482973      -0.75267551       0.43141371      -0.19731819
Sb      19.67969165      30.81736486      30.50972178      -0.66400219      -1.19310314      -1.44020884      -0.61952792      -0.12585366       0.19518763
Sb      21.86997836      34.40761816      30.48583400       4.44579040       0.68307278      -2.64648945      -0.48973653      -0.07569182       0.19902922
Sb      23.85299153      30.58531033      30.62102959      -3.06955647       0.31339683       3.32468804      -0.07173002       1.23191845       0.70073421
Sb      17.26729093      34.46142991      30.55804549       1.24251821       0.84729271      -1.16031071       0.02629806      -0.14017713       0.46442006
Te      21.44235792      37.34279821      15.04460990      -0.89166450      -2.53603137      -1.34366349      -0.16918744      -0.27060283       0.68656023
Te      27.95276339      33.13310023      15.04288262       4.08649130      -1.17142994      -2.83677396      -0.13006757       0.32982892       0.73584181
Te      25.65612779      37.48530768      15.20169499       3.01285107       3.31334794      -0.74674495      -0.15914466      -1.31506397       0.22443478
Te      23.52810763      33.24689339      15.12002884      -4.40034077       1.77237674      -5.35442413       0.17826614       0.13615575       0.35854506
Te      25.75454528      32.21876017      22.76597425       0.11397610      -1.05235775      -1.70534559       0.14328169      -0.28574359      -0.66963775
Te      27.89227448      35.54180406      22.56313898      -2.64015567      -0.74456618       0.44056826      -0.16415312       0.01221217      -0.51788257
Te      29.66359684      31.93424990      22.56497614      -1.16695887       1.50302119      -0.91216158       0.98456689       0.41098238      -1.05872655
Te      23.26086269      35.87008815      22.62773815      -3.07098856       1.17983896       0.33775757       0.05726886       0.03809640      -0.56945604
Te      28.06637685      30.49990044      24.72711355       0.09373270       4.23133984       2.52357599      -0.92072006      -0.07647096       1.05134198
Te      30.34586514      34.44606758      24.99209685       4.88386048      -0.38316538      -0.57647698      -0.11120977       0.22763522      -0.02520306
Te      32.01938214      30.85919989      25.22213013      -0.53193686      -1.84828499       2.92389152       0.25163169       0.39317385      -0.02790328
Te      25.79257238      34.67378697      25.08097783       1.77008087       3.13001144       1.59883619      -0.07560226       0.21149204      -0.00934621
Te      27.94100800      30.70170866      18.96508241      -3.29112727      -1.50905673      -0.67557575      -0.51560242       0.52950639      -0.44855073
Te      29.77838107      34.52931357      18.93501711      -0.96597137       1.89721752       6.91281641       0.07224533      -0.21926152       0.22780555
Te      31.97535312      30.92721356      18.93410364       0.33683289      -8.13518894      -1.38427281       0.16535187      -0.13881428       0.37077950
Te      25.38631005      34.65579479      18.82211877       0.45669846      -0.12782307      -3.17766233       0.00996095      -0.25565730       0.01913366
Te      26.05407307      29.39854008      32.09865884      -1.59294544      -1.52150340      -1.22660481      -0.75789836       0.12515971       0.78383667
Te      27.94318779      33.81035316      32.19989845       3.10007748      -3.11292275      -3.02544387       0.51384212      -0.65791719       0.08498390
Te      30.31099080      29.47003886      32.35699944      -3.38875717      -1.31642752      -3.15960579      -0.55259471      -0.21409082      -0.07547150
Te      23.99053604      33.33752870      32.13036204       1.28771692      -0.89059349      -4.99456309      -0.52731432      -0.45380090       0.01683747
Te      25.88175370      32.05627879      28.71835877      -1.19052841       0.82913025      -2.81758230       0.49110017      -0.18103382      -0.13415116
Te      28.05610329      36.17159210      28.57387780       0.49614867      -0.02062935       3.71685712      -0.10427038      -0.41663464      -0.10324343
Te      29.90830600      32.04881981      28.58300802       0.60490330       5.83257027      -2.27371333       0.22072796       0.10391529      -0.31735443
Te      23.63691160      35.97440341      28.62717595       2.40538621      -3.42322387      -0.03080650      -0.11357155      -0.54563673      -0.39438654
Sb      25.75264687      32.16852452      16.73237453       1.76400903       2.71708839      -3.74458908      -0.19920085      -0.01503364       0.18410453
Sb      27.86892883      35.60940308      16.93850004       0.57911822       1.19740672       0.73323578      -0.77912455       0.30278084      -0.43989500
Sb      29.99070119      31.93807859      16.98110505       0.49480931      -0.20814612       0.12189125      -0.43341399       0.00927602      -0.34192917
Sb      23.44461574      35.82380352      16.55014262      -2.29518552      -2.22539251       2.65320038       0.49429246       0.55026854      -0.19681028
Sb      25.67727354      29.62131080      26.69467877       0.38665947      -0.13146650      -1.77473212       0.46233217       0.11612427      -0.77403548
Sb      27.89745388      33.52336638      26.73267856      -0.00895807      -1.99573189      -2.25802586       0.40479042      -0.39362676       0.08264648
Sb      29.99432331      29.45430673      26.72281490       0.08884730       1.86495745       1.97850643       0.19878795       0.25539505       0.17545867
Sb      15.12587036      33.09500178      26.87192081       3.20566353       2.18628849      -2.24668339      -0.18354496       1.00018716       1.59479228
Sb      25.59970793      29.57703391      20.96639920       1.60482862      -4.25885562       1.13528669       0.30652313       0.35721534      -0.02744102
Sb      27.45577814      33.46472359      20.40103557       0.24724053      -1.19534667      -5.50352603       0.17890905      -0.54862444       0.44044845
Sb      29.80171599      29.32796167      20.86312583      -4.08298129      -2.29085115      -4.40225818      -1.05980998       0.76458457      -0.20033538
Sb      23.38304457      33.22817545      21.37125525      -1.20091479       0.05403723       1.67126158      -0.10792422       0.44259588      -0.40483317
Sb      28.10822766      30.70635997      30.76042221      -0.01912710      -0.30103735       1.05737839       0.42241685       0.60904463      -0.46485871
Sb      30.12249735      34.84544410      30.45668980       2.09249005       0.10395797       0.68807725      -0.46092641      -0.75342904       0.00777691
Sb      31.99551561      30.71739380      30.48802262      -0.05086611      -0.03184127       0.48296403       0.53212567       0.55511824       0.06849468
Sb      25.89875084      34.68101975      30.54595749      -1.83012337       3.46634492      -1.15193608      -0.11574354       0.64812239      -0.43511875
Cr      19.23330892      33.32021881      24.19617322      -1.73397147      -0.75937790      -0.11945106      -0.40082391       0.25781342      -0.54045557
Cr      28.10314730      33.14184490      24.13249510       1.38075150      -2.66157250       1.81710466      -0.30402626       0.40889618       0.88698623
Te      64.33911823       7.09276852      15.12964131       0.21240958      -0.15728288      -0.29458067      -0.09172876       0.40396393       0.47266961
Te      53.40613083       3.42617684      15.56406568      -3.07044140       0.83770127       1.24634254      -0.20536633       0.02750139      -0.63187176
Te      51.46211865       7.45337054      14.93639886      -1.09980596       1.90408440       2.88396037      -0.28425714       0.37588836       0.48078945
Te      66.65782169       3.82849929      15.22710209       4.19896175      -3.92025629       3.06410164      -0.15250948      -0.99458773      -0.66681556
Te      51.45114845       2.63484927      22.47642162      -6.51252604       1.70503276      -4.83877211      -0.60076987      -0.93686433       0.21042574
Te      53.53492349       6.07205730      22.39334105       0.43895064       3.83735497      -0.11742332      -0.36892420       0.28532328      -0.15352518
Te      55.79294075       2.29114600      22.63748896       4.09639148      -5.51133044      -5.36916713       0.12208984       0.28165812      -0.73572965
Te      49.12891871       5.97637475      22.45498117       0.64349166      -4.73939516       1.30514191       0.39614404       0.23329967      -0.50830997
Te      53.52618875       1.67004766      25.30330699       2.74957171       1.14210258      -0.00365820       0.54902989       0.51287787      -0.51994479
Te      55.45878426       5.12597952      25.01704241       1.13392114       0.76525570      -1.06893245      -0.27931966      -0.52271623       0.40264836
Te      57.63832511       1.47833224      25.16161967      -1.72712060      -2.08511096      -3.19569694       0.59959752      -0.38392149       0.40133700
Te      51.59446190       4.82372348      25.35631842      -2.00438966      -0.71052557      -1.36622822      -0.29909860       0.14193084       0.12361586
Te      53.38446414       1.05395530      18.91111202      -0.37568268      -2.27852536      -0.13332897       0.51764172      -0.03104319       0.29400260
Te      55.57863491       4.95740885      18.84511086      -2.59350829       1.26912258       5.34182536       0.36466989      -0.02737041      -0.22141688
Te      58.06709165       1.47105871      18.84177149       0.31142279       0.10674118       4.69272878      -0.37828824      -0.71147437       0.24024588
Te      51.49789391       4.89157033      18.77197310       0.93292443      -0.15016396       1.77980500      -0.52502440       0.49569775       0.01240371
Te      51.47886233       0.09298957      32.16046356      -0.78197357      -4.95629154      -4.26936162       0.68334232       0.03947932       0.46935247
Te      53.99705947       3.63182224      32.25514187       2.73209153      -4.74830187       0.98751457      -0.67554139       0.07294550       0.52083986
Te      55.88327835       0.34054365      32.11869139       0.75023172      -3.05613172       0.76543539      -0.35714119      -0.53939270       0.40909800
Te      49.24673262       3.65326726      32.56788205      -3.75309957      -1.37320981       0.11984119       0.32351683      -0.00788308      -0.00777017
Te      51.24894996       2.41406442      28.99348296       1.04667806       0.07251255      -3.08656443       0.51539849       0.27086105      -0.37819561
Te      53.81187749       6.47109936      28.91143288       0.19376698      -0.97360263       2.99379793       0.20042723      -0.68304986       0.17686573
Te      55.84867990       2.80033674      28.86144407      -1.95448041       3.60009680      -1.50637221      -0.30294096      -0.23196713      -0.59945127
Te      49.44785005       5.92646792      28.76895495      -1.41904053      -1.24860850       0.66148496      -0.19530411       0.03135264       0.66032026
Sb      51.35130296       2.12034600      17.12013080      -0.47815977      -5.96193276       0.52550476      -0.78604512       1.26693322       0.19272862
Sb      53.37100785       6.17695394      16.59472380       2.95140313      -3.64911616       3.65676407       0.26223119       0.17967859       0.15901917
Sb      55.62240645       2.23933562      16.83203115       0.42014017      -1.49310435      -1.45078606       0.41177951       0.12324084       0.46684445
Sb      49.22478736       6.12522870      16.62519274      -2.10246914      -1.81989964      -0.43157295       0.46751351      -0.01015618      -0.46224147
Sb      51.36624034       0.16761858      26.20526645       0.36601915      -2.02821175      -3.86693082      -0.34754337      -0.76197689       0.84470780
Sb      53.64765995       4.00384299      27.26252270       0.34490811       1.29847988      -0.73540383      -0.45051215       0.15208904      -0.38301890
Sb      55.61652031       0.33951027      26.88232056       2.25325846      -1.84390507       2.91288765       0.21594180      -0.54735098       0.00839495
Sb      57.74215287       3.96844394      26.69873469      -0.69305792       0.45260633       2.79449391      -0.24724153       0.03625763      -0.14004802
Sb      64.56926096       7.41369043      20.86402859       0.52181922      -2.53060133       3.68808180      -0.24983911      -0.54403377      -0.29026817
Sb      53.53637663       3.70791288      20.49259857      -4.10786791      -4.50782122      -0.71607342       0.32444067      -0.25800819       0.56423761
Sb      55.79025263       0.13462080      20.65877186       1.54389897      -3.54890176      -1.88490675      -0.09137902      -0.39003916       0.02900444
Sb      66.62869433       3.55762037      20.64677530       0.89168924      -2.23293523       5.85536245      -0.39727565       0.29192549       0.01947887
Sb      53.66534082       1.33613719      30.56331625       1.15076179       2.82323741       3.32222029      -0.27809438      -0.27280937      -0.18780468
Sb      55.98861152       5.03058228      30.86802275       4.07539579       2.39677449      -0.24094304       0.31484374       1.07670168       0.05292384
Sb      57.78186259       1.80413409      30.66667191       2.05309603       4.36275669       0.96537175       1.25809987      -0.65921305       0.17660990
Sb      51.54513894       4.85366295      31.06551386      -0.00530251      -1.86287680      -1.32608233      -0.05681381       0.37030613      -0.22783364
Te      55.66474388       7.31611809      14.99153813       4.13860008       0.71111819       0.56069284      -0.45995131       0.20062467      -0.02226361
Te      62.14509055       3.70699136      15.02052783      -3.08704895      -3.86916272      -0.61449421       0.04535947       0.09707511       0.74380754
Te      60.07300307       7.19387280      15.22368483       2.04368712      -2.82758589      -3.81942957      -0.90030948       0.89989662      -0.51862055
Te      57.79631604       3.75807889      15.44732877      -0.97292281       0.34880316      -0.40638525      -0.21446360      -0.06449662      -0.23625608
Te      59.85225330       2.59048865      22.64750351      -7.72472715       1.09320590       7.52432317      -0.02966392      -0.52962845      -0.58362608
Te      62.26558494       6.42168656      22.65742069       1.56199585       1.36258032      -2.91619192      -0.00058199      -0.81967059      -0.34538883
Te      64.43829281       2.36500242      22.23382392       1.93015853       3.76898722       4.86583102      -0.25661787       0.28517783       0.60182977
Te      57.51803967       6.24503355      22.63109101       0.39331392       0.67440226       0.56899283       0.12921413      -0.29310469      -0.62804902
Te      62.10634875       1.42892360      25.18746007      -1.70742496      -0.64951231       0.39876727      -0.18936210      -0.88023044      -0.94118793
Te      64.24293373       4.81919253      24.92122994       3.52167546       0.60963765      -3.96338386       0.01172995      -0.11898537       0.42080431
Te      66.28054033       1.04720605      24.98675112       2.56097117       5.95285462       1.30561210       0.64609294       0.00040322       0.33766653
Te      59.83974481       4.96346869      24.90742874       5.00358092      -0.64947482       2.07057870       0.52569260       0.03818039       0.11877472
Te      62.19831787       1.43023538      18.79602183      -3.43800522       0.49505287       0.67054229      -0.46042675      -0.10138658      -0.22767829
Te      64.46417312       4.99031211      18.92321274      -1.51426154       0.35087388      -5.57409539      -0.08038012      -0.26176608       0.01248578
Te      66.49591692       1.26460096      18.53217022       1.36347127      -0.62791131      -3.44323334      -0.46245112      -0.12600517       1.13392914
Te      59.81006082       5.00245490      18.85769986       3.00126154       0.78563429      -1.42504859       0.17077217      -0.32530545       0.12194115
Te      60.23559323      -0.46007948      32.43757247      -1.34759608       1.42382109       1.15387350       0.31137090       0.86215669      -0.65040067
Te      62.35200788       3.55224701      31.88388513       1.83217167       3.24694447      -2.83761435      -0.47310823      -0.10658204       0.92450926
Te      64.01846648      -0.27255514      32.21461794      -0.81890540       0.25389766       0.73006854       0.24640826       0.53161651      -0.44088098
Te      58.57936597       3.70729401      32.64786660      -3.59538950       0.34626720      -1.82852151      -0.52413010       0.19095887      -0.35830688
Te      59.92412204       2.76503398      28.39307215       2.06062604       1.18376857       4.20902105      -0.23131946      -0.79846728       0.70176104
Te      61.97320787       6.16468550      28.38873627       2.21676246      -0.64928486       1.02630151       0.71403755      -0.57735818       1.59023303
Te      64.54240973       2.42620760      28.36262666      -0.27033768       0.73703041      -2.33365065      -0.90143290      -0.18211928       0.47273274
Te      57.92328447       6.48852372      28.70774618      -1.31687668       0.95661967      -2.03906566      -0.56789735      -0.29691535       0.37868543
Sb      59.97015526       2.24214816      16.59873688      -3.18457212      -2.12624639       1.19968753       0.34397562       0.64559341       0.03367672
Sb      62.07680424       6.33177597      16.81732841      -1.50782478      -1.18969182       2.11193427       1.00493860      -1.25606969       0.52061832
Sb      64.36749743       2.55252245      16.73763497       1.67944748       1.29837484       0.11585857      -0.41649881       0.17402062      -0.20435996
Sb      57.55936113       6.33787800      16.80191016       0.30313209       1.04729465      -1.85919122       0.68856206      -0.34095136       0.45601045
Sb      59.84595564       0.02444896      26.82682170      -1.04218689       2.75708702      -3.11796051       0.05715493       0.50317907      -0.15985093
Sb      62.03884436       3.72365904      26.68717639       3.24831216      -0.80650595      -2.31510496       0.85627619       0.45750786      -0.02681544
Sb      64.20207108      -0.12690555      26.68046997      -0.84171333      -2.93169367      -1.53190974      -0.01610078       0.05859241      -0.42117247
Sb      49.37014565       3.52223535      26.97954331       1.68302376       0.62115551      -0.07560443      -0.20503046       0.12222470      -0.39497896
Sb      60.05579590       0.09897663      20.73057839       2.01044798       0.81699529      -3.20557437       0.40556497      -0.20790068       0.05642021
Sb      62.02241068       3.69840857      20.79813806       2.52008205      -0.94613609      -2.99150759       0.17643271       0.57556489      -0.40060342
Sb      64.18898121       0.18486350      20.36593531       0.32061934       1.18255670      -4.26870260      -0.01577324      -0.66727109       0.67671680
Sb      57.62677570       3.75759065      20.69942162      -3.83713130       7.02010093       3.86950139       0.22364474       0.36481724       0.07068081
Sb      62.08287755       1.14668645      30.44829028       0.41611372       2.85087920      -1.82956102      -0.23373441      -1.04651509       0.18431070
Sb      64.27552472       4.82010539      30.36507524       1.20848147      -0.87887926      -0.89318846       0.56898506       0.46260406      -0.82701636
Sb      66.36995771       1.03705519      30.71595014       1.22499700      -1.80067936       5.39666585      -0.93238915       0.30083838      -0.19933940
Sb      60.16443492       4.95290280      30.61757845      -2.42728030      -2.95544168       1.22705950      -0.56045057      -0.26861799      -0.33527014
Cr      53.69828687       3.57423971      23.18270468      -0.43903751       0.75240187      -1.68990989       0.23879749       0.71310487       0.71282417
Cr      62.19635968       3.65100224      23.33768335       1.49810388       2.80619898      -4.08822669       0.44183026       0.42385709      -0.03508404
Te      59.81702366      14.71086568      15.32055693      -1.66697328      -3.04314715      -0.46128770       0.38443762       0.10870850       0.07497851
Te      49.00566550      11.25001799      15.12735917      -0.23797443       2.91581866      -1.52928886       0.30634092      -0.38988073       0.27242598
Te      46.96670583      14.99094153      15.11222888      -1.99652457      -0.93865132      -0.29553774       0.38112458       0.45745453      -0.74929471
Te      62.62207362      10.84260280      14.62977539       1.50726852      -0.15764560      -1.31018437      -0.39679975       0.13229703       0.81806025
Te      47.22640914       9.86041265      22.29050979       0.76892279       1.89037014      -2.52850404       0.29804002      -0.26900543       0.66723155
Te      49.20590513      13.22163251      22.46125626      -2.50706592       2.27552981      -4.56182846       0.50525766      -0.17372207      -0.23801743
Te      51.56185340       9.95460055      22.67329151      -4.69736978       7.00047036      -3.10277461       0.05944749      -0.63370618      -0.84452866
Te      44.74063370      13.74302698      22.32330016       3.23656968       2.15350030       3.46261313       0.29822942      -0.26783923      -0.11924700
Te      49.74255033       8.37105468      25.19135204       1.70693885      -3.14595502      -0.71973076      -0.61660788       0.11240754      -0.43543989
Te      51.88312499      12.45281064      25.04292370      -3.18993483      -0.79886514       4.73926987      -0.84042635      -0.91243188      -0.52669952
Te      53.31572454       8.33073020      25.24802252       3.10895108       2.46836118      -3.32741751       0.74809689       0.97526086      -0.13277514
Te      47.23962234      12.35594838      25.20314341      -0.76278795       4.50612375      -0.87456329      -0.23284749      -0.25783995      -0.66646378
Te      49.32250067       8.53013208      18.69383661       2.20778811       3.66952507       2.07722246      -0.29991908      -0.03239038       0.09994064
Te      51.18574275      12.46414813      18.70921938      -1.79869915      -1.55759772      -0.29104421       0.24816135      -0.31948526      -0.32018759
Te      53.39507796       8.44385559      18.69689495       0.93279689      -1.78254824       0.29712003       0.08965538       0.59943792      -0.05731059
Te      47.12658706      12.45629460      18.62127475      -1.67316387       4.13167468       2.52568148       0.32243935       0.16536935       0.42595444
Te      47.23907502       7.29876120      31.99757277      -1.18790534      -2.33567728       2.32075143       0.73540940       0.48966941       1.41424240
Te      49.79739299      11.30286724      32.34889695      -2.90172929       0.44587678       2.16080751      -0.03102194      -0.15210882      -0.30312022
Te      51.48962644       7.53778928      32.58413349      -2.86431654      -3.35645770      -1.25920994      -0.26300645      -0.27239142      -0.56883066
Te      45.07139667      10.90824580      32.36390705      -1.31230911       3.46245503       0.81578068      -0.10443488       0.23256603      -0.40013842
Te      47.28855801       9.69243345      28.77209326       3.60858844       1.32325549      -0.02331514       0.41712285       0.42401194      -0.21881666
Te      49.27930729      13.42615465      28.80361926      -1.92337353       0.41416125      -3.66631155       0.19144888      -0.05308903      -0.12705005
Te      51.47009082      10.10791260      28.66846998       0.78586770      -0.61539899       1.41822812       0.07718652      -0.70540807      -0.27098074
Te      45.12656455      13.41914126      28.99080809       2.19850480       3.26456976       1.67665910      -0.07274302       0.21870051      -0.21792018
Sb      46.98682085       9.89265038      17.04002851      -2.61720224       2.78194042      -0.58649751       0.55355152       0.11717872      -0.29242840
Sb      49.20257831      13.77169442      16.39440821      -3.56258478      -0.67994662      -1.88916874       0.38464818      -0.17149467       0.60511586
Sb      51.38548597      10.02970964      16.83137314       5.77472523      -2.72063486      -2.34541812      -0.34601298      -0.59553082      -0.36729309
Sb      45.07157157      13.61387083      16.56258985      -3.20828966       1.00642360      -0.86070356      -0.63340575      -0.40349191       0.90089331
Sb      47.52130415       7.22940317      26.85675659      -3.11722051       0.69104043      -4.65102721      -0.79890291       0.22007616      -0.23212151
Sb      49.28218622      10.95990082      26.64625853      -0.75499706       1.74779819       0.75507044       0.53392851       0.07448769      -0.37321401
Sb      51.55582170       7.35703571      27.16286676       0.70417047      -1.77162137      -4.70955251       0.10614753      -0.08709312       0.24364670
Sb      53.81020188      11.06833793      26.80134953      -2.31612037       5.15437901      -0.86543703      -0.22765963      -0.46857754      -0.17443350
Sb      60.20158595      14.80779014      20.58874348       4.28149727       4.49548136       1.07586235      -1.16374399       0.15179099      -0.33753615
Sb      49.28946174      10.88707939      20.65785731       0.10503885      -1.70830763      -1.08558380       0.25497186       0.35312048      -0.26242824
Sb      51.24922811       7.33074711      20.67784803       0.89123115      -2.30716691      -1.18262560       0.11562773      -0.51470918       0.38468273
Sb      61.82556779      10.96824970      20.75050579       1.06831466       0.44098892      -1.95672567      -0.02857624       0.32597296      -0.01803665
Sb      49.38143240       8.82378002      30.75897067       0.10632718       3.28926542       3.34860311       0.58858863      -0.21369424       0.26713251
Sb      51.89398640      12.41607501      30.48708999       0.64064205       0.14257074      -3.40495563      -1.02300178       0.31502285       0.22507543
Sb      53.30837882       8.82924540      30.71894101       0.30412060       2.65898303       0.76480332       0.59847053      -0.80145711       0.12041453
Sb      47.43864839      12.24496882      30.94765980       4.08732821      -3.88668204      -0.54291147      -0.81350286       0.34095372       0.11028850
Te      51.50533326      15.00271248      15.03110810      -0.57443159      -0.29374644       2.89096197      -0.48947954       0.18468134      -0.27535631
Te      57.98781042      11.10928661      15.19803347      -2.76333230      -2.39537396       3.74456414      -0.23716992      -0.09815777       0.39325248
Te      55.65179710      14.69833678      14.99273255      -1.07888625      -1.44339263      -1.57448560      -0.07472192      -0.06310479       0.50563156
Te      53.49709549      10.95326407      15.08201809       0.30576265       0.65980878       3.32677780      -0.22882160       0.13830664      -0.31978833
Te      55.42702539       9.88199811      22.31541363      -0.22529244      -0.88754783      -2.99704026       0.36490319       0.09773976       0.29730888
Te      57.65446935      14.00952750      22.53228357       3.22112379      -4.00455468      -3.47424230       0.96257905      -0.80827945      -0.23355163
Te      59.76998372       9.74338929      22.52881254      -0.44477469      -4.79113098       3.19226408       0.82914198      -0.23962110      -0.23477865
Te      53.80317343      13.49884091      22.31675666      -0.12574178      -1.28996201       0.72276240      -0.63343004       0.58518714      -0.02810986
Te      57.71224570       8.89979313      24.93970358       0.69829654       3.08645343       1.42397282       0.57099209       0.64897678       0.14447067
Te      60.11626768      12.48749378      25.11217452      -1.27686334      -2.30920934       3.79121624      -0.96767872       0.08422900       0.07169144
Te      62.00710865       8.54549219      25.06459242      -0.96395612      -4.31895017       2.19273756       0.59967921       0.61028162       0.53094176
Te      55.63590729      12.33110781      24.69200702      -1.23226969      -2.05197089      -2.00744382       0.95939483      -0.09152237       0.82278235
Te      57.94719776       8.61931383      18.94912922       0.60267721      -0.39951578      -1.78951941      -0.24840482       0.06939520       0.22020887
Te      59.72735839      12.46273485      18.81666303      -0.84861900      -2.56947984       0.20841065       1.60752164       0.26910160      -0.38283930
Te      62.19391093       8.56893268      18.93144364      -1.46599205      -0.11653973      -1.35252828      -0.03751108      -0.03332949      -0.01883689
Te      55.57145650      12.24427258      18.57509187       1.24348050      -4.19087854       0.34403771      -0.07605578      -0.27019446       0.61752754
Te      55.69324178       7.72097031      32.30334206       0.41171724       0.16689518      -0.43972085      -0.08907853      -0.28937633      -0.18470650
Te      58.04367853      11.23952141      32.40656411       1.21328571       0.38765037      -2.07910785       0.58541071      -0.08499943      -0.04164393
Te      60.25239120       7.30522611      32.12323697      -0.18458218      -5.08082453       0.36215442      -0.09059652       0.19029134       0.91237993
Te      53.33747499      11.01771571      32.44840317      -0.87464692       0.71719259       0.47419410       0.30641400       0.36273534       0.87888191
Te      55.64962200      10.14717352      29.16305181      -3.77802588      -1.06664626      -0.72932116       0.41695150       0.39685193      -0.41190888
Te      57.62208505      13.80494188      29.24670458      -5.29212092      -0.89421632       4.42341228      -0.35994061      -0.16606695      -0.86382364
Te      60.11036962       9.82734456      28.40831865      -0.12527079       0.44835899      -0.32331754      -0.51150093       0.45788602       0.56129970
Te      53.78407252      13.67244060      28.45156019       3.46493693      -2.14300700       2.93398524       1.13980852      -0.38198354       0.60763151
Sb      55.49134255       9.78264509      16.64836903      -1.25407914      -0.34454788      -0.36532703       0.73011409      -0.10206769       0.34398622
Sb      57.71610772      13.59679850      16.88968180      -0.59951895      -1.34295690       1.03467194      -0.36625071       0.21123352      -0.72770341
Sb      60.46318086       9.94505445      16.37186676       3.61735271       2.41078182      -1.71760277      -0.34547973      -0.15449186      -0.18718755
Sb      53.38164842      13.56212989      16.57309129       1.37935105      -0.86993623       1.50679128       0.71742832      -0.03819953       0.22978746
Sb      55.82859770       8.26141658      26.96105161      -0.92231901       2.00504146       2.24589234      -0.55311143      -0.87278142       0.24652945
Sb      57.93028474      11.37118719      26.93679627      -0.51842052       0.93320313       1.49598227      -0.05265339      -0.26080808      -0.24080498
Sb      60.01431605       7.23022090      26.83830921       0.38102342       2.95683945       1.67637947      -0.91871953       1.01545825      -1.25336640
Sb      45.32482832      11.09948941      26.97874668       1.48080368      -0.43789814      -1.77090707      -0.46196228      -0.49434203       0.29237963
Sb      55.61203228       7.44556480      20.70260113      -6.25054403      -3.42164542       0.68425382       0.41427629       0.02316207      -0.43339644
Sb      57.99677428      11.22424572      20.48014082      -1.82480493      -4.69676680       1.72634709      -1.53701326      -0.75118324       0.80979239
Sb      59.80634758       7.05025241      20.89079659      -1.58971027      -4.94527027       1.02578160      -0.07555677       0.74280800      -0.23174667
Sb      53.43433519      11.24439816      20.67697665       0.56080346       0.50780762       1.20946686       0.18776838      -0.51725865      -0.68923690
Sb      58.06162586       8.67014752      30.89633006       2.54679138       1.45692328       0.60457477      -0.56314774       0.22149058      -0.42155073
Sb      59.84171672      12.41493843      30.29588528       1.89408548       0.43187136       1.49724008       0.66027445      -0.18434135       0.80971760
Sb      62.22881245       8.63060591      30.54608988       5.40462390      -2.79051771      -2.55779169       0.48140833      -0.81876947      -0.88403442
Sb      55.68550531      12.46038424      31.47689345      -2.87396535       0.03705873       4.41513428       0.22840541       0.07587692      -0.51654825
Cr      49.62827450      10.90752599      23.95452255      -0.47158942      -0.35920243       0.06006170      -0.66993012       0.89555156       1.09775377
Cr      57.76778271      11.18940999      23.05708546      -1.59434274      -0.91924265      -0.43045625      -1.18490220       0.69228484       0.10668251
Te      56.26815259      22.39293476      14.87015739      -0.88202773       3.41338238      -2.14278944      -0.50160086       0.56676334      -0.82952920
Te      45.01233228      18.40276629      14.98396243      -5.09888674      -2.28730276       2.48984586      -0.25936517       0.39552216       0.46541397
Te      42.76677101      22.13582902      15.14380189      -1.13224439      -2.54656473       1.31912508       0.01608132      -1.23871867      -1.37506274
Te      57.91023072      18.42551014      14.99801308       0.50257766      -0.08928890      -0.03034580      -0.05023179      -0.51008982      -0.07831467
Te      42.65289150      17.11607463      22.56118166       0.55933741      -0.15892756       2.84778015       0.55698287       0.28289395      -0.10917118
Te      45.07353191      21.05349550      22.73200479       3.25857955       2.59013456      -3.81725672       0.53304404      -0.34494269      -0.05309926
Te      47.30900540      17.20528102      22.66132468      -4.58141000      -2.62243586      -0.68568482       0.59447412      -0.57019265      -0.81044264
Te      40.70092123      20.90582014      22.53357164       1.92523964      -4.12879095      -1.93358426      -0.05182995      -0.09554097       0.23129298
Te      44.87844820      15.96298238      25.02167312      -1.55938379      -2.48581366       1.58159548       0.14694673       0.22543448       0.46555238
Te      47.04365784      19.18789822      25.12565675       0.07164695      -2.86107946       2.24595482      -0.18128302       0.73214729       0.05884607
Te      49.30458506      15.59478316      25.13178936      -0.93753675       1.22660151       0.94541243       0.28603306      -0.95669602      -0.73796367
Te      42.79778443      19.16678912      25.00514805      -0.08069209       4.33638373      -1.60118534       0.80502985       0.40248500       0.76044038
Te      45.18658006      16.13268375      19.22750899       2.21329111       0.06859804       1.02021775      -0.62896954       0.26711236      -1.18021702
Te      47.49422493      19.89301352      18.53602852      -3.51946897       3.38673857       5.42898118      -0.38113386      -0.11399107       0.24140608
Te      49.30161312      16.04078043      18.95981285       2.14696028      -3.07321811       1.31200481      -0.05135836      -0.40258635      -0.35083296
Te      43.15393960      19.78512152      18.94627384      -0.32778421      -1.22569460       3.75868081       0.14026706      -0.57229113      -0.28626302
Te      42.74536888      14.23836274      32.78452655       0.08054444       1.05388114      -0.95677543      -0.67038493      -0.31007788      -0.30512343
Te      44.60283214      18.52311227      32.43389094       1.56183134      -1.91147226       0.77259493       0.22274553      -0.46176138       0.21847732
Te      47.17245986      15.03835715      32.40988691       2.82432665      -2.11421654       3.13970696      -0.26048629      -0.81061112       0.19284469
Te      40.76371758      18.33195633      32.49998311      -3.61388151       2.30581277      -0.55540833      -0.43133141       0.09835960      -0.10356204
Te      43.06372131      17.18591664      28.93225986       1.34315318       2.01288473       4.87125016      -0.81885276      -0.64235092      -0.06110671
Te      44.96233825      20.89860105      28.56857131      -3.24338063      -4.31674626       1.45849160       0.14687577      -0.28098895       0.23976394
Te      47.45268819      17.11750864      28.78010237       2.29787861      -3.13346693      -2.26823382      -0.51228032      -0.23049216      -0.22767802
Te      40.58432470      20.68752824      28.66561842       1.21814985       0.90896588      -5.89899821       0.08720029       0.53573493      -0.23881278
Sb      42.56405217      16.98328706      16.90552344       2.60487951       6.81954033      -3.20879316       0.36552033       0.92985599      -0.47606268
Sb      45.13000433      21.11502085      16.36279134       0.53412363      -1.01244961       1.02601041       0.88552594      -0.66182975       0.20755985
Sb      46.95565730      17.41450744      16.76246139       2.27274053      -1.96019640       0.44296628       0.53511649       0.37863904       0.09409575
Sb      40.89415478      20.88006039      17.01584670      -0.67683575      -1.51282632       4.27227614      -0.22747450      -0.07753006      -0.03345760
Sb      42.64343056      14.78519144      26.77897074       1.86799112       3.57400435       2.45250660       0.76057022      -0.43079711       0.24562520
Sb      45.00854592      18.31370711      27.12715426       1.24132898      -3.40164656      -0.93265268       0.25715414       0.00587995      -0.60676996
Sb      47.22775033      14.66930729      26.92142766       2.90519778      -1.05648057      -2.00647971      -0.35430661       0.33176729       0.33128414
Sb      49.40937135      17.85095573      26.57460277      -3.38872383       0.84143122       4.03209251      -0.23569037       1.25215299       0.95017057
Sb      55.82208689      22.33291798      20.58600723       3.14839877       2.48518122       1.05466467       0.02255956      -0.35192272      -0.24944090
Sb      45.31528034      18.53903828      20.84214976      -1.74556512      -4.41508084       3.47986827       0.01937280       0.30548122      -0.19152511
Sb      47.05606996      14.74739793      20.76513819       4.22410454       1.73463667      -5.29054185       0.21597928      -0.03197718       0.49943438
Sb      58.03696876      18.69873555      20.58348626       0.81164479       2.83456199      -1.49685632      -0.27898217       0.00940708      -0.07510947
Sb      44.51970830      15.75210571      31.37144155       1.79431863      -1.99613121      -0.16249201       1.00171518       0.49411662      -0.70474421
Sb      46.97350495      19.28306519      30.91907395      -0.10721843       1.06640598       1.78974255       0.06211522       0.75122287      -0.04120426
Sb      49.33926930      15.81683989      30.85979597       0.52630215      -6.71306861      -1.21599735       0.52315856       0.31169120      -0.25045997
Sb      42.52491110      19.53190662      30.64595995      -0.96673421      -2.28380649      -1.22078297       0.51360116       0.76151273      -0.07624020
Te      47.51745613      22.41147095      14.87939518       1.04155576      -1.59060857      -0.30288370      -0.51680904      -0.04366133       0.34639057
Te      53.02404138      18.52079888      15.02321285      -2.64825321      -3.87963354       1.45524380       0.47857797      -0.06988386      -0.37449801
Te      51.78929828      22.19086912      14.89840763      -1.25732132      -2.51605118      -0.09498024      -0.15830707       1.16856873      -1.40599020
Te      49.23929510      18.36107057      15.11606322       0.05058310       1.07802585      -1.88100469      -0.26978530       0.21663686       0.19809208
Te      51.90784110      17.47168560      21.90906901      -1.13346419      -0.75945942       1.42443243      -0.11490610      -0.37131809       0.82036102
Te      53.80337294      20.46469358      22.00947929       0.51540385       1.43826043       0.02701578      -0.58729614       0.97049187       0.66237716
Te      55.52193465      17.32808618      22.16233591       2.89819403       2.66236401      -2.19179254       0.40891823      -0.02911641       0.07704081
Te      49.18820204      20.85329434      22.31792451       1.20660820       0.81430667      -1.18595024       0.13839191       0.18156820      -0.03908033
Te      53.41700481      16.17999824      25.13008340      -1.35193371       3.23143903       1.32358338       0.24807823      -0.36814581       0.01159466
Te      55.68431242      19.85170392      25.03483777       1.12180265      -0.31899595       1.13592389      -0.29313588       0.24810468       0.22329422
Te      57.68493291      16.62452168      24.72610987       1.33290085      -1.12359159       1.98458936      -0.04470130      -0.62823787      -0.10477234
Te      51.26811681      19.53097220      24.99269901       1.35479397       0.96690746      -0.68838654      -0.57384175       0.74130271       0.16409131
Te      53.50818500      15.89186021      18.50385131      -4.10230355       0.88866816      -1.04482060       0.11162082      -0.16469714       0.12724083
Te      55.85965514      19.76163310      18.36898086      -3.30621815       2.19802608       0.56982513       0.27743443       0.43334158       0.13647970
Te      57.55104976      16.32797529      18.42731885       2.30756223       1.92967531      -4.64493846       0.13072535      -0.47799035       0.76603997
Te      51.42106116      19.64876666      18.46953957       1.84524562      -3.42345711       4.41745350       0.34822527       0.94537581       1.06215566
Te      51.78855158      14.62907265      32.39187157      -3.95679318       0.72225353      -3.95333502      -0.13271010       0.29824602      -0.26455745
Te      53.86739204      18.30091583      32.30830705      -0.15928707       3.91642450      -0.27335245      -1.12876600      -0.57664309       0.44808406
Te      55.58473249      15.24646976      32.47339596      -1.14657493       2.93172279      -5.86920782       0.13743557      -0.50024323       0.67740544
Te      49.31803976      18.42748418      32.32581381       2.84010032      -0.35104311      -6.58843904       0.04696795      -0.22034164       0.17194913
Te      51.42775349      17.12807183      28.55890928      -0.01913582      -5.97693363       1.80429524      -0.06060694      -0.09306499       0.73216479
Te      53.43403909      21.17231992      28.85506988      -0.75157505      -1.17901808       1.88037864       0.27033352      -0.37853486      -0.16208781
Te      55.61199522      17.46381046      28.52349344       0.42018004       4.70521114       1.70817374       0.38723878      -0.88362518       0.08400228
Te      49.24921766      20.70162223      29.08031770      -3.81130224      -0.64086025       4.01728842       0.06161379      -0.14430860      -0.79282646
Sb      51.28980986      17.32180493      16.89111751      -3.18284133       2.80666020      -4.56215445      -0.42586833      -1.11881787      -0.11432340
Sb      53.97725523      21.04481801      15.97498616      -3.33560500       1.43889286      -0.51999988       0.92940569      -0.42872976       1.25468838
Sb      55.45223320      17.30241329      16.52774940      -1.63806990      -2.50923213      -1.87522991       0.28621189      -0.20148803      -0.30480939
Sb      49.73594165      21.23722005      16.35888853      -3.00240183      -6.61411100       1.50791887      -1.55691742      -1.25389608       0.87351058
Sb      51.52035836      14.41175085      27.00836672       5.62902798       0.24803971       0.82612757      -1.09277210       1.20505754      -0.15552155
Sb      53.44210387      18.49165018      26.92388150      -3.35557257      -2.31130562      -2.96443732       0.00940828       0.69303917      -0.71477254
Sb      55.84728536      14.97264607      26.40492447      -1.35282114       2.05937085      -3.79208821      -0.14893798       0.20181873      -0.17755878
Sb      40.62478341      18.07900322      27.06919275       0.26221466      -1.16265838      -2.27116522       0.12111082       0.82849229      -0.15496183
Sb      51.43596096      14.59950609      20.67707044       2.87955458      -1.55011957       2.72133121      -0.16856555       0.44890377       0.31819218
Sb      53.92946865      18.44249050      20.11294241      -0.51205824       0.43196258       3.45362024      -0.65356163      -0.23727247      -0.99598508
Sb      55.69912841      14.60876394      20.55912129      -5.50813157       0.98296415      -1.01616512       0.11211416       0.62631902      -0.48113365
Sb      49.46137536      18.47588590      20.60013220      -2.95418889      -1.87414668       2.51526205      -0.52494117       0.18694922      -0.13474848
Sb      53.65703731      15.86602379      30.56164340       0.49005505      -2.14791667       2.57027577      -0.41228597       0.68863372      -0.19665741
Sb      55.59572133      19.61392959      30.68422264      -1.97886649       2.54198318      -1.36193526       1.16470938       0.97581860      -0.34360639
Sb      57.99041842      16.11045838      31.14638203       2.94413796      -2.00465322       2.22966188       0.68466882       0.63037213       0.09102625
Sb      51.51557146      19.59325229      30.73945378      -2.66200153       4.75025231      -1.47367274      -0.21767948      -0.11057835      -0.34427138
Cr      45.06488898      18.39842140      23.33981803       0.49601349      -0.22111633      -2.40936470      -0.67918228      -0.14725534       0.25216486
Cr      53.38847089      18.66880841      24.03703189       1.77409849       1.74656929       0.91168434       1.23005582      -0.55570228      -0.28988811
Te      51.16722923      29.49349370      15.44717588      -3.08049436      -2.74915417       3.94261793       0.98293959       0.66792934      -0.24041152
Te      40.43442740      25.53052517      15.27565423       0.81115869      -1.37514137       3.65757942       0.39295732       0.21970066      -0.17298783
Te      38.89135689      29.56793475      15.11281468       1.51677371      -1.09274960      -0.48511301      -0.28837414      -0.31442367       0.30888422
Te      53.67495791      25.71213800      14.89544983      -1.03965356       6.15069014       2.41202567      -0.40205160      -0.06097842       0.14138441
Te      38.00039257      24.59521026      22.81088938       0.87597821      -4.96749608       2.06623382       0.78272708       0.29316584       0.00196509
Te      40.58340529      28.17389552      22.26471972      -1.01619855       2.68723552      -0.35005875      -0.38304166       0.03796181       0.64529609
Te      42.69085684      24.39367100      22.60185039      -0.57639424      -1.64958005      -3.89394077      -0.16047528      -0.21522592       0.27178765
Te      36.19207503      28.31426262      22.51338978      -0.96144406       1.02752618      -0.68753647       0.11383896       0.60577999       0.29192824
Te      40.77634335      23.19588556      25.03241298       2.80245606       1.58774878      -1.11043377      -0.28234788       0.92039006      -0.22212318
Te      42.78577468      26.91315350      25.01877624       2.46355943       4.58435184      -5.13573940       0.54983032       0.40550901      -0.30299895
Te      45.26060257      23.41229670      25.04982402      -3.15997667       2.40789214      -2.55304419      -0.68225171       0.00859358       0.02601428
Te      38.87330413      27.24732333      25.30334145      -2.88485670      -6.50146300       0.94990555      -0.17379053      -1.19344209      -0.63915808
Te      41.11541577      23.35323071      19.09706928       0.36971705      -1.41935874      -0.68780269      -1.02418945      -0.77248231      -0.68193224
Te      42.84776772      26.92129819      18.81475578      -3.94375129      -3.19003636      -0.94456355      -0.08457184       0.14421993       0.19148693
Te      45.00882844      23.21464424      18.81648554      -0.55710738       2.08852873      -0.01869050      -0.45570584       0.07359870      -0.35783927
Te      38.60041205      27.00104460      18.96103893      -7.24250699       4.36327187       2.39534712      -0.16137183       0.35975324       0.06825281
Te      38.55477883      22.26798555      32.19658117      -2.76187084       2.66054402       5.30510907      -0.11295956       0.26374976       0.28390588
Te      40.21704022      25.49618208      32.48277430       2.15362404       0.59850212      -1.26906000       0.68442017      -0.08073908      -0.67434027
Te      42.70765781      22.03160809      32.30775259      -0.38095278       1.14830081       7.06967602      -0.78715719      -0.22996437       0.12226945
Te      36.51668488      26.42959246      32.48848033      -5.53531844      -1.70830642       1.61852492      -0.33282093      -0.35716669      -0.75329143
Te      38.71352960      24.55948267      28.47352994       3.42696408       2.40919670       0.10339156      -0.57077786       0.03689341       0.21979611
Te      40.67098099      28.30847491      28.57527500      -0.65871466       1.16898265       1.64693688       0.31793809      -0.37746138      -0.03910296
Te      43.10997489      24.32102861      28.56199001      -6.00632490       2.85497993       0.19922487      -0.63830071       0.11340371      -0.23473493
Te      36.65696664      28.55378505      28.56950798       2.62619749      -1.34658501       0.09289729      -0.50216290      -0.35314915       0.05045919
Sb      38.66229093      24.39895526      17.19306842      -0.53453167      -0.78441658      -2.48995819      -0.27256501      -0.01287976       0.16385788
Sb      40.84790131      28.04451715      16.69763166      -3.62150068      -3.94576517       2.70089016      -0.45329193       0.55840449       0.22088284
Sb      42.87717608      24.35942180      16.56127954      -0.43994784       3.10359336      -3.91678259      -0.56735664       1.46303145       1.65589089
Sb      36.47033131      28.44323362      16.69712996       0.39617614      -1.56844335      -1.27617624       0.13997490       0.55281621       0.58161549
Sb      38.54996648      22.09652217      26.45863695      -1.83346480       1.09571123       2.74704020      -0.14550032       0.06117312       0.63588770
Sb      41.06992168      25.72340642      26.73795556      -1.09091155       1.43744295       3.31806253      -0.90980647      -0.15596043       0.70767272
Sb      42.99452980      21.89610206      26.68719545      -1.01201812      -0.48917745       1.47927871       0.21804781      -0.31813824      -0.01764614
Sb      45.41608195      25.66787991      26.95842577      -1.50066277       2.45334126      -2.00549110      -1.19946947      -0.16749552      -0.13908899
Sb      51.44844536      29.40250696      20.76966286       0.06332136       2.86536600       0.00164610      -0.57236995       0.54518656      -0.54995905
Sb      40.66078553      25.60003641      20.68536006       2.15965077      -1.22315499       2.70216332      -0.42231796       0.84243349       0.37136651
Sb      42.94353884      21.77433988      21.02855356       0.55006480      -0.94600904      -0.49823585       0.02811519       0.90692315      -0.39211479
Sb      53.34685103      25.76377204      20.70136759       1.13039320      -2.24604819       1.11859142       0.73738070      -0.06704528      -0.31569282
Sb      40.52365254      23.28423080      30.38716017       2.69389706      -1.31212518       1.26439213       0.46710840      -0.01969158       0.53692920
Sb      42.83024499      26.72954460      30.56858654      -0.35766244      -2.33143288       2.56173355      -0.15331644       0.12963160       0.37351653
Sb      44.72433093      23.23502238      30.88278628       1.02201315      -2.09827389       0.79280184       0.94633664      -0.11621220      -0.43332894
Sb      38.65690228      26.99892930      30.64214431      -1.25711793       3.50666440       1.92553894      -0.57832789      -0.09984652      -0.29855299
Te      43.00488649      29.69027559      15.38178929       3.99852547      -4.15020039      -1.37712585      -0.27518539      -0.22373074      -0.25412081
Te      49.23977987      26.16140341      15.28091262      -1.40940179      -0.87335520       0.98347005      -0.22837727      -0.29447925       0.14817304
Te      47.39121167      29.10854487      15.12158273      -0.43333409      -0.25097802       1.92015811      -0.26349546       0.24089729       1.00468489
Te      44.57261856      25.94520298      15.05755582       5.15276498       0.96377868      -2.27368871       0.80683409       0.19004776      -0.02336817
Te      47.20687962      24.72948210      22.24202195      -5.77269688      -4.14227483       0.76253350      -0.01639863      -0.24352524       0.22875744
Te      49.24497332      28.06427628      22.50246749       0.33078861      -0.25106460       1.36033971       0.16796577       0.34529550      -0.23518035
Te      51.19789971      24.67227103      22.34499242       1.71823136      -4.32749410       2.65761465       0.90767117      -1.09272094       0.75058741
Te      44.64879971      27.87480916      22.46924711       2.72229842       1.07809091       0.47268759       0.44533895       0.96916143       0.69698471
Te      49.31740597      23.41021305      25.03552574      -2.80683071       1.51273385       0.42387169       0.01694287      -0.55841856      -0.09279207
Te      51.33710565      27.11359436      25.07949413       2.24484947      -2.41438900       2.74865089       0.30985164      -0.44653396       0.42961153
Te      53.40544091      23.34769407      25.13725084       1.89384462      -1.19866430      -3.89595616       0.15158331       0.04191709       0.63609714
Te      47.22189241      27.07262007      25.27629177      -2.07701340      -3.13689612      -0.88299868       0.01805208      -0.09734063      -0.61702786
Te      49.07516601      23.29403431      18.70353404       0.98237587       0.74167843       0.29149263       0.66685874       0.38507046      -0.23142153
Te      51.45978115      27.12056329      18.85328770      -1.12599890       0.64680009       2.74087603       0.69176381      -0.67572948      -0.12099915
Te      53.75330380      23.31211206      18.62435546       0.46467962      -4.74149917       0.04777690      -0.29084208       0.17963408       0.12261542
Te      47.01478824      26.83513819      18.92135071       0.19969390       2.19637293       1.96278416      -0.26747512       0.29908422       0.01138477
Te      46.83521682      21.92985403      32.33255778      -1.68703747      -0.95870739      -3.98837942       0.43989271      -0.23447060      -0.07883627
Te      49.19473467      25.78596208      32.02091455       0.25729069      -0.73862744      -1.95365156      -0.90902174      -0.15086073       1.00702582
Te      51.32379816      21.92352209      32.35458503       1.62264209       0.57582489      -1.61758947      -0.39839089      -0.20932175       0.84228311
Te      45.14648351      25.71017720      32.27429003       0.55797445      -1.28427461      -1.48643064      -0.28596252       0.44137261      -0.39936956
Te      47.16874501      24.23563086      28.69304584       0.18896017       1.11356713      -4.29507209       0.25100941       0.18407806       0.07673402
Te      49.21172177      28.39423880      28.62952590       3.68035180       1.53023660       2.38306294      -0.03396421       0.20828118       0.10884554
Te      51.42797987      24.25651850      29.04643430      -0.11955793      -1.28411138       1.07617790      -0.11256382       0.43811521      -0.83241153
Te      44.80374462      28.05776130      28.72232081      -0.22560743       0.81120648       5.05351400      -0.20314299       0.50022279      -0.37802929
Sb      46.74180030      24.57260803      16.90834339      -4.63634241       1.50760775      -2.37949190       0.56131812       0.45650806      -0.28717775
Sb      49.38740957      28.28950646      17.18762615      -1.10808782       0.07066443      -0.65073253      -1.63270887      -0.16447723      -0.08394803
Sb      51.30048084      24.62127329      16.45802969       2.64010536       0.14178177      -1.96814528       0.50797322       0.10687168       0.22774063
Sb      44.93079051      28.18683568      16.89855463      -1.66869734      -0.87629666       0.06801604       0.67923791      -0.01115363       0.19349587
Sb      47.22861436      21.99839578      26.42417950      -0.98643978       1.81198466       2.50788499      -0.09664760      -0.49504750       0.63765564
Sb      49.26673474      25.79909631      26.94267423       6.90373378      -0.13418107      -1.10880282       0.49866893      -0.23397269       0.06681887
Sb      51.16246229      22.01964720      26.87281350      -4.66435325       0.67805538       2.33073977       0.64128071      -0.09410562       0.21363488
Sb      36.26003512      26.06413550      26.94614754       1.56791330      -1.10173362       0.86343218       0.50024134       0.41211998      -0.24984700
Sb      47.14536850      22.15601243      20.57122023       2.29130119      -3.36162986      -2.58980602      -0.08404294      -0.51214254       0.41672212
Sb      49.36368656      25.72335020      20.63341351       1.56261363      -2.53682585       3.96617637      -1.08600880       0.54206080      -1.54711770
Sb      51.27161605      21.85534989      20.58533033      -0.23110378       3.45457330       4.62130253       0.36525915       0.26803803       0.08141934
Sb      44.60017781      25.63634357      20.91535527      -0.85514230      -1.18307280      -0.38968215       0.71919921      -0.48651754      -1.25717309
Sb      49.23952302      23.11807865      30.72306233       1.05186715       4.35461606      -5.47059860      -0.33537482      -0.34013381       0.15207094
Sb      51.12292283      26.97833873      30.59964894      -2.71932321       3.89011368      -3.67392334       1.14254624       0.32888060      -0.81648355
Sb      53.45538631      23.33546989      31.14182110       3.09439440      -1.40991810      -0.59575904       0.52154057       0.19251178      -0.54215780
Sb      47.08275970      27.15939186      30.40691195       1.33769768       4.58234349       0.14962287       0.04743138      -0.42921603       0.80395307
Cr      40.35899016      25.67837779      23.28334938       2.21048017       1.27806107      -0.06761653       0.46050000       0.33183863       0.41598461
Cr      49.17904214      25.74310741      24.00808415      -0.29646062      -0.25933831      -0.00332866       0.13563777       0.82376028       0.67703422
Te      46.88091398      37.08587608      15.39406567      -0.23523878       2.04634767      -2.10273109       0.30892239      -0.47338684      -0.66912486
Te      36.52720664      33.25372980      15.38831272      -1.34710716       2.33499381      -3.62265191      -0.24370785      -0.13973735       0.26127869
Te      33.93662385      36.71631258      15.48845892       1.93426734       4.18843776      -1.13210682       0.71601355       0.05365616      -0.09936312
Te      49.44899695      32.99726015      15.50850031      -1.91349674       1.51452165      -1.22026636      -0.34795881       0.02359598      -0.54295859
Te      33.99866833      32.19433416      22.88680911       1.27516043      -0.14169458       0.64544531       0.44436440      -0.07677587      -0.23194344
Te      36.62043098      36.04933179      22.56884751       0.73854284      -3.44720691       4.52334257      -0.27890144       0.20203823       0.02263436
Te      38.69975403      32.08172086      22.46492802      -2.42735776      -0.96178765      -0.53167582       0.10529962      -0.07006277      -0.09886063
Te      32.34709182      35.99674370      22.42677006      -1.87744984       1.31024674      -0.95445928      -0.18792158       0.01485784      -0.18387711
Te      36.27228137      31.30554333      25.07026735      -0.58515645      -1.98374340      -3.55590943       0.50482433      -0.54961153       0.50951426
Te      38.48644928      34.43338714      25.30396506       0.63856221      -0.31746126       1.50628263      -0.22311784       0.27738428      -0.27272557
Te      40.65398317      30.81792094      24.86742777       4.66839711      -1.83841720      -2.18434725       1.29720368      -0.02631420      -1.03964961
Te      34.38838198      34.50391775      25.24015108       0.14960073       3.19148475       3.63728209       0.46078576       0.88978305       0.27445700
Te      36.24719031      30.98451781      19.11436789       2.11884204       2.17265116       2.37630128       0.18910474      -0.33670989       0.07249998
Te      38.48753351      34.07965008      18.90999390       0.10446184       1.69310227      -1.16828585       0.25403039       1.34933180       0.27207433
Te      40.73820636      30.69367790      18.86487829       1.99914711       1.46277138      -2.15269355       0.06349219      -0.36718678       0.05489049
Te      34.24666155      34.45941318      19.00690420      -1.46785373      -2.21483469      -0.15846674      -0.41738362       0.39343247       0.07209620
Te      34.19247890      29.61863280      32.18430537       3.69726264      -2.04657509      -0.35024699       0.08412382       0.24942535       0.10032535
Te      36.57974379      33.74863785      32.83225523      -0.07313437       1.94573875      -2.49329444      -0.03868317      -0.05392554      -0.90991756
Te      39.07245626      29.17155868      32.38714458      -0.83298893       1.75246848      -0.39149340       0.08541628       0.97638675      -0.20378579
Te      31.90543511      33.37184476      32.12085144      -0.12103582      -1.31298835      -0.54527311       0.67277267      -0.09335450      -0.11684901
Te      34.43340206      31.97086925      29.16639913       3.21501415      -1.74394789      -0.51240415       0.31018825       0.95891128      -0.13047006
Te      36.47972157      36.06884379      28.65452344      -0.69826339      -3.47444142      -1.98431068      -0.35736682      -0.03430724       0.34160303
Te      38.47262878      31.79370119      28.76865514      -0.09208506       2.67876052       2.88561292       0.21833132       0.11374889       0.01252244
Te      32.19993850      35.87607637      28.70135405       2.15681420      -5.58876627      -1.20509023       0.61447746       0.19246403      -0.39198604
Sb      34.09666116      32.09096375      17.21031819      -0.69409210       0.43214469      -2.60174976       0.61768210      -0.23183915      -0.32021456
Sb      36.33936853      35.58184521      16.99458410      -0.86570496      -1.47282299       0.54054245      -0.05565069       0.20985516      -0.02425787
Sb      38.61213137      31.86431992      17.00046524      -0.58000350       2.34502258       0.41823111      -0.40123459      -0.47480265      -0.08875018
Sb      31.81286380      35.55982646      17.04977118       0.39771711      -0.15593918       1.85492115       0.35811736       0.42274644      -0.25588012
Sb      34.23036530      30.19030882      27.01797479       0.31728575       3.31205147       1.52335541       0.27270062      -0.90731129      -0.55048238
Sb      36.44549884      33.43640224      27.25070269       0.41655118      -1.17885115       1.76863238      -0.11517566      -0.09256939      -0.00323186
Sb      38.68624249      29.87146414      26.42387028       1.92814194       2.38209315      -1.39029444      -1.44177038      -0.47100565       1.28674908
Sb      40.70631236      33.02944986      26.66918669       0.52033708       4.09621682      -1.74958822       0.03730002       0.52798371       0.63866211
Sb      68.32520128      -0.30862339      20.64333252       0.96818362      -0.35561900       0.20897744       0.57357774      -0.28652962      -0.57885259
Sb      36.42457142      33.42685864      21.12096243      -1.57633410       0.22245448      -1.01251585      -0.08067980      -0.23062202      -0.30936306
Sb      38.37524888      29.52007854      20.86970542      -1.38946608      -1.98777252      -0.43777451      -0.16334404      -0.04247758      -0.46087046
Sb      49.26735582      33.18620516      20.55660493       4.32015282       1.91021518       0.64143257       0.13545246       1.32315445       0.70527603
Sb      36.75733412      31.10980693      31.52776118      -1.15989063       0.57963979      -0.28592603      -0.22858315      -0.55655893      -0.11439778
Sb      38.52740394      34.51162802      30.53257657      -2.04609756      -0.83989558       1.07654660       0.16699977      -0.11329575       0.12584773
Sb      40.96979930      30.63306695      30.49818126      -2.17145527      -2.12937323      -0.86797222      -0.74534142      -0.00324669       0.61336366
Sb      34.44123460      34.65779252      30.91956169      -4.76285769       0.13373771      -0.53771314      -0.49604513       0.06974138       0.23891383
Te      38.56708859      36.72651236      15.37269736      -1.85118459      -1.03130773       1.42164910      -0.58827497       0.09658946      -0.49821009
Te      44.99178179      33.47919982      15.14314621      -0.76700116       1.11970157       0.68782063       0.04455151      -0.96917487       0.13610936
Te      42.81824569      36.87340314      15.42152183       4.55055972       0.34741818      -4.74399094       0.17570085       0.21301917      -0.22939554
Te      40.76986202      32.98193846      15.42256164       3.80268664       0.82647661      -0.39674039      -0.20650239      -0.24657312      -0.93094049
Te      43.08959611      31.83445991      22.41883792       3.84614766      -1.49338566      -1.43863545      -0.39749752       0.54503526       0.32355424
Te      45.02822921      35.70501653      22.51091937       0.00032230       0.97553139       3.38182850      -0.24313059      -0.74859080      -0.18995900
Te      47.03902729      32.06580110      22.46634124      -1.93816413       1.45512115      -1.36948131      -0.18448582       0.13122735       0.30287425
Te      40.96941858      35.74133734      22.25858558      -1.49635526      -3.49962365       1.66913006      -0.25667113       0.34554189      -0.42258303
Te      44.95858961      30.56923628      25.01302003      -0.81372860       2.93791893      -2.69066716      -0.02504799      -0.23041730       0.16682205
Te      47.50069814      34.45024527      24.98538410       2.17308516      -3.23813679       3.11596511      -0.81807307       0.29546509       0.41499284
Te      49.28280821      30.72580940      25.00243581       1.13903790       2.45300522      -1.07121333      -0.43169506       0.11057671       0.35043936
Te      42.77243692      34.22419537      24.86145226      -0.83010880      -0.40460006      -1.41317435      -0.03617964       0.65965612       0.18935948
Te      45.16238042      30.64731334      19.00680112       0.26967343      -5.74044278       3.78360222      -0.43973361      -0.27119214      -0.33691182
Te      47.26734274      34.29814117      18.53531564       1.68612759       1.98573268       2.51348329      -0.43501821      -0.11698531       0.81093111
Te      49.18446496      30.78737122      19.23164956      -1.50865063       1.08157975      -0.51853369      -0.45957517      -1.12759574      -1.32756759
Te      42.66022331      34.68138907      18.69549619      -0.70868710      -0.13016479      -2.17916588       1.01436618      -0.73158461       0.72328512
Te      42.64968109      29.08746618      32.23409486       5.45995806       0.14962246      -4.59419450       0.81080718       0.43043475      -0.34199207
Te      44.97793268      33.05690438      32.20505956      -0.11853187      -3.11822400       0.79487609       0.02650048       0.17538356      -0.33011603
Te      47.18494658      29.49427811      32.37361602       2.86193011      -0.80324628      -4.42610408      -0.14408524      -0.05019999      -0.82237987
Te      40.28467702      33.05549042      32.27130585      -1.97012678      -0.46355356      -3.01807575       0.70880962       0.04948468      -0.49993192
Te      42.97205628      32.12716210      28.42789988       2.76660198       2.65430898      -2.89825346      -0.37093460      -0.85136298       0.47677835
Te      44.81581321      35.90090328      28.59900755      -2.18838112      -0.14698815       2.40230879       0.52297819      -0.85330204       0.13614437
Te      47.38535007      32.08603891      28.37048633      -2.81016867      -1.01455547      -2.79448324      -0.92453111      -0.17179287       1.07586509
Te      40.83003676      35.47184119      28.49250714       0.31897274      -3.30813436       1.23878591      -0.62429706       0.26665124       0.37520975
Sb      42.96523100      32.05703382      16.93575280       0.61574089       2.34247348       3.17225519       0.45434456      -0.12228612       0.42144533
Sb      45.00237058      35.59014248      16.92406002      -2.05057001      -0.65119366       0.01949651      -0.08360155       0.52078725       0.26769905
Sb      47.09858246      31.68032660      16.88296108       0.40318932       1.94384371      -0.58309353       0.10556403       0.20797308      -0.30342266
Sb      40.69013457      35.40833798      16.75374458       1.87936701       6.87109113       4.88065776      -0.40822774       0.75689448       0.41800577
Sb      42.58955816      29.63486880      26.75935357       5.19551046      -3.69623869      -3.85488138       0.58860366      -0.32631432      -0.09826705
Sb      45.03262550      33.21187186      26.82500912       1.57104724      -2.77518812      -3.86749902       0.84043589       0.68266621      -0.49672378
Sb      47.06678957      29.56839937      26.77185015      -1.06664393       2.44180475       1.45540953       0.44819934       0.53978669      -0.02976297
Sb      32.29607828      33.39000054      26.94889279       3.23867927       1.29187654       4.68717117      -0.65485268      -0.60041378       0.28177578
Sb      42.72563754      29.37639949      20.88768678       4.34111060       1.23788944      -1.11302559       0.39217465      -0.42074912      -1.12049090
Sb      44.94170096      33.10485554      20.73544472       1.56470656      -2.04691053      -0.64726199       0.33950940       0.63634178      -0.43815265
Sb      46.92262517      29.34781086      21.23427748      -0.18012412       1.74094488       2.55419373      -0.17745543      -0.24370876      -0.56488822
Sb      40.87313050      33.20765305      20.50883471      -6.44673787       1.63439904      -3.89665920      -0.36023280       0.11806804       0.58751997
Sb      45.11815292      30.62652662      30.63665411       5.74205828      -1.73360746       7.39567964      -0.15103306      -0.14919773       0.33187719
Sb      47.03558409      34.69409926      30.49669964       0.55052123      -0.39597073      -2.18953970      -0.18364845      -0.32787118       0.29757277
Sb      49.35280979      31.09946895      30.86076708      -0.11714385       3.68292928      -2.99863682      -0.28491204      -0.34434937       0.23780120
Sb      42.71449210      34.25524689      30.67982549       3.61756809      -2.26001688      -1.85059385      -0.20943648       0.16234597       0.27991835
Cr      36.50400730      33.56426665      23.69739388       1.42602600       2.61587258      -2.31814520      -0.20206956      -0.28358667      -0.45310611
Cr      45.05152119      33.04759516      24.27306773      -0.33403609      -1.39004368       0.50775936       0.53470504       0.45851377      -0.30774874
Te      81.15907710       7.33728852      15.38510003      -3.50472912      -4.03557350       0.15171114       0.53058508       0.27138901      -0.56788069
Te      70.81401885       3.89074430      15.16334953       0.27324242       1.95954744       2.32873367      -0.60144655       0.11482297       0.33645452
Te      68.53430723       7.54770587      15.32794986       0.27600060       3.17752122      -5.97359852       0.37392884      -0.06526208      -0.52138661
Te      83.43198060       3.47653942      15.02467974      -0.64059461       3.69670071       2.30262371      -0.00219124       0.19464412       0.37692886
Te      68.59368875       1.96681607      22.33789760      -1.31395908      -2.88864551       2.26273604      -0.12619411       0.89839088       0.45033368
Te      70.93515710       6.20764720      22.43936291       3.65264653       1.39521082      -4.10929644      -0.11694449       0.03988186      -0.02874205
Te      73.04676045       2.38854360      22.57297511      -4.32927578      -3.62588493       1.90778581      -0.12058219      -0.02288397       0.32826703
Te      66.68824978       6.00897078      22.52537581       0.44461861      -0.99324738      -2.38445732      -0.24814574       0.00336696      -0.45971165
Te      70.46311139       1.42853755      25.24111857       0.74304340       2.27763939       3.83607620       1.06686059      -0.04041443      -0.36693711
Te      72.69317294       5.01942461      25.04845524       3.13858750       2.20660938      -1.92413127      -0.66884264      -0.32229895      -0.47239471
Te      74.94489035       1.11218383      25.10926000       0.72119698       3.07368902      -2.71611484       0.03060928      -0.00649445       0.75437668
Te      68.78469400       4.76685955      24.82547280       1.73087423      -4.32171970       1.02964606      -0.00864025      -0.05194198       0.19823028
Te      70.83444933       0.92829724      18.81530326       1.52137397       2.28208970       6.72736592      -0.94563934       0.11028075       0.21782201
Te      72.72146115       4.95522706      18.74606959       0.62421346      -2.48525151      -3.97436550       0.20013409      -0.40956513       0.28512772
Te      74.91163623       1.24106389      18.95229387       0.80089042      -0.56184631       2.80590930       0.02166010       0.19609734       0.42069971
Te      68.85923157       4.64183479      18.97686310       4.41000895      -1.83783829       1.45792371      -0.33374222       0.79456750      -0.00881277
Te      68.48273816       0.08779270      32.35785313       0.88673957       1.55740699      -2.29937310      -0.47309354      -0.90852520       0.59288343
Te      70.43255562       3.63978798      32.36266100       2.52990808       0.65689632       3.00912118      -0.04633051      -0.05363377      -0.28226896
Te      72.83716009       0.06204918      32.31219881       3.01375689      -1.48603948       1.22257847      -0.27200042       0.40482580      -0.21563391
Te      66.12487793       3.64114113      32.10186346       1.88183850       1.06929936       2.53611593       0.45117577      -0.01827548       0.26181970
Te      68.58010715       2.54098358      28.68943560      -3.23914231       6.16483823       1.62079626      -0.13358880      -0.44927438       0.58833444
Te      70.67863140       6.08917427      28.67435347       1.80497628       2.56465377       2.49765876      -0.25865254       0.23225198      -0.00610882
Te      72.83500489       2.47925481      28.73803286      -0.49801038      -2.95362674      -0.38201077      -0.20039242       0.05929930      -0.19645281
Te      66.52783256       6.03490761      28.57924614      -0.43067779      -0.98221692       2.56120859      -0.01747256       0.53669799      -0.48490024
Sb      68.50995463       2.43602947      16.92915990       3.09129133       0.13217733       3.18871290       1.03971800       0.41306417      -0.40718982
Sb      70.56798721       6.27444113      17.07963057      -0.85232095      -0.02214541      -1.17717505       0.61497982       0.14272125      -0.85307429
Sb      72.49664012       2.39900181      16.83141374       0.58379867      -1.05037857       0.13067149       0.82577949      -0.45451252      -0.06875277
Sb      66.56383516       6.09137034      16.72219511       2.13352995      -1.47392021      -2.67887152      -0.77285791       0.60783037       1.04858956
Sb      68.53574700       0.11090384      26.88996102       1.35310375      -1.31874516       3.60839827      -0.72717636      -0.98675086      -0.25577825
Sb      70.52980203       3.83760263      26.96039614       5.79238941       2.32967231      -1.80265431       1.10229918      -0.40248658      -0.33061238
Sb      72.86125569      -0.01037508      26.95231317      -6.45063343      -5.78241139      -2.05414397       0.13787018       0.45673811      -0.33055693
Sb      74.77588827       3.78832006      26.55461045      -0.07284007      -0.40697604       5.63314204       0.20502379      -0.73548958       0.57930414
Sb      -4.12500939       7.59124031      20.70594794      -1.44037933      -0.27802894       0.36273650       0.08902479      -0.28842892      -0.16500443
Sb      70.85035384       3.41097918      20.85117808      -0.63343875      -0.86527623      -1.94768732      -0.00525002      -0.04514295      -1.00534374
Sb      72.55097489      -0.07476367      21.00601306      -2.12141066       2.81862341       0.34450914       0.67665993      -0.12896158      -0.52518139
Sb      -2.03851893       3.77574459      20.55623140       1.63211262      -3.00613734      -2.63292412      -0.05128191       0.71105346      -0.09622899
Sb      70.43062082       1.15341489      30.76963597      -0.82208352      -3.41669330       2.04863809       1.80757726       0.62886260      -0.25715669
Sb      72.82646044       4.96772048      30.92302744      -1.33605791      -1.45025274      -0.60681826      -0.68168838      -0.77047384      -0.24703552
Sb      75.19213751       1.51428051      30.67220341       3.56008964      -2.58143838      -2.20517071      -0.44531235       0.08589272       1.07146827
Sb      68.39399561       4.92380105      30.63005915       0.58136238       2.78562737      -0.02920895       0.46039293       0.13250721       0.32566373
Te      72.82512752       7.69011683      15.10429011       0.27812699       3.87864511       1.23992138      -0.22270487      -0.45546220       1.01567731
Te      79.06243934       3.96951215      15.43540036       1.13594395       1.37493729      -2.08771945       0.03959714      -1.19449090      -0.59777043
Te      77.08486929       7.39140533      15.30879879      -3.54752703       1.11531688       1.58306106      -0.04832935      -0.70967673      -0.39352311
Te      74.81000969       3.47676054      15.40551583      -1.34844799       0.79521328       0.29622824       0.26501013       0.04885148      -0.16578013
Te      77.05299007       2.55487122      22.58388293      -0.64443198       1.87965549      -1.92694162      -0.67123521       0.46186834      -0.64343319
Te      79.30092593       6.00410472      22.27618338      -1.86191502      -2.28751112      -2.08797597      -0.09586333       0.47269976       0.06788926
Te      81.18493651       2.56262520      22.45022599       0.40964622       0.66399264       4.39642789      -0.36517455      -0.20122480      -0.09611227
Te      75.03997710       6.50791323      22.37844292      -0.90871136      -0.89313857       0.18023646      -0.16939242      -0.81601625      -0.08581296
Te      78.72514862       1.07177294      24.95098182       0.52649146      -4.52176030      -1.18107541       0.74379092      -0.19548685       0.29017570
Te      81.23095186       5.01846522      25.08198985      -0.37356184       4.21526562      -2.46955780      -0.21919051       0.15783551      -0.04192761
Te      83.10933858       1.36929241      24.78533522       3.76252513      -4.97038908      -2.80950310       0.26280730       0.14590315       0.38412584
Te      76.97608649       5.16598404      25.09430534      -1.09982680       1.00835350      -0.02260548      -0.14595159      -0.21310288      -0.32321548
Te      79.19517610       1.06099742      18.86414754      -2.07188043       2.18229652       1.92565929      -0.04265464       0.08134086       0.13193652
Te      81.18220962       4.83070169      18.68824778       1.68935049      -0.78211402       0.98842019       0.94193700      -0.03325967       0.34235511
Te      83.31672614       1.39213610      18.77547396       0.83710320       0.09261259       0.06083170      -0.03307791      -0.77629608       0.21553061
Te      76.89372475       4.88309868      18.90484710       1.23677173      -2.46100931      -0.22019515       0.55502582       0.32622023      -0.46671965
Te      77.17959867       0.10723383      32.48483032      -1.25692439       1.75908402      -1.49806629       0.22718956       0.04843766      -1.00753699
Te      79.08391778       3.92038626      32.14230696      -1.65243015       0.04690863       2.05647190      -0.06893024       0.20099231      -0.51515824
Te      81.77256105      -0.04266978      32.47979638      -3.71117892      -0.35281606       1.23615697      -0.75216522      -0.03429138       0.14732180
Te      75.05369725       4.09416866      32.41344537       0.72724680       1.14827973      -1.12659624       0.58829819      -0.18295806      -0.30195672
Te      76.91920212       2.68931973      28.64377905       0.41529799       2.52835946       1.73894525       0.55189980       0.17745988      -0.25884682
Te      79.22130834       6.66593755      28.57932981      -0.60919433       2.56259401      -4.67023598      -0.08372034      -0.20326614       0.33656160
Te      81.05036366       2.57111542      28.52574397       7.12654436      -3.48277626       3.59223016       0.17643366       0.29311485      -0.06542795
Te      74.29679091       6.23436573      28.72213148      -1.32470751      -0.30491790      -1.74360097       1.00927888      -0.06800441      -0.41973419
Sb      77.00742785       2.34677127      16.97505345      -2.64230754       1.84770802       0.39442794      -0.10827642       0.10680012      -0.15899890
Sb      79.22681208       6.17359433      17.03155664      -0.08348674       2.59180778       1.72107963      -0.88461849       0.42737974       0.39838092
Sb      81.35289181       2.19693471      16.70729471       2.04063866       2.14979356      -2.88882053      -0.53204531       0.99296382       0.32826669
Sb      74.78601938       6.05978263      16.79843901       0.26846543      -2.35929743      -1.09407843       0.14967198       0.02354323      -0.56448307
Sb      77.16981176       0.09296931      27.15164808      -1.13816193       3.51995152      -0.35650240      -0.68040373       0.38565109      -0.50320942
Sb      78.98083430       4.04581598      26.70701060       3.17991293      -1.46001999       3.81655738       0.31226677      -0.15732574      -0.06700070
Sb      81.13682316       0.19698970      26.53528011      -2.79905346       0.86212264      -2.38331314      -0.18443904       0.52541815       0.31763276
Sb      66.68232834       3.43806413      26.71440750      -0.74147363       0.65502460       2.19294934      -0.82520902       0.47874927      -0.85579141
Sb      77.04421807       0.09879013      21.12098303      -2.48457444       3.42051598      -3.94413289      -0.21058635      -0.82654832      -0.55915492
Sb      79.24227050       3.65521375      20.59071772       0.83470487       1.78872241      -0.50852872      -0.27489279       0.00812247      -0.28136252
Sb      81.17863484      -0.07193997      20.82210584       2.57496868       0.98569766       1.91508729       0.21144020       0.03947194       0.04877256
Sb      74.89111277       3.81066310      20.58463304      -3.84273199      -0.65070986      -1.12128618      -0.17238855       0.18774937       0.60581420
Sb      79.62046794       1.31324232      30.78264563      -1.73101732       0.01072608      -3.39937156      -1.05156740       0.01982796       0.82769146
Sb      81.17644222       5.39539377      30.45833221       1.94157538      -0.17214251       2.87744364      -0.81999957      -0.33505454       0.24677495
Sb      83.28757896       1.31487769      30.58175157      -0.00739886      -1.10786745       0.50842224       0.77734063       0.57387058      -0.59314701
Sb      76.97698428       5.49943564      30.49624924      -0.82619409       0.71558437       0.53982201       0.03275677      -0.44108896       0.30467680
Cr      70.74916785       3.60055383      23.25232120       2.13554445      -0.88201053      -1.56945761      -0.14268757       0.09362595       1.01109397
Cr      78.94111167       3.33013764      24.02447178      -5.71024432       0.99198550       2.14664886       0.89032857       1.18410012       0.52668362
Te      76.69308974      14.82891755      14.94970875       3.83340838       0.65177150      -0.53411090       0.90021968       0.29072666      -0.41909941
Te      66.50181675      11.28728819      15.43476737      -2.94295817      -2.69516336      -1.84634780       0.12632286      -0.06249929       0.32318550
Te      64.29009365      14.85469882      15.29629092      -3.73602474      -1.22053792       3.22923171      -0.32847546      -0.00924330      -0.17299887
Te      79.31741692      11.04742062      14.85206074       1.95859157       3.16131718      -6.03864887      -0.04263289      -0.46764535       0.48951024
Te      64.36913008      10.06027704      22.06217521       1.84668766       0.10677681       5.59758423       0.17874813       0.01035666       0.23003290
Te      66.33350171      13.43991685      22.44586618       5.75731138      -0.53421019      -2.53188862      -0.38843378      -0.05421791      -0.57373564
Te      68.10313738       9.88139772      22.02695797       0.64742082      -4.53268609      -3.50114103       0.44802384       0.42851222       0.08478189
Te      62.01910883      13.80978510      22.40188577       0.36693746      -2.35922228       3.19842835      -0.19483235      -1.17722058       0.65584560
Te      66.40173356       8.39899300      24.96447756       1.87890676      -3.16682877      -0.71463129      -0.31002488      -0.27471789      -0.04767448
Te      68.38012120      12.48895485      24.77312849       0.11895033       3.24823388       1.89680720       0.75320690       0.03969452       0.23225166
Te      70.65699333       8.98249109      24.71283837      -3.68346519      -2.78587170      -5.37121936      -0.60547388       0.31887646      -0.06745078
Te      64.30889956      12.14557004      25.00838056      -1.80962720      -3.19382479       1.39161613      -0.61204546       0.97130252      -0.29544421
Te      66.46343405       8.66396238      18.68118505       3.40327705       0.87339946       0.36104822       0.03987359      -0.73274983       0.21634575
Te      68.59572761      12.61957040      18.87129283       0.21511947       0.51307321       0.91307808       0.45693306      -0.25597605      -0.20781632
Te      70.89471830       8.73952313      18.92558323      -1.41252844      -1.95428385       0.02418976      -1.05318610      -0.33205123       0.29382003
Te      64.00119546      12.11502853      18.63111203       0.56144759       0.10839495      -0.32173810      -0.26613190       0.73366230       0.29096447
Te      64.43372646       7.20112610      31.98755674       1.02315936       1.91744183       1.88032239      -0.12684831       0.23201692       0.08051592
Te      66.43259007      11.22716428      32.06333569       3.16426016      -2.17290480       0.96810641       0.34863714      -0.40022897      -0.29794783
Te      68.94691375       7.45114418      32.00752733       1.95257209      -1.31382531      -1.42659202      -0.68619839      -0.25588758       0.50439763
Te      61.93690706      10.78625874      32.10166660      -1.90176390       0.02661923       1.55861591       0.20188693       1.54169432       0.45352005
Te      64.31536590       9.77614767      28.63969923      -0.61465364      -1.66249746       1.82549038       0.20383830       0.44233466      -0.11874090
Te      66.38917750      13.87311243      28.16780538       3.41136424       3.28255714      -0.79620781      -0.13251784      -0.84243261       0.22555810
Te      68.76539984       9.62830163      28.41782196      -1.20395088      -2.13589510       0.09891971      -0.13467712       0.45172961       0.28303291
Te      62.29162701      13.75139418      28.69477212      -0.18729958       0.97958290       1.98355386      -0.48773388      -0.00584027      -0.55507931
Sb      64.29955252       9.79033598      16.91456865       4.41720180       0.80575422       0.21861263       0.14810407      -0.41421951      -0.80056321
Sb      66.24309749      13.74287547      16.98331929       2.22364546       2.22061032       1.93617008       0.27678448      -0.16204347       0.25998405
Sb      68.71521897       9.81765864      16.97047039       4.60248549      -1.30083434       1.08409330       0.08027921       0.94819594      -0.10085597
Sb      62.14162126      13.28792659      16.66088710      -5.77641228      -3.86732918      -1.37361240      -0.36160784       0.38625907      -0.82484149
Sb      64.09770562       7.34000161      26.96696482      -1.91479725       2.22521551      -1.85363084       0.58910901       0.19741844      -1.15282519
Sb      66.42251866      10.92685543      26.35202007      -3.68104092       2.75059785      -0.85011230       0.43683518       0.09361641       1.07915861
Sb      68.69361208       7.40582216      26.57987191      -1.01220201       3.74267653      -4.14052098       0.08363423      -0.14845292      -0.26938100
Sb      70.69266100      11.46943615      26.54492606      -0.38501415      -1.82823548      -0.36209282      -0.34439879      -0.97774583      -0.13405755
Sb      -8.36132433      14.64993261      20.66007530      -4.40245354      -2.77673055       5.63161772      -0.99188085      -0.00674982       0.48279716
Sb      66.34797864      11.15784186      20.03602628       1.78042486       0.74467514      -4.22195272       0.14869562       0.28084179       0.68422630
Sb      68.71848039       7.29241412      20.89507011       3.43270654      -1.57280272      -3.55836100      -0.11178962      -0.59611401      -0.31882203
Sb      -6.45697011      11.16520440      20.32492925       0.67796316      -0.31378318      -1.47648743       0.27466820       0.17694228       0.11459603
Sb      66.61754427       8.57241865      30.50723200       1.38347069       0.52662575       2.41135406      -0.16800046       0.19852574      -0.07613048
Sb      68.46326094      12.27656499      30.20350223       2.97906151      -0.09674256       3.41884635      -0.20086367      -0.52429094      -0.38466977
Sb      70.83768702       8.58293700      30.34029870      -6.96776568      -4.10359360       4.15854609       0.35021247       0.33496416      -0.21995061
Sb      64.15508661      12.32608530      30.57954535       1.70891959      -2.44282912      -3.97113658      -0.26890187      -0.17353815       0.14397455
Te      68.36806167      14.99484208      15.38974964      -0.86378530      -2.14397661       0.69633923      -0.26621850      -0.11099973      -0.45247821
Te      74.94618935      10.88463406      15.32214287      -6.77570762       1.13866951      -1.88613908      -0.02485951       0.37657365      -0.03129846
Te      72.87763706      14.95720912      15.04447941      -0.18443542      -1.59540952      -0.96085876      -0.18917075       0.74830670      -0.69827034
Te      70.82341340      11.08701037      15.31239586      -2.91478718       1.68742339      -3.53892465       0.11155038      -0.27123822       0.17840509
Te      73.19277600       9.99674127      22.17783015      -1.59044158       1.09376656      -0.01107760      -0.46373154       0.12255290       0.40109575
Te      74.94994582      13.47911304      22.06454831       1.42781777      -0.05451880      -5.00502530       0.07528554      -0.46734545       0.46018622
Te      76.90533349      10.19719624      22.16337772       1.71476133      -3.90378995       2.82677179       0.70537132      -0.43270002       0.70526305
Te      70.66170288      13.89561921      22.32894748       2.48803641      -4.64251979       0.84853841       0.16274816       0.02943641       0.15518484
Te      74.95760680       8.62504981      25.21152855      -2.91213191      -0.50693163       0.31934188      -0.37006204       0.30892421      -0.59405281
Te      77.29249187      12.52269133      24.93259261       0.07368932       1.26251798       2.28623197      -0.93442858       0.40496244      -0.13063019
Te      78.76477527       8.55235256      25.02561158       0.45088327       1.99302323       4.43194809       0.18721973       0.21425497       0.36048981
Te      72.69380321      12.57572386      24.79141776      -3.16444977      -0.36303674      -0.07733253       0.40544919      -0.34041577      -0.67952997
Te      75.03275515       8.42509172      18.69176511       1.89686790      -1.68914791       3.93837288       0.73781321       0.11405084       0.18744697
Te      77.22984153      12.45310761      18.42319816       2.26921164       0.18035571       3.64623603      -0.32893853      -0.09751074       0.57424239
Te      79.32556057       8.69697282      18.73701289      -0.64616009      -0.72874112       1.61608038      -0.14780499       0.16595798       0.06632783
Te      72.81615331      12.31310033      18.72202151       0.45225175       2.67671778       1.71560012      -0.50025925       0.78012379       0.31681108
Te      72.89060189       7.19943179      32.61374320      -1.44284616      -0.62037394      -0.39229970      -0.27720765       0.53099781       0.09382622
Te      74.85722656      11.13654104      32.04812979      -1.50531928       0.55286472       5.46117920      -0.33397917       0.62054807      -0.38479962
Te      77.00534120       8.09362423      31.99241219       1.94942374       0.61604193       0.47115835      -0.14464518      -0.61949251       0.09705281
Te      70.46918267      10.93015100      31.92292651      -1.26344272      -0.87938036      -1.20936290       0.11080343       0.39055675      -0.08722248
Te      72.77164547      10.05551464      28.24756609      -0.50152639       0.05918126       0.04451762      -0.11514790       0.09987267       0.32614692
Te      74.57430760      13.80730007      28.41532280      -2.31663905       1.19016770       0.79014038       0.34558110      -0.30344030       0.06124737
Te      77.00156991      10.12897968      28.50593046      -2.29411612      -3.28879453      -1.30646428       0.03027792      -0.39838974       0.31670948
Te      70.55788972      13.81215517      28.30484394       1.80342140      -2.22780755      -2.22692299       0.70891320      -0.37042203       0.54241188
Sb      72.95722647       9.77308938      17.23727816       1.34445496       1.11532438       0.04168581      -0.33284927       0.25138837      -1.68197951
Sb      74.77120690      13.63650040      16.51553036       4.96690148      -0.88462048       1.00721207       0.29526044      -0.82145185       1.15544369
Sb      77.22248403       9.75403167      16.70910955       1.67695232       3.32889844       2.70524539       0.10165676       0.76418124       0.09747714
Sb      70.73498815      13.77885320      16.37816597      -0.50806514      -3.01653446      -0.11011969      -0.43376971      -0.77958420       0.96985992
Sb      72.36988483       7.64475451      26.40864300      -1.83050285       4.81963116      -2.85805650       0.68183495      -0.07626515       0.46460398
Sb      75.00663752      11.20086390      26.64318863       2.71905210       2.60704361       3.45918781      -0.24959666       0.53889430      -0.69930631
Sb      76.81734118       7.55150707      27.12567712      -1.00165587       2.02870780       1.53176694       0.24841286      -0.02042222      -0.22395587
Sb      62.15580973      11.30518087      26.77746542      -2.40172033      -0.46201361      -3.14003357       0.15101567      -0.88134652       0.35725227
Sb      72.97970582       7.28648827      20.51479487       2.24859142       0.73799122       1.53848202      -0.11499671       0.03578761       0.53812143
Sb      75.01220263      10.98764016      20.31174845      -1.48331619       2.66668839      -2.64624051      -0.31891164       1.02044367      -1.03218076
Sb      77.15057419       7.58266071      20.80926177      -3.81104296       4.47180329       0.65766445       0.19199683      -0.64460177      -0.15437445
Sb      70.58193523      11.42494949      20.90710021       0.27142890       0.91894968      -0.79814561       0.26029476      -0.19220193      -0.20768116
Sb      74.47234179       8.50511321      30.69143746       3.61499173      -0.79274813       3.10929895       0.24211495       0.48275736      -0.12692099
Sb      76.72871081      12.60792527      30.27052208      -1.56506258      -0.76736876       0.78811923       0.20443806      -0.14711143       0.48389047
Sb      79.30917992       9.31485423      30.73713888       1.64184657      -2.71414172       1.62735288      -0.27092577      -0.39809385      -0.26654524
Sb      72.57569669      12.39909906      30.38553338       1.18496098      -1.50852982       2.26060801       0.34891080      -0.15274347       0.15133115
Cr      66.42523218      10.88867398      23.76566428       0.83866321       1.16112094      -1.92719093      -0.20914075      -0.03212479       0.02503237
Cr      75.03971964      11.44289976      23.89829924      -2.02734663       2.42344825      -1.61798589      -0.47813752      -0.64554990       0.70302599
Te      73.06275440      22.14791322      15.04221551      -0.07303225       0.59314148       1.73854162      -0.29576514       0.29938599      -0.18796043
Te      62.16858373      18.49850950      14.83782049       3.81794011      -0.44666473       2.89286885       0.10495482      -0.40325408       0.26529547
Te      60.17947550      22.13538306      14.82839692       5.87133535       2.12168074       1.70648746      -0.58385165       0.25423455      -0.16605598
Te      74.38229908      18.70874807      15.38401197      -3.55573690      -0.31597917       1.88489053       1.77177957       0.60878979      -0.49151825
Te      60.31684001      17.45762449      22.32586123       0.78358308      -1.75353755      -0.34345520      -1.09609331      -0.02308968      -0.86896812
Te      62.06616940      20.74103359      21.80973837      -0.63666949      -2.79135603      -3.70318507       0.19722109      -0.24870662       0.63711604
Te      63.91544171      17.75227919      22.47462371      -1.18822891      -0.41181568      -1.94572263       0.64985987      -0.23291546      -0.40876008
Te      58.07422127      21.09222365      22.20711634      -0.06195290       0.58266764       3.38038934      -0.49585207      -0.19432766       0.15711831
Te      61.86733746      16.26812424      24.97443661      -1.94239243      -2.42079615      -0.77639978      -0.35218290      -0.94625878       0.35409136
Te      64.09722234      20.21624255      24.80781206       1.46002004       1.50436035      -1.91547521       0.26716481       0.04353196       0.34012095
Te      66.55069033      16.11476401      24.87272214      -1.65909858      -2.18385292      -3.03954031      -0.58519003      -0.06110933      -0.53620944
Te      59.75287025      20.07646084      25.00779126      -1.54593727       1.58106479      -1.83036611      -0.34238885       0.04888448      -0.04848039
Te      62.19440627      15.75643760      18.56262046       0.68800858       0.58061363      -3.94801639       0.07713495      -0.02229677       0.04776793
Te      64.43489378      19.90767325      18.59200542      -0.68735776       0.51439730       0.84992369      -0.81656211       0.12347893       0.15255312
Te      66.57735771      16.64642962      18.85609311       2.10455853       1.63163123       2.33772336      -0.67052313      -0.83025697       0.33833525
Te      59.96072357      19.79855794      18.44143512      -2.37690012       2.46058554      -0.10916170       0.34776206       0.27546206       0.89855843
Te      60.27251939      14.94974222      32.56651686      -0.61055570      -1.85396298      -0.04635580      -0.00376751      -0.17670396      -0.77459354
Te      62.10610748      18.65754839      32.07989348      -1.97690981      -0.54146675      -1.18564210       0.30814554       0.59208130       0.09582518
Te      64.49336664      14.93398141      32.05372858      -2.72281213      -2.05695471       1.28175887      -0.48318435      -0.68388903       0.62016746
Te      57.84587937      18.81326810      32.53312189      -3.31766927      -0.74602669      -0.06514666       0.04997700      -0.03393371      -0.87338099
Te      59.84658115      17.33290784      28.86266597       1.95263397      -3.15727232       1.15132885      -0.01570073      -0.06160775      -0.32470767
Te      61.93948439      21.13168720      28.52802625      -0.76790913       0.22943391       1.85084603       0.63853207      -0.01068943       0.25732168
Te      64.36118545      17.48826084      28.40420512       2.40420011       2.76061944      -0.29855000      -0.33439795      -0.18535642      -0.08328187
Te      57.75788813      20.98046148      28.78211346       1.56163354       1.18940475       1.18569197      -0.09236396       0.47505025      -0.36136919
Sb      59.89130520      17.28164652      17.00706838      -1.46935816       1.43255222       0.15466776       0.06363228      -0.50851566      -1.15206558
Sb      62.26797285      20.93621153      16.17244490       1.48492556      -0.67038005       1.33006452       0.39527996       0.09724954       0.86708828
Sb      64.34292209      17.51223562      16.64894842       3.36592254       2.09548939       1.18906314      -0.26946528      -0.35525164       0.26014578
Sb      57.96841865      20.82959850      16.40371006       1.98496244      -1.35685624       2.57961899       0.58037004      -0.05723177       0.46844322
Sb      59.35625789      15.14376897      26.56353144      -4.12542254       1.71674417       4.47374013       0.38289270      -0.14296658       0.10776544
Sb      61.79285753      18.65925993      26.46817607       1.81558812       0.43377446      -2.11581586       0.51942577       0.44006454       0.87687295
Sb      64.13498506      15.06252863      26.46778680       0.70071838       2.28116345       1.27309368       0.47404803      -0.16360421       0.31773391
Sb      66.41755914      18.67141907      26.04923782      -3.01747260       0.26836365       1.38020779      -0.92836390      -0.03684213       0.80204403
Sb     -12.45674653      22.55500841      20.60001226       0.73622671      -4.64982807      -1.99595745       0.14364618       0.14233309      -0.17734972
Sb      62.06657295      18.31701023      20.22460423      -0.93488887      -1.64258249       2.49589541       0.48367912       0.61794552      -0.75093411
Sb      64.05529169      15.07256205      21.19715433      -0.17686525      -0.68900377       1.28070970       1.09328825       0.34640455      -0.62771213
Sb     -10.47836845      18.99664546      20.81247938      -3.08226628      -0.91263912      -1.15043292      -0.64196226      -1.16513739      -0.68050481
Sb      62.31783301      16.22445246      30.75207463      -2.04608575      -4.10228904       0.16547279      -0.60390271      -0.36541209      -0.69763748
Sb      64.38314162      19.82091715      30.36526077       2.05278416      -2.13876664      -0.38027574       0.01218568       0.01219303       0.69849779
Sb      66.41024682      15.92073348      30.27568520      -0.08690184       2.59262632       0.54386270       0.11317602       1.07106176      -0.24679438
Sb      59.98775071      19.96596328      30.42432151       2.13163056       3.58699288       1.89681923      -0.35041698      -0.33742485       0.83571846
Te      64.45487300      22.28961811      14.92280593      -3.36894910      -3.21350896      -0.44730825       0.09607730       0.25465396       0.20809287
Te      70.61595178      18.39854208      15.05917142      -1.28748376      -2.13563503       2.23979400       0.17129291       0.47922083       0.12559854
Te      68.38393890      22.42483488      15.17775174      -1.26316677      -4.16389607       0.55512799       1.17489787       0.35580620      -0.18235760
Te      66.66405594      18.23988999      15.23504113      -3.89720257       0.60767581      -0.60071422      -0.24270543       0.74279800      -0.51702825
Te      68.28198583      17.73979690      22.40032509       2.52808000       0.78580496       1.06379667       0.40249960      -0.54015615      -0.06387465
Te      70.85013400      21.54387339      22.17052108      -4.08009170      -0.42056779      -6.60322436      -0.50071994      -0.39579269       0.31959544
Te      72.81284207      17.54395788      22.33738265       1.99361973      -0.27497638      -3.19751672       0.45416871      -0.20885123      -0.39827120
Te      66.61225118      21.60929329      22.47437984       1.55670854      -2.25572890       2.16598016       0.14551072      -0.37066954      -0.83875078
Te      70.76483887      16.65031722      25.00149478       3.68781845       3.12632200      -2.18518662      -0.63697228      -0.13496933      -0.23581995
Te      72.38876963      19.89858048      24.99135733      -4.34356173      -4.52785854       3.11712541       0.97578610      -0.09236947       0.44386157
Te      75.09929473      16.13217571      24.80637244       2.94726957       2.14497825       3.85048654       0.01640053       0.22096513       0.21932087
Te      68.68879277      20.05274562      25.11025352      -2.67335751       0.13018213      -0.82477581       0.53820948       0.34906193      -0.72082725
Te      70.57150288      16.02866575      18.84125364      -3.51680250      -0.51514102      -4.11269421       0.31445377      -0.06642932       0.51015694
Te      72.88234006      19.98637630      18.89763497      -3.36528197      -2.27109386       2.18169169       0.00687795       0.17215188      -0.67584045
Te      74.94897502      16.20584251      18.76638112      -3.27076090       0.62250024       1.00958735       0.56701713       0.44199374      -0.60042683
Te      68.69871401      20.04354275      18.60453927       2.67495654      -4.19942567       2.74435792      -0.21820051       0.33459482       0.41346334
Te      68.48740029      14.56659364      31.71918402      -3.74932206      -1.13801774       0.45089262       0.33183798       0.39350465       0.86007281
Te      70.56609726      18.39416549      32.21114888      -0.22103737       1.31691934      -2.13795876       0.16536170       0.32715998      -0.49564050
Te      72.74233153      14.86911524      31.92429610       2.58397695       3.64742384      -0.44489192      -0.58310905      -0.17375058       0.49325468
Te      66.79122395      18.59024245      32.10622185       2.01160813      -2.63859070      -0.19910843      -0.81355352      -0.03788194      -0.60670721
Te      68.22438283      17.41586864      28.41563875       4.04091086      -0.94926969      -1.25071497       0.83776061       0.09416125      -0.25604375
Te      70.88279801      21.22449180      28.51782818      -3.31420629       4.67218876       3.16363913      -0.52094298       0.36785379       0.45577609
Te      72.72894897      17.24811401      28.60731814      -3.68725374       3.14245225      -0.04229961       0.13198291       0.60222862      -0.47362090
Te      66.42729599      21.13437693      28.46125171       1.15775403      -4.20590728      -4.20317726      -0.53698282       0.14844859      -0.24481016
Sb      68.75071334      17.39887690      16.99860471      -2.29376671       0.69467697      -0.58317874      -0.23443250       0.09706834       0.24321053
Sb      70.84560805      21.12020125      16.71973593      -7.69075275      -0.21094694      -2.69484386      -0.57633171      -0.00603338      -0.07457630
Sb      72.55071641      17.38310914      16.87227062      -0.69434002       2.15070708       1.94555259      -0.07787713      -0.48480441       0.80142904
Sb      66.50868860      20.98787384      16.61852220       1.62580674      -0.87987621       1.27530319      -0.51035342      -0.22166492       0.33670102
Sb      68.63486871      14.99289079      26.57772578       0.36737616      -6.07654771      -0.86291807      -0.68126900       0.57686157      -0.20552331
Sb      70.53922479      18.81230291      26.96016622      -0.41616754      -0.47392854       5.67716819       0.24158815      -0.47102793       0.62468732
Sb      72.85226854      15.00267643      26.20359515      -2.24196332       0.42246736      -4.67955895       0.10999353       0.48170088       0.66890182
Sb      57.73666853      18.53414476      26.78330879      -1.02219234       3.53418030       1.27083352       0.07311955       0.85243673       0.52267419
Sb      68.35889260      14.82071920      20.84982336       5.26449064       1.11028547       3.08266293       0.15337528       0.77704221      -0.28273051
Sb      70.74008779      18.82236124      20.61691686       0.90604943       3.54178380      -6.34588194      -0.31662482      -0.46546835       0.32618782
Sb      73.08551923      14.94616245      20.28638640      -6.00567863       2.65429036       1.19043895      -1.37661072      -0.32842751       0.60976297
Sb      66.27536623      18.99343923      20.65692845       3.22197922       2.29454142      -2.25788866       0.48282012       0.35415690       0.23919822
Sb      70.58033028      16.16015204      30.34010127       5.53835737       0.42084573      -1.17364549      -0.22031808       0.31178397       0.20543311
Sb      73.01848568      19.71944899      31.07146568       1.67220580       4.24572182       3.94522355      -1.09916016       0.23272474      -0.53411017
Sb      74.80522293      16.24805160      30.55557887      -0.86900115       2.99888719       0.86838588      -0.03294781      -1.18313496      -0.60219641
Sb      68.38651876      20.11916509      30.33076692       1.93037235      -0.99736493       4.19622411       0.63576280      -1.40316188      -0.28143387
Cr      61.88678345      18.75269394      23.90226631       0.01006208      -0.85872182       0.93908121       0.38540251       0.36491956       0.31943465
Cr      70.59342499      18.80864404      23.28408750       1.12868027       0.57694618      -3.51715845      -0.11735977       0.33105851      -0.57096280
Te      68.93813197      29.83301642      14.88423661      -1.11850376       5.18878609      -1.99803277       0.21284233      -2.19215805      -0.84613636
Te      58.11677799      26.09987268      14.85525318      -2.23306353      -1.03965643      -3.21352011      -0.38324279      -0.09719438       0.89195395
Te      55.70092347      29.62066117      14.85477633      -4.53236131      -1.78037583       4.59282486       0.09329981      -0.08550295       1.15053891
Te      70.91539905      26.07424973      15.26002890       0.60024351      -1.80345580      -1.96333173      -0.09440752      -0.84394993      -0.02078396
Te      56.07203503      24.82328401      22.09544353       4.31626696      -0.44384707       4.83686997      -0.83325636       0.02232348       0.31247930
Te      57.78065175      27.87634745      22.18232934      -5.05385489       0.72893762       2.78650180       0.15833561       0.17223544      -0.13597344
Te      59.95694465      25.00299954      22.10381309       1.79129650      -1.99812491      -0.34355281      -0.41091790      -0.60574133       0.10797331
Te      53.25469791      28.26058648      22.44432323       0.19272745      -6.47375943       3.98641694       1.17190860      -0.39641322       0.48872916
Te      57.83244933      23.78372125      24.83557487       0.43463027      -4.30222523       1.62150423       0.01872194      -1.60324192       0.90951883
Te      60.03585765      27.33427415      24.94633326       0.38719592       2.90830659       1.47424908      -0.97262051       0.46530962       0.15722596
Te      61.88306131      23.40117055      25.02040669       0.95431982      -1.62131617       0.00820139      -0.19570770       0.79240863      -0.23001498
Te      55.37423993      27.23242946      25.05608888      -0.61007139       2.39954420       4.55813313       0.58286095      -0.13291634       0.04472575
Te      57.84327035      23.22629762      18.56172900       1.31800554       1.10910114      -1.76353278       0.15209645      -0.29893151      -0.17052475
Te      60.02122705      27.15426556      18.60319352       0.53339184      -0.58011533      -0.12748252       0.24149397       0.00145648      -0.02965666
Te      62.01067039      23.44196761      18.70103134      -4.18816267       1.39688343       3.44494282       0.87570835       0.37787602      -0.42009542
Te      55.72756109      27.13602719      18.71352945      -0.34612517       5.02172270      -1.43387858      -0.77755716      -0.34520485      -0.49937505
Te      55.70029690      21.95234473      32.40721672      -0.52468490       2.04934223       1.70791170       0.10331547       0.04986821       0.03032830
Te      57.67854711      26.06916687      32.51894296      -2.52395370       1.22017911       3.43615246      -0.15058256      -0.22403474      -0.50292612
Te      60.04353137      22.47344535      32.36351589       1.08564788       1.80261866      -0.74071198      -0.20514803      -0.44151251      -0.27649333
Te      53.38402096      26.16590518      32.35481801      -2.80436543       3.71744383      -3.03524518      -0.75624391      -0.25592339       0.53790798
Te      55.41212949      24.50762449      29.02109536       5.39407769      -3.12124120      -2.10701980       0.54276011       0.24850993      -0.14306029
Te      57.59616631      28.38437994      28.89246120      -0.47003444      -2.86154786       1.41469758       0.39618878       0.19861660      -0.53177342
Te      59.62996644      24.61828811      28.89227577       2.14888592       0.64172865       4.06593946       0.58439847       0.89476677      -0.45229101
Te      53.37811779      28.41717138      28.42118495       0.58611941      -1.16251092       0.91531393       0.86831027      -0.63913368       0.82626748
Sb      55.87808704      24.77515007      16.45737246       2.70604994       1.38618177      -1.69779174       0.26896104      -0.07854744       0.17111928
Sb      57.85754339      28.45929821      16.88384207       0.95533150       2.46744550       1.72409884      -0.75889478      -0.29226370      -0.11324612
Sb      60.13891914      24.54584310      16.59883937      -1.93754070      -3.07124975       0.17971494      -0.59651166       0.13223157       0.35691136
Sb      53.66792761      28.17598939      16.53055828      -1.21250606       0.16766920       1.81042889      -0.06626180       0.57825775      -0.15030476
Sb      55.68669264      22.38945134      26.85559021       0.85150309      -2.64848395      -1.81450244      -0.24448268      -0.26950836      -0.47064852
Sb      58.06681363      26.20669648      26.74075804      -0.56545790      -1.41760238       0.87420469      -0.72738311      -0.18610970      -0.14516943
Sb      59.91403463      22.50184999      26.91904325       1.44325498       3.24173210      -0.91451718      -0.60948795      -0.34885253      -0.31028333
Sb      61.71851260      26.17925413      26.85738617      -3.93047526       4.85595083      -0.62129390       0.82187852      -0.90046540      -0.07266996
Sb     -17.10637513      29.59942522      20.67280625       1.33179210      -1.47366514      -1.15180211       0.42024392      -0.03015689       0.18751174
Sb      57.84993505      25.66559888      19.97514675       2.58318849       1.58097394      -0.21390438       0.69687954       0.62031444       0.66995207
Sb      60.12007647      22.38583283      20.59482505      -1.48940459      -1.76075438       2.74087389      -0.64504535       0.18663971      -0.27354636
Sb     -14.80128681      26.21572311      20.94030941      -0.10227244      -5.09225058       1.04679690       0.03780915      -0.58383848       0.00604807
Sb      57.83929922      23.49834197      30.79249314      -1.39163735       3.06821112       3.34483707      -0.65405124      -0.41205147       0.69420562
Sb      59.92075127      27.51576574      31.06586897      -1.61906617       3.31246963       0.12493091      -0.18263628      -0.57365408      -0.09488660
Sb      62.01431715      23.66140071      30.65087308      -0.32225294      -2.23306702      -1.79589441      -0.02386417      -0.51399498      -0.04453183
Sb      55.48101468      27.07104654      30.83795634      -1.79475944       0.29516999      -2.24361107       0.78375439       0.21293778      -0.38860507
Te      59.91110803      29.49392323      15.45443728      -2.11428197       3.14982642      -0.62240113       0.73576894       0.67542395      -1.27295369
Te      66.43634480      25.96419010      15.05128382      -5.40524023      -1.56245803      -7.39673339       0.56937836      -0.14301245      -0.49403760
Te      64.40810314      29.60624987      14.93281598       0.32449836      -3.27462434      -0.34080527       0.81849447       0.66639497       0.08842575
Te      62.08566593      25.71304860      15.02766894       1.14842527       5.39356963       1.71605793       0.41588956       0.40285447      -0.48014798
Te      64.13153604      24.60796497      22.61353292      -2.12717978       0.48057644       1.47345251      -0.42658532       0.24594961      -0.44391364
Te      66.31394264      28.45307424      22.63525482      -1.92463660      -3.38121369      -0.22557853      -0.24428500       1.66299085      -0.48192019
Te      68.46389741      24.97812308      22.43533218      -4.01225967       0.09076304      -1.46363460       0.08830051      -0.41794469      -0.09084185
Te      61.95092911      28.13710262      22.50506540      -4.00370836       4.05958884       0.38307149       1.53280338       0.42832104      -0.00074991
Te      66.26800619      23.99869975      25.54214372      -0.15143543      -2.40674594      -0.61260599      -0.07286583       0.16008615      -0.81981158
Te      68.11337515      26.94632655      25.26218793      -1.04698782      -2.66535023       4.29668121       0.32053760       0.58861412       0.35891879
Te      70.76263209      23.78481038      25.02887534      -2.54900324       1.51152809      -1.89841119      -0.31892143      -0.71086302      -0.26156703
Te      64.18373177      27.24351650      25.25691384      -0.17105267       0.17094789      -2.27594385       0.11129854      -0.30475759       0.05931336
Te      66.14012076      23.73535082      18.72629011       2.70880701      -1.21336529       0.23740523       0.90272572      -0.44134510       0.22395694
Te      68.78529373      27.27711973      18.88434672      -3.63336395      -0.26246231       1.35979007      -0.38130818      -0.27443262      -0.49101564
Te      70.96027146      23.68777456      18.63062835       1.61986772       0.33511813       3.28280061       0.03116041       0.01732896      -0.41655127
Te      64.25133250      27.32065441      18.60478646       2.93771999       0.24564768       0.46398141       0.41112675      -0.02351551      -0.18863404
Te      64.02338769      22.29264241      32.24638719      -0.69327133      -3.04430631       4.08647196       0.28781922      -0.14734135      -0.61008212
Te      66.38172000      25.70139924      32.42409421      -4.52519735      -1.76344990      -1.36220461      -0.43028224       0.18699701      -0.15336819
Te      68.04813822      22.23724860      32.00066654      -0.91027247       1.77007776       6.03220049       0.02896023       0.70764890       0.98761216
Te      61.93013370      25.89846537      32.34028929      -1.38229300       1.40744234      -2.01188292       0.21246274       0.72225011       0.25072114
Te      63.93129236      24.97546718      28.65863181      -1.29456024      -1.08273797      -0.50689581      -0.47772116      -0.30999698       0.64838921
Te      66.35528832      28.69050230      29.10389906       3.79694666       1.32325469       5.45680282       0.15845209       0.08709056      -0.10101910
Te      68.31812847      25.12825169      28.78887153      -1.67056776      -2.43340366      -0.03484999       0.57073304      -1.10178787      -0.13905547
Te      61.90763518      28.28771865      28.81072530      -6.01755403      -1.03714811      -2.24263619       0.78946904       0.41245160       0.54364587
Sb      64.41765813      24.87486343      16.65277202       0.81270052       1.72691516       1.16070401      -0.74810306      -0.64919614       0.37182397
Sb      66.59846348      28.30670818      16.54505050      -2.82382573       3.48595264      -1.93341913      -0.24705146       0.80557576       0.36114814
Sb      68.67198480      24.85628840      16.82495657      -1.22037506       0.90533260      -2.65705811       0.10464628      -0.18510519       0.00475640
Sb      62.42483240      28.37924408      16.39767689       1.16815268       3.70983043       1.87095758      -0.90161356      -0.64454136       0.82938301
Sb      63.98745982      22.64588090      26.64769573      -3.78498238       2.33906198      -0.03392462       0.13621675      -0.68803027       0.38265308
Sb      66.08095027      26.26803582      27.38547745       0.24914943      -1.25674401      -2.61316668       0.37734793       0.40559490      -0.79531834
Sb      68.60045301      22.67426539      26.71077598      -0.47769270      -0.70765974       2.67604905       0.32640316      -0.21756590       0.34773520
Sb      53.66899289      25.63242287      27.01390858      -1.98100672       4.07921954      -6.23547799      -0.58676994       0.03690920      -0.48386859
Sb      64.37193696      22.22224386      20.71234224       0.66749899      -5.67165440       6.14386433       0.34988218       0.43246870      -0.11745785
Sb      66.16683045      26.18983271      20.84535044      -1.45861011       4.76664922      -1.14764007       0.37159919      -0.53769692      -0.61646968
Sb      68.84952481      22.73147199      20.40792237       0.00423468       3.62908834       2.10221918      -1.16903821      -0.50450306       0.38117774
Sb      62.10279008      26.11757036      20.53495110       1.81965974      -0.16177492       1.51814690       0.27778851      -1.02251607      -0.48352012
Sb      66.02317054      23.54483751      30.42933878      -1.32741065       0.28434668      -1.49443187      -0.02437959       0.01544805       0.02879193
Sb      68.31001593      27.24982140      30.85307977       2.33878574      -0.24544655      -0.98592666       0.82462677       0.21632431       0.10153760
Sb      70.24271978      23.52374744      30.59118743       0.05675058      -0.20683806       1.88354865       0.58898641      -0.17394660       0.25032344
Sb      64.40365740      27.46513719      30.98523930       2.69462997      -2.72871540      -1.29028068      -0.63043249      -0.45372200       0.27961018
Cr      57.65824189      26.09778890      24.07877174       0.55345667       2.06749292       0.69550160      -0.03660234       1.07272936       0.22718225
Cr      66.21110157      26.10554540      23.43493351      -1.91365073       2.16739898      -5.19342088      -0.01547059      -1.15467186       0.68073041
Te      64.37975949      37.02408985      15.43513129       3.15252183       1.47665001       2.93045361      -0.14986008       0.33423927      -0.12592853
Te      53.50521338      33.24139936      15.49267968       1.26674463       2.10916531       1.51188374      -0.26968745       0.32304168       0.51651518
Te      51.61883008      36.81172771      15.32911206       0.77053081       1.85668455      -1.82364147      -0.21598498       0.51703352       0.23944033
Te      66.28281706      33.40215398      15.29819019      -5.85379467       2.22120146       4.28382892      -0.20884024      -0.76048158      -0.55022860
Te      51.23157909      31.91599850      22.39869162      -3.81813154       1.04366701       0.21568634       0.55015743       0.11801795       0.28316349
Te      53.51130542      35.40082655      22.39734923      -1.96214465       1.95500228       2.58250082       0.22075489       1.00388108      -0.15792356
Te      55.83478022      31.76842671      22.53074754      -3.86561778       1.32147484      -1.56647248       0.24754682      -0.12543897       0.07943371
Te      49.10454585      35.68848617      22.38490201       0.21216604       4.15801995       3.20201384      -0.01465829      -0.11702688       0.23076439
Te      53.40147645      31.18815926      25.39781052       3.18132619      -5.82502436      -2.25197201       0.72452355       0.04483936      -0.17829535
Te      55.62994524      34.38512072      25.37590446       1.26265468       1.88826959      -2.85474701      -0.35404957      -0.23481295      -0.02738172
Te      58.09622911      30.73700815      25.27352758      -0.59208768      -2.84231395      -0.56392645      -0.87212110       0.55707583      -0.33960556
Te      51.66562744      34.40086349      25.20367504       3.87976653       2.69415834      -1.74867029       0.57289464       0.31232859       0.02238882
Te      53.97339090      30.55641787      18.66252839      -0.93155225       1.03178455       3.49841356      -1.12266317      -0.38025069       0.58372797
Te      55.66589803      34.38938413      19.10487227       1.37367339      -1.95961995       0.38128132       0.39875955       0.01174972      -0.06883736
Te      57.87823444      30.91250629      18.88380462      -5.77517181      -1.21806735       4.14022331       0.01341300      -0.50261984       0.24266783
Te      51.52433268      34.58551492      18.98825772      -0.92660214       1.62606167       1.64931351      -0.56730437      -0.47859458       0.14873580
Te      51.33521987      29.37269559      32.19911323       5.57743451       0.16789148      -4.05406403       0.16383763       0.34374458      -0.09997796
Te      53.62823691      33.31698669      32.27905825       0.18610164       0.92588935      -1.71864232      -0.07835237      -0.08806677      -0.48594522
Te      55.73892099      29.62864351      32.29375026       3.27422154      -1.24365100       2.70016225       0.04676708      -0.03570372      -0.13371441
Te      49.06270155      33.75845960      32.40402564       4.16215717      -0.95755997       5.10984497      -0.29358048      -0.60194546       0.11205018
Te      51.42308515      32.00491301      28.85745119       4.75051126      -5.29733176       1.47393301      -0.27444797      -0.06888036      -0.07032180
Te      53.79083954      36.20459576      28.95181271       1.33455760       1.51311005       1.10611046      -1.23203150      -0.79418414      -0.58200238
Te      55.79402244      32.18285687      29.00914848      -3.15027424      -1.46140333      -0.58312787       0.21789246      -0.58066168      -0.63987867
Te      49.25762700      35.73835482      28.87098610       1.59465684      -0.69962529       3.54025947       0.04498515       0.11266982      -0.71983564
Sb      51.38321488      32.00720865      17.21550430       4.54413188       2.57770075       1.09258735       0.81992909      -0.36265076      -0.01406357
Sb      53.56319380      35.86265416      17.27314384      -1.92105110       1.09484410       0.66211231       0.35043807      -0.63842797      -0.91391269
Sb      55.76693761      32.03920680      16.94803118       0.56912750      -3.63919303      -2.57844767       0.33332292       0.16475596      -0.53376589
Sb      49.18709377      35.66681754      16.75270534       0.68882779       2.89397176       1.11702664       0.49501762       0.15319417      -0.02014642
Sb      51.33820169      29.52382598      26.79201698       0.45099653       0.05706884      -1.23978916      -0.83444467       0.31271527      -0.33233521
Sb      53.69739441      33.27032382      27.40477829       3.12216134      -2.78755656       5.00401115      -0.08553510       0.75978681      -0.62592548
Sb      55.72584608      29.69813379      26.83139929      -3.04395453      -1.21674066       1.14686714       0.11241028      -0.06077341      -0.09026281
Sb      58.15325788      33.33115695      26.76643510       0.17055780       2.41697114      -2.20133429      -0.54144179      -0.04221800      -0.08278344
Sb       0.04468270      -0.11559007      20.56874314      -0.55492856       0.31081738      -3.15389378      -0.07891532      -0.15672696       0.67564163
Sb      53.55840422      32.84730052      20.77461660       0.35589746      -2.15332354      -1.51392286      -0.06930712       0.42170934       0.00376210
Sb      55.60757916      29.19493534      20.75920791       1.69022826       0.77437972      -2.93424683      -0.20130478       0.68064106       0.10664273
Sb     -18.88218361      33.41076277      20.42365331       0.35940510       2.11680901       1.93026246      -0.41135296      -0.15883719       1.08628260
Sb      53.55344348      30.50745441      30.48867432       1.96775816       3.00855486      -0.40088546       0.00157936       0.71390851       0.67993226
Sb      55.64474070      34.66972770      30.60766664      -1.23024264      -2.15447674       0.80688721       0.37239160       0.24389086       1.00087917
Sb      57.94694561      30.80926763      30.76392923      -2.14565465      -0.40616029      -3.72090996      -0.76101664       0.54816965      -0.47856120
Sb      51.27937970      34.61468187      30.91769849      -0.34109205       1.99684027      -1.84624491       0.93106763       0.05711260      -0.28262755
Te      55.72377164      36.74170794      15.36384016       2.37933939       0.72981917      -0.14254672      -0.18206945       0.35745183       0.32330259
Te      61.98868524      33.09421324      15.27416430      -2.66152617       1.88462347      -3.66678521       0.85616253       0.43472875      -0.69949746
Te      59.82876571      36.77769153      15.28691772      -0.00142881       2.87762576      -0.22999230       0.54314932      -0.06024174      -0.78334830
Te      57.93601860      33.18328826      15.16558948       2.15185887       1.61984452      -3.51477207      -0.01339743       0.20396959       0.41364182
Te      60.33647432      32.17065839      22.67534888       2.78488409       3.77243234       2.04737420      -0.26428305      -0.43957723      -0.89967505
Te      61.90149202      35.10134888      22.20244695       1.51590003      -3.43633089      -0.63368891       0.49987084       1.65597208       0.48026908
Te      64.39235302      32.37330860      22.59913533       5.12572106       3.31700963       0.37479970      -0.61993818      -0.53642151      -0.66125757
Te      57.86595850      35.80387261      22.63186392       2.81926829      -2.00088009       2.88555080      -0.34494169      -0.03313977      -0.24724318
Te      62.18321606      30.56904672      25.21601718      -2.02902904      -0.91357769      -1.47275877      -0.08071317       0.44046596       0.37691805
Te      64.22425287      34.81364431      25.06651226      -1.21027803      -1.09881761       0.95712279       0.42063446       0.04037002       0.03442431
Te      66.38181245      30.91072924      25.07727212      -0.95039508      -2.31293617       3.01950390      -0.32702383       0.26487062       0.31097504
Te      59.89699379      34.86800433      24.94392299       0.00781689       0.39749297      -2.98462929       0.10444351      -1.33072242      -0.04691682
Te      62.08809989      30.46965388      18.78215345       0.58691547       2.78066459       1.17734527      -0.30695261       0.15779918      -0.36462190
Te      64.47198097      34.56603476      18.71931021      -2.16577564       1.83622479       0.06371295      -0.57166410      -0.34693329      -0.07038572
Te      66.57493618      30.98799024      18.79336514       0.91932587       1.60478088       1.75363403      -0.52707456      -0.64683796      -0.40594082
Te      60.01396115      34.33285066      18.66891633      -1.45691833      -3.13525168      -4.39915179      -0.04499726       0.64539881       0.69299067
Te      59.82938310      29.95448172      32.57129777       0.39287884      -1.68115431      -2.55244798       1.03111249      -0.14931008       0.39983386
Te      62.32494367      33.55994242      32.40169544       1.21483353       2.43664138      -0.90327767      -0.28709002      -0.30076159      -0.38025674
Te      64.27181261      29.85284563      32.64223041       0.06862647      -0.66628342      -4.05723748      -0.18299001      -0.03933284      -0.33819677
Te      57.85734413      33.46886881      32.05565959      -2.10725579      -5.33030655      -1.55336120       0.18209515      -0.06068483       0.27291974
Te      60.25940951      32.29395381      28.57444585      -2.26279202      -1.21870157       1.07695817      -0.47116203      -0.31536444       0.71085074
Te      61.80544020      35.77203913      28.20047502       1.13338778       0.53003736       3.61545705       0.50830157       0.13701560       0.98376172
Te      64.62460514      32.18473026      28.74917654       3.76257274      -1.16539221      -2.87776058      -0.82594409      -0.21000482       0.25556133
Te      58.06124936      35.95161117      28.78369942       3.16354981      -0.62613688       0.21692686      -0.51012901      -0.30731944      -0.10035151
Sb      59.97075695      32.04233213      16.86838776      -1.25188186      -2.03253089      -2.70194339      -1.01834657      -0.70436081       0.52186564
Sb      62.13383194      35.61488525      16.69812104      -1.35548088      -0.65148109       1.64971909       0.14397335       0.27078372       0.37573867
Sb      64.09519825      32.07670989      16.98149594       2.73221865      -2.23456544      -1.08525009       0.49071805      -0.41965896      -0.33144222
Sb      57.87037507      35.69327041      16.94087090       2.25307681      -1.00647605       1.44995659      -0.78349443      -0.68213013       0.23136019
Sb      59.92035495      29.77023817      27.16327542       3.10549503      -0.44679018       4.75106925       0.44880034      -0.50018311      -0.21162416
Sb      62.31783778      33.18540785      26.78539053       1.16627103       0.70589416      -0.67308799       0.52530468       0.13146410       0.85634871
Sb      64.40372886      29.64667423      27.10135574       2.24894975      -1.73013147       0.30872812      -0.53625626       0.50266300      -0.58018078
Sb      49.54260217      33.21094837      26.76477965       4.30253012      -4.34291785       4.61619667      -0.16365406      -0.20392497      -0.29190985
Sb      60.01993204      29.40630678      21.09625714       0.03137806       4.88769040       1.70385604      -0.90485814       0.85982101      -0.71628182
Sb      62.10299462      33.11246771      20.34775263       0.49028375       2.00587980      -1.20900655       0.52811198      -0.65911949      -0.05602503
Sb      64.08015625      29.65455960      20.68868220       0.07173696       0.99038268       1.57849287       0.51593669       0.10708341       0.71571159
Sb      57.83384963      33.29070487      21.01359109       4.50243170       2.46421582      -1.76372245       0.06562287      -0.01039817      -0.37343044
Sb      62.24782327      31.02972422      30.94566608       4.51395913       0.42583581       2.87678232       0.12594325       0.04567570       0.11544696
Sb      64.30668918      34.68933691      30.60529690       0.99085696      -2.36604155       0.88618183       0.07987092      -0.14536897       0.02137963
Sb      66.47899181      31.18525151      30.95643505       1.04416958       3.48132898       2.43136796      -0.30011197      -0.52795112       0.35562510
Sb      60.04074287      34.78034138      30.66263767      -2.42398423       1.11316192      -4.31921039       0.07954602      -0.59760292       0.50302798
Cr      53.88780415      33.18493300      23.53684515      -1.30395422      -0.51106680      -1.72536535      -0.73908528      -0.58297157       0.52216676
Cr      62.10079462      33.26286764      24.38183551      -1.09418600      -0.10673270      -1.94224771       0.13742666       0.13928025      -1.26033212
