61
Lattice="8.42843558953 0 0 -4.21421779477 7.29923593142 0 0 0 31.0334408416" Properties=species:S:1:pos:R:3:forces:R:3 energy=-133596.881873 ionic_step=0 pbc="T T T"
Te 2.1009886352 1.213006353 3.5204453746 0.00197897826683 0.00114259833932 -0.0200741467014
Te 3.2734e-08 -2.42600924582 3.5204453746 -0 -0.00228545378899 -0.0200738895911
Te -2.10098856963 1.213006353 3.5204453746 -0.00197897826683 0.00114259833932 -0.0200741467014
Te 4.21421779477 -2.43307633713 3.5136864596 0 -2.57110337382e-07 -0.019076301482
Te 0 0 6.805589125 0 2.57110337382e-07 0.00968380374714
Te -2.09106816807 -3.65887735432 6.7735386378 -0.00441381316183 0.00254796344345 0.0174778465145
Te -4.21421776203 0.0185222372 6.7735386378 -0 -0.00509644110758 0.0174778465145
Te -2.1231496267 3.6403585771 6.7735386378 0.00441381316183 0.00254796344345 0.0174778465145
Te 0 0 0.0130412418 0 2.57110337382e-07 -0.00110506023007
Te -2.10589527087 -3.65031691412 0.0015592574 -0.000518848660836 0.000299276432712 0.00242043671611
Te -4.21421776203 0.0014013568 0.0015592574 -0 -0.000598809975762 0.00242043671611
Te 2.10589527087 -3.65031691412 0.0015592574 0.000518848660836 0.000299276432712 0.00242043671611
Te 0 2.288781578 14.2238239444 0 0.017828030794 -0.0393309396403
Te -1.98214294697 -1.14438732902 14.2238239444 -0.0154394757598 -0.00891401539702 -0.0393306825299
Te -4.21421776203 2.4330797971 13.8003403598 -0 2.57110337382e-07 -0.0208585903408
Te 1.98214294697 -1.14438732902 14.2238239444 0.0154394757598 -0.00891401539702 -0.0393306825299
Te 2.107990198 1.2170487067 -13.8581743881 0.00713326920032 0.00411865049452 0.00822238858946
Te 3.2734e-08 -2.43409395323 -13.8581743881 -0 -0.0082370438787 0.0082226456998
Te -2.10799013243 1.2170487067 -13.8581743881 -0.00713326920032 0.00411865049452 0.00822238858946
Te 4.21421779477 -2.43307633713 -14.0948296953 0 -2.57110337382e-07 0.0441980383269
Te 2.0766942386 1.198979967 10.2814975425 -0.00338100093657 -0.00195172457106 0.0361759386903
Te 3.2734e-08 -2.39795647392 10.2814975425 -0 0.0039039633628 0.0361761958006
Te -2.07669417313 1.198979967 10.2814975425 0.00338100093657 -0.00195172457106 0.0361759386903
Te 4.21421779477 -2.43307633713 10.2682323057 0 -2.57110337382e-07 0.0434493330245
Te 0 0 -6.78861236241 0 2.57110337382e-07 -0.021274851977
Te -2.09734490907 -3.65525346932 -6.83902091021 -0.00410450942596 0.00236952886931 -0.0137482039605
Te 4.2142178275 0.0112744671 -6.83902091021 -0 -0.00473931484896 -0.0137482039605
Te 2.09734490907 -3.65525346932 -6.83902091021 0.00410450942596 0.00236952886931 -0.0137482039605
Te 0 2.4368732782 -3.50757830201 0 -0.000254539234008 0.0178979648058
Te -2.11039413127 -1.21843317903 -3.50757830201 0.000220600669473 0.000127269617004 0.0178979648058
Te -4.21421776203 2.4330797971 -3.49205199471 -0 2.57110337382e-07 0.0149177988852
Te 2.11039413127 -1.21843317903 -3.50757830201 -0.000220600669473 0.000127269617004 0.0178979648058
Te 0 2.4299003279 -10.3453295427 0 0.00625215207411 -0.0130982290276
Te -2.10435538217 -1.21494670392 -10.3453295427 -0.00541422948458 -0.00312620459222 -0.0130982290276
Te -4.21421776203 2.4330797971 -10.3071187486 -0 2.57110337382e-07 -0.00829026571853
Te 2.10435538217 -1.21494670392 -10.3453295427 0.00541422948458 -0.00312620459222 -0.0130982290276
Sb 0 2.4323012241 8.4353661333 0 0.01284857489 -0.00789328735762
Sb -2.10643461167 -1.21614715203 8.4353661333 -0.0111269640709 -0.00642415888982 -0.00789328735762
Sb -4.21421776203 2.4330797971 8.1967102233 -0 2.57110337382e-07 -0.00735181298709
Sb 2.10643461167 -1.21614715203 8.4353661333 0.0111269640709 -0.00642415888982 -0.00789328735762
Sb 0 2.4267179867 1.9047387457 0 0.00048799542035 0.0107932348529
Sb -2.10159939207 -1.21335553332 1.9047387457 -0.000422432284318 -0.000243997710175 0.0107932348529
Sb -4.21421776203 2.4330797971 1.9208949577 -0 2.57110337382e-07 0.0113773895395
Sb 2.10159939207 -1.21335553332 1.9047387457 0.000422432284318 -0.000243997710175 0.0107932348529
Sb 0 0 -12.2142022106 0 0 -0.0253551930312
Sb -2.11033144367 -3.64775568382 -12.3086946289 -0.00444466640232 0.00256596116707 -0.0252819165851
Sb -4.21421776203 -0.0037211038 -12.3086946289 -0 -0.00513217944447 -0.0252821736954
Sb -2.10388628553 3.6514802476 -12.3086946289 0.00444466640232 0.00256596116707 -0.0252819165851
Sb 0 0 11.8804036881 0 0 0.00759246826288
Sb -2.23572611787 -3.57535903123 12.4831743882 0.0479654761006 -0.0276928402187 -0.0117147183021
Sb 4.2142178275 -0.1485144087 12.4831743882 -0 0.0553854233271 -0.0117147183021
Sb 2.23572611787 -3.57535903123 12.4831743882 -0.0479654761006 -0.0276928402187 -0.0117147183021
Sb 2.1090938616 1.2176859088 -1.91290458441 0.000188204766963 0.000108757672712 -0.0103888002922
Sb 3.2734e-08 -2.43536835742 -1.91290458441 -0 -0.000217258235087 -0.0103888002922
Sb -2.10909379603 1.2176859088 -1.91290458441 -0.000188204766963 0.000108757672712 -0.0103888002922
Sb 4.21421779477 -2.43307633713 -1.90959797451 0 -0 -0.0102286205521
Sb 2.1006390126 1.2128044998 -8.45507210631 0.00302104646423 0.0017442365288 0.00808586300031
Sb 3.2734e-08 -2.42560553942 -8.45507210631 0 -0.00348847305759 0.00808586300031
Sb -2.10063894713 1.2128044998 -8.45507210631 -0.00302104646423 0.0017442365288 0.00808586300031
Sb 4.21421779477 -2.43307633713 -8.40050483261 0 -0 0.00626732158401
Cr -4.21421779477 -2.43307633713 14.3511646265 -0 2.57110337382e-07 0.09742373482
61
Lattice="8.42843558953 0 0 -4.21421779477 7.29923593142 0 0 0 31.0334408416" Properties=species:S:1:pos:R:3:forces:R:3 energy=-133596.900434 ionic_step=1 pbc="T T T"
Te 2.1008580958 1.212930986 3.5169304007 0.00203759942375 0.00117653690386 -0.0194712229602
Te 3.27e-08 -2.4258585119 3.5169304007 -0 -0.00235307380772 -0.0194709658499
Te -2.1008580303 1.212930986 3.5169304007 -0.00203759942375 0.00117653690386 -0.0194712229602
Te 4.2142177948 -2.4330763371 3.5098400678 0 -2.57110337382e-07 -0.0183725904886
Te 0 0 6.8073564588 0 2.57110337382e-07 0.0092659994489
Te -2.0912783346 -3.6587560145 6.7772954657 -0.00441818403757 0.00255053454683 0.0167674506523
Te -4.214217762 0.0182795576 6.7772954657 -0 -0.00510132620399 0.0167674506523
Te -2.1229394601 3.6404799169 6.7772954657 0.00441818403757 0.00255053454683 0.0167674506523
Te 0 0 0.0130577206 0 2.57110337382e-07 -0.00115931051125
Te -2.1058257774 -3.6503570362 0.0018701657 -0.000537360605128 0.000309817956545 0.00233481897376
Te -4.214217762 0.001481601 0.0018701657 -0 -0.000620150133764 0.00233481897376
Te 2.1058257774 -3.6503570362 0.0018701657 0.000537360605128 0.000309817956545 0.00233481897376
Te 0 2.2893729185 14.2228978171 0 0.0178735393238 -0.0395268577174
Te -1.9826550626 -1.1446829993 14.2228978171 -0.0154788136414 -0.00893664110671 -0.0395268577174
Te -4.214217762 2.4330797971 13.7956871777 -0 2.57110337382e-07 -0.0197589294278
Te 1.9826550626 -1.1446829993 14.2228978171 0.0154788136414 -0.00893664110671 -0.0395268577174
Te 2.107308795 1.2166552983 -13.8549772116 0.00756290057408 0.00436676197009 0.00784700749689
Te 3.27e-08 -2.4333071364 -13.8549772116 -0 -0.0087330097195 0.00784700749689
Te -2.1073087294 1.2166552983 -13.8549772116 -0.00756290057408 0.00436676197009 0.00784700749689
Te 4.2142177948 -2.4330763371 -14.0935343907 0 -2.57110337382e-07 0.0441224478877
Te 2.0774781568 1.1994325626 10.2806929168 -0.00379443435908 -0.00219058007449 0.0363631150159
Te 3.27e-08 -2.3988616651 10.2806929168 -0 0.00438141725932 0.0363633721262
Te -2.0774780914 1.1994325626 10.2806929168 0.00379443435908 -0.00219058007449 0.0363631150159
Te 4.2142177948 -2.4330763371 10.2689654083 0 -2.57110337382e-07 0.0439476128583
Te -0 -0 -6.7917592317 0 2.57110337382e-07 -0.0207809430189
Te -2.0970101027 -3.6554467699 -6.842415532 -0.00421198154699 0.00243149246062 -0.0130568342633
Te 4.2142178275 0.0116610683 -6.842415532 -0 -0.00486324203157 -0.0130568342633
Te 2.0970101027 -3.6554467699 -6.842415532 0.00421198154699 0.00243149246062 -0.0130568342633
Te 0 2.4369877297 -3.5043085715 0 -0.000253253682321 0.0172523607486
Te -2.1104932492 -1.2184904048 -3.5043085715 0.000219572228124 0.000126498285992 0.0172523607486
Te -4.214217762 2.4330797971 -3.4886001917 -0 2.57110337382e-07 0.0142382562635
Te 2.1104932492 -1.2184904048 -3.5043085715 -0.000219572228124 0.000126498285992 0.0172523607486
Te 0 2.4304127996 -10.3459158687 0 0.00617167653851 -0.0130779173109
Te -2.1047991955 -1.2152029398 -10.3459158687 -0.00534455258315 -0.00308583826925 -0.0130779173109
Te -4.214217762 2.4330797971 -10.3075282588 -0 2.57110337382e-07 -0.00830594944911
Te 2.1047991955 -1.2152029398 -10.3459158687 0.00534455258315 -0.00308583826925 -0.0130779173109
Sb 0 2.4322657194 8.4370584901 0 0.012933935522 -0.0079048573228
Sb -2.1064038637 -1.2161293997 8.4370584901 -0.011201011848 -0.00646683920582 -0.0079048573228
Sb -4.214217762 2.4330797971 8.1993689349 -0 2.57110337382e-07 -0.00693735112323
Sb 2.1064038637 -1.2161293997 8.4370584901 0.011201011848 -0.00646683920582 -0.0079048573228
Sb 0 2.4268416347 1.9019533375 0 0.000471283248421 0.0109945522471
Sb -2.1017064743 -1.2134173573 1.9019533375 -0.000408034105425 -0.000235770179379 0.0109948093575
Sb -4.214217762 2.4330797971 1.9186413113 -0 2.57110337382e-07 0.011537055059
Sb 2.1017064743 -1.2134173573 1.9019533375 0.000408034105425 -0.000235770179379 0.0109948093575
Sb 0 0 -12.2110365664 0 0 -0.0255590815288
Sb -2.1105695315 -3.6476182237 -12.3072098587 -0.00443978130591 0.00256313295336 -0.0254320690221
Sb -4.214217762 -0.0039960241 -12.3072098587 -0 -0.00512652301705 -0.0254323261324
Sb -2.1036481977 3.6516177078 -12.3072098587 0.00443978130591 0.00256313295336 -0.0254320690221
Sb 0 0 11.8760032993 0 0 0.00734564233899
Sb -2.2366239491 -3.5748406679 12.4830628788 0.047928452212 -0.0276715000607 -0.0116645817863
Sb 4.2142178275 -0.1495511354 12.4830628788 -0 0.0553427430111 -0.011664324676
Sb 2.2366239491 -3.5748406679 12.4830628788 -0.047928452212 -0.0276715000607 -0.0116645817863
Sb 2.1089205679 1.2175858576 -1.9105102527 0.000219572228124 0.000127012506667 -0.0105880608037
Sb 3.27e-08 -2.435168255 -1.9105102527 -0 -0.000253767902996 -0.0105880608037
Sb -2.1089205023 1.2175858576 -1.9105102527 -0.000219572228124 0.000127012506667 -0.0105880608037
Sb 4.2142177948 -2.4330763371 -1.9070653791 0 -0 -0.0104618196281
Sb 2.1005272549 1.2127399765 -8.4576931411 0.00308223872453 0.00177946064502 0.00825941247805
Sb 3.27e-08 -2.4254764927 -8.4576931411 0 -0.00355892129004 0.00825966958838
Sb -2.1005271895 1.2127399765 -8.4576931411 -0.00308223872453 0.00177946064502 0.00825941247805
Sb 4.2142177948 -2.4330763371 -8.4028093624 0 -0 0.00634445468523
Cr -4.2142177948 -2.4330763371 14.3524737463 -0 2.57110337382e-07 0.0972437575838
61
Lattice="8.42843558953 0 0 -4.21421779477 7.29923593142 0 0 0 31.0334408416" Properties=species:S:1:pos:R:3:forces:R:3 energy=-133596.920089 ionic_step=2 pbc="T T T"
Te 2.1007183587 1.2128503087 3.5130859123 0.00210316255978 0.00121458923379 -0.0187957941039
Te 3.27e-08 -2.4256971572 3.5130859123 -0 -0.00242892135724 -0.0187957941039
Te -2.1007182931 1.2128503087 3.5130859123 -0.00210316255978 0.00121458923379 -0.0187957941039
Te 4.2142177948 -2.4330763371 3.5056315957 0 -2.57110337382e-07 -0.0175835188632
Te 0 0 6.8092970864 0 2.57110337382e-07 0.00880217240026
Te -2.0915045478 -3.6586254103 6.7814479108 -0.00442332624431 0.00255336276054 0.0159657806204
Te -4.214217762 0.0180183491 6.7814479108 -0 -0.00510723974175 0.0159657806204
Te -2.122713247 3.6406105212 6.7814479108 0.00442332624431 0.00255336276054 0.0159657806204
Te 0 0 0.0130604206 0 2.57110337382e-07 -0.00121510345447
Te -2.1057466817 -3.6504027021 0.0021998162 -0.000558443652793 0.000322159252739 0.00224328769365
Te -4.214217762 0.0015729328 0.0021998162 -0 -0.000644575615816 0.00224328769365
Te 2.1057466817 -3.6504027021 0.0021998162 0.000558443652793 0.000322159252739 0.00224328769365
Te -0 2.2900324227 14.2218938125 0 0.0179959238444 -0.039733831539
Te -1.9832262097 -1.1450127514 14.2218938125 -0.0155847431004 -0.00899809047734 -0.039733831539
Te -4.214217762 2.4330797971 13.7905686775 -0 2.57110337382e-07 -0.0185240284773
Te 1.9832262097 -1.1450127514 14.2218938125 0.0155847431004 -0.00899809047734 -0.039733831539
Te 2.1065526424 1.2162187332 -13.85148312 0.0080382975879 0.00464109870008 0.00742534654358
Te 3.27e-08 -2.4324340062 -13.85148312 -0 -0.00928194028981 0.00742560365392
Te -2.1065525768 1.2162187332 -13.85148312 -0.0080382975879 0.00464109870008 0.00742534654358
Te 4.2142177948 -2.4330763371 -14.0921008073 0 -2.57110337382e-07 0.0439571259408
Te 2.0783621148 1.1999429162 10.2798210018 -0.00425697585603 -0.00245746060469 0.0365690603961
Te 3.27e-08 -2.3998823723 10.2798210018 -0 0.00491543543006 0.0365693175065
Te -2.0783620493 1.1999429162 10.2798210018 0.00425697585603 -0.00245746060469 0.0365690603961
Te 4.2142177948 -2.4330763371 10.2697656972 0 -2.57110337382e-07 0.0445160838143
Te 0 0 -6.7952183401 0 2.57110337382e-07 -0.0202248133591
Te -2.0966353298 -3.6556631453 -6.8461139707 -0.00433102363319 0.0025001409207 -0.0122901312372
Te 4.2142178275 0.012093819 -6.8461139707 -0 -0.00500079606207 -0.0122898741268
Te 2.0966353298 -3.6556631453 -6.8461139707 0.00433102363319 0.0025001409207 -0.0122901312372
Te -0 2.4371147486 -3.5007310081 0 -0.000252996571984 0.0165311662523
Te -2.1106032506 -1.2185539142 -3.5007310081 0.000219315117787 0.000126241175654 0.0165311662523
Te -4.214217762 2.4330797971 -3.4848243842 -0 2.57110337382e-07 0.0134828660923
Te 2.1106032506 -1.2185539142 -3.5007310081 -0.000219315117787 0.000126241175654 0.0165311662523
Te -0 2.4309871861 -10.346562671 0 0.0060801452584 -0.0130527204979
Te -2.1052966286 -1.215490133 -10.346562671 -0.0052651054889 -0.0030400726292 -0.0130527204979
Te -4.214217762 2.4330797971 -10.3080203861 -0 2.57110337382e-07 -0.00831520542126
Te 2.1052966286 -1.215490133 -10.346562671 0.0052651054889 -0.0030400726292 -0.0130527204979
Sb -0 2.4322198805 8.4389383071 0 0.0130277807951 -0.00791719861899
Sb -2.1063641661 -1.2161064802 8.4389383071 -0.0112822587146 -0.00651389039756 -0.00791719861899
Sb -4.214217762 2.4330797971 8.2023049482 -0 2.57110337382e-07 -0.00648586537079
Sb 2.1063641661 -1.2161064802 8.4389383071 0.0112822587146 -0.00651389039756 -0.00791719861899
Sb -0 2.4269774186 1.8989013385 0 0.000452771304129 0.0112172097993
Sb -2.1018240666 -1.2134852493 1.8989013385 -0.000392093264507 -0.000226257096896 0.0112174669096
Sb -4.214217762 2.4330797971 1.9161694051 -0 2.57110337382e-07 0.0117136898608
Sb 2.1018240666 -1.2134852493 1.8989013385 0.000392093264507 -0.000226257096896 0.0112174669096
Sb -0 0 -12.2075678364 0 0 -0.0257843101843
Sb -2.1108209664 -3.6474730576 -12.3055914443 -0.00443618176118 0.00256107607066 -0.0256009905138
Sb -4.214217762 -0.0042863563 -12.3055914443 -0 -0.00512240925165 -0.0256009905138
Sb -2.1033967628 3.6517628738 -12.3055914443 0.00443618176118 0.00256107607066 -0.0256009905138
Sb 0 0 11.8711241196 0 0 0.00706127830585
Sb -2.2376118984 -3.5742702748 12.4829100874 0.0476767411917 -0.0275262327201 -0.0114100425523
Sb 4.2142178275 -0.1506919215 12.4829100874 -0 0.0550522083298 -0.011409785442
Sb 2.2376118984 -3.5742702748 12.4829100874 -0.0476767411917 -0.0275262327201 -0.0114100425523
Sb 2.1087367058 1.2174797047 -1.9078975004 0.000253767902996 0.000146552892308 -0.0108089185835
Sb 3.27e-08 -2.4349559492 -1.9078975004 -0 -0.000293105784615 -0.0108089185835
Sb -2.1087366402 1.2174797047 -1.9078975004 -0.000253767902996 0.000146552892308 -0.0108089185835
Sb 4.2142177948 -2.4330763371 -1.9042912604 0 -0 -0.0107199584068
Sb 2.1004105667 1.2126726064 -8.4605703883 0.00314831608124 0.00181777008529 0.00845198812075
Sb 3.27e-08 -2.4253417527 -8.4605703883 0 -0.00363554017058 0.00845198812075
Sb -2.1004105013 1.2126726064 -8.4605703883 -0.00314831608124 0.00181777008529 0.00845198812075
Sb 4.2142177948 -2.4330763371 -8.40532876 0 -0 0.00643135797926
Cr -4.2142177948 -2.4330763371 14.3539394258 -0 2.57110337382e-07 0.0965037940328
61
Lattice="8.42843558953 0 0 -4.21421779477 7.29923593142 0 0 0 31.0334408416" Properties=species:S:1:pos:R:3:forces:R:3 energy=-133596.948218 ionic_step=3 pbc="T T T"
Te 2.1005127342 1.2127315913 3.5073053908 0.00220652091541 0.00127423883206 -0.0177521832445
Te 3.27e-08 -2.4254597224 3.5073053908 -0 -0.00254822055379 -0.0177521832445
Te -2.1005126686 1.2127315913 3.5073053908 -0.00220652091541 0.00127398172173 -0.0177521832445
Te 4.2142177948 -2.4330763371 3.4993042407 0 -2.57110337382e-07 -0.0163622447606
Te 0 0 6.8121643374 0 2.57110337382e-07 0.00810514627562
Te -2.0918628329 -3.6584185541 6.7877454799 -0.00442384046499 0.00255387698121 0.0147216236978
Te -4.214217762 0.0176046368 6.7877454799 -0 -0.00510801107276 0.0147216236978
Te -2.1223549618 3.6408173773 6.7877454799 0.00442384046499 0.00255387698121 0.0147216236978
Te 0 0 0.0130188049 0 2.57110337382e-07 -0.00128812279028
Te -2.1056211787 -3.6504751614 0.0026792994 -0.000592639327665 0.00034169963838 0.0021108758699
Te -4.214217762 0.0017178513 0.0026792994 -0 -0.000683913497435 0.0021108758699
Te 2.1056211787 -3.6504751614 0.0026792994 0.000592639327665 0.00034169963838 0.0021108758699
Te -0 2.2910131041 14.2204700714 0 0.018165616667 -0.0400282228753
Te -1.9840755044 -1.1455030921 14.2204700714 -0.0157318102134 -0.00908293688868 -0.0400282228753
Te -4.214217762 2.4330797971 13.7828909271 -0 2.57110337382e-07 -0.0166229546427
Te 1.9840755044 -1.1455030921 14.2204700714 0.0157318102134 -0.00908293688868 -0.0400282228753
Te 2.1053682151 1.2155349034 -13.8463437921 0.00876617695303 0.00506147410169 0.00677794271405
Te 3.27e-08 -2.4310663467 -13.8463437921 -0 -0.0101224339827 0.00677819982439
Te -2.1053681495 1.2155349034 -13.8463437921 -0.00876617695303 0.00506147410169 0.00677794271405
Te 4.2142177948 -2.4330763371 -14.0899213803 0 -2.57110337382e-07 0.0437041293688
Te 2.0797364978 1.200736417 10.2785796422 -0.00497148548361 -0.00287012269619 0.0368714221529
Te 3.27e-08 -2.4014693739 10.2785796422 -0 0.00574024539238 0.0368714221529
Te -2.0797364323 1.200736417 10.2785796422 0.00497148548361 -0.00287012269619 0.0368714221529
Te 4.2142177948 -2.4330763371 10.2709955472 0 -2.57110337382e-07 0.0453779176652
Te -0 -0 -6.800480589 0 2.57110337382e-07 -0.0193583515221
Te -2.0960402024 -3.6560067424 -6.851630036 -0.00451665729678 0.00260735593139 -0.0111197649814
Te 4.2142178275 0.0127810133 -6.851630036 -0 -0.00521496897311 -0.0111197649814
Te 2.0960402024 -3.6560067424 -6.851630036 0.00451665729678 0.00260735593139 -0.0111197649814
Te -0 2.4373109712 -3.49534062 0 -0.000255824785695 0.0154155644984
Te -2.1107731844 -1.2186520255 -3.49534062 0.00022188622116 0.000127783837679 0.0154155644984
Te -4.214217762 2.4330797971 -3.4791169463 -0 2.57110337382e-07 0.012323555581
Te 2.1107731844 -1.2186520255 -3.49534062 -0.00022188622116 0.000127783837679 0.0154155644984
Te -0 2.4319122018 -10.3475624897 0 0.00592382217327 -0.0130138968369
Te -2.1060977152 -1.2159526409 -10.3475624897 -0.00512986545144 -0.00296191108664 -0.0130138968369
Te -4.214217762 2.4330797971 -10.3089054551 -0 2.57110337382e-07 -0.00832034762801
Te 2.1060977152 -1.2159526409 -10.3475624897 0.00512986545144 -0.00296191108664 -0.0130138968369
Sb -0 2.4321146411 8.4417489546 0 0.0131697057014 -0.00793339657025
Sb -2.1062730261 -1.2160538605 8.4417489546 -0.0114051574559 -0.00658485285068 -0.00793339657025
Sb -4.214217762 2.4330797971 8.2066993621 -0 2.57110337382e-07 -0.0058173784936
Sb 2.1062730261 -1.2160538605 8.4417489546 0.0114051574559 -0.00658485285068 -0.00793339657025
Sb -0 2.4271858951 1.8943017302 0 0.000423717836005 0.0115601949894
Sb -2.1020046124 -1.2135894875 1.8943017302 -0.000366896451444 -0.000211858918002 0.0115601949894
Sb -4.214217762 2.4330797971 1.9124349885 -0 2.57110337382e-07 0.0119862268184
Sb 2.1020046124 -1.2135894875 1.8943017302 0.000366896451444 -0.000211858918002 0.0115601949894
Sb 0 -0 -12.2024092365 0 0 -0.026124724271
Sb -2.1111923287 -3.6472586514 -12.3032245091 -0.0044328393268 0.0025592762983 -0.0258601577338
Sb -4.214217762 -0.0047151687 -12.3032245091 -0 -0.00511855259659 -0.0258601577338
Sb -2.1030254005 3.6519772801 -12.3032245091 0.0044328393268 0.0025592762983 -0.0258601577338
Sb 0 -0 11.8637524974 0 0 0.00660722145003
Sb -2.2391429597 -3.5733863158 12.4827167386 0.0473319562293 -0.0273272293189 -0.0110560016177
Sb 4.2142178275 -0.1524598396 12.4827167386 -0 0.0546539444172 -0.0110560016177
Sb 2.2391429597 -3.5733863158 12.4827167386 -0.0473319562293 -0.0273272293189 -0.0110560016177
Sb 2.1084660152 1.2173234213 -1.9039557196 0.00030441863946 0.000175863470769 -0.0111475328979
Sb 3.27e-08 -2.4346433825 -1.9039557196 -0 -0.000351469831201 -0.0111475328979
Sb -2.1084659496 1.2173234213 -1.9039557196 -0.00030441863946 0.000175863470769 -0.0111475328979
Sb 4.2142177948 -2.4330763371 -1.9000765683 0 -0 -0.0111153941057
Sb 2.1002577385 1.212584371 -8.4648996921 0.00324447534742 0.00187330591816 0.00874098013996
Sb 3.27e-08 -2.4251652818 -8.4648996921 0 -0.00374635472599 0.00874098013996
Sb -2.100257673 1.212584371 -8.4648996921 -0.00324447534742 0.00187330591816 0.00874098013996
Sb 4.2142177948 -2.4330763371 -8.4091028954 0 -0 0.00656197003065
Cr -4.2142177948 -2.4330763371 14.3562348723 -0 2.57110337382e-07 0.0954810091107
61
Lattice="8.42843558953 0 0 -4.21421779477 7.29923593142 0 0 0 31.0334408416" Properties=species:S:1:pos:R:3:forces:R:3 energy=-133596.987127 ionic_step=4 pbc="T T T"
Te 2.1002156716 1.212560082 3.4987160514 0.00236927175897 0.00136808410521 -0.0161329023397
Te 3.27e-08 -2.4251167039 3.4987160514 -0 -0.00273616821042 -0.0161329023397
Te -2.100215606 1.212560082 3.4987160514 -0.00236927175897 0.00136808410521 -0.0161329023397
Te 4.2142177948 -2.4330763371 3.489904469 0 -2.57110337382e-07 -0.0144639991397
Te 0 0 6.8163987572 0 2.57110337382e-07 0.00705047967168
Te -2.0924039291 -3.658106152 6.7972715672 -0.00442075514094 0.00255207720885 0.0127716988991
Te -4.214217762 0.0169798325 6.7972715672 -0 -0.0051041544177 0.0127716988991
Te -2.1218138657 3.6411297795 6.7972715672 0.00442075514094 0.00255207720885 0.0127716988991
Te 0 0 0.0129001144 0 2.57110337382e-07 -0.00139019559422
Te -2.105418766 -3.6505920244 0.0033807861 -0.000650746263913 0.000375381092577 0.00191444357214
Te -4.214217762 0.0019515774 0.0033807861 -0 -0.000751276405829 0.00191444357214
Te 2.105418766 -3.6505920244 0.0033807861 0.000650746263913 0.000375381092577 0.00191444357214
Te -0 2.2925199109 14.2184270515 0 0.0184798054993 -0.0404406278564
Te -1.9853804367 -1.1462564955 14.2184270515 -0.0160038329503 -0.00924003130482 -0.0404406278564
Te -4.214217762 2.4330797971 13.7713743015 -0 2.57110337382e-07 -0.0136828979348
Te 1.9853804367 -1.1462564955 14.2184270515 0.0160038329503 -0.00924003130482 -0.0404406278564
Te 2.1035435762 1.2144814472 -13.8387899427 0.00987252273478 0.00570013617975 0.00578112593603
Te 3.27e-08 -2.4289594342 -13.8387899427 -0 -0.0114000152492 0.00578138304636
Te -2.1035435106 1.2144814472 -13.8387899427 -0.00987252273478 0.00570013617975 0.00578112593603
Te 4.2142177948 -2.4330763371 -14.0865803319 0 -2.57110337382e-07 0.0432343887824
Te 2.0818739564 1.2019704799 10.276800826 -0.00607294616895 -0.00350595656054 0.0373136519332
Te 3.27e-08 -2.4039374997 10.276800826 -0 0.00701217023141 0.0373139090435
Te -2.081873891 1.2019704799 10.276800826 0.00607294616895 -0.00350595656054 0.0373136519332
Te 4.2142177948 -2.4330763371 10.2728538658 0 -2.57110337382e-07 0.0466920085995
Te -0 -0 -6.8084840653 0 2.57110337382e-07 -0.0179969522857
Te -2.0950887234 -3.6565560793 -6.8598276907 -0.00480616353667 0.00277447765069 -0.00933284813662
Te 4.2142178275 0.0138796871 -6.8598276907 -0 -0.00554946952205 -0.00933284813662
Te 2.0950887234 -3.6565560793 -6.8598276907 0.00480616353667 0.00277447765069 -0.00933284813662
Te -0 2.437614769 -3.4873804334 0 -0.000267908971552 0.013698324555
Te -2.1110362808 -1.2188039244 -3.4873804334 0.000232427744993 0.000133954485776 0.0136980674447
Te -4.214217762 2.4330797971 -3.4705859466 -0 2.57110337382e-07 0.0105479515911
Te 2.1110362808 -1.2188039244 -3.4873804334 -0.000232427744993 0.000133954485776 0.0136980674447
Te -0 2.4333851988 -10.3490875462 0 0.00566491206353 -0.012953733018
Te -2.1073733675 -1.2166891394 -10.3490875462 -0.00490566523724 -0.00283258458693 -0.012953733018
Te -4.214217762 2.4330797971 -10.3104541771 -0 2.57110337382e-07 -0.00831032032485
Te 2.1073733675 -1.2166891394 -10.3490875462 0.00490566523724 -0.00283258458693 -0.012953733018
Sb -0 2.4319094895 8.446046007 0 0.013380536178 -0.00795422250758
Sb -2.1060953598 -1.2159512847 8.446046007 -0.0115877057955 -0.00669026808901 -0.00795422250758
Sb -4.214217762 2.4330797971 8.2133351168 -0 2.57110337382e-07 -0.00483007479805
Sb 2.1060953598 -1.2159512847 8.446046007 0.0115877057955 -0.00669026808901 -0.00795422250758
Sb -0 2.4274962751 1.8874729907 0 0.000379237747638 0.0120803292019
Sb -2.1022734093 -1.2137446775 1.8874729907 -0.000328329900836 -0.00018949031865 0.0120803292019
Sb -4.214217762 2.4330797971 1.9068911011 -0 2.57110337382e-07 0.0123999173512
Sb 2.1022734093 -1.2137446775 1.8874729907 0.000328329900836 -0.00018949031865 0.0120803292019
Sb 0 -0 -12.1947455389 0 0 -0.0266335456287
Sb -2.1117212722 -3.6469532656 -12.2997344863 -0.00443258221646 0.00255901918796 -0.0262579074258
Sb -4.214217762 -0.0053259403 -12.2997344863 -0 -0.00511803837592 -0.0262581645361
Sb -2.102496457 3.6522826658 -12.2997344863 0.00443258221646 0.00255901918796 -0.0262579074258
Sb 0 -0 11.8525567002 0 0 0.00586777211972
Sb -2.2415093989 -3.5720200508 12.4823725445 0.0466220745877 -0.0269173954412 -0.0103355784524
Sb 4.2142178275 -0.1551923695 12.4823725445 -0 0.0538342766616 -0.0103353213421
Sb 2.2415093989 -3.5720200508 12.4823725445 -0.0466220745877 -0.0269173954412 -0.0103355784524
Sb 2.1080774618 1.2170990898 -1.8980970521 0.000379237747638 0.000219058007449 -0.0116578969176
Sb 3.27e-08 -2.4341947195 -1.8980970521 -0 -0.000437858904561 -0.0116578969176
Sb -2.1080773962 1.2170990898 -1.8980970521 -0.000379237747638 0.000219058007449 -0.0116578969176
Sb 4.2142177948 -2.4330763371 -1.8937647565 0 -0 -0.0117106045367
Sb 2.1000643704 1.2124727298 -8.4713739871 0.00338228648826 0.00195275301241 0.00918012459621
Sb 3.27e-08 -2.4249419995 -8.4713739871 0 -0.00390550602483 0.00918012459621
Sb -2.1000643049 1.2124727298 -8.4713739871 -0.00338228648826 0.00195275301241 0.00918012459621
Sb 4.2142177948 -2.4330763371 -8.414713306 0 -0 0.00676611563853
Cr -4.2142177948 -2.4330763371 14.3597774912 -0 2.57110337382e-07 0.0934387817009
61
Lattice="8.42843558953 0 0 -4.21421779477 7.29923593142 0 0 0 31.0334408416" Properties=species:S:1:pos:R:3:forces:R:3 energy=-133597.038476 ionic_step=5 pbc="T T T"
Te 2.0997753493 1.2123058617 3.4859631556 0.00263820917187 0.00152337874899 -0.0135833962342
Te 3.27e-08 -2.4246082633 3.4859631556 -0 -0.00304675749797 -0.0135833962342
Te -2.0997752837 1.2123058617 3.4859631556 -0.00263820917187 0.00152337874899 -0.0135833962342
Te 4.2142177948 -2.4330763371 3.4759600203 0 -2.57110337382e-07 -0.011471491923
Te -0 0 6.8226298803 0 2.57110337382e-07 0.00543145587719
Te -2.0932146453 -3.6576380846 6.811685421 -0.00441124205846 0.00254642078143 0.00966760579589
Te -4.214217762 0.0160436977 6.811685421 -0 -0.00509309867319 0.00966760579589
Te -2.1210031495 3.6415978469 6.811685421 0.00441124205846 0.00254642078143 0.00966760579589
Te 0 0 0.0126215316 0 2.57110337382e-07 -0.00152106475595
Te -2.1050928543 -3.6507801898 0.0043685804 -0.000748962412793 0.000431945366801 0.00163959262148
Te -4.214217762 0.0023279081 0.0043685804 -0 -0.000864404954277 0.00163959262148
Te 2.1050928543 -3.6507801898 0.0043685804 0.000748962412793 0.000431945366801 0.00163959262148
Te -0 2.2948201072 14.2155568327 0 0.0189186928452 -0.041008841702
Te -1.9873724642 -1.1474065936 14.2155568327 -0.016383842029 -0.00945934642261 -0.0410085845917
Te -4.214217762 2.4330797971 13.7540993631 -0 2.57110337382e-07 -0.00911327590849
Te 1.9873724642 -1.1474065936 14.2155568327 0.016383842029 -0.00945934642261 -0.0410085845917
Te 2.1007143811 1.2128480099 -13.8277319734 0.011559166548 0.00667381302741 0.00424180634612
Te 3.27e-08 -2.4256925596 -13.8277319734 -0 -0.0133473689445 0.00424180634612
Te -2.1007143155 1.2128480099 -13.8277319734 -0.011559166548 0.00667381302741 0.00424154923578
Te 4.2142177948 -2.4330763371 -14.0814632596 0 -2.57110337382e-07 0.0425083091896
Te 2.0851862815 1.2038828525 10.2742640946 -0.00776884595432 -0.00448503272529 0.0379533424526
Te 3.27e-08 -2.407762245 10.2742640946 -0 0.00897057967125 0.0379535995629
Te -2.085186216 1.2038828525 10.2742640946 0.00776884595432 -0.00448503272529 0.0379533424526
Te 4.2142177948 -2.4330763371 10.2756052641 0 -2.57110337382e-07 0.0486668731009
Te -0 -0 -6.8206581052 0 2.57110337382e-07 -0.0158127999696
Te -2.0935632245 -3.6574368269 -6.8719855588 -0.00526253438553 0.0030380157465 -0.00656968334078
Te 4.2142178275 0.0156411823 -6.8719855588 -0 -0.00607628860334 -0.00656942623044
Te 2.0935632245 -3.6574368269 -6.8719855588 0.00526253438553 0.0030380157465 -0.00656968334078
Te -0 2.4380906262 -3.4755769998 0 -0.000304932860135 0.0110128070811
Te -2.1114483851 -1.219041853 -3.4755769998 0.000264309426828 0.00015220931973 0.0110128070811
Te -4.214217762 2.4330797971 -3.4577845603 -0 2.57110337382e-07 0.00779404276739
Te 2.1114483851 -1.219041853 -3.4755769998 -0.000264309426828 0.00015220931973 0.0110128070811
Te -0 2.435720276 -10.3514060932 0 0.00523682335179 -0.0128622017379
Te -2.1093956027 -1.217856678 -10.3514060932 -0.00453491213074 -0.00261841167589 -0.0128622017379
Te -4.214217762 2.4330797971 -10.3131118091 -0 2.57110337382e-07 -0.00826866845019
Te 2.1093956027 -1.217856678 -10.3514060932 0.00453491213074 -0.00261841167589 -0.0128622017379
Sb -0 2.4315179681 8.452577182 0 0.0136772415074 -0.00796810646579
Sb -2.1057562924 -1.215755524 8.452577182 -0.0118445590225 -0.00683862075368 -0.00796810646579
Sb -4.214217762 2.4330797971 8.223326013 -0 2.57110337382e-07 -0.00338511470197
Sb 2.1057562924 -1.215755524 8.452577182 0.0118445590225 -0.00683862075368 -0.00796810646579
Sb -0 2.4279489421 1.8773226724 0 0.000310589287557 0.0128694008273
Sb -2.1026654302 -1.213971011 1.8773226724 -0.000268937412901 -0.000155294643779 0.0128694008273
Sb -4.214217762 2.4330797971 1.8986418313 -0 2.57110337382e-07 0.0130298376778
Sb 2.1026654302 -1.213971011 1.8773226724 0.000268937412901 -0.000155294643779 0.0128694008273
Sb -0 -0 -12.1834491819 0 0 -0.0273858504759
Sb -2.1124687577 -3.6465217044 -12.2946336156 -0.00443952419557 0.00256313295336 -0.0268711155804
Sb -4.214217762 -0.0061890627 -12.2946336156 -0 -0.00512626590671 -0.0268711155804
Sb -2.1017489715 3.652714227 -12.2946336156 0.00443952419557 0.00256313295336 -0.0268711155804
Sb 0 -0 11.8356816838 0 0 0.00463312827962
Sb -2.2451835305 -3.5698987889 12.4818163944 0.0455825774937 -0.0263172999137 -0.00926162857316
Sb 4.2142178275 -0.1594348933 12.4818163944 -0 0.0526340856067 -0.00926137146282
Sb 2.2451835305 -3.5698987889 12.4818163944 -0.0455825774937 -0.0263172999137 -0.00926162857316
Sb 2.1075165544 1.2167752496 -1.8894071303 0.000489538082375 0.00028282137112 -0.0124310277021
Sb 3.27e-08 -2.4335470391 -1.8894071303 -0 -0.000565385631902 -0.0124307705917
Sb -2.1075164888 1.2167752496 -1.8894071303 -0.000489538082375 0.00028282137112 -0.0124310277021
Sb 4.2142177948 -2.4330763371 -1.8843345531 0 -0 -0.0126058627315
Sb 2.0998288 1.2123367231 -8.4810417945 0.0035758905723 0.00206459600917 0.00983832705991
Sb 3.27e-08 -2.4246699861 -8.4810417945 0 -0.00412919201835 0.00983858417025
Sb -2.0998287346 1.2123367231 -8.4810417945 -0.0035758905723 0.00206459600917 0.00983832705991
Sb 4.2142177948 -2.4330763371 -8.4230357706 0 -0 0.0070877606706
Cr -4.2142177948 -2.4330763371 14.3652120024 -0 2.57110337382e-07 0.0904102790369
61
Lattice="8.42843558953 0 0 -4.21421779477 7.29923593142 0 0 0 31.0334408416" Properties=species:S:1:pos:R:3:forces:R:3 energy=-133597.100246 ionic_step=6 pbc="T T T"
Te 2.0991050979 1.2119188917 3.4671238333 0.00309843667579 0.00178923083784 -0.00951488225548
Te 3.27e-08 -2.4238343233 3.4671238333 -0 -0.00357820456534 -0.00951488225548
Te -2.0991050323 1.2119188917 3.4671238333 -0.00309843667579 0.00178923083784 -0.00951488225548
Te 4.2142177948 -2.4330763371 3.4551462719 0 -2.57110337382e-07 -0.00666455705527
Te -0 0 6.8316817814 0 2.57110337382e-07 0.00291537411557
Te -2.0944294083 -3.6569367405 6.8334528187 -0.00438218859033 0.0025297086095 0.00465678243066
Te -4.214217762 0.0146410095 6.8334528187 -0 -0.00505993143967 0.00465678243066
Te -2.1197883865 3.6422991909 6.8334528187 0.00438218859033 0.0025297086095 0.00465678243066
Te 0 0 0.0120609618 0 2.57110337382e-07 -0.00165219102801
Te -2.1045655722 -3.6510846163 0.005735964 -0.000893715532739 0.000515763336788 0.0012724390597
Te -4.214217762 0.0029367612 0.005735964 -0 -0.00103178378391 0.0012724390597
Te 2.1045655722 -3.6510846163 0.005735964 0.000893715532739 0.000515763336788 0.0012724390597
Te -0 2.2983069341 14.2116272635 0 0.0194216006651 -0.0417696311903
Te -1.9903921435 -1.1491500071 14.2116272635 -0.0168193869405 -0.00971080033257 -0.04176937408
Te -4.214217762 2.4330797971 13.7281869555 -0 2.57110337382e-07 -0.00201291683136
Te 1.9903921435 -1.1491500071 14.2116272635 0.0168193869405 -0.00971080033257 -0.04176937408
Te 2.0963113896 1.2103059404 -13.811600165 0.0141289843701 0.00815759678444 0.00186584971838
Te 3.27e-08 -2.4206084206 -13.811600165 -0 -0.0163149364586 0.00186584971838
Te -2.096311324 1.2103059404 -13.811600165 -0.0141289843701 0.00815759678444 0.00186584971838
Te 4.2142177948 -2.4330763371 -14.073596806 0 -2.57110337382e-07 0.0414875811502
Te 2.0902791011 1.2068231947 10.2706985852 -0.010355118838 -0.0059783295648 0.0388470579853
Te 3.27e-08 -2.4136429293 10.2706985852 -0 0.0119569162399 0.0388473150957
Te -2.0902790357 1.2068231947 10.2706985852 0.010355118838 -0.0059783295648 0.0388470579853
Te 4.2142177948 -2.4330763371 10.2795948002 0 -2.57110337382e-07 0.0515812187752
Te -0 -0 -6.8390808635 0 2.57110337382e-07 -0.0122294531976
Te -2.0911670831 -3.6588202405 -6.890150035 -0.00597164469603 0.00344759251395 -0.00222991795611
Te 4.2142178275 0.0184080094 -6.890150035 -0 -0.00689544213824 -0.00222991795611
Te 2.0911670831 -3.6588202405 -6.890150035 0.00597164469603 0.00344759251395 -0.00222991795611
Te -0 2.4388141724 -3.4579373958 0 -0.000383094402699 0.00673654794974
Te -2.1120749941 -1.2194036261 -3.4579373958 0.00033192944556 0.000191290091012 0.00673654794974
Te -4.214217762 2.4330797971 -3.4388484084 -0 2.57110337382e-07 0.00350338545716
Te 2.1120749941 -1.2194036261 -3.4579373958 -0.00033192944556 0.000191290091012 0.00673654794974
Te -0 2.4394237897 -10.3549281734 0 0.0045243706069 -0.0127295328038
Te -2.1126029381 -1.2197084348 -10.3549281734 -0.00391810443136 -0.00226231385862 -0.0127295328038
Te -4.214217762 2.4330797971 -10.3176540169 -0 2.57110337382e-07 -0.00818510759054
Te 2.1126029381 -1.2197084348 -10.3549281734 0.00391810443136 -0.00226231385862 -0.0127295328038
Sb -0 2.4307785125 8.4624899333 0 0.0140757625303 -0.00793905299767
Sb -2.1051159054 -1.2153857962 8.4624899333 -0.0121898582056 -0.00703788126515 -0.00793931010801
Sb -4.214217762 2.4330797971 8.2383403911 -0 2.57110337382e-07 -0.00130432074154
Sb 2.1051159054 -1.2153857962 8.4624899333 0.0121898582056 -0.00703788126515 -0.00793931010801
Sb -0 2.4285925591 1.8623505391 0 0.00021108758699 0.0140536510413
Sb -2.1032228187 -1.2142928195 1.8623505391 -0.000182805449878 -0.000105415238326 0.0140536510413
Sb -4.214217762 2.4330797971 1.8864380193 -0 2.57110337382e-07 0.0139834599192
Sb 2.1032228187 -1.2142928195 1.8623505391 0.000182805449878 -0.000105415238326 0.0140536510413
Sb -0 -0 -12.1669518359 0 0 -0.0284690563273
Sb -2.113510749 -3.6459201102 -12.2872330284 -0.0044624070156 0.00257624558056 -0.027817281622
Sb -4.214217762 -0.0073922511 -12.2872330284 -0 -0.00515274827147 -0.027817281622
Sb -2.1007069802 3.6533158213 -12.2872330284 0.0044624070156 0.00257624558056 -0.027817281622
Sb 0 -0 11.8104173423 0 0 0.00251273932723
Sb -2.2509128598 -3.5665909576 12.4809394235 0.0443296788197 -0.0255937914243 -0.00790151488841
Sb 4.2142178275 -0.1660505559 12.4809394235 -0 0.051187068628 -0.00790125777807
Sb 2.2509128598 -3.5665909576 12.4809394235 -0.0443296788197 -0.0255937914243 -0.00790151488841
Sb 2.1067063015 1.2163074497 -1.8765477019 0.000648432270876 0.000374352651228 -0.0135859673376
Sb 3.27e-08 -2.4326114392 -1.8765477019 -0 -0.000748705302455 -0.0135857102272
Sb -2.1067062359 1.2163074497 -1.8765477019 -0.000648432270876 0.000374352651228 -0.0135859673376
Sb 4.2142177948 -2.4330763371 -1.870286856 0 -0 -0.0139356373964
Sb 2.099570308 1.2121874826 -8.4954545563 0.00383685756475 0.00221526266688 0.0108091756939
Sb 3.27e-08 -2.4243715051 -8.4954545563 0 -0.00443052533376 0.0108091756939
Sb -2.0995702425 1.2121874826 -8.4954545563 -0.00383685756475 0.00221526266688 0.0108091756939
Sb 4.2142177948 -2.4330763371 -8.4353813544 0 -0 0.00760558089009
Cr -4.2142177948 -2.4330763371 14.3734855556 -0 2.57110337382e-07 0.0866027320506
61
Lattice="8.42843558953 0 0 -4.21421779477 7.29923593142 0 0 0 31.0334408416" Properties=species:S:1:pos:R:3:forces:R:3 energy=-133597.157236 ionic_step=7 pbc="T T T"
Te 2.0981435669 1.2113637513 3.4386589879 0.00387490989468 0.00223737415589 -0.00283926945571
Te 3.27e-08 -2.4227240424 3.4386589879 -0 -0.00447474831179 -0.00283926945571
Te -2.0981435014 1.2113637513 3.4386589879 -0.00387490989468 0.00223737415589 -0.00283926945571
Te 4.2142177948 -2.4330763371 3.4239076366 0 -2.57110337382e-07 0.00113334236718
Te -0 0 6.8447999566 0 2.57110337382e-07 -0.00114619788405
Te -2.0964257674 -3.6557841415 6.8663498195 -0.00422226596048 0.00243740599838 -0.0035607210624
Te -4.214217762 0.0123358115 6.8663498195 -0 -0.00487506910709 -0.0035607210624
Te -2.1177920274 3.64345179 6.8663498195 0.00422226596048 0.00243740599838 -0.0035607210624
Te 0 0 0.0109477151 0 2.57110337382e-07 -0.00178640262413
Te -2.1036772601 -3.6515974838 0.0075751262 -0.00113231392583 0.000653317367287 0.000769531239783
Te -4.214217762 0.0039624962 0.0075751262 -0 -0.00130714895525 0.000769531239783
Te 2.1036772601 -3.6515974838 0.0075751262 0.00113231392583 0.000653317367287 0.000769531239783
Te -0 2.3036249328 14.2065120232 0 0.0197219055392 -0.0427443364794
Te -1.9949976633 -1.1518090064 14.2065120232 -0.0170795826019 -0.0098609527696 -0.0427443364794
Te -4.214217762 2.4330797971 13.6893183441 -0 2.57110337382e-07 0.00890398809386
Te 1.9949976633 -1.1518090064 14.2065120232 0.0170795826019 -0.0098609527696 -0.0427443364794
Te 2.0893567052 1.2062906496 -13.7876735511 0.0180296052985 0.0104096262296 -0.00177791798299
Te 3.27e-08 -2.412577839 -13.7876735511 -0 -0.0208189953488 -0.00177791798299
Te -2.0893566396 1.2062906496 -13.7876735511 -0.0180296052985 0.0104096262296 -0.00177791798299
Te 4.2142177948 -2.4330763371 -14.0611745776 0 -2.57110337382e-07 0.0402282547177
Te 2.0982041721 1.2113987387 10.2657913407 -0.0142989343031 -0.00825529871265 0.0400323366407
Te 3.27e-08 -2.4227940173 10.2657913407 -0 0.0165108545356 0.0400323366407
Te -2.0982041067 1.2113987387 10.2657913407 0.0142989343031 -0.00825529871265 0.0400323366407
Te 4.2142177948 -2.4330763371 10.2852613473 0 -2.57110337382e-07 0.0558070842804
Te -0 -0 -6.8671110152 0 2.57110337382e-07 -0.00626423625997
Te -2.0873017742 -3.6610518787 -6.9175272206 -0.00710267307017 0.00410039566056 0.00465498265829
Te 4.2142178275 0.0228712858 -6.9175272206 -0 -0.0082013055418 0.00465498265829
Te 2.0873017742 -3.6610518787 -6.9175272206 0.00710267307017 0.00410039566056 0.00465498265829
Te -0 2.439938124 -3.4314318439 0 -0.000559986314817 -0.000154780423104
Te -2.1130483643 -1.2199656019 -3.4314318439 0.000485167206639 0.000279736047071 -0.000154780423104
Te -4.214217762 2.4330797971 -3.4107102241 -0 2.57110337382e-07 -0.00322107830672
Te 2.1130483643 -1.2199656019 -3.4314318439 -0.000485167206639 0.000279736047071 -0.000154780423104
Te -0 2.4454687646 -10.3603674257 0 0.00329358342186 -0.0125004474932
Te -2.1178380375 -1.2227309223 -10.3603674257 -0.00285212497257 -0.00164679171093 -0.0125004474932
Te -4.214217762 2.4330797971 -10.3256627174 -0 2.57110337382e-07 -0.00796887779681
Te 2.1178380375 -1.2227309223 -10.3603674257 0.00285212497257 -0.00164679171093 -0.0125004474932
Sb -0 2.4293134246 8.4778010361 0 0.0145704428194 -0.00776653196129
Sb -2.1038471026 -1.2146532523 8.4778010361 -0.0126182040277 -0.00728522140971 -0.00776653196129
Sb -4.214217762 2.4330797971 8.2612145382 -0 2.57110337382e-07 0.00170489864718
Sb 2.1038471026 -1.2146532523 8.4778010361 0.0126182040277 -0.00728522140971 -0.00776653196129
Sb -0 2.429478358 1.8401126415 0 6.53060256949e-05 0.0158053437699
Sb -2.1039899426 -1.214735719 1.8401126415 -5.63071638866e-05 -3.26530128475e-05 0.0158053437699
Sb -4.214217762 2.4330797971 1.8682189713 -0 2.57110337382e-07 0.0154284200153
Sb 2.1039899426 -1.214735719 1.8401126415 5.63071638866e-05 -3.26530128475e-05 0.0158053437699
Sb -0 -0 -12.1426495138 0 0 -0.0299505260912
Sb -2.114943885 -3.6450926884 -12.2764063556 -0.00451305775206 0.00260555615903 -0.0292915522965
Sb -4.214217762 -0.0090470947 -12.2764063556 -0 -0.00521136942839 -0.0292915522965
Sb -2.0992738442 3.6541432431 -12.2764063556 0.00451305775206 0.00260555615903 -0.0292915522965
Sb 0 -0 11.7719272744 0 0 -0.00132077580313
Sb -2.2601320743 -3.5612682392 12.4795983515 0.0434932988922 -0.0251109382107 -0.00679953998239
Sb 4.2142178275 -0.1766959928 12.4795983515 -0 0.0502213622008 -0.00679953998239
Sb 2.2601320743 -3.5612682392 12.4795983515 -0.0434932988922 -0.0251109382107 -0.00679953998239
Sb 2.105546516 1.2156378469 -1.8573224202 0.000872375374736 0.000503679150931 -0.0152754393645
Sb 3.27e-08 -2.4312722336 -1.8573224202 -0 -0.00100735830186 -0.0152751822542
Sb -2.1055464504 1.2156378469 -1.8573224202 -0.000872375374736 0.000503679150931 -0.0152754393645
Sb 4.2142177948 -2.4330763371 -1.8491072276 0 -0 -0.0158518807409
Sb 2.099334987 1.2120516199 -8.5170996073 0.00417264366537 0.00240912386127 0.0122104270326
Sb 3.27e-08 -2.4240997797 -8.5170996073 0 -0.00481824772253 0.0122106841429
Sb -2.0993349215 1.2120516199 -8.5170996073 -0.00417264366537 0.00240912386127 0.0122104270326
Sb 4.2142177948 -2.4330763371 -8.4538829328 0 -0 0.00845353078277
Cr -4.2142177948 -2.4330763371 14.3862435707 -0 2.57110337382e-07 0.0835639449731
61
Lattice="8.42843558953 0 0 -4.21421779477 7.29923593142 0 0 0 31.0334408416" Properties=species:S:1:pos:R:3:forces:R:3 energy=-133597.173228 ionic_step=8 pbc="T T T"
Te 2.0973784714 1.210922023 3.4159402825 0.00457270735033 0.00264026605457 0.00280893043589
Te 3.27e-08 -2.4218405858 3.4159402825 -0 -0.00528053210914 0.00280893043589
Te -2.0973784058 1.210922023 3.4159402825 -0.00457270735033 0.00264026605457 0.00280893043589
Te 4.2142177948 -2.4330763371 3.3991608603 0 -2.57110337382e-07 0.00762537838606
Te -0 0 6.8545767256 0 2.57110337382e-07 -0.00449068915271
Te -2.0982643962 -3.6547226081 6.8930981411 -0.00392993150688 0.00226848450672 -0.0105649208733
Te -4.214217762 0.0102127448 6.8930981411 -0 -0.00453748323411 -0.0105649208733
Te -2.1159533986 3.6445133233 6.8930981411 0.00392993150688 0.00226848450672 -0.0105649208733
Te 0 0 0.0095742152 0 2.57110337382e-07 -0.00181159943719
Te -2.1027807829 -3.6521150655 0.0086005278 -0.00136679855352 0.000788814515087 0.000456885069527
Te -4.214217762 0.0049976595 0.0086005278 -0 -0.00157814325085 0.000456885069527
Te 2.1027807829 -3.6521150655 0.0086005278 0.00136679855352 0.000788814515087 0.000456885069527
Te -0 2.307895181 14.2039788452 0 0.0189369476792 -0.0433791419024
Te -1.998695805 -1.1539441305 14.2039788452 -0.0163997828699 -0.00946860239475 -0.0433791419024
Te -4.214217762 2.4330797971 13.6573163758 -0 2.57110337382e-07 0.0176765928053
Te 1.998695805 -1.1539441305 14.2039788452 0.0163997828699 -0.00946860239475 -0.0433791419024
Te 2.0830292434 1.2026374862 -13.7694097133 0.0212619964601 0.0122759901686 -0.00466835239584
Te 3.27e-08 -2.4052715121 -13.7694097133 -0 -0.0245514661166 -0.0046680952855
Te -2.0830291779 1.2026374862 -13.7694097133 -0.0212619964601 0.0122759901686 -0.00466835239584
Te 4.2142177948 -2.4330763371 -14.0500704019 0 -2.57110337382e-07 0.0401845459604
Te 2.1050163752 1.2153317678 10.2626730803 -0.0176097441176 -0.0101669140711 0.0407789850604
Te 3.27e-08 -2.4306600755 10.2626730803 -0 0.0203338281422 0.0407792421708
Te -2.1050163097 1.2153317678 10.2626730803 0.0176097441176 -0.0101669140711 0.0407789850604
Te 4.2142177948 -2.4330763371 10.2889619038 0 -2.57110337382e-07 0.0590744424478
Te -0 -0 -6.8905395569 0 2.57110337382e-07 -0.00106340835541
Te -2.0835452195 -3.6632207275 -6.9396097316 -0.00818562181122 0.00472568800107 0.010308581867
Te 4.2142178275 0.0272089835 -6.9396097316 -0 -0.00945189022282 0.0103083247566
Te 2.0835452195 -3.6632207275 -6.9396097316 0.00818562181122 0.00472568800107 0.010308581867
Te -0 2.4409289694 -3.4103861132 0 -0.000793699611497 -0.00598295755087
Te -2.1139064612 -1.2204610246 -3.4103861132 0.000687513042158 0.00039672125058 -0.00598295755087
Te -4.214217762 2.4330797971 -3.3887191873 -0 2.57110337382e-07 -0.00866024749403
Te 2.1139064612 -1.2204610246 -3.4103861132 -0.000687513042158 0.00039672125058 -0.00598295755087
Te -0 2.4512408835 -10.3650107337 0 0.00200571774191 -0.0122873030235
Te -2.1228368368 -1.2256169817 -10.3650107337 -0.00173678032901 -0.00100298742613 -0.0122873030235
Te -4.214217762 2.4330797971 -10.3341018139 -0 2.57110337382e-07 -0.00778144436086
Te 2.1228368368 -1.2256169817 -10.3650107337 0.00173678032901 -0.00100298742613 -0.0122873030235
Sb -0 2.4274815444 8.490803029 0 0.0149154848922 -0.00752870489921
Sb -2.1022606486 -1.2137373122 8.490803029 -0.0129169662397 -0.00745774244609 -0.00752870489921
Sb -4.214217762 2.4330797971 8.2799371309 -0 2.57110337382e-07 0.00401169259417
Sb 2.1022606486 -1.2137373122 8.490803029 0.0129169662397 -0.00745774244609 -0.00752870489921
Sb -0 2.4300220507 1.8228833472 0 -4.03663229689e-05 0.0171217486973
Sb -2.1044607941 -1.2150075653 1.8228833472 3.52241162213e-05 2.03117166531e-05 0.0171217486973
Sb -4.214217762 2.4330797971 1.8537090665 -0 2.57110337382e-07 0.0165509637483
Sb 2.1044607941 -1.2150075653 1.8228833472 -3.52241162213e-05 2.03117166531e-05 0.0171217486973
Sb -0 -0 -12.1235938348 0 0 -0.0309388582281
Sb -2.1158889861 -3.6445470337 -12.2681550352 -0.00458170621214 0.00264515115098 -0.0304686034211
Sb -4.214217762 -0.010138404 -12.2681550352 -0 -0.0052905594123 -0.0304686034211
Sb -2.0983287431 3.6546888977 -12.2681550352 0.00458170621214 0.00264515115098 -0.0304686034211
Sb 0 -0 11.7396731958 0 0 -0.0050532465709
Sb -2.2687442195 -3.5562960125 12.4785993622 0.0458407162724 -0.0264661667991 -0.00880808593802
Sb 4.2142178275 -0.1866404462 12.4785993622 -0 0.0529320764878 -0.00880808593802
Sb 2.2687442195 -3.5562960125 12.4785993622 -0.0458407162724 -0.0264661667991 -0.00880808593802
Sb 2.1047311155 1.215167075 -1.8419922156 0.0010248418048 0.000591867996653 -0.0165116258666
Sb 3.27e-08 -2.4303306898 -1.8419922156 -0 -0.00118347888297 -0.0165113687563
Sb -2.1047310499 1.215167075 -1.8419922156 -0.0010248418048 0.000591867996653 -0.0165116258666
Sb 4.2142177948 -2.4330763371 -1.8319955832 0 -0 -0.0171999102398
Sb 2.09934818 1.2120592369 -8.5343719754 0.00437961748696 0.00252868016815 0.0132602085401
Sb 3.27e-08 -2.4241150136 -8.5343719754 0 -0.00505710322596 0.0132602085401
Sb -2.0993481145 1.2120592369 -8.5343719754 -0.00437961748696 0.00252868016815 0.0132602085401
Sb 4.2142177948 -2.4330763371 -8.4686123417 0 -0 0.00913770139054
Cr -4.2142177948 -2.4330763371 14.3970538065 -0 2.57110337382e-07 0.0891298695567
61
Lattice="8.42843558953 0 0 -4.21421779477 7.29923593142 0 0 0 31.0334408416" Properties=species:S:1:pos:R:3:forces:R:3 energy=-133597.175617 ionic_step=9 pbc="T T T"
Te 2.097299186 1.2108762475 3.4143454112 0.00466835239584 0.00269554477711 0.00320590879681
Te 3.27e-08 -2.4217490349 3.4143454112 -0 -0.00539083244388 0.00320590879681
Te -2.0972991204 1.2108762475 3.4143454112 -0.00466835239584 0.00269554477711 0.00320590879681
Te 4.2142177948 -2.4330763371 3.3977672129 0 -2.57110337382e-07 0.0080128436645
Te -0 -0 6.8545982449 0 2.57110337382e-07 -0.00450997242801
Te -2.0987405412 -3.6544477056 6.895724084 -0.00373812719519 0.00215792706164 -0.0111745294833
Te -4.214217762 0.0096629397 6.895724084 -0 -0.00431611123363 -0.0111745294833
Te -2.1154772536 3.6447882258 6.895724084 0.00373812719519 0.00215792706164 -0.0111745294833
Te 0 0 0.0090061948 0 2.57110337382e-07 -0.00176454824545
Te -2.1025271522 -3.6522614993 0.0082208719 -0.00142747659314 0.000823781520971 0.000476168344831
Te -4.214217762 0.0052905271 0.0082208719 -0 -0.00164807726262 0.000476168344831
Te 2.1025271522 -3.6522614993 0.0082208719 0.00142747659314 0.000823781520971 0.000476168344831
Te -0 2.3081973241 14.2054909667 0 0.0175889181803 -0.0434174513426
Te -1.9989574685 -1.1540952021 14.2054909667 -0.0152325019382 -0.00879445909014 -0.0434174513426
Te -4.214217762 2.4330797971 13.6537374926 -0 2.57110337382e-07 0.0186207019642
Te 1.9989574685 -1.1540952021 14.2054909667 0.0152325019382 -0.00879445909014 -0.0434174513426
Te 2.0816687295 1.2018519927 -13.7689829734 0.0217492205494 0.0125572688777 -0.00493780402941
Te 3.27e-08 -2.4037005252 -13.7689829734 -0 -0.0251142806451 -0.00493780402941
Te -2.0816686639 1.2018519927 -13.7689829734 -0.0217492205494 0.0125572688777 -0.00493780402941
Te 4.2142177948 -2.4330763371 -14.047904602 0 -2.57110337382e-07 0.0416022523607
Te 2.1060232384 1.2159130808 10.2632450928 -0.0181113663858 -0.010456420311 0.0407465891579
Te 3.27e-08 -2.4318227016 10.2632450928 -0 0.0209128406219 0.0407465891579
Te -2.1060231729 1.2159130808 10.2632450928 0.0181113663858 -0.010456420311 0.0407465891579
Te 4.2142177948 -2.4330763371 10.2881910426 0 -2.57110337382e-07 0.0594020010176
Te -0 -0 -6.8934781871 0 2.57110337382e-07 -0.000601638189473
Te -2.0826321178 -3.6637479073 -6.9413312094 -0.0084489027967 0.00487764021047 0.0106410255332
Te 4.2142178275 0.028263343 -6.9413312094 -0 -0.00975553753127 0.0106410255332
Te 2.0826321178 -3.6637479073 -6.9413312094 0.0084489027967 0.00487764021047 0.0106410255332
Te -0 2.4411119586 -3.4090304651 0 -0.000874175147098 -0.00650977663217
Te -2.1140649344 -1.2205525192 -3.4090304651 0.000757189943589 0.000436830463211 -0.00650977663217
Te -4.214217762 2.4330797971 -3.3879710789 -0 2.57110337382e-07 -0.0089276422449
Te 2.1140649344 -1.2205525192 -3.4090304651 -0.000757189943589 0.000436830463211 -0.00650977663217
Te -0 2.4526744007 -10.3657055271 0 0.00159356987109 -0.0122227683288
Te -2.1240782986 -1.2263337403 -10.3657055271 -0.00137991118073 -0.000796784935546 -0.0122227683288
Te -4.214217762 2.4330797971 -10.3367245571 -0 2.57110337382e-07 -0.00776293241656
Te 2.1240782986 -1.2263337403 -10.3657055271 0.00137991118073 -0.000796784935546 -0.0122227683288
Sb -0 2.4266969336 8.492396627 0 0.0150170434754 -0.00753513265764
Sb -2.101581156 -1.2133450068 8.492396627 -0.0130051550854 -0.00750839318256 -0.00753538976798
Sb -4.214217762 2.4330797971 8.2814929992 -0 2.57110337382e-07 0.00415593149344
Sb 2.101581156 -1.2133450068 8.492396627 0.0130051550854 -0.00750839318256 -0.00753538976798
Sb -0 2.4298880857 1.8221723708 0 -4.03663229689e-05 0.0172063379983
Sb -2.104344777 -1.2149405828 1.8221723708 3.49670058839e-05 2.00546063158e-05 0.0172063379983
Sb -4.214217762 2.4330797971 1.8527309776 -0 2.57110337382e-07 0.0166265541875
Sb 2.104344777 -1.2149405828 1.8221723708 -3.49670058839e-05 2.00546063158e-05 0.0172063379983
Sb -0 -0 -12.1224238585 0 0 -0.0310154771087
Sb -2.1157510962 -3.6446266445 -12.2679020269 -0.00462515785916 0.00267009085371 -0.0305259390263
Sb -4.214217762 -0.0099791824 -12.2679020269 -0 -0.00534043881775 -0.0305259390263
Sb -2.098466633 3.6546092869 -12.2679020269 0.00462515785916 0.00267009085371 -0.0305259390263
Sb 0 -0 11.7358676087 0 0 -0.0055738950041
Sb -2.2707273093 -3.5551510745 12.4786539295 0.0501452575409 -0.0289516524305 -0.0129833007068
Sb 4.2142178275 -0.1889303221 12.4786539295 -0 0.05790253353 -0.0129830435964
Sb 2.2707273093 -3.5551510745 12.4786539295 -0.0501452575409 -0.0289516524305 -0.0129833007068
Sb 2.1047928898 1.2152027404 -1.8409488485 0.00101764271536 0.000587754231254 -0.0165473642035
Sb 3.27e-08 -2.4304020206 -1.8409488485 -0 -0.00117525135217 -0.0165473642035
Sb -2.1047928242 1.2152027404 -1.8409488485 -0.00101764271536 0.000587754231254 -0.0165473642035
Sb 4.2142177948 -2.4330763371 -1.8305892502 0 -0 -0.0172173937428
Sb 2.0995306127 1.2121645645 -8.5357438642 0.00437190417684 0.00252405218208 0.013356110696
Sb 3.27e-08 -2.4243256689 -8.5357438642 0 -0.00504810436415 0.0133563678063
Sb -2.0995305472 1.2121645645 -8.5357438642 -0.00437190417684 0.00252405218208 0.013356110696
Sb 4.2142177948 -2.4330763371 -8.4695044132 0 -0 0.00912613142536
Cr -4.2142177948 -2.4330763371 14.3986447079 -0 2.57110337382e-07 0.100492346697
61
Lattice="8.42843558953 0 0 -4.21421779477 7.29923593142 0 0 0 31.0334408416" Properties=species:S:1:pos:R:3:forces:R:3 energy=-133597.178842 ionic_step=10 pbc="T T T"
Te 2.097220343 1.2108307274 3.4129056028 0.00477582451686 0.00275750836842 0.0035668917105
Te 3.27e-08 -2.4216579947 3.4129056028 -0 -0.00551501673684 0.0035668917105
Te -2.0972202774 1.2108307274 3.4129056028 -0.00477582451686 0.00275750836842 0.0035668917105
Te 4.2142177948 -2.4330763371 3.3966507475 0 -2.57110337382e-07 0.00833808824129
Te -0 -0 6.8543047779 0 2.57110337382e-07 -0.00441946958925
Te -2.099344352 -3.6540990951 6.8984926139 -0.00348101685781 0.00200931728664 -0.0117869663069
Te -4.214217762 0.0089657187 6.8984926139 -0 -0.00401914879395 -0.0117869663069
Te -2.1148734428 3.6451368363 6.8984926139 0.00348101685781 0.00200931728664 -0.0117869663069
Te 0 0 0.0082687354 0 2.57110337382e-07 -0.00169898510942
Te -2.1022145472 -3.6524419819 0.0076757548 -0.00150178148065 0.000866718947313 0.000510364019703
Te -4.214217762 0.0056514924 0.0076757548 -0 -0.00173369500496 0.000510364019703
Te 2.1022145472 -3.6524419819 0.0076757548 0.00150178148065 0.000866718947313 0.000510364019703
Te -0 2.3084949515 14.2077213334 0 0.0155469478808 -0.0434609029896
Te -1.9992152212 -1.1542440158 14.2077213334 -0.0134640970377 -0.0077734739404 -0.0434606458793
Te -4.214217762 2.4330797971 13.649745487 -0 2.57110337382e-07 0.0196509430861
Te 1.9992152212 -1.1542440158 14.2077213334 0.0134640970377 -0.0077734739404 -0.0434606458793
Te 2.0799875125 1.2008813411 -13.7690168083 0.0223223194915 0.0128881698819 -0.00521779718682
Te 3.27e-08 -2.4017592221 -13.7690168083 -0 -0.0257758255432 -0.00521754007649
Te -2.0799874469 1.2008813411 -13.7690168083 -0.0223223194915 0.0128879127716 -0.00521779718682
Te 4.2142177948 -2.4330763371 -14.0452353363 0 -2.57110337382e-07 0.0438046595107
Te 2.1071944819 1.2165892989 10.264141199 -0.0187019488308 -0.0107973486183 0.0406771693668
Te 3.27e-08 -2.4331751377 10.264141199 -0 0.0215946972367 0.0406774264771
Te -2.1071944164 1.2165892989 10.264141199 0.0187019488308 -0.0107973486183 0.0406771693668
Te 4.2142177948 -2.4330763371 10.286953362 0 -2.57110337382e-07 0.0597316164702
Te -0 -0 -6.8967754905 0 2.57110337382e-07 -0.000142696237247
Te -2.0814729735 -3.6644171399 -6.9429786742 -0.00878443178698 0.00507150140485 0.0109084202841
Te 4.2142178275 0.0296018082 -6.9429786742 -0 -0.01014325992 0.0109084202841
Te 2.0814729735 -3.6644171399 -6.9429786742 0.00878443178698 0.00507150140485 0.0109084202841
Te -0 2.4413366331 -3.4078641139 0 -0.0009780477234 -0.00704302347189
Te -2.1142595082 -1.2206648565 -3.4078641139 0.000847178561672 0.000488766751362 -0.00704302347189
Te -4.214217762 2.4330797971 -3.3876595706 -0 2.57110337382e-07 -0.0091119903568
Te 2.1142595082 -1.2206648565 -3.4078641139 -0.000847178561672 0.000488766751362 -0.00704302347189
Te -0 2.4544696919 -10.3665397978 0 0.00106417968642 -0.0121343223727
Te -2.1256330656 -1.2272313859 -10.3665397978 -0.000921483449176 -0.00053221839838 -0.0121343223727
Te -4.214217762 2.4330797971 -10.3400577149 -0 2.57110337382e-07 -0.00774930556868
Te 2.1256330656 -1.2272313859 -10.3665397978 0.000921483449176 -0.00053221839838 -0.0121343223727
Sb -0 2.4256893753 8.4941553507 0 0.0151445702028 -0.00755364460193
Sb -2.1007085853 -1.2128412276 8.4941553507 -0.0131154554202 -0.00757215654623 -0.00755364460193
Sb -4.214217762 2.4330797971 8.2829742354 -0 2.57110337382e-07 0.00427523068998
Sb 2.1007085853 -1.2128412276 8.4941553507 0.0131154554202 -0.00757215654623 -0.00755364460193
Sb -0 2.4297022035 1.8217425773 0 -3.83094402699e-05 0.0172808999961
Sb -2.1041837984 -1.2148476417 1.8217425773 3.34243438596e-05 1.92832753036e-05 0.0172811571064
Sb -4.214217762 2.4330797971 1.8518596683 -0 2.57110337382e-07 0.0166949455372
Sb 2.1041837984 -1.2148476417 1.8217425773 -3.34243438596e-05 1.92832753036e-05 0.0172811571064
Sb -0 -0 -12.121397443 0 0 -0.0310933815409
Sb -2.1155227787 -3.6447584638 -12.2678364556 -0.00468455034709 0.00270454363892 -0.0305647626873
Sb -4.214217762 -0.0097155439 -12.2678364556 -0 -0.00540908727783 -0.0305647626873
Sb -2.0986949505 3.6544774677 -12.2678364556 0.00468455034709 0.00270454363892 -0.0305647626873
Sb 0 -0 11.731681463 0 0 -0.00617399053155
Sb -2.2732173162 -3.5537134677 12.4787635776 0.056628294698 -0.0326944076118 -0.0193220989646
Sb 4.2142178275 -0.1918055358 12.4787635776 -0 0.0653885581132 -0.0193218418542
Sb 2.2732173162 -3.5537134677 12.4787635776 -0.056628294698 -0.0326944076118 -0.0193220989646
Sb 2.104913855 1.2152725797 -1.8400203133 0.00100273031579 0.000579012479783 -0.016557648617
Sb 3.27e-08 -2.4305416993 -1.8400203133 -0 -0.00115802495957 -0.0165573915067
Sb -2.1049137894 1.2152725797 -1.8400203133 -0.00100273031579 0.000579012479783 -0.016557648617
Sb 4.2142177948 -2.4330763371 -1.8292092634 0 -0 -0.0172022242329
Sb 2.0997886655 1.2123135514 -8.5371085534 0.00435544911524 0.00251453909959 0.0134597261619
Sb 3.27e-08 -2.4246236427 -8.5371085534 0 -0.00502933530952 0.0134599832723
Sb -2.0997886 1.2123135514 -8.5371085534 -0.00435544911524 0.00251453909959 0.0134597261619
Sb 4.2142177948 -2.4330763371 -8.470212968 0 -0 0.00908576510239
Cr -4.2142177948 -2.4330763371 14.400663284 -0 2.57110337382e-07 0.117722081736
61
Lattice="8.42843558953 0 0 -4.21421779477 7.29923593142 0 0 0 31.0334408416" Properties=species:S:1:pos:R:3:forces:R:3 energy=-133597.184695 ionic_step=11 pbc="T T T"
Te 2.0971180186 1.2107716504 3.4112679984 0.00494063224313 0.00285263919325 0.00399112376718
Te 3.27e-08 -2.4215398406 3.4112679984 -0 -0.00570553549684 0.00399112376718
Te -2.097117953 1.2107716504 3.4112679984 -0.00494063224313 0.00285263919325 0.00399112376718
Te 4.2142177948 -2.4330763371 3.3956273564 0 -2.57110337382e-07 0.00867464567292
Te -0 -0 6.8533950202 0 2.57110337382e-07 -0.00411273695676
Te -2.100378113 -3.6535022526 6.902481674 -0.00302310334693 0.00174500785981 -0.0126158900346
Te -4.214217762 0.0077720338 6.902481674 -0 -0.00349027282996 -0.0126158900346
Te -2.1138396818 3.6457336788 6.902481674 0.00302310334693 0.00174500785981 -0.0126158900346
Te 0 0 0.0069948309 0 2.57110337382e-07 -0.00158045724388
Te -2.1017017431 -3.6527380496 0.0066766287 -0.00162056645652 0.000935367407394 0.000580040921133
Te -4.214217762 0.0062436278 0.0066766287 -0 -0.00187099192513 0.000580040921133
Te 2.1017017431 -3.6527380496 0.0066766287 0.00162056645652 0.000935367407394 0.000580040921133
Te -0 2.3088998459 14.2119699528 0 0.0113452507473 -0.0435411214149
Te -1.9995658699 -1.154446463 14.2119699528 -0.0098252144327 -0.00567262537365 -0.0435411214149
Te -4.214217762 2.4330797971 13.6435919257 -0 2.57110337382e-07 0.0211840920279
Te 1.9995658699 -1.154446463 14.2119699528 0.0098252144327 -0.00567262537365 -0.0435411214149
Te 2.077175975 1.1992580985 -13.7698513671 0.0232404605063 0.0134180742873 -0.00561143311335
Te 3.27e-08 -2.3985127368 -13.7698513671 -0 -0.0268358914642 -0.00561143311335
Te -2.0771759095 1.1992580985 -13.7698513671 -0.0232404605063 0.0134180742873 -0.00561143311335
Te 4.2142177948 -2.4330763371 -14.040761973 0 -2.57110337382e-07 0.0484303315906
Te 2.1090375431 1.2176533913 10.2658775737 -0.0196409157829 -0.0113393372095 0.040522646054
Te 3.27e-08 -2.4353033225 10.2658775737 -0 0.0226789315294 0.0405229031644
Te -2.1090374776 1.2176533913 10.2658775737 0.0196409157829 -0.0113393372095 0.040522646054
Te 4.2142177948 -2.4330763371 10.2844529448 0 -2.57110337382e-07 0.0601411932376
Te -0 -0 -6.901823887 0 2.57110337382e-07 0.000473083020782
Te -2.0794831294 -3.6655659775 -6.9450749282 -0.00936215871508 0.00540497351244 0.011159874194
Te 4.2142178275 0.0318994834 -6.9450749282 -0 -0.0108104612455 0.011159874194
Te 2.0794831294 -3.6655659775 -6.9450749282 0.00936215871508 0.00540497351244 0.011159874194
Te -0 2.4417092904 -3.4066460897 0 -0.0011582820699 -0.00776344663724
Te -2.1145822388 -1.2208511851 -3.4066460897 0.00100324453646 0.000579012479783 -0.00776344663724
Te -4.214217762 2.4330797971 -3.3879955133 -0 2.57110337382e-07 -0.00921457738142
Te 2.1145822388 -1.2208511851 -3.4066460897 -0.00100324453646 0.000579012479783 -0.00776344663724
Te -0 2.4574909015 -10.3679087629 0 0.000154523312766 -0.0119723428602
Te -2.1282495086 -1.2287419907 -10.3679087629 -0.000133697375438 -7.73902115519e-05 -0.0119723428602
Te -4.214217762 2.4330797971 -10.3457076004 -0 2.57110337382e-07 -0.00774622024463
Te 2.1282495086 -1.2287419907 -10.3679087629 0.000133697375438 -7.73902115519e-05 -0.0119723428602
Sb -0 2.4239594572 8.4967864788 0 0.0153582288932 -0.00760069579368
Sb -2.099210433 -1.2119762686 8.4967864788 -0.0133003177528 -0.00767885733624 -0.00760069579368
Sb -4.214217762 2.4330797971 8.2848016056 -0 2.57110337382e-07 0.00439041612113
Sb 2.099210433 -1.2119762686 8.4967864788 0.0133003177528 -0.00767885733624 -0.00760069579368
Sb -0 2.4293737648 1.8216505923 0 -3.39385645344e-05 0.017360861311
Sb -2.1038993623 -1.2146834224 1.8216505923 2.95676887989e-05 1.69692822672e-05 0.017360861311
Sb -4.214217762 2.4330797971 1.8508961157 -0 2.57110337382e-07 0.0167702788661
Sb 2.1038993623 -1.2146834224 1.8216505923 -2.95676887989e-05 1.69692822672e-05 0.017360861311
Sb -0 -0 -12.1202206506 0 0 -0.0312005965516
Sb -2.1150565125 -3.6450276628 -12.2680627612 -0.00479150824744 0.00276625011989 -0.0305812177488
Sb -4.214217762 -0.0091771459 -12.2680627612 -0 -0.00553275735012 -0.0305812177488
Sb -2.0991612167 3.6542082686 -12.2680627612 0.00479150824744 0.00276625011989 -0.0305812177488
Sb 0 -0 11.7254022444 0 0 -0.0071366116347
Sb -2.2774364179 -3.551277567 12.478984461 0.0698514793495 -0.04032904197 -0.0323701914763
Sb 4.2142178275 -0.1966773371 12.478984461 -0 0.0806570554986 -0.032369934366
Sb 2.2774364179 -3.551277567 12.478984461 -0.0698514793495 -0.04032904197 -0.0323701914763
Sb 2.1051794908 1.2154259447 -1.8390047128 0.000968534640917 0.000559214983805 -0.0165280809282
Sb 3.27e-08 -2.4308484293 -1.8390047128 -0 -0.00111842996761 -0.0165278238179
Sb -2.1051794252 1.2154259447 -1.8390047128 -0.000968534640917 0.000559214983805 -0.0165280809282
Sb 4.2142177948 -2.4330763371 -1.8274339824 0 -0 -0.0171248340213
Sb 2.10026518 1.2125886674 -8.5389531205 0.00431919655767 0.00249371316226 0.0136062790542
Sb 3.27e-08 -2.4251738746 -8.5389531205 0 -0.00498742632453 0.0136062790542
Sb -2.1002651146 1.2125886674 -8.5389531205 -0.00431919655767 0.00249371316226 0.0136062790542
Sb 4.2142177948 -2.4330763371 -8.4708156787 0 -0 0.00898369229845
Cr -4.2142177948 -2.4330763371 14.4042702424 -0 5.14220674763e-07 0.153158056875
61
Lattice="8.42843558953 0 0 -4.21421779477 7.29923593142 0 0 0 31.0334408416" Properties=species:S:1:pos:R:3:forces:R:3 energy=-133597.193745 ionic_step=12 pbc="T T T"
Te 2.0969891257 1.210697234 3.4090781793 0.00518231596026 0.00299225010645 0.00457630689506
Te 3.27e-08 -2.4213910079 3.4090781793 -0 -0.00598424310256 0.00457630689506
Te -2.0969890601 1.210697234 3.4090781793 -0.00518231596026 0.00299225010645 0.00457630689506
Te 4.2142177948 -2.4330763371 3.3943296137 0 -2.57110337382e-07 0.00912895963907
Te -0 -0 6.8518330154 0 2.57110337382e-07 -0.00357820456534
Te -2.101971694 -3.6525821977 6.9083184619 -0.00231476436745 0.00133620242337 -0.0138032255727
Te -4.214217762 0.005931924 6.9083184619 -0 -0.00267240484674 -0.0138032255727
Te -2.1122461007 3.6466537337 6.9083184619 0.00231476436745 0.00133620242337 -0.0138032255727
Te 0 0 0.005062326 0 2.57110337382e-07 -0.00139970867671
Te -2.1009499355 -3.6531721062 0.0051709472 -0.00179205905155 0.00103435488729 0.000682627945748
Te -4.214217762 0.0071117409 0.0051709472 -0 -0.00206896688491 0.000682627945748
Te 2.1009499355 -3.6531721062 0.0051709472 0.00179205905155 0.00103435488729 0.000682627945748
Te -0 2.3095500306 14.2187050501 0 0.00373761297452 -0.0437077289135
Te -2.0001289462 -1.1547715553 14.2187050501 -0.0032367620373 -0.00186893504243 -0.0437077289135
Te -4.214217762 2.4330797971 13.6341730978 -0 2.57110337382e-07 0.0234343217006
Te 2.0001289462 -1.1547715553 14.2187050501 0.0032367620373 -0.00186893504243 -0.0437077289135
Te 2.0729011902 1.1967900491 -13.7714345013 0.0246162579216 0.0142125452298 -0.00617604741424
Te 3.27e-08 -2.3935766381 -13.7714345013 -0 -0.0284245762389 -0.00617604741424
Te -2.0729011246 1.1967900491 -13.7714345013 -0.0246162579216 0.0142125452298 -0.00617604741424
Te 4.2142177948 -2.4330763371 -14.03385627 0 -2.57110337382e-07 0.0569280853514
Te 2.1118154593 1.2192572227 10.2686143043 -0.0210570795212 -0.0121569480824 0.040265021496
Te 3.27e-08 -2.4385109852 10.2686143043 -0 0.0243141532752 0.0402652786063
Te -2.1118153938 1.2192572227 10.2686143043 0.0210570795212 -0.0121569480824 0.040265021496
Te 4.2142177948 -2.4330763371 10.280412924 0 -2.57110337382e-07 0.0605739099354
Te -0 -0 -6.9093122568 0 2.57110337382e-07 0.00134725816788
Te -2.0763924963 -3.6673503561 -6.9480158701 -0.0102610164546 0.00592407928361 0.0114653212749
Te 4.2142178275 0.0354682407 -6.9480158701 -0 -0.0118481585672 0.0114653212749
Te 2.0763924963 -3.6673503561 -6.9480158701 0.0102610164546 0.00592407928361 0.0114653212749
Te -0 2.4422862902 -3.4050820534 0 -0.00143724678596 -0.00879137376609
Te -2.115081935 -1.221139685 -3.4050820534 0.0012449282536 0.000718366282644 -0.00879137376609
Te -4.214217762 2.4330797971 -3.388796505 -0 2.57110337382e-07 -0.00928451139319
Te 2.115081935 -1.221139685 -3.4050820534 -0.0012449282536 0.000718366282644 -0.00879137376609
Te -0 2.4620923815 -10.3700296707 0 -0.00123901471584 -0.0117039196679
Te -2.1322345054 -1.2310427307 -10.3700296707 0.00107317854823 0.000619378802752 -0.0117041767783
Te -4.214217762 2.4330797971 -10.3542300228 -0 2.57110337382e-07 -0.00776421796825
Te 2.1322345054 -1.2310427307 -10.3700296707 -0.00107317854823 0.000619378802752 -0.0117041767783
Sb -0 2.4213800389 8.5006265732 0 0.0156670184083 -0.00767500068118
Sb -2.0969765923 -1.2106865594 8.5006265732 -0.0135677125036 -0.00783338064901 -0.00767500068118
Sb -4.214217762 2.4330797971 8.2872203162 -0 2.57110337382e-07 0.00452359927589
Sb 2.0969765923 -1.2106865594 8.5006265732 0.0135677125036 -0.00783338064901 -0.00767500068118
Sb -0 2.428910901 1.8216887189 0 -3.11103508232e-05 0.0174655052183
Sb -2.1034985106 -1.2144519905 1.8216887189 2.69965854251e-05 1.56837305803e-05 0.0174655052183
Sb -4.214217762 2.4330797971 1.8496098503 -0 2.57110337382e-07 0.0168718374493
Sb 2.1034985106 -1.2144519905 1.8216887189 -2.69965854251e-05 1.56837305803e-05 0.0174655052183
Sb 0 -0 -12.1185215762 0 0 -0.0313543485334
Sb -2.114303792 -3.6454622464 -12.2685465246 -0.00495528753236 0.00286086672405 -0.0305735044387
Sb -4.214217762 -0.0083079787 -12.2685465246 -0 -0.00572173344809 -0.0305735044387
Sb -2.0999139372 3.653773685 -12.2685465246 0.00495528753236 0.00286086672405 -0.0305735044387
Sb 0 -0 11.716168958 0 0 -0.00862759448118
Sb -2.2838807445 -3.5475569316 12.4793020802 0.0935439398289 -0.0540078261394 -0.0560533959836
Sb 4.2142178275 -0.2041186079 12.4793020802 -0 0.108014623837 -0.0560531388732
Sb 2.2838807445 -3.5475569316 12.4793020802 -0.0935439398289 -0.0540078261394 -0.0560533959836
Sb 2.1056214518 1.2156811112 -1.8376673038 0.000912484587367 0.000526819081295 -0.0164681742196
Sb 3.27e-08 -2.4313587621 -1.8376673038 -0 -0.00105363816259 -0.0164681742196
Sb -2.1056213863 1.2156811112 -1.8376673038 -0.000912484587367 0.000526819081295 -0.0164681742196
Sb 4.2142177948 -2.4330763371 -1.824927812 0 -0 -0.0169962788526
Sb 2.1010209546 1.2130250142 -8.5416820773 0.00426211806278 0.00246080303908 0.013823280179
Sb 3.27e-08 -2.4260465683 -8.5416820773 0 -0.00492160607816 0.0138235372893
Sb -2.1010208892 1.2130250142 -8.5416820773 -0.00426211806278 0.00246080303908 0.013823280179
Sb 4.2142177948 -2.4330763371 -8.471418393 0 -0 0.00881451369645
Cr -4.2142177948 -2.4330763371 14.4103676451 -0 5.14220674763e-07 0.217405559311
61
Lattice="8.42843558953 0 0 -4.21421779477 7.29923593142 0 0 0 31.0334408416" Properties=species:S:1:pos:R:3:forces:R:3 energy=-133597.207531 ionic_step=13 pbc="T T T"
Te 2.0968200888 1.2105996405 3.4061459825 0.00553584267416 0.00319639571433 0.00538903267152
Te 3.27e-08 -2.4211958208 3.4061459825 -0 -0.00639253431832 0.00538903267152
Te -2.0968200232 1.2105996405 3.4061459825 -0.00553584267416 0.00319613860399 0.00538903267152
Te 4.2142177948 -2.4330763371 3.39270522 0 -2.57110337382e-07 0.00973831113867
Te -0 -0 6.8492949071 0 2.57110337382e-07 -0.0026927165634
Te -2.1044059408 -3.6511767841 6.9168319403 -0.00123541517112 0.000712966965559 -0.0154957829237
Te -4.214217762 0.0031210967 6.9168319403 -0 -0.00142619104146 -0.0154957829237
Te -2.109811854 3.6480591474 6.9168319403 0.00123541517112 0.000712966965559 -0.0154957829237
Te 0 0 0.002156259 0 2.57110337382e-07 -0.00112691460874
Te -2.0998425531 -3.653811454 0.002910369 -0.00204119896847 0.00117833667622 0.000837922589527
Te -4.214217762 0.0083904365 0.002910369 -0 -0.00235693046278 0.000837922589527
Te 2.0998425531 -3.653811454 0.002910369 0.00204119896847 0.00117833667622 0.000837922589527
Te 0 2.3105271833 14.2291742221 0 -0.0101635716367 -0.044056370531
Te -2.0009751848 -1.1552601317 14.2291742221 0.00880217240026 0.00508178581835 -0.0440561134207
Te -4.214217762 2.4330797971 13.6200448559 -0 2.57110337382e-07 0.0266183761188
Te 2.0009751848 -1.1552601317 14.2291742221 -0.00880217240026 0.00508178581835 -0.0440561134207
Te 2.0664473691 1.1930639321 -13.7741841057 0.0266404876078 0.0153811117132 -0.00696254793629
Te 3.27e-08 -2.386124404 -13.7741841057 -0 -0.030761966316 -0.00696254793629
Te -2.0664473036 1.1930639321 -13.7741841057 -0.0266404876078 0.0153811117132 -0.00696254793629
Te 4.2142177948 -2.4330763371 -14.0233087115 0 -2.57110337382e-07 0.0727167169493
Te 2.1159613513 1.2216508556 10.2728086755 -0.0231556140949 -0.0133687091025 0.0398598156043
Te 3.27e-08 -2.4432982512 10.2728086755 -0 0.0267376753153 0.0398598156043
Te -2.1159612858 1.2216508556 10.2728086755 0.0231556140949 -0.0133687091025 0.0398598156043
Te 4.2142177948 -2.4330763371 10.2740368005 0 -2.57110337382e-07 0.060822021411
Te -0 -0 -6.9203693367 0 2.57110337382e-07 0.00259604307654
Te -2.0716610954 -3.670082033 -6.9521603199 -0.0116309003321 0.00671469357106 0.0118347888297
Te 4.2142178275 0.0409315944 -6.9521603199 -0 -0.0134299013628 0.0118347888297
Te 2.0716610954 -3.670082033 -6.9521603199 0.0116309003321 0.00671469357106 0.0118347888297
Te -0 2.4431616408 -3.4030681161 0 -0.00186250728399 -0.0102615306752
Te -2.1158400105 -1.2215773603 -3.4030681161 0.00161336736707 0.000931253641996 -0.0102615306752
Te -4.214217762 2.4330797971 -3.3903590267 -0 2.57110337382e-07 -0.00928991071027
Te 2.1158400105 -1.2215773603 -3.4030681161 -0.00161336736707 0.000931253641996 -0.0102615306752
Te -0 2.4690237513 -10.3732393977 0 -0.00334089172394 -0.0112706887495
Te -2.138237245 -1.2345084156 -10.3732393977 0.00289351973689 0.00167044586197 -0.0112706887495
Te -4.214217762 2.4330797971 -10.3669911001 -0 2.57110337382e-07 -0.00781718269775
Te 2.138237245 -1.2345084156 -10.3732393977 -0.00289351973689 0.00167044586197 -0.0112706887495
Sb -0 2.417514849 8.5062211448 0 0.0161048773129 -0.00778478679524
Sb -2.0936292411 -1.2087539645 8.5062211448 -0.0139469502513 -0.00805243865646 -0.00778478679524
Sb -4.214217762 2.4330797971 8.2904694419 -0 2.57110337382e-07 0.00467683703697
Sb 2.0936292411 -1.2087539645 8.5062211448 0.0139469502513 -0.00805243865646 -0.00778478679524
Sb -0 2.4282353768 1.8219863509 0 -2.93105784615e-05 0.0176012594765
Sb -2.1029134898 -1.2141142284 1.8219863509 2.54539234008e-05 1.46552892308e-05 0.0176012594765
Sb -4.214217762 2.4330797971 1.8479038956 -0 2.57110337382e-07 0.0170050206041
Sb 2.1029134898 -1.2141142284 1.8219863509 -2.54539234008e-05 1.46552892308e-05 0.0176012594765
Sb 0 -0 -12.116109836 0 0 -0.0315698069961
Sb -2.1131126536 -3.6461499507 -12.2694455673 -0.00518925793937 0.00299584965117 -0.0304896864687
Sb -4.214217762 -0.00693257 -12.2694455673 -0 -0.00599195641268 -0.0304899435791
Sb -2.1011050756 3.6530859807 -12.2694455673 0.00518925793937 0.00299584965117 -0.0304896864687
Sb 0 -0 11.7025802244 0 0 -0.0109547001448
Sb -2.2935845009 -3.5419544627 12.47970517 0.13638109314 -0.0787397837128 -0.099646710797
Sb 4.2142178275 -0.2153235458 12.47970517 0 0.157478281874 -0.099645939466
Sb 2.2935845009 -3.5419544627 12.47970517 -0.13638109314 -0.0787397837128 -0.099646710797
Sb 2.1063212489 1.2160851393 -1.8359216277 0.000824552851983 0.000476168344831 -0.0163614734296
Sb 3.27e-08 -2.4321668185 -1.8359216277 -0 -0.000952336689662 -0.0163612163193
Sb -2.1063211833 1.2160851393 -1.8359216277 -0.000824552851983 0.000476168344831 -0.0163614734296
Sb 4.2142177948 -2.4330763371 -1.8214105224 0 -0 -0.0167864768173
Sb 2.1021848576 1.2136969942 -8.5456827324 0.00417341499638 0.00240963808194 0.014141068556
Sb 3.27e-08 -2.4273905283 -8.5456827324 0 -0.00481927616388 0.014141068556
Sb -2.1021847921 1.2136969942 -8.5456827324 -0.00417341499638 0.00240963808194 0.014141068556
Sb 4.2142177948 -2.4330763371 -8.4719534623 0 -0 0.00854146251816
Cr -4.2142177948 -2.4330763371 14.4203182787 -0 1.02844134953e-06 0.33551896298
61
Lattice="8.42843558953 0 0 -4.21421779477 7.29923593142 0 0 0 31.0334408416" Properties=species:S:1:pos:R:3:forces:R:3 energy=-133597.227939 ionic_step=14 pbc="T T T"
Te 2.096584028 1.2104633506 3.4017709187 0.006054691335 0.00349592925738 0.00663576069748
Te 3.27e-08 -2.4209232411 3.4017709187 -0 -0.00699160140442 0.00663576069748
Te -2.0965839624 1.2104633506 3.4017709187 -0.006054691335 0.00349592925738 0.00663576069748
Te 4.2142177948 -2.4330763371 3.3901366534 0 -2.57110337382e-07 0.0107153304207
Te -0 -0 6.8456511192 0 2.57110337382e-07 -0.00139199536658
Te -2.1080345728 -3.6490817914 6.9295119967 0.00034658473479 -0.000200546063158 -0.0179892389756
Te -4.214217762 -0.0010688886 6.9295119967 -0 0.000400577905641 -0.0179892389756
Te -2.106183222 3.65015414 6.9295119967 -0.00034658473479 -0.000200546063158 -0.0179892389756
Te 0 0 -0.0020905122 0 2.57110337382e-07 -0.000734564233899
Te -2.0982443073 -3.6547342021 -0.0003359375 -0.00239935366845 0.00138505338747 0.00104978150753
Te -4.214217762 0.0102359327 -0.0003359375 -0 -0.00277036388529 0.00104978150753
Te 2.0982443073 -3.6547342021 -0.0003359375 0.00239935366845 0.00138505338747 0.00104978150753
Te 0 2.3120159297 14.2446872756 0 -0.0307349697306 -0.044454891554
Te -2.0022644764 -1.1560045049 14.2446872756 0.0266173476774 0.0153674848653 -0.0444546344436
Te -4.214217762 2.4330797971 13.5988524931 -0 2.57110337382e-07 0.0310463303492
Te 2.0022644764 -1.1560045049 14.2446872756 -0.0266173476774 0.0153674848653 -0.0444546344436
Te 2.0568931077 1.1875477741 -13.778152384 0.0295419777651 0.0170561855612 -0.00813317130239
Te 3.27e-08 -2.3750920881 -13.778152384 -0 -0.0341123711224 -0.00813317130239
Te -2.0568930422 1.1875477741 -13.778152384 -0.0295419777651 0.0170561855612 -0.00813317130239
Te 4.2142177948 -2.4330763371 -14.0074924947 0 -2.57110337382e-07 0.0961721216976
Te 2.1220915452 1.2251901264 10.2789045991 -0.0262031429239 -0.0151281151412 0.0393065141582
Te 3.27e-08 -2.4503767927 10.2789045991 -0 0.0302564873927 0.0393065141582
Te -2.1220914797 1.2251901264 10.2789045991 0.0262031429239 -0.0151281151412 0.0393065141582
Te 4.2142177948 -2.4330763371 10.2645106452 0 -2.57110337382e-07 0.0614010338908
Te -0 -0 -6.9367550706 0 2.57110337382e-07 0.00446754922234
Te -2.0646035023 -3.6741567381 -6.9583864622 -0.0136481880392 0.0078794033994 0.0124012029029
Te 4.2142178275 0.0490810047 -6.9583864622 -0 -0.0157593210195 0.0124012029029
Te 2.0646035023 -3.6741567381 -6.9583864622 0.0136481880392 0.0078794033994 0.0124012029029
Te -0 2.4444599518 -3.400028543 0 -0.00249268472091 -0.0124490254257
Te -2.1169643803 -1.2222265158 -3.400028543 0.00215895550299 0.00124621380529 -0.0124490254257
Te -4.214217762 2.4330797971 -3.3925116726 -0 2.57110337382e-07 -0.00931356486131
Te 2.1169643803 -1.2222265158 -3.400028543 -0.00215895550299 0.00124621380529 -0.0124490254257
Te -0 2.479224536 -10.3780124089 0 -0.00639844785608 -0.0105957741138
Te -2.1470713795 -1.239608808 -10.3780124089 0.00554149910159 0.00319922392804 -0.0105957741138
Te -4.214217762 2.4330797971 -10.3856097702 -0 2.57110337382e-07 -0.00792516903945
Te 2.1470713795 -1.239608808 -10.3780124089 -0.00554149910159 0.00319922392804 -0.0105957741138
Sb -0 2.4118678086 8.514423609 0 0.0166931457648 -0.00791437040528
Sb -2.088738763 -1.2059304443 8.514423609 -0.01445654294 -0.00834657288242 -0.00791437040528
Sb -4.214217762 2.4330797971 8.2951696777 -0 2.57110337382e-07 0.00489975169948
Sb 2.088738763 -1.2059304443 8.514423609 0.01445654294 -0.00834657288242 -0.00791437040528
Sb 0 2.4272894952 1.8222650175 0 -2.93105784615e-05 0.0178010342086
Sb -2.1020943327 -1.2136412876 1.8222650175 2.54539234008e-05 1.46552892308e-05 0.0178010342086
Sb -4.214217762 2.4330797971 1.8453321019 -0 2.57110337382e-07 0.0172004244605
Sb 2.1020943327 -1.2136412876 1.8222650175 -2.54539234008e-05 1.46552892308e-05 0.0178010342086
Sb 0 -0 -12.1123244201 0 0 -0.0318863098214
Sb -2.1113477973 -3.6471688915 -12.270738801 -0.00553301446045 0.00319433883163 -0.0303577888657
Sb -4.214217762 -0.0048946884 -12.270738801 -0 -0.0063889347736 -0.0303577888657
Sb -2.1028699319 3.6520670399 -12.270738801 0.00553301446045 0.00319433883163 -0.0303577888657
Sb 0 -0 11.6824013333 0 0 -0.0145668432747
Sb -2.3077691251 -3.5337649622 12.4800785125 0.199400122384 -0.115123981776 -0.165661075471
Sb 4.2142178275 -0.2317025467 12.4800785125 0 0.23024616378 -0.16566004703
Sb 2.3077691251 -3.5337649622 12.4800785125 -0.199400122384 -0.115123981776 -0.165661075471
Sb 2.1073489104 1.2166784603 -1.8333187291 0.000697540345316 0.000402891898677 -0.0162105496616
Sb 3.27e-08 -2.4333534604 -1.8333187291 -0 -0.000805526687017 -0.0162105496616
Sb -2.1073488449 1.2166784603 -1.8333187291 -0.000697540345316 0.000402891898677 -0.0162105496616
Sb 4.2142177948 -2.4330763371 -1.8161794131 0 -0 -0.0164892572673
Sb 2.1038973404 1.2146856971 -8.5517876992 0.00404511693803 0.00233559030477 0.0146113233631
Sb 3.27e-08 -2.429367934 -8.5517876992 0 -0.00467118060955 0.0146115804734
Sb -2.1038972749 1.2146856971 -8.5517876992 -0.00404511693803 0.00233559030477 0.0146113233631
Sb 4.2142177948 -2.4330763371 -8.4726562935 0 -0 0.00814037039184
Cr -4.2142177948 -2.4330763371 14.4361765833 -0 1.28555168691e-06 0.514143798772
61
Lattice="8.42843558953 0 0 -4.21421779477 7.29923593142 0 0 0 31.0334408416" Properties=species:S:1:pos:R:3:forces:R:3 energy=-133597.257791 ionic_step=15 pbc="T T T"
Te 2.0962435149 1.2102667553 3.3952426075 0.00682036591972 0.00393790192734 0.00853889141478
Te 3.27e-08 -2.4205300504 3.3952426075 -0 -0.00787606096501 0.00853889141478
Te -2.0962434494 1.2102667553 3.3952426075 -0.00682036591972 0.00393790192734 0.00853889141478
Te 4.2142177948 -2.4330763371 3.3862129292 0 -2.57110337382e-07 0.012214540798
Te -0 -0 6.8403069674 0 2.57110337382e-07 0.000559214983805
Te -2.1134764761 -3.6459399056 6.9484697946 0.00265517845414 -0.00153314894181 -0.0216126949603
Te -4.214217762 -0.0073526602 6.9484697946 -0 0.00306604077328 -0.0216126949603
Te -2.1007413187 3.6532960258 6.9484697946 -0.00265517845414 -0.00153314894181 -0.0216126949603
Te 0 0 -0.0083830885 0 2.57110337382e-07 -0.000169949933009
Te -2.0958860003 -3.6560957719 -0.0051082995 -0.00292411586704 0.00168792936491 0.00135060060227
Te -4.214217762 0.0129590723 -0.0051082995 -0 -0.0033763729505 0.00135060060227
Te 2.0958860003 -3.6560957719 -0.0051082995 0.00292411586704 0.00168792936491 0.00135060060227
Te 0 2.3142574618 14.2678023624 0 -0.0640734387375 -0.0450156491998
Te -2.0042056992 -1.1571252709 14.2678023624 0.0554892959034 0.0320367193688 -0.0450156491998
Te -4.214217762 2.4330797971 13.5670639488 -0 2.57110337382e-07 0.0368310558299
Te 2.0042056992 -1.1571252709 14.2678023624 -0.0554892959034 0.0320367193688 -0.0450156491998
Te 2.0426521 1.1793257207 -13.7839799692 0.0335860662618 0.0193912616453 -0.00979024742682
Te 3.27e-08 -2.3586479811 -13.7839799692 -0 -0.03878200907 -0.00978999031648
Te -2.0426520345 1.1793257207 -13.7839799692 -0.0335860662618 0.0193912616453 -0.00979024742682
Te 4.2142177948 -2.4330763371 -13.9837876608 0 -2.57110337382e-07 0.134664367417
Te 2.1312600248 1.2304835531 10.2879139379 -0.0305992154725 -0.0176663083918 0.0385616655108
Te 3.27e-08 -2.4609636461 10.2879139379 -0 0.0353326167837 0.0385616655108
Te -2.1312599594 1.2304835531 10.2879139379 0.0305992154725 -0.0176663083918 0.0385616655108
Te 4.2142177948 -2.4330763371 10.2502434841 0 -2.57110337382e-07 0.0618491772088
Te -0 -0 -6.9611531792 0 2.57110337382e-07 0.00724896885214
Te -2.0540442611 -3.6802531218 -6.9677228621 -0.0165805314371 0.00957247497106 0.0132396397131
Te 4.2142178275 0.061273772 -6.9677228621 -0 -0.0191452070524 0.0132396397131
Te 2.0540442611 -3.6802531218 -6.9677228621 0.0165805314371 0.00957247497106 0.0132396397131
Te -0 2.4463979665 -3.39547658 0 -0.00343447988674 -0.0157053278486
Te -2.1186427494 -1.2231955232 -3.39547658 0.00297450949317 0.00171723994337 -0.0157053278486
Te -4.214217762 2.4330797971 -3.3956279352 -0 2.57110337382e-07 -0.00935778783934
Te 2.1186427494 -1.2231955232 -3.39547658 -0.00297450949317 0.00171723994337 -0.0157053278486
Te -0 2.494424011 -10.3851426351 0 -0.0108238309831 -0.00954779237867
Te -2.1602345048 -1.2472085455 -10.3851426351 0.0093739857906 0.00541191549155 -0.00954779237867
Te -4.214217762 2.4330797971 -10.413181525 -0 2.57110337382e-07 -0.00808740566234
Te 2.1602345048 -1.2472085455 -10.3851426351 -0.0093739857906 0.00541191549155 -0.00954779237867
Sb -0 2.4034914413 8.5265821519 0 0.0174616485633 -0.00802672762272
Sb -2.0814846195 -1.2017422606 8.5265821519 -0.0151219444931 -0.00873069572647 -0.00802672762272
Sb -4.214217762 2.4330797971 8.3021101217 -0 2.57110337382e-07 0.00523630913111
Sb 2.0814846195 -1.2017422606 8.5265821519 0.0151219444931 -0.00873069572647 -0.00802672762272
Sb 0 2.4259154846 1.8225851533 0 -3.26530128475e-05 0.0180967110966
Sb -2.1009044052 -1.2129542823 1.8225851533 2.85392474494e-05 1.64550615924e-05 0.0180969682069
Sb -4.214217762 2.4330797971 1.8414806192 -0 2.57110337382e-07 0.0174832458316
Sb 2.1009044052 -1.2129542823 1.8225851533 -2.85392474494e-05 1.64550615924e-05 0.0180969682069
Sb 0 -0 -12.1065397881 0 0 -0.0323246829466
Sb -2.1086992129 -3.6486980532 -12.2726411269 -0.00598424310256 0.0034547916034 -0.030038714937
Sb -4.214217762 -0.0018363651 -12.2726411269 -0 -0.00690984031713 -0.030038714937
Sb -2.1055185163 3.6505378783 -12.2726411269 0.00598424310256 0.0034547916034 -0.030038714937
Sb 0 -0 11.6522411883 0 0 -0.020279577861
Sb -2.3287908497 -3.5216280582 12.4805303869 0.300718307484 -0.173619925965 -0.276049856164
Sb 4.2142178275 -0.2559763547 12.4805303869 0 0.347237280827 -0.276048313502
Sb 2.3287908497 -3.5216280582 12.4805303869 -0.300718307484 -0.173619925965 -0.276049856164
Sb 2.1088743818 1.217559192 -1.8294451668 0.000511135350715 0.000295162667314 -0.0159873778887
Sb 3.27e-08 -2.4351149238 -1.8294451668 -0 -0.000590325334628 -0.0159873778887
Sb -2.1088743162 1.217559192 -1.8294451668 -0.000511135350715 0.000295162667314 -0.0159873778887
Sb 4.2142177948 -2.4330763371 -1.8083815802 0 -0 -0.0160524268041
Sb 2.1064383798 1.2161527676 -8.5610123989 0.00385048441263 0.00222323308734 0.0153050070533
Sb 3.27e-08 -2.432302075 -8.5610123989 0 -0.00444620906434 0.0153052641637
Sb -2.1064383143 1.2161527676 -8.5610123989 -0.00385048441263 0.00222323308734 0.0153050070533
Sb 4.2142177948 -2.4330763371 -8.4736186924 0 -0 0.00754336018844
Cr -4.2142177948 -2.4330763371 14.4604759751 -0 2.05688269905e-06 0.81268541014
61
Lattice="8.42843558953 0 0 -4.21421779477 7.29923593142 0 0 0 31.0334408416" Properties=species:S:1:pos:R:3:forces:R:3 energy=-133597.296279 ionic_step=16 pbc="T T T"
Te 2.0957425599 1.2099775286 3.3857573033 0.00792568326013 0.00457604978472 0.0113128548448
Te 3.27e-08 -2.419951597 3.3857573033 -0 -0.00915209956944 0.0113128548448
Te -2.0957424943 1.2099775286 3.3857573033 -0.00792568326013 0.00457604978472 0.0113128548448
Te 4.2142177948 -2.4330763371 3.3806050979 0 -2.57110337382e-07 0.0143858375972
Te -0 -0 6.8323370797 0 2.57110337382e-07 0.00357537635163
Te -2.1216557391 -3.6412176037 6.9762697185 0.00597293024771 -0.00344887806564 -0.0265942077471
Te -4.214217762 -0.016797264 6.9762697185 -0 0.0068972419106 -0.0265942077471
Te -2.0925620557 3.6580183277 6.9762697185 -0.00597293024771 -0.00344887806564 -0.0265942077471
Te 0 0 -0.017759807 0 2.57110337382e-07 0.000638919188393
Te -2.0923665711 -3.6581277162 -0.012217232 -0.00370830239606 0.00214070066904 0.00178768817581
Te -4.214217762 0.017022961 -0.012217232 -0 -0.00428165844842 0.00178768817581
Te 2.0923665711 -3.6581277162 -0.012217232 0.00370830239606 0.00214070066904 0.00178768817581
Te 0 2.3173959753 14.3022376769 0 -0.0950827451981 -0.0440054626842
Te -2.0069237304 -1.1586945277 14.3022376769 0.0823442135325 0.0475412440439 -0.0440052055739
Te -4.214217762 2.4330797971 13.5193811324 -0 2.57110337382e-07 0.0437702067255
Te 2.0069237304 -1.1586945277 14.3022376769 -0.0823442135325 0.0475412440439 -0.0440052055739
Te 2.0214915059 1.1671086402 -13.7927679136 0.0388809965499 0.0224483035568 -0.012532329175
Te 3.27e-08 -2.3342138203 -13.7927679136 -0 -0.0448960928929 -0.012532329175
Te -2.0214914403 1.1671086402 -13.7927679136 -0.0388809965499 0.0224483035568 -0.012532329175
Te 4.2142177948 -2.4330763371 -13.9483258743 0 -2.57110337382e-07 0.16950076125
Te 2.145107103 1.2384781711 10.3014855207 -0.036792232169 -0.0212416847435 0.0377605096996
Te 3.27e-08 -2.4769528821 10.3014855207 -0 0.0424838837076 0.0377605096996
Te -2.1451070375 1.2384781711 10.3014855207 0.036792232169 -0.0212416847435 0.0377605096996
Te 4.2142177948 -2.4330763371 10.2287182071 0 -2.57110337382e-07 0.0652327492488
Te -0 -0 -6.9970141547 0 2.57110337382e-07 0.0111786432487
Te -2.0383025806 -3.6893415895 -6.9814932405 -0.0207182080965 0.011961544226 0.0143902084729
Te 4.2142178275 0.0794507074 -6.9814932405 -0 -0.023923088452 0.0143902084729
Te 2.0383025806 -3.6893415895 -6.9814932405 0.0207182080965 0.011961544226 0.0143902084729
Te -0 2.4492911954 -3.3888894559 0 -0.00482210437759 -0.0204420715942
Te -2.121148358 -1.2246421376 -3.3888894559 0.00417624321009 0.00241092363363 -0.0204420715942
Te -4.214217762 2.4330797971 -3.4005043405 -0 2.57110337382e-07 -0.0093850415351
Te 2.121148358 -1.2246421376 -3.3888894559 -0.00417624321009 0.00241092363363 -0.0204420715942
Te 0 2.5172095424 -10.3957743603 0 -0.0170124768039 -0.00800075947864
Te -2.1799673447 -1.2586013112 -10.3957743603 0.0147337078837 0.00850623840193 -0.00800075947864
Te -4.214217762 2.4330797971 -10.4536703398 -0 2.57110337382e-07 -0.00837485501953
Te 2.1799673447 -1.2586013112 -10.3957743603 -0.0147337078837 0.00850623840193 -0.00800075947864
Sb -0 2.3908636782 8.5445984726 0 0.0184312116455 -0.00798816107211
Sb -2.070548661 -1.1954283791 8.5445984726 -0.0159619239653 -0.00921560582277 -0.00798816107211
Sb -4.214217762 2.4330797971 8.3123160051 -0 2.57110337382e-07 0.00576209977106
Sb 2.070548661 -1.1954283791 8.5445984726 0.0159619239653 -0.00921560582277 -0.00798816107211
Sb 0 2.4238531214 1.823230054 0 -3.77952195951e-05 0.018524542698
Sb -2.0991183471 -1.2119231007 1.823230054 3.29101231848e-05 1.90261649662e-05 0.018524542698
Sb -4.214217762 2.4330797971 1.835877345 -0 2.57110337382e-07 0.0178781673098
Sb 2.0991183471 -1.2119231007 1.823230054 -3.29101231848e-05 1.90261649662e-05 0.018524542698
Sb 0 -0 -12.0979742407 0 0 -0.0329697727831
Sb -2.1046972475 -3.65100859 -12.2755532327 -0.00681393816129 0.00393378816194 -0.0298857342862
Sb -4.214217762 0.0027847086 -12.2755532327 -0 -0.00786783343422 -0.0298857342862
Sb -2.1095204817 3.6482273414 -12.2755532327 0.00681393816129 0.00393378816194 -0.0298857342862
Sb 0 -0 11.6073823735 0 0 -0.0289781347953
Sb -2.3596134702 -3.5038326016 12.4809770593 0.394495446389 -0.227761963701 -0.388734117949
Sb 4.2142178275 -0.2915672679 12.4809770593 0 0.455521099187 -0.388732061066
Sb 2.3596134702 -3.5038326016 12.4809770593 -0.394495446389 -0.227761963701 -0.388734117949
Sb 2.1111395256 1.218866974 -1.8238404747 0.000236798620728 0.000136782699487 -0.0156397647126
Sb 3.27e-08 -2.4377304878 -1.8238404747 -0 -0.000273565398974 -0.0156395076022
Sb -2.11113946 1.218866974 -1.8238404747 -0.000236798620728 0.000136782699487 -0.0156397647126
Sb 4.2142177948 -2.4330763371 -1.7968837528 0 -0 -0.0153826543752
Sb 2.1102038229 1.2183267482 -8.5746870869 0.00354940820755 0.00204942649927 0.016298481397
Sb 3.27e-08 -2.4366500362 -8.5746870869 0 -0.0040985958882 0.0162987385073
Sb -2.1102037574 1.2183267482 -8.5746870869 -0.00354940820755 0.00204942649927 0.016298481397
Sb 4.2142177948 -2.4330763371 -8.4747691474 0 -0 0.00663730335951
Cr -4.2142177948 -2.4330763371 14.4975398426 -0 2.8282137112e-06 1.11777150804
61
Lattice="8.42843558953 0 0 -4.21421779477 7.29923593142 0 0 0 31.0334408416" Properties=species:S:1:pos:R:3:forces:R:3 energy=-133597.324896 ionic_step=17 pbc="T T T"
Te 2.0951317696 1.2096248885 3.3743050861 0.00942926451313 0.00544405428372 0.0147542767106
Te 3.27e-08 -2.4192463168 3.3743050861 -0 -0.0108881085674 0.0147542767106
Te -2.095131704 1.2096248885 3.3743050861 -0.00942926451313 0.00544405428372 0.0147542767106
Te 4.2142177948 -2.4330763371 3.3749289993 0 -2.57110337382e-07 0.0168751798837
Te 0 -0 6.8193502482 0 2.57110337382e-07 0.0087921450971
Te -2.1345742531 -3.6337590927 7.0156364816 0.0108009481631 -0.00623621123319 -0.0325712517602
Te -4.214217762 -0.031714286 7.0156364816 -0 0.012472165356 -0.0325712517602
Te -2.0796435417 3.6654768387 7.0156364816 -0.0108009481631 -0.00623621123319 -0.0325712517602
Te 0 0 -0.0319404463 0 2.57110337382e-07 0.00183011138148
Te -2.0871063753 -3.6611646931 -0.0229587669 -0.00486555602461 0.00280893043589 0.00245103284626
Te -4.214217762 0.0230969147 -0.0229587669 -0 -0.00561811798213 0.00245103284626
Te 2.0871063753 -3.6611646931 -0.0229587669 0.00486555602461 0.00280893043589 0.00245103284626
Te 0 2.322089217 14.3553799022 0 -0.164704367906 -0.0432243614793
Te -2.010988195 -1.1610411485 14.3553799022 0.142638387421 0.082352183953 -0.0432243614793
Te -4.214217762 2.4330797971 13.4478569079 -0 2.57110337382e-07 0.049243057367
Te 2.010988195 -1.1610411485 14.3553799022 -0.142638387421 0.082352183953 -0.0432243614793
Te 1.9900760997 1.1489709386 -13.8083212856 0.0447873352202 0.0258583579615 -0.0155772869006
Te 3.27e-08 -2.297938417 -13.8083212856 -0 -0.0517162017023 -0.0155772869006
Te -1.9900760342 1.1489709386 -13.8083212856 -0.0447873352202 0.0258581008511 -0.0155772869006
Te 4.2142177948 -2.4330763371 -13.896008239 0 -2.57110337382e-07 0.25137806241
Te 2.1667483766 1.2509727721 10.3231913167 -0.0452439631794 -0.0261213818366 0.0367624073698
Te 3.27e-08 -2.501942084 10.3231913167 -0 0.0522430207836 0.0367626644802
Te -2.1667483111 1.2509727721 10.3231913167 0.0452439631794 -0.0261213818366 0.0367624073698
Te 4.2142177948 -2.4330763371 10.1948994897 0 -2.57110337382e-07 0.0643819711424
Te -0 0 -7.0492571459 0 2.57110337382e-07 0.0161107908507
Te -2.0145019535 -3.7030828943 -7.0001765657 -0.0263131861483 0.0151916213945 0.0153327749698
Te 4.2142178275 0.1069333171 -7.0001765657 -0 -0.0303834998994 0.0153327749698
Te 2.0145019535 -3.7030828943 -7.0001765657 0.0263131861483 0.0151916213945 0.0153327749698
Te -0 2.4537465766 -3.3814709924 0 -0.00688130106968 -0.026777784528
Te -2.1250068295 -1.2268698282 -3.3814709924 0.00595981762051 0.00344065053484 -0.026777784528
Te -4.214217762 2.4330797971 -3.4107170319 -0 2.57110337382e-07 -0.00876000630493
Te 2.1250068295 -1.2268698282 -3.3814709924 -0.00595981762051 0.00344065053484 -0.026777784528
Te 0 2.5516246364 -10.4118709222 0 -0.0249589860013 -0.00588936938806
Te -2.2097716765 -1.2758088582 -10.4118709222 0.0216152660637 0.0124793644455 -0.00588936938806
Te -4.214217762 2.4330797971 -10.5135713008 -0 2.57110337382e-07 -0.00878083224226
Te 2.2097716765 -1.2758088582 -10.4118709222 -0.0216152660637 0.0124793644455 -0.00588936938806
Sb -0 2.3712565636 8.5703718835 0 0.0196437439966 -0.0077102247974
Sb -2.0535684095 -1.1856248218 8.5703718835 -0.0170117054729 -0.00982161488798 -0.0077102247974
Sb -4.214217762 2.4330797971 8.3251247515 -0 2.57110337382e-07 0.00629971748652
Sb 2.0535684095 -1.1856248218 8.5703718835 0.0170117054729 -0.00982161488798 -0.0077102247974
Sb 0 2.4207857901 1.8262002782 0 -4.60227503913e-05 0.0190217940905
Sb -2.0964619615 -1.210389435 1.8262002782 3.98521022942e-05 2.2882820027e-05 0.0190217940905
Sb -4.214217762 2.4330797971 1.8291408448 -0 2.57110337382e-07 0.0182982856011
Sb 2.0964619615 -1.210389435 1.8262002782 -3.98521022942e-05 2.2882820027e-05 0.0190217940905
Sb 0 -0 -12.086020297 0 0 -0.0336945668242
Sb -2.0981219006 -3.6548048701 -12.2812205222 -0.00762666393775 0.00440301452766 -0.028452858376
Sb -4.214217762 0.0103772688 -12.2812205222 -0 -0.008806543276 -0.0284531154863
Sb -2.1160958286 3.6444310613 -12.2812205222 0.00762666393775 0.004403271638 -0.028452858376
Sb 0 -0 11.5425770764 0 0 -0.0420334263965
Sb -2.4062110456 -3.4769294664 12.4830920093 0.601663900507 -0.347370978202 -0.649746876032
Sb 4.2142178275 -0.3453735384 12.4830920093 0 0.694737071308 -0.649743533597
Sb 2.4062110456 -3.4769294664 12.4830920093 -0.601663900507 -0.347370978202 -0.649746876032
Sb 2.1147106952 1.2209287907 -1.8173737399 -0.000197460739109 -0.00011389987946 -0.0149602220909
Sb 3.27e-08 -2.4418541212 -1.8173737399 -0 0.00022779975892 -0.0149602220909
Sb -2.1147106296 1.2209287907 -1.8173737399 0.000197460739109 -0.00011389987946 -0.0149602220909
Sb 4.2142177948 -2.4330763371 -1.7813263336 0 -0 -0.0142254007467
Sb 2.1159092836 1.221620799 -8.5944289976 0.00307452541441 0.00177508976928 0.0176804494604
Sb 3.27e-08 -2.4432381378 -8.5944289976 0 -0.00355017953857 0.0176807065707
Sb -2.1159092181 1.221620799 -8.5944289976 -0.00307452541441 0.00177508976928 0.0176804494604
Sb 4.2142177948 -2.4330763371 -8.4735122547 0 -0 0.0051398927546
Cr -4.2142177948 -2.4330763371 14.5526630882 -0 4.37087573549e-06 1.82586289027
61
Lattice="8.42843558953 0 0 -4.21421779477 7.29923593142 0 0 0 31.0334408416" Properties=species:S:1:pos:R:3:forces:R:3 energy=-133597.333589 ionic_step=18 pbc="T T T"
Te 2.0951531549 1.2096372353 3.3753052891 0.00953185153775 0.00550344677165 0.0146794576025
Te 3.27e-08 -2.4192710104 3.3753052891 -0 -0.011006636433 0.0146794576025
Te -2.0951530893 1.2096372353 3.3753052891 -0.00953185153775 0.00550344677165 0.0146794576025
Te 4.2142177948 -2.4330763371 3.376606219 0 -2.57110337382e-07 0.0164974847981
Te 0 0 6.8174609438 0 2.57110337382e-07 0.0100386160127
Te -2.1366601553 -3.6325547959 7.018283776 0.0115707365132 -0.00668049789619 -0.0326131607452
Te -4.214217762 -0.0341228796 7.018283776 -0 0.0133609957924 -0.0326131607452
Te -2.0775576395 3.6666811355 7.018283776 -0.0115707365132 -0.00668049789619 -0.0326131607452
Te 0 0 -0.0336445486 0 2.57110337382e-07 0.00202268702418
Te -2.0864461663 -3.6615458651 -0.0242275425 -0.00501365157894 0.00289429106791 0.00257470291854
Te -4.214217762 0.0238592587 -0.0242275425 -0 -0.00578883924615 0.00257470291854
Te 2.0864461663 -3.6615458651 -0.0242275425 0.00501365157894 0.00289429106791 0.00257470291854
Te 0 2.3218208055 14.3606309216 0 -0.0817546595289 -0.0361296588295
Te -2.010755744 -1.1609069428 14.3606309216 0.0708017591565 0.0408774583196 -0.0361294017192
Te -4.214217762 2.4330797971 13.4409023902 -0 2.57110337382e-07 0.0509494986762
Te 2.010755744 -1.1609069428 14.3606309216 -0.0708017591565 0.0408774583196 -0.0361294017192
Te 1.987431099 1.147443846 -13.8114266833 0.0452776446336 0.0261411793326 -0.0182080398727
Te 3.27e-08 -2.2948842318 -13.8114266833 -0 -0.0522821015549 -0.0182080398727
Te -1.9874310335 1.147443846 -13.8114266833 -0.0452776446336 0.0261411793326 -0.0182080398727
Te 4.2142177948 -2.4330763371 -13.8921654328 0 -2.57110337382e-07 0.144368739991
Te 2.1701098301 1.252913509 10.3270145268 -0.0463155990656 -0.0267402464187 0.0371059067806
Te 3.27e-08 -2.505823558 10.3270145268 -0 0.0534804928374 0.0371061638909
Te -2.1701097646 1.252913509 10.3270145268 0.0463155990656 -0.0267402464187 0.0371059067806
Te 4.2142177948 -2.4330763371 10.1912101159 0 -2.57110337382e-07 0.0750849602669
Te -0 -0 -7.0533872571 0 2.57110337382e-07 0.0162514302052
Te -2.0126488081 -3.7041528088 -7.000632702 -0.0267456457358 0.0154412755321 0.0149733347181
Te 4.2142178275 0.1090731461 -7.000632702 -0 -0.0308830652849 0.0149733347181
Te 2.0126488081 -3.7041528088 -7.000632702 0.0267456457358 0.0154412755321 0.0149733347181
Te -0 2.4543858811 -3.382595892 0 -0.00715383802731 -0.0269999278595
Te -2.1255604832 -1.2271894805 -3.382595892 0.00619584491022 0.00357691901365 -0.0269999278595
Te -4.214217762 2.4330797971 -3.4141420636 -0 2.57110337382e-07 -0.00826172647108
Te 2.1255604832 -1.2271894805 -3.382595892 -0.00619584491022 0.00357691901365 -0.0269999278595
Te 0 2.5546912674 -10.4136493358 0 -0.025553167991 -0.00592716460766
Te -2.2124274556 -1.2773421737 -10.4136493358 0.0221300009591 0.0127765839955 -0.00592716460766
Te -4.214217762 2.4330797971 -10.5182972943 -0 2.57110337382e-07 -0.00893638399637
Te 2.2124274556 -1.2773421737 -10.4136493358 -0.0221300009591 0.0127765839955 -0.00592716460766
Sb -0 2.3679910433 8.5721191691 0 0.01998158698 -0.00748422481084
Sb -2.0507403873 -1.1839920616 8.5721191691 -0.0173045541471 -0.00999079348998 -0.00748422481084
Sb -4.214217762 2.4330797971 8.3243662712 -0 2.57110337382e-07 0.0061984160136
Sb 2.0507403873 -1.1839920616 8.5721191691 0.0173045541471 -0.00999079348998 -0.00748422481084
Sb 0 2.4204335867 1.8281604806 0 -4.60227503913e-05 0.0189575165062
Sb -2.0961569445 -1.2102133333 1.8281604806 4.01092126315e-05 2.31399303643e-05 0.0189577736165
Sb -4.214217762 2.4330797971 1.8297016647 -0 2.57110337382e-07 0.0182057258797
Sb 2.0961569445 -1.2102133333 1.8281604806 -4.01092126315e-05 2.31399303643e-05 0.0189577736165
Sb 0 0 -12.0851506976 0 0 -0.0341085144674
Sb -2.0969222421 -3.6554974936 -12.2831151954 -0.00921380605041 0.00531935577009 -0.0311358047466
Sb -4.214217762 0.0117625157 -12.2831151954 -0 -0.0106389686505 -0.0311358047466
Sb -2.1172954871 3.6437384379 -12.2831151954 0.00921380605041 0.00531935577009 -0.0311358047466
Sb 0 -0 11.5383052091 0 0 -0.0420377972722
Sb -2.4087983923 -3.4754356604 12.4833699117 0.352466647979 -0.203496661389 -0.366527240999
Sb 4.2142178275 -0.3483611503 12.4833699117 0 0.406990751676 -0.366525184116
Sb 2.4087983923 -3.4754356604 12.4833699117 -0.352466647979 -0.203496661389 -0.366527240999
Sb 2.1151553586 1.2211855173 -1.8183344919 -0.000259938551093 -0.000149895326693 -0.0147668751172
Sb 3.27e-08 -2.4423675745 -1.8183344919 -0 0.000300047763724 -0.0147666180068
Sb -2.115155293 1.2211855173 -1.8183344919 0.000259938551093 -0.000149895326693 -0.0147668751172
Sb 4.2142177948 -2.4330763371 -1.7811000223 0 -0 -0.0139970867671
Sb 2.1164064897 1.2219078612 -8.5960169077 0.00305601347012 0.00176429113511 0.0177480694791
Sb 3.27e-08 -2.4438122622 -8.5960169077 0 -0.00352883938056 0.0177480694791
Sb -2.1164064242 1.2219078612 -8.5960169077 -0.00305601347012 0.00176429113511 0.0177480694791
Sb 4.2142177948 -2.4330763371 -8.4707554284 0 -0 0.00483444567379
Cr -4.2142177948 -2.4330763371 14.5606878102 -0 2.57110337382e-06 1.06414497653
61
Lattice="8.42843558953 0 0 -4.21421779477 7.29923593142 0 0 0 31.0334408416" Properties=species:S:1:pos:R:3:forces:R:3 energy=-133597.351516 ionic_step=19 pbc="T T T"
Te 2.0953871857 1.2097723531 3.3795463767 0.00956913253667 0.00552504403999 0.0140307682213
Te 3.27e-08 -2.4195412461 3.3795463767 -0 -0.0110498309697 0.0140307682213
Te -2.0953871202 1.2097723531 3.3795463767 -0.00956913253667 0.00552504403999 0.0140307682213
Te 4.2142177948 -2.4330763371 3.3812329614 0 -2.57110337382e-07 0.0153330320801
Te 0 0 6.8143476035 0 2.57110337382e-07 0.0122695624102
Te -2.1400975534 -3.6305702123 7.0195899584 0.0128465180073 -0.00741711901279 -0.0320961118567
Te -4.214217762 -0.0380920468 7.0195899584 -0 0.0148339809152 -0.0320961118567
Te -2.0741202414 3.6686657191 7.0195899584 -0.0128465180073 -0.00741711901279 -0.0320961118567
Te 0 0 -0.0357518479 0 2.57110337382e-07 0.00234047540118
Te -2.0857489794 -3.6619483863 -0.0255963091 -0.00515351960248 0.00297502371384 0.00274388152054
Te -4.214217762 0.0246643012 -0.0255963091 -0 -0.00595056164836 0.00274388152054
Te 2.0857489794 -3.6619483863 -0.0255963091 0.00515351960248 0.00297502371384 0.00274388152054
Te 0 2.3220213368 14.3679662673 0 -0.0752646803927 -0.0345448307099
Te -2.0109294091 -1.1610072084 14.3679662673 0.0651813271813 0.0376324687515 -0.0345448307099
Te -4.214217762 2.4330797971 13.4320751961 -0 2.57110337382e-07 0.0513500765819
Te 2.0109294091 -1.1610072084 14.3679662673 -0.0651813271813 0.0376324687515 -0.0345448307099
Te 1.9846628409 1.1458455907 -13.8174039061 0.0457149893175 0.0263936616839 -0.0189084084317
Te 3.27e-08 -2.2916877212 -13.8174039061 -0 -0.0527870662575 -0.0189081513214
Te -1.9846627753 1.1458455907 -13.8174039061 -0.0457149893175 0.0263936616839 -0.0189084084317
Te 4.2142177948 -2.4330763371 -13.8888407012 0 -2.57110337382e-07 0.132152656531
Te 2.1750165712 1.2557464186 10.3330111384 -0.0477890984091 -0.0275907674148 0.0367405529912
Te 3.27e-08 -2.5114893772 10.3330111384 -0 0.0551817919399 0.0367408101015
Te -2.1750165057 1.2557464186 10.3330111384 0.0477890984091 -0.0275907674148 0.0367405529912
Te 4.2142177948 -2.4330763371 10.1854706342 0 -2.57110337382e-07 0.0761470830706
Te -0 -0 -7.0564453335 0 2.57110337382e-07 0.0159112732289
Te -2.0104646196 -3.7054138512 -6.999194156 -0.027329543312 0.0157783471844 0.0139690617403
Te 4.2142178275 0.1115952309 -6.999194156 -0 -0.0315572085895 0.0139690617403
Te 2.0104646196 -3.7054138512 -6.999194156 0.027329543312 0.0157783471844 0.0139690617403
Te -0 2.4553494832 -3.3865984263 0 -0.00753744665068 -0.0266723692896
Te -2.1263949867 -1.2276712815 -3.3865984263 0.00652777435578 0.003768466215 -0.0266723692896
Te -4.214217762 2.4330797971 -3.4210907908 -0 2.57110337382e-07 -0.00696691881203
Te 2.1263949867 -1.2276712815 -3.3865984263 -0.00652777435578 0.003768466215 -0.0266723692896
Te 0 2.5579776309 -10.4160671193 0 -0.0263185854654 -0.00575310090925
Te -2.2152735285 -1.2789853554 -10.4160671193 0.0227928314089 0.0131591641775 -0.00575310090925
Te -4.214217762 2.4330797971 -10.52171558 -0 2.57110337382e-07 -0.00924697328393
Te 2.2152735285 -1.2789853554 -10.4160671193 -0.0227928314089 0.0131591641775 -0.00575310090925
Sb -0 2.3633386978 8.57264528 0 0.0205307746606 -0.00735438409046
Sb -2.0467113399 -1.1816658889 8.57264528 -0.0177802082713 -0.0102653873303 -0.00735438409046
Sb -4.214217762 2.4330797971 8.3199978788 -0 2.57110337382e-07 0.00561143311335
Sb 2.0467113399 -1.1816658889 8.57264528 0.0177802082713 -0.0102653873303 -0.00735438409046
Sb 0 2.4202284182 1.8322953325 0 -6.86484600809e-05 0.0187094050306
Sb -2.0959792635 -1.2101107491 1.8322953325 5.96495982725e-05 3.44527852091e-05 0.0187096621409
Sb -4.214217762 2.4330797971 1.8321050244 -0 2.57110337382e-07 0.0179298464876
Sb 2.0959792635 -1.2101107491 1.8322953325 -5.96495982725e-05 3.44527852091e-05 0.0187096621409
Sb 0 0 -12.0843342014 0 0 -0.0342265281122
Sb -2.094831184 -3.6567047671 -12.2870273627 -0.00982212910865 0.00567056849095 -0.0312641028049
Sb -4.214217762 0.0141770627 -12.2870273627 -0 -0.0113416512026 -0.0312643599153
Sb -2.1193865452 3.6425311643 -12.2870273627 0.00982212910865 0.00567056849095 -0.0312641028049
Sb 0 -0 11.5359352391 0 0 -0.0426669462678
Sb -2.4124649355 -3.4733187797 12.4862761288 0.332520799336 -0.191981203599 -0.345597688205
Sb 4.2142178275 -0.3525949117 12.4862761288 0 0.383959578984 -0.345595888433
Sb 2.4124649355 -3.4733187797 12.4862761288 -0.332520799336 -0.191981203599 -0.345597688205
Sb 2.1158674208 1.2215966268 -1.8217570838 -0.000357126258623 -0.000205945380243 -0.0143884087006
Sb 3.27e-08 -2.4431897935 -1.8217570838 -0 0.000412147870823 -0.0143884087006
Sb -2.1158673552 1.2215966268 -1.8217570838 0.000357126258623 -0.000205945380243 -0.0143884087006
Sb 4.2142177948 -2.4330763371 -1.7827930507 0 -0 -0.0136222198952
Sb 2.1169987368 1.2222497954 -8.5977215496 0.00307246853171 0.00177406132793 0.0177984631052
Sb 3.27e-08 -2.4444961306 -8.5977215496 0 -0.00354786554553 0.0177984631052
Sb -2.1169986714 1.2222497954 -8.5977215496 -0.00307246853171 0.00177406132793 0.0177984631052
Sb 4.2142177948 -2.4330763371 -8.4637023183 0 -0 0.00437344683886
Cr -4.2142177948 -2.4330763371 14.5688694312 -0 2.31399303643e-06 1.01106994669
61
Lattice="8.42843558953 0 0 -4.21421779477 7.29923593142 0 0 0 31.0334408416" Properties=species:S:1:pos:R:3:forces:R:3 energy=-133597.374715 ionic_step=20 pbc="T T T"
Te 2.0957185191 1.2099636486 3.3839361721 0.00961386973537 0.00555075507373 0.0135432870216
Te 3.27e-08 -2.4199238371 3.3839361721 -0 -0.0111015101475 0.0135432870216
Te -2.0957184535 1.2099636486 3.3839361721 -0.00961386973537 0.00555075507373 0.0135432870216
Te 4.2142177948 -2.4330763371 3.3854053263 0 -2.57110337382e-07 0.0143197602405
Te 0 0 6.8112180626 0 2.57110337382e-07 0.0147463062902
Te -2.1448261965 -3.6278401277 7.0224870522 0.0145048796834 -0.00837459790919 -0.0317143030057
Te -4.214217762 -0.0435522161 7.0224870522 -0 0.0167489387081 -0.0317143030057
Te -2.0693915983 3.6713958037 7.0224870522 -0.0145048796834 -0.00837459790919 -0.0317143030057
Te 0 0 -0.0381302395 0 2.57110337382e-07 0.00270840029398
Te -2.085010302 -3.6623748622 -0.0267555443 -0.00528593142623 0.00305164259438 0.00287963577867
Te -4.214217762 0.0255172529 -0.0267555443 -0 -0.0061035422991 0.00287963577867
Te 2.085010302 -3.6623748622 -0.0267555443 0.00528593142623 0.00305164259438 0.00287963577867
Te 0 2.3229138382 14.3761022271 0 -0.0694766124776 -0.0329995975823
Te -2.0117023376 -1.1614534591 14.3761022271 0.0601687040437 0.0347381776836 -0.0329993404719
Te -4.214217762 2.4330797971 13.4188344049 -0 2.57110337382e-07 0.0517727659765
Te 2.0117023376 -1.1614534591 14.3761022271 -0.0601687040437 0.0347381776836 -0.0329993404719
Te 1.981441707 1.1439858673 -13.823388795 0.0463114853002 0.026738189536 -0.0197190773255
Te 3.27e-08 -2.2879682744 -13.823388795 -0 -0.0534758648513 -0.0197188202151
Te -1.9814416414 1.1439858673 -13.823388795 -0.0463114853002 0.026738189536 -0.0197190773255
Te 4.2142177948 -2.4330763371 -13.8848960983 0 -2.57110337382e-07 0.11995817034
Te 2.1812467079 1.2593433915 10.3401609496 -0.0495721585989 -0.0286202372056 0.0363728852087
Te 3.27e-08 -2.5186833229 10.3401609496 -0 0.0572407315216 0.0363728852087
Te -2.1812466425 1.2593433915 10.3401609496 0.0495721585989 -0.0286202372056 0.0363728852087
Te 4.2142177948 -2.4330763371 10.1790636997 0 -2.57110337382e-07 0.0770474834721
Te -0 -0 -7.060635609 0 2.57110337382e-07 0.0156508204571
Te -2.0077743212 -3.7069670965 -6.9985301036 -0.0280813339385 0.0162126065443 0.0130658331251
Te 4.2142178275 0.1147017214 -6.9985301036 -0 -0.0324252130885 0.0130658331251
Te 2.0077743212 -3.7069670965 -6.9985301036 0.0280813339385 0.0162126065443 0.0130658331251
Te -0 2.4566328788 -3.3906478151 0 -0.00801618609888 -0.0264299142415
Te -2.1275064394 -1.2283129793 -3.3906478151 0.00694249332998 0.0040078359391 -0.0264299142415
Te -4.214217762 2.4330797971 -3.4282972065 -0 2.57110337382e-07 -0.00563431593338
Te 2.1275064394 -1.2283129793 -3.3906478151 -0.00694249332998 0.0040078359391 -0.0264299142415
Te 0 2.5617055423 -10.4193393676 0 -0.0271554796136 -0.00551373118515
Te -2.218501993 -1.2808493111 -10.4193393676 0.02351762545 0.0135777398068 -0.00551373118515
Te -4.214217762 2.4330797971 -10.5243027946 -0 2.57110337382e-07 -0.00980644537807
Te 2.218501993 -1.2808493111 -10.4193393676 -0.02351762545 0.0135777398068 -0.00551373118515
Sb -0 2.3579424882 8.573669508 0 0.0211707222903 -0.00712838410391
Sb -2.0420380874 -1.1789677841 8.573669508 -0.0183342810483 -0.01058523259 -0.00712838410391
Sb -4.214217762 2.4330797971 8.3142514419 -0 2.57110337382e-07 0.00488843884464
Sb 2.0420380874 -1.1789677841 8.573669508 0.0183342810483 -0.01058523259 -0.00712838410391
Sb 0 2.4202489676 1.8362158457 0 -0.000120070527557 0.0184121854806
Sb -2.0959970598 -1.2101210238 1.8362158457 0.00010412968664 6.01638189473e-05 0.0184121854806
Sb -4.214217762 2.4330797971 1.8345187461 -0 2.57110337382e-07 0.0175881468493
Sb 2.0959970598 -1.2101210238 1.8362158457 -0.00010412968664 6.01638189473e-05 0.0184121854806
Sb 0 0 -12.0815753706 0 0 -0.0343504552949
Sb -2.0922975206 -3.658167579 -12.2915456055 -0.0105597786666 0.00609660031999 -0.0314286534209
Sb -4.214217762 0.0171026865 -12.2915456055 -0 -0.01219320064 -0.0314286534209
Sb -2.1219202086 3.6410683524 -12.2915456055 0.0105597786666 0.00609660031999 -0.0314286534209
Sb 0 -0 11.5318614482 0 0 -0.0436023136752
Sb -2.4171800709 -3.4705964938 12.4903751305 0.315305205365 -0.182041575066 -0.328199545895
Sb 4.2142178275 -0.3580394836 12.4903751305 0 0.364080836139 -0.328198003233
Sb 2.4171800709 -3.4705964938 12.4903751305 -0.315305205365 -0.182041575066 -0.328199545895
Sb 2.1166628096 1.222055845 -1.8256171712 -0.000458170621214 -0.000264309426828 -0.0139821743675
Sb 3.27e-08 -2.4441082298 -1.8256171712 -0 0.000528875963994 -0.0139819172572
Sb -2.116662744 1.222055845 -1.8256171712 0.000458170621214 -0.000264309426828 -0.0139821743675
Sb 4.2142177948 -2.4330763371 -1.7844028155 0 -0 -0.0132578945471
Sb 2.1175719121 1.2225807185 -8.6012570867 0.00313828877808 0.00181185654753 0.0178835666269
Sb 3.27e-08 -2.4451579767 -8.6012570867 0 -0.00362397020539 0.0178838237373
Sb -2.1175718467 1.2225807185 -8.6012570867 -0.00313828877808 0.00181185654753 0.0178835666269
Sb 4.2142177948 -2.4330763371 -8.4549999457 0 -0 0.00388082343244
Cr -4.2142177948 -2.4330763371 14.5797446145 -0 2.31399303643e-06 0.968960415635
61
Lattice="8.42843558953 0 0 -4.21421779477 7.29923593142 0 0 0 31.0334408416" Properties=species:S:1:pos:R:3:forces:R:3 energy=-133597.403555 ionic_step=21 pbc="T T T"
Te 2.0961266799 1.2101993005 3.3882890361 0.00970540101548 0.0056034626929 0.0132926044426
Te 3.27e-08 -2.4203951408 3.3882890361 -0 -0.0112071824961 0.0132926044426
Te -2.0961266143 1.2101993005 3.3882890361 -0.00970540101548 0.0056034626929 0.0132926044426
Te 4.2142177948 -2.4330763371 3.3889917534 0 -2.57110337382e-07 0.0135080629054
Te 0 0 6.8077247702 0 2.57110337382e-07 0.0176048590212
Te -2.151365249 -3.6240648022 7.0279392498 0.0166862037857 -0.00963418145203 -0.0315574656999
Te -4.214217762 -0.0511028671 7.0279392498 -0 0.0192678486834 -0.0315574656999
Te -2.0628525457 3.6751711293 7.0279392498 -0.0166862037857 -0.00963418145203 -0.0315574656999
Te 0 0 -0.041076517 0 2.57110337382e-07 0.0031562865017
Te -2.0841170916 -3.6628905576 -0.027902238 -0.00543376987022 0.00313700322639 0.00299302143746
Te -4.214217762 0.0265486438 -0.027902238 -0 -0.00627426356312 0.00299302143746
Te 2.0841170916 -3.6628905576 -0.027902238 0.00543376987022 0.00313700322639 0.00299302143746
Te 0 2.3245893023 14.3863623822 0 -0.0640803807166 -0.0313034406866
Te -2.0131533314 -1.1622911912 14.3863623822 0.0554954665515 0.0320400618031 -0.0313034406866
Te -4.214217762 2.4330797971 13.3989732182 -0 2.57110337382e-07 0.0521270640214
Te 2.0131533314 -1.1622911912 14.3863623822 -0.0554954665515 0.0320400618031 -0.0313034406866
Te 1.977019507 1.1414327077 -13.829697142 0.0471594351929 0.0272277276184 -0.0207554890955
Te 3.27e-08 -2.2828619553 -13.829697142 -0 -0.0544551981264 -0.0207554890955
Te -1.9770194414 1.1414327077 -13.829697142 -0.0471594351929 0.0272277276184 -0.0207554890955
Te 4.2142177948 -2.4330763371 -13.8790120691 0 -2.57110337382e-07 0.10749114719
Te 2.1893080896 1.2639976345 10.3491107506 -0.0517534827012 -0.0298795636381 0.0360502117353
Te 3.27e-08 -2.5279918089 10.3491107506 -0 0.0597593843866 0.0360502117353
Te -2.1893080241 1.2639976345 10.3491107506 0.0517534827012 -0.0298795636381 0.0360502117353
Te 4.2142177948 -2.4330763371 10.1712521743 0 -2.57110337382e-07 0.0777517086862
Te -0 -0 -7.0671187544 0 2.57110337382e-07 0.0155680309285
Te -2.0039453695 -3.7091777438 -6.9991187427 -0.0291267445703 0.0168160445061 0.0122947592233
Te 4.2142178275 0.119123016 -6.9991187427 -0 -0.0336323461226 0.0122947592233
Te 2.0039453695 -3.7091777438 -6.9991187427 0.0291267445703 0.0168160445061 0.0122947592233
Te -0 2.4583617388 -3.3946142134 0 -0.00863427934995 -0.0264101167455
Te -2.1290036754 -1.2291774093 -3.3946142134 0.00747779705241 0.00431688256464 -0.0264101167455
Te -4.214217762 2.4330797971 -3.436017021 -0 2.57110337382e-07 -0.00423512147735
Te 2.1290036754 -1.2291774093 -3.3946142134 -0.00747779705241 0.00431688256464 -0.0264101167455
Te 0 2.5666690515 -10.4238767257 0 -0.0281918913836 -0.00516868911238
Te -2.222800516 -1.2833310657 -10.4238767257 0.0244151976378 0.0140958171366 -0.00516868911238
Te -4.214217762 2.4330797971 -10.5272325856 -0 2.57110337382e-07 -0.0106579948155
Te 2.222800516 -1.2833310657 -10.4238767257 -0.0244151976378 0.0140958171366 -0.00516868911238
Sb -0 2.3513157964 8.5758660408 0 0.0219235413582 -0.00677614294169
Sb -2.0362992067 -1.1756544382 8.5758660408 -0.0189863128639 -0.0109616421239 -0.00677614294169
Sb -4.214217762 2.4330797971 8.3070180602 -0 2.57110337382e-07 0.00399086665684
Sb 2.0362992067 -1.1756544382 8.5758660408 0.0189863128639 -0.0109616421239 -0.00677614294169
Sb 0 2.4204113308 1.8399402305 0 -0.000199517621808 0.0180815415867
Sb -2.0961376704 -1.2102022054 1.8399402305 0.00017277814672 9.97588109041e-05 0.018081798697
Sb -4.214217762 2.4330797971 1.8368234618 -0 2.57110337382e-07 0.0171795985232
Sb 2.0961376704 -1.2102022054 1.8399402305 -0.00017277814672 9.97588109041e-05 0.018081798697
Sb 0 0 -12.076454853 0 0 -0.0344959797458
Sb -2.0891098757 -3.6600079675 -12.2968952161 -0.0114889754259 0.00663293248377 -0.0316672518139
Sb -4.214217762 0.0207834636 -12.2968952161 -0 -0.0132661220779 -0.0316675089243
Sb -2.1251078535 3.6392279639 -12.2968952161 0.0114889754259 0.00663293248377 -0.0316672518139
Sb 0 -0 11.5243549937 0 0 -0.0451251782035
Sb -2.424077592 -3.4666142062 12.495806058 0.299528657953 -0.172933184254 -0.313328026871
Sb 4.2142178275 -0.3660040587 12.495806058 0 0.345863797404 -0.313326484209
Sb 2.424077592 -3.4666142062 12.495806058 -0.299528657953 -0.172933184254 -0.313328026871
Sb 2.117608694 1.2226019519 -1.8298450277 -0.000569242286963 -0.000328587011174 -0.0135337739391
Sb 3.27e-08 -2.4452004436 -1.8298450277 -0 0.000657174022347 -0.0135337739391
Sb -2.1176086285 1.2226019519 -1.8298450277 0.000569242286963 -0.000328587011174 -0.0135337739391
Sb 4.2142177948 -2.4330763371 -1.7856209378 0 -0 -0.0128822563442
Sb 2.1182121414 1.2229503552 -8.6072604631 0.00324498956809 0.0018735630285 0.0180157213403
Sb 3.27e-08 -2.4458972502 -8.6072604631 0 -0.003747126057 0.0180157213403
Sb -2.1182120759 1.2229503552 -8.6072604631 -0.00324498956809 0.0018735630285 0.0180157213403
Sb 4.2142177948 -2.4330763371 -8.4444076738 0 -0 0.0033303502001
Cr -4.2142177948 -2.4330763371 14.5947438938 -0 2.05688269905e-06 0.93500591026
61
Lattice="8.42843558953 0 0 -4.21421779477 7.29923593142 0 0 0 31.0334408416" Properties=species:S:1:pos:R:3:forces:R:3 energy=-133597.443697 ionic_step=22 pbc="T T T"
Te 2.0967042834 1.2105327802 3.3937578593 0.00983704150822 0.00567956735276 0.0131905316387
Te 3.27e-08 -2.4210621002 3.3937578593 -0 -0.0113593918159 0.0131905316387
Te -2.0967042178 1.2105327802 3.3937578593 -0.00983704150822 0.00567956735276 0.0131905316387
Te 4.2142177948 -2.4330763371 3.3926636064 0 -2.57110337382e-07 0.0127146204042
Te 0 0 6.803413439 0 2.57110337382e-07 0.0212951636936
Te -2.1611707968 -3.6184035639 7.0363568305 0.0197892684476 -0.0114257262829 -0.0314422802687
Te -4.214217762 -0.0624253437 7.0363568305 -0 0.0228509383451 -0.0314422802687
Te -2.0530469979 3.6808323676 7.0363568305 -0.0197892684476 -0.0114257262829 -0.0314422802687
Te 0 0 -0.0447919569 0 2.57110337382e-07 0.0037409554089
Te -2.0830305947 -3.6635178472 -0.0288924661 -0.00559189272771 0.00322827739616 0.00306886898699
Te -4.214217762 0.027803223 -0.0288924661 -0 -0.00645681190266 0.00306886898699
Te 2.0830305947 -3.6635178472 -0.0288924661 0.00559189272771 0.00322827739616 0.00306886898699
Te 0 2.327340543 14.3997555322 0 -0.0572957531338 -0.0292074772162
Te -2.0155359746 -1.1636668115 14.3997555322 0.0496197240113 0.0286477480117 -0.0292074772162
Te -4.214217762 2.4330797971 13.369181438 -0 2.57110337382e-07 0.0521304064558
Te 2.0155359746 -1.1636668115 14.3997555322 -0.0496197240113 0.0286477480117 -0.0292074772162
Te 1.9711488242 1.1380432659 -13.8371074049 0.0483128321664 0.0278936433922 -0.022119973656
Te 3.27e-08 -2.2760830715 -13.8371074049 -0 -0.0557867725637 -0.0221197165456
Te -1.9711487586 1.1380432659 -13.8371074049 -0.0483128321664 0.0278936433922 -0.022119973656
Te 4.2142177948 -2.4330763371 -13.8708933562 0 -2.57110337382e-07 0.0921172345668
Te 2.2003686038 1.2703834283 10.3614002599 -0.0544611116642 -0.0314430515997 0.0357918158462
Te 3.27e-08 -2.5407633966 10.3614002599 -0 0.0628861031995 0.0357918158462
Te -2.2003685383 1.2703834283 10.3614002599 0.0544611116642 -0.0314430515997 0.0357918158462
Te 4.2142177948 -2.4330763371 10.1612928086 0 -2.57110337382e-07 0.0782091079764
Te -0 -0 -7.0760276192 0 2.57110337382e-07 0.0155348636949
Te -1.9985671523 -3.7122828604 -7.0008563579 -0.030592787714 0.0176624517368 0.0115226568801
Te 4.2142178275 0.1253332492 -7.0008563579 -0 -0.0353254176942 0.0115226568801
Te 1.9985671523 -3.7122828604 -7.0008563579 0.030592787714 0.0176624517368 0.0115226568801
Te -0 2.4608360071 -3.3995100093 0 -0.00947734414622 -0.0264682236818
Te -2.1311464536 -1.2304145435 -3.3995100093 0.00820773330023 0.00473854351794 -0.0264682236818
Te -4.214217762 2.4330797971 -3.4455030681 -0 2.57110337382e-07 -0.00249294183125
Te 2.1311464536 -1.2304145435 -3.3995100093 -0.00820773330023 0.00473854351794 -0.0264682236818
Te 0 2.5731404186 -10.4303094033 0 -0.0294741006361 -0.0046804365817
Te -2.2284048817 -1.2865667493 -10.4303094033 0.0255254000746 0.014737050318 -0.0046804365817
Te -4.214217762 2.4330797971 -10.5293568893 -0 2.57110337382e-07 -0.0120628456989
Te 2.2284048817 -1.2865667493 -10.4303094033 -0.0255254000746 0.014737050318 -0.0046804365817
Sb -0 2.3425316847 8.5792768253 0 0.0229098166124 -0.00621718506823
Sb -2.0286919463 -1.1712623823 8.5792768253 -0.0198404334047 -0.011454779751 -0.00621718506823
Sb -4.214217762 2.4330797971 8.2958651664 -0 2.57110337382e-07 0.00263023875141
Sb 2.0286919463 -1.1712623823 8.5792768253 0.0198404334047 -0.011454779751 -0.00621718506823
Sb 0 2.4208321678 1.84400506 0 -0.000323444804426 0.0176287702826
Sb -2.0965021257 -1.2104126239 1.84400506 0.000279993157409 0.000161722402213 0.0176290273929
Sb -4.214217762 2.4330797971 1.8396443422 -0 2.57110337382e-07 0.0165975007193
Sb 2.0965021257 -1.2104126239 1.84400506 -0.000279993157409 0.000161722402213 0.0176290273929
Sb 0 0 -12.0678371741 0 0 -0.0346291629006
Sb -2.0846597973 -3.6625772227 -12.3041417705 -0.0127824975333 0.00737983801386 -0.0320578024164
Sb -4.214217762 0.0259219739 -12.3041417705 -0 -0.0147599331381 -0.0320578024164
Sb -2.1295579319 3.6366587088 -12.3041417705 0.0127824975333 0.00737983801386 -0.0320578024164
Sb 0 0 11.5128286906 0 0 -0.0472987889957
Sb -2.4337018699 -3.4610576242 12.503777709 0.279641944688 -0.161451407917 -0.294666701473
Sb 4.2142178275 -0.3771172228 12.503777709 0 0.322900501842 -0.294665158811
Sb 2.4337018699 -3.4610576242 12.503777709 -0.279641944688 -0.161451407917 -0.294666701473
Sb 2.1188008404 1.2232902382 -1.8355260389 -0.000698568786666 -0.000403149009014 -0.0129712165209
Sb 3.27e-08 -2.4465770162 -1.8355260389 -0 0.000806555128366 -0.0129712165209
Sb -2.1188007748 1.2232902382 -1.8355260389 0.000698568786666 -0.000403149009014 -0.0129712165209
Sb 4.2142177948 -2.4330763371 -1.787058876 0 -0 -0.0124559674048
Sb 2.1188471485 1.2233169769 -8.6168826215 0.00343396566607 0.00198257781155 0.0181774437425
Sb 3.27e-08 -2.4466304936 -8.6168826215 0 -0.00396541273344 0.0181777008529
Sb -2.118847083 1.2233169769 -8.6168826215 -0.00343396566607 0.00198257781155 0.0181774437425
Sb 4.2142177948 -2.4330763371 -8.4294435149 0 -0 0.00268114659822
Cr -4.2142177948 -2.4330763371 14.6159648045 -0 2.05688269905e-06 0.892638497535
61
Lattice="8.42843558953 0 0 -4.21421779477 7.29923593142 0 0 0 31.0334408416" Properties=species:S:1:pos:R:3:forces:R:3 energy=-133597.497818 ionic_step=23 pbc="T T T"
Te 2.0974888101 1.2109857271 3.4007637639 0.0100476148745 0.00580118054234 0.0133283427795
Te 3.27e-08 -2.421967994 3.4007637639 -0 -0.0116023610847 0.0133283427795
Te -2.0974887445 1.2109857271 3.4007637639 -0.0100476148745 0.00580118054234 0.0133283427795
Te 4.2142177948 -2.4330763371 3.3963886367 0 -2.57110337382e-07 0.0119535738055
Te 0 0 6.7977164631 0 2.57110337382e-07 0.026126266933
Te -2.1760703584 -3.609801294 7.0493136597 0.0241598870727 -0.013949007134 -0.031329665941
Te -4.214217762 -0.0796298835 7.0493136597 -0 0.0278975000473 -0.0313294088306
Te -2.0381474364 3.6894346374 7.0493136597 -0.0241598870727 -0.013949007134 -0.031329665941
Te 0 0 -0.0496780123 0 2.57110337382e-07 0.00452719882062
Te -2.0816390305 -3.6643212676 -0.0297344685 -0.00576852752949 0.00333009308977 0.00309226602769
Te -4.214217762 0.0294100637 -0.0297344685 -0 -0.00666070040021 0.00309226602769
Te 2.0816390305 -3.6643212676 -0.0297344685 0.00576852752949 0.00333009308977 0.00309226602769
Te 0 2.3315548369 14.4182855575 0 -0.0491723520242 -0.0265250450663
Te -2.0191856585 -1.1657739585 14.4182855575 0.0425846709598 0.0245861760121 -0.026524787956
Te -4.214217762 2.4330797971 13.3244937678 -0 2.57110337382e-07 0.0511500447394
Te 2.0191856585 -1.1657739585 14.4182855575 -0.0425846709598 0.0245861760121 -0.026524787956
Te 1.9628710477 1.1332640871 -13.846117668 0.0498434100048 0.0287773316218 -0.0238999485216
Te 3.27e-08 -2.2665247141 -13.846117668 -0 -0.0575541490229 -0.0238996914113
Te -1.9628709821 1.1332640871 -13.846117668 -0.0498434100048 0.0287773316218 -0.0238999485216
Te 4.2142177948 -2.4330763371 -13.8586521046 0 -2.57110337382e-07 0.0743123437031
Te 2.2156804258 1.279223717 10.3787502127 -0.0576575073785 -0.0332883324911 0.0357409079994
Te 3.27e-08 -2.5584439739 10.3787502127 -0 0.0665766649823 0.0357409079994
Te -2.2156803603 1.279223717 10.3787502127 0.0576575073785 -0.0332883324911 0.0357409079994
Te 4.2142177948 -2.4330763371 10.1480615745 0 -2.57110337382e-07 0.0779262866053
Te -0 -0 -7.0887574254 0 2.57110337382e-07 0.0155826862177
Te -1.990548219 -3.7169125958 -7.0044980707 -0.0326897796257 0.0188731843155 0.0107775511224
Te 4.2142178275 0.1345927201 -7.0044980707 -0 -0.0377466257413 0.0107775511224
Te 1.990548219 -3.7169125958 -7.0044980707 0.0326897796257 0.0188731843155 0.0107775511224
Te -0 2.464404053 -3.4057520498 0 -0.0106471961813 -0.0266841963652
Te -2.1342364705 -1.2321985664 -3.4057520498 0.00922100513985 0.00532346953549 -0.0266841963652
Te -4.214217762 2.4330797971 -3.4575742373 -0 2.57110337382e-07 -0.000250168358272
Te 2.1342364705 -1.2321985664 -3.4057520498 -0.00922100513985 0.00532346953549 -0.0266841963652
Te 0 2.5821432155 -10.439531169 0 -0.0311070083888 -0.00399215220852
Te -2.2362015289 -1.2910681477 -10.439531169 0.0269395069302 0.0155533756392 -0.00399215220852
Te -4.214217762 2.4330797971 -10.5308805213 -0 2.57110337382e-07 -0.0143066476133
Te 2.2362015289 -1.2910681477 -10.439531169 -0.0269395069302 0.0155533756392 -0.00399215220852
Sb -0 2.330607378 8.5848543713 0 0.0241917687546 -0.00535689387935
Sb -2.0183651986 -1.165300229 8.5848543713 -0.0209506358415 -0.0120957558221 -0.00535689387935
Sb -4.214217762 2.4330797971 8.2786976797 -0 2.57110337382e-07 0.000502393599244
Sb 2.0183651986 -1.165300229 8.5848543713 0.0209506358415 -0.0120957558221 -0.00535689387935
Sb 0 2.4215425917 1.8485482572 0 -0.000502907819918 0.0169975644043
Sb -2.0971173706 -1.2107678358 1.8485482572 0.000435802021862 0.000251453909959 0.0169975644043
Sb -4.214217762 2.4330797971 1.8432104395 -0 2.57110337382e-07 0.0157510934887
Sb 2.0971173706 -1.2107678358 1.8485482572 -0.000435802021862 0.000251453909959 0.0169975644043
Sb 0 0 -12.0541609989 0 0 -0.03467441432
Sb -2.0783100681 -3.6662432422 -12.3141602195 -0.0145840696673 0.00841984932857 -0.0326751243365
Sb -4.214217762 0.033254013 -12.3141602195 -0 -0.0168402128778 -0.0326751243365
Sb -2.1359076611 3.6329926892 -12.3141602195 0.0145840696673 0.00841984932857 -0.0326751243365
Sb 0 0 11.4946138327 0 0 -0.050430392905
Sb -2.4478425716 -3.4528934824 12.5152630586 0.254993805084 -0.147220864964 -0.271886982692
Sb 4.2142178275 -0.3934455063 12.5152630586 0 0.294439415935 -0.27188569714
Sb 2.4478425716 -3.4528934824 12.5152630586 -0.254993805084 -0.147220864964 -0.271886982692
Sb 2.1203449838 1.2241817503 -1.8433161831 -0.000850778106396 -0.000491080744399 -0.012235109625
Sb 3.27e-08 -2.4483600404 -1.8433161831 -0 0.000982161488798 -0.0122348525146
Sb -2.1203449183 1.2241817503 -1.8433161831 0.000850778106396 -0.000491080744399 -0.012235109625
Sb 4.2142177948 -2.4330763371 -1.7887860539 0 -0 -0.0119440607231
Sb 2.1194478162 1.2236637727 -8.631878294 0.00372552878866 0.00215098508253 0.0183491934479
Sb 3.27e-08 -2.4473240852 -8.631878294 0 -0.00430197016507 0.0183494505583
Sb -2.1194477508 1.2236637727 -8.631878294 -0.00372552878866 0.00215098508253 0.0183491934479
Sb 4.2142177948 -2.4330763371 -8.4081905409 0 -0 0.0019794924875
Cr -4.2142177948 -2.4330763371 14.6463790785 -0 1.79977236167e-06 0.840689610978
61
Lattice="8.42843558953 0 0 -4.21421779477 7.29923593142 0 0 0 31.0334408416" Properties=species:S:1:pos:R:3:forces:R:3 energy=-133597.565048 ionic_step=24 pbc="T T T"
Te 2.0984666187 1.2115502654 3.4091362168 0.0104013986988 0.00600532615022 0.013932294962
Te 3.27e-08 -2.4230970706 3.4091362168 -0 -0.0120109094108 0.013932294962
Te -2.0984665531 1.2115502654 3.4091362168 -0.0104013986988 0.00600532615022 0.013932294962
Te 4.2142177948 -2.4330763371 3.3995470318 0 -2.57110337382e-07 0.0114300971586
Te 0 0 6.7900621269 0 2.57110337382e-07 0.0321974133296
Te -2.198188094 -3.5970316074 7.06937657 0.0298517957217 -0.017235134356 -0.0312273360267
Te -4.214217762 -0.1051692566 7.06937657 -0 0.0344700116017 -0.0312270789163
Te -2.0160297008 3.702204324 7.06937657 -0.0298517957217 -0.017235134356 -0.0312273360267
Te 0 0 -0.0562775048 0 2.57110337382e-07 0.00557800876949
Te -2.0797565368 -3.6654081263 -0.0305086568 -0.00598732842661 0.00345633426542 0.00303415909144
Te -4.214217762 0.0315837811 -0.0305086568 -0 -0.00691318275152 0.00303415909144
Te 2.0797565368 -3.6654081263 -0.0305086568 0.00598732842661 0.00345633426542 0.00303415909144
Te 0 2.3376457889 14.4447762199 0 -0.0381628873776 -0.0229596960178
Te -2.0244605752 -1.1688194345 14.4447762199 0.0330499912084 0.0190814436888 -0.0229596960178
Te -4.214217762 2.4330797971 13.2574622625 -0 2.57110337382e-07 0.0481110005515
Te 2.0244605752 -1.1688194345 14.4447762199 -0.0330499912084 0.0190814436888 -0.0229596960178
Te 1.9506796826 1.1262253959 -13.8569799787 0.051696147096 0.0298469106253 -0.0261918300691
Te 3.27e-08 -2.2524473317 -13.8569799787 -0 -0.0596935641402 -0.0261915729587
Te -1.950679617 1.1262253959 -13.8569799787 -0.051696147096 0.0298469106253 -0.0261918300691
Te 4.2142177948 -2.4330763371 -13.8392145599 0 -2.57110337382e-07 0.0539270934934
Te 2.236923105 1.2914881893 10.4031495141 -0.0610205105915 -0.035230029759 0.0362178476753
Te 3.27e-08 -2.5829729184 10.4031495141 -0 0.0704600595181 0.0362178476753
Te -2.2369230395 1.2914881893 10.4031495141 0.0610205105915 -0.035230029759 0.0362178476753
Te 4.2142177948 -2.4330763371 10.1300042032 0 -2.57110337382e-07 0.0761285711263
Te -0 -0 -7.1077799471 0 2.57110337382e-07 0.015878620216
Te -1.978202278 -3.7240405315 -7.0115289751 -0.0356105530584 0.0205595710184 0.0101975102012
Te 4.2142178275 0.1488485915 -7.0115289751 -0 -0.0411193991471 0.0101975102012
Te 1.978202278 -3.7240405315 -7.0115289751 0.0356105530584 0.0205595710184 0.0101975102012
Te -0 2.4694976602 -3.4133045124 0 -0.0122615919897 -0.0273205444502
Te -2.1386476617 -1.23474537 -3.4133045124 0.0106191711545 0.00613053888453 -0.0273205444502
Te -4.214217762 2.4330797971 -3.4727439324 -0 2.57110337382e-07 0.00258370178035
Te 2.1386476617 -1.23474537 -3.4133045124 -0.0106191711545 0.00613079599486 -0.0273205444502
Te 0 2.5953168061 -10.4526438795 0 -0.0331199252202 -0.00312029105446
Te -2.2476101877 -1.297654943 -10.4526438795 0.028682972128 0.0165599626101 -0.00312029105446
Te -4.214217762 2.4330797971 -10.5330498497 -0 2.57110337382e-07 -0.0176940763083
Te 2.2476101877 -1.297654943 -10.4526438795 -0.028682972128 0.0165599626101 -0.00312029105446
Sb -0 2.3142832089 8.5942541406 0 0.0257843101843 -0.00406851397873
Sb -2.0042280601 -1.1571381444 8.5942541406 -0.0223297756913 -0.012892026537 -0.00406851397873
Sb -4.214217762 2.4330797971 8.2536624733 -0 2.57110337382e-07 -0.00270917162499
Sb 2.0042280601 -1.1571381444 8.5942541406 0.0223297756913 -0.012892026537 -0.00406851397873
Sb 0 2.422506103 1.8534039079 0 -0.000748962412793 0.0161634984698
Sb -2.0979517955 -1.2112495915 1.8534039079 0.000648689381214 0.000374352651228 0.0161634984698
Sb -4.214217762 2.4330797971 1.8474224362 -0 2.57110337382e-07 0.0145745565848
Sb 2.0979517955 -1.2112495915 1.8534039079 -0.000648689381214 0.000374352651228 0.0161634984698
Sb 0 0 -12.0333240876 0 0 -0.0344072766794
Sb -2.0692825851 -3.6714552644 -12.327729544 -0.0170561855612 0.00984732592172 -0.0336943097139
Sb -4.214217762 0.0436780573 -12.327729544 -0 -0.0196946518434 -0.0336943097139
Sb -2.1449351441 3.627780667 -12.327729544 0.0170561855612 0.00984732592172 -0.0336943097139
Sb 0 0 11.46538943 0 0 -0.0547115371328
Sb -2.469289608 -3.4405110244 12.5311165584 0.218889085957 -0.126375644361 -0.237325182699
Sb 4.2142178275 -0.4182104223 12.5311165584 0 0.252749488949 -0.237323897148
Sb 2.469289608 -3.4405110244 12.5311165584 -0.218889085957 -0.126375644361 -0.237325182699
Sb 2.122366481 1.2253488628 -1.8534815999 -0.00102998401155 -0.000594439100026 -0.0112830300457
Sb 3.27e-08 -2.4506942654 -1.8534815999 -0 0.00118913531039 -0.0112827729353
Sb -2.1223664155 1.2253488628 -1.8534815999 0.00102998401155 -0.000594439100026 -0.0112830300457
Sb 4.2142177948 -2.4330763371 -1.7903503347 0 -0 -0.0113133690655
Sb 2.1200014983 1.2239834413 -8.6545422985 0.00409988143989 0.00236721487627 0.0184736348512
Sb 3.27e-08 -2.4479634225 -8.6545422985 0 -0.00473417264221 0.0184736348512
Sb -2.1200014328 1.2239834413 -8.6545422985 -0.00409988143989 0.00236721487627 0.0184736348512
Sb 4.2142177948 -2.4330763371 -8.3788862783 0 -0 0.00141719217965
Cr -4.2142177948 -2.4330763371 14.689849335 -0 1.54266202429e-06 0.756522999374
61
Lattice="8.42843558953 0 0 -4.21421779477 7.29923593142 0 0 0 31.0334408416" Properties=species:S:1:pos:R:3:forces:R:3 energy=-133597.646721 ionic_step=25 pbc="T T T"
Te 2.0998393961 1.2123428392 3.4219615547 0.0108464566928 0.0062624364876 0.0149126566785
Te 3.27e-08 -2.4246822182 3.4219615547 -0 -0.0125246158649 0.0149126566785
Te -2.0998393305 1.2123428392 3.4219615547 -0.0108464566928 0.0062624364876 0.0149126566785
Te 4.2142177948 -2.4330763371 3.4026214083 0 -2.57110337382e-07 0.01098915293
Te 0 0 6.7803500004 0 2.57110337382e-07 0.039672125058
Te -2.2323835623 -3.5772888354 7.097428394 0.0367043004336 -0.0211915482277 -0.0303454475695
Te -4.214217762 -0.1446548007 7.097428394 -0 0.0423825822347 -0.0303451904591
Te -1.9818342324 3.7219470961 7.097428394 -0.0367043004336 -0.0211915482277 -0.0303454475695
Te 0 0 -0.0641090333 0 2.57110337382e-07 0.00695663439853
Te -2.0776791764 -3.6666074914 -0.0295923791 -0.00612719645014 0.0035373240217 0.00270634341128
Te -4.214217762 0.0339825114 -0.0295923791 -0 -0.00707490515373 0.00270634341128
Te 2.0776791764 -3.6666074914 -0.0295923791 0.00612719645014 0.0035373240217 0.00270634341128
Te 0 2.3464598836 14.4799708671 0 -0.0258856116572 -0.0191529203626
Te -2.0320938016 -1.1732264818 14.4799708671 0.0224177074266 0.0129426772735 -0.0191529203626
Te -4.214217762 2.4330797971 13.1569150046 -0 2.57110337382e-07 0.0414431010619
Te 2.0320938016 -1.1732264818 14.4799708671 -0.0224177074266 0.0129426772735 -0.0191529203626
Te 1.9353065211 1.1173496929 -13.8691035799 0.0536602129632 0.0309807672131 -0.0285515887456
Te 3.27e-08 -2.2346959256 -13.8691035799 -0 -0.0619615344263 -0.0285513316352
Te -1.9353064556 1.1173496929 -13.8691035799 -0.0536602129632 0.0309807672131 -0.0285515887456
Te 4.2142177948 -2.4330763371 -13.8117235408 0 -2.57110337382e-07 0.033811037807
Te 2.2669555012 1.3088274094 10.4384990382 -0.0636533204462 -0.0367500660736 0.0374298658057
Te 3.27e-08 -2.6176513587 10.4384990382 -0 0.0735003892576 0.0374298658057
Te -2.2669554357 1.3088274094 10.4384990382 0.0636533204462 -0.0367500660736 0.0374298658057
Te 4.2142177948 -2.4330763371 10.1068864935 0 -2.57110337382e-07 0.0714792448955
Te -0 -0 -7.1320155035 0 2.57110337382e-07 0.0161149046161
Te -1.9601637127 -3.7344551069 -7.0227132775 -0.0394414970854 0.0227712341405 0.0097977036266
Te 4.2142178275 0.1696777422 -7.0227132775 -0 -0.0455429825018 0.0097977036266
Te 1.9601637127 -3.7344551069 -7.0227132775 0.0394414970854 0.0227712341405 0.0097977036266
Te -0 2.4769368692 -3.4246537118 0 -0.0144585998227 -0.0279093271228
Te -2.1450902026 -1.2384649745 -3.4246537118 0.0125217876512 0.00722917135616 -0.0279093271228
Te -4.214217762 2.4330797971 -3.4925944978 -0 2.57110337382e-07 0.0065732828855
Te 2.1450902026 -1.2384649745 -3.4246537118 -0.0125217876512 0.00722917135616 -0.0279093271228
Te 0 2.6119410188 -10.4709866256 0 -0.0351606099679 -0.00207153798828
Te -2.2620071715 -1.3059670494 -10.4709866256 0.0304500914768 0.0175801764288 -0.00207153798828
Te -4.214217762 2.4330797971 -10.5286344621 -0 2.57110337382e-07 -0.0232088359348
Te 2.2620071715 -1.3059670494 -10.4709866256 -0.0304500914768 0.0175801764288 -0.00207153798828
Sb -0 2.2921023855 8.6079842085 0 0.0277954272433 -0.00210393389079
Sb -1.9850189125 -1.1460477327 8.6079842085 -0.0240714411167 -0.0138975850665 -0.00210393389079
Sb -4.214217762 2.4330797971 8.2109582282 -0 2.57110337382e-07 -0.00826378335378
Sb 1.9850189125 -1.1460477327 8.6079842085 0.0240714411167 -0.0138975850665 -0.00210393389079
Sb 0 2.4242538667 1.8585680137 0 -0.0011073742231 0.0148545497422
Sb -2.0994654025 -1.2121234733 1.8585680137 0.000959021558433 0.000553558556383 0.0148545497422
Sb -4.214217762 2.4330797971 1.854041104 -0 2.57110337382e-07 0.0126804247293
Sb 2.0994654025 -1.2121234733 1.8585680137 -0.000959021558433 0.000553558556383 0.0148545497422
Sb 0 0 -12.0001144914 0 0 -0.0330793017868
Sb -2.0558336932 -3.6792199894 -12.3474496632 -0.0203729089134 0.0117620266042 -0.035246741931
Sb -4.214217762 0.0592075073 -12.3474496632 -0 -0.0235245674291 -0.035246741931
Sb -2.158384036 3.6200159421 -12.3474496632 0.0203729089134 0.0117620266042 -0.035246741931
Sb 0 0 11.4228643935 0 0 -0.0591636597349
Sb -2.4989215185 -3.423403025 12.5546364876 0.173828185338 -0.100359677763 -0.192799071582
Sb 4.2142178275 -0.4524264212 12.5546364876 0 0.200718069973 -0.192798300251
Sb 2.4989215185 -3.423403025 12.5546364876 -0.173828185338 -0.100359677763 -0.192799071582
Sb 2.1247974077 1.2267523596 -1.8692244825 -0.00119556306882 -0.000690084145532 -0.00999927813111
Sb 3.27e-08 -2.453501259 -1.8692244825 -0 0.0013804254014 -0.00999902102077
Sb -2.1247973421 1.2267523596 -1.8692244825 0.00119556306882 -0.000690084145532 -0.00999927813111
Sb 4.2142177948 -2.4330763371 -1.7938399863 0 -0 -0.0105896034657
Sb 2.1195191083 1.2237049332 -8.6895227645 0.00463364250029 0.00267523306046 0.0181936416938
Sb 3.27e-08 -2.4474064063 -8.6895227645 0 -0.00535046612091 0.0181936416938
Sb -2.1195190429 1.2237049332 -8.6895227645 -0.00463364250029 0.00267523306046 0.0181936416938
Sb 4.2142177948 -2.4330763371 -8.3340318493 0 -0 0.00172366770181
Cr -4.2142177948 -2.4330763371 14.7502743453 -0 1.28555168691e-06 0.643714039075
61
Lattice="8.42843558953 0 0 -4.21421779477 7.29923593142 0 0 0 31.0334408416" Properties=species:S:1:pos:R:3:forces:R:3 energy=-133597.701127 ionic_step=26 pbc="T T T"
Te 2.1015457321 1.2133279932 3.4420249712 0.0114308684896 0.00659976525025 0.016426522345
Te 3.27e-08 -2.4266525262 3.4420249712 -0 -0.0131997876108 0.016426522345
Te -2.1015456665 1.2133279932 3.4420249712 -0.0114308684896 0.00659976525025 0.016426522345
Te 4.2142177948 -2.4330763371 3.404612189 0 -2.57110337382e-07 0.010736156358
Te 0 0 6.7687287496 0 2.57110337382e-07 0.0473093305196
Te -2.2858613181 -3.5464134243 7.1344329224 0.042576443429 -0.0245818051364 -0.0276249630896
Te -4.214217762 -0.2064056229 7.1344329224 -0 0.0491630960521 -0.0276249630896
Te -1.9283564767 3.7528225071 7.1344329224 -0.042576443429 -0.0245818051364 -0.0276249630896
Te 0 0 -0.0717219529 0 2.57110337382e-07 0.00854814738693
Te -2.0759851849 -3.6675855184 -0.0243026026 -0.00599324196437 0.00345993381014 0.00173523766699
Te -4.214217762 0.0359385653 -0.0243026026 -0 -0.00692012473063 0.00173523766699
Te 2.0759851849 -3.6675855184 -0.0243026026 0.00599324196437 0.00345993381014 0.00173523766699
Te 0 2.3585040761 14.5258675027 0 -0.0258676139336 -0.0179599283971
Te -2.0425243734 -1.1792485781 14.5258675027 0.0224022808064 0.012933935522 -0.0179596712868
Te -4.214217762 2.4330797971 13.0061459655 -0 2.57110337382e-07 0.0301747263054
Te 2.0425243734 -1.1792485781 14.5258675027 -0.0224022808064 0.012933935522 -0.0179596712868
Te 1.9178633839 1.1072788882 -13.8790315194 0.0554119056918 0.0319922392804 -0.0297378958422
Te 3.27e-08 -2.2145543162 -13.8790315194 -0 -0.0639842214505 -0.0297376387319
Te -1.9178633183 1.1072788882 -13.8790315194 -0.0554119056918 0.0319922392804 -0.0297378958422
Te 4.2142177948 -2.4330763371 -13.7695683904 0 -2.57110337382e-07 0.0252518346756
Te 2.3076306377 1.3323112213 10.4884233621 -0.0637731338635 -0.0368192287544 0.0393296540886
Te 3.27e-08 -2.6646189826 10.4884233621 -0 0.0736387146191 0.0393296540886
Te -2.3076305722 1.3323112213 10.4884233621 0.0637731338635 -0.0368192287544 0.0393296540886
Te 4.2142177948 -2.4330763371 10.0790573665 0 -2.57110337382e-07 0.0623006629613
Te -0 -0 -7.1597848493 0 2.57110337382e-07 0.0161961514827
Te -1.9330064517 -3.7501343662 -7.0412282374 -0.0439967209327 0.0254012157816 0.00991520305079
Te 4.2142178275 0.2010362608 -7.0412282374 -0 -0.0508026886736 0.00991520305079
Te 1.9330064517 -3.7501343662 -7.0412282374 0.0439967209327 0.0254012157816 0.00991520305079
Te -0 2.4876398627 -3.4421324124 0 -0.0172760148997 -0.0281127013996
Te -2.1543592626 -1.2438164713 -3.4421324124 0.0149617647529 0.00863787889467 -0.0281127013996
Te -4.214217762 2.4330797971 -3.5171190006 -0 2.57110337382e-07 0.0121487205516
Te 2.1543592626 -1.2438164713 -3.4421324124 -0.0149617647529 0.00863787889467 -0.0281127013996
Te 0 2.6314599912 -10.4956561134 0 -0.0369153880206 -0.000892944201726
Te -2.2789110896 -1.3157265356 -10.4956561134 0.031969870681 0.0184576940103 -0.000892944201726
Te -4.214217762 2.4330797971 -10.5097892831 -0 2.57110337382e-07 -0.0316451403249
Te 2.2789110896 -1.3157265356 -10.4956561134 -0.031969870681 0.0184576940103 -0.000892944201726
Sb -0 2.2631806904 8.6294442009 0 0.0300209743237 0.000755647281565
Sb -1.9599720015 -1.1315868852 8.6294442009 -0.0259987402057 -0.0150103586067 0.000755647281565
Sb -4.214217762 2.4330797971 8.1363230099 -0 2.57110337382e-07 -0.018143505178
Sb 1.9599720015 -1.1315868852 8.6294442009 0.0259987402057 -0.0150103586067 0.000755647281565
Sb 0 2.426990562 1.8624917756 0 -0.00157994302321 0.0127917535054
Sb -2.1018354491 -1.213491821 1.8624917756 0.00136834121555 0.000790100066774 0.0127917535054
Sb -4.214217762 2.4330797971 1.8649037144 -0 2.57110337382e-07 0.00958224516388
Sb 2.1018354491 -1.213491821 1.8624917756 -0.00136834121555 0.000790100066774 0.0127917535054
Sb 0 0 -11.9469796021 0 0 -0.0289740210299
Sb -2.0353960424 -3.6910196781 -12.3755186336 -0.0239732249678 0.0138407636819 -0.0367374676671
Sb -4.214217762 0.0828068847 -12.3755186336 -0 -0.0276817844742 -0.0367372105568
Sb -2.1788216868 3.6082162534 -12.3755186336 0.0239732249678 0.0138407636819 -0.0367374676671
Sb 0 0 11.35893692 0 0 -0.0612961328731
Sb -2.5394512589 -3.4000031575 12.5880091413 0.160519640055 -0.0926761924402 -0.191246639365
Sb 4.2142178275 -0.4992261561 12.5880091413 0 0.185351099329 -0.191245868034
Sb 2.5394512589 -3.4000031575 12.5880091413 -0.160519640055 -0.0926761924402 -0.191246639365
Sb 2.1272621558 1.2281753832 -1.8939343772 -0.00123850049517 -0.000714766737921 -0.00835917128895
Sb 3.27e-08 -2.4563473063 -1.8939343772 -0 0.00143004769652 -0.00835917128895
Sb -2.1272620902 1.2281753832 -1.8939343772 0.00123850049517 -0.000714766737921 -0.00835917128895
Sb 4.2142177948 -2.4330763371 -1.8013726753 0 -0 -0.00986480942466
Sb 2.1158225509 1.2215707238 -8.7433698171 0.00529133074331 0.00305498502877 0.016706258392
Sb 3.27e-08 -2.4431379875 -8.7433698171 0 -0.00610997005754 0.016706258392
Sb -2.1158224854 1.2215707238 -8.7433698171 -0.00529133074331 0.00305498502877 0.016706258392
Sb 4.2142177948 -2.4330763371 -8.263598058 0 -0 0.00495760152539
Cr -4.2142177948 -2.4330763371 14.8299192598 -0 1.02844134953e-06 0.651751051111
61
Lattice="8.42843558953 0 0 -4.21421779477 7.29923593142 0 0 0 31.0334408416" Properties=species:S:1:pos:R:3:forces:R:3 energy=-133597.737371 ionic_step=27 pbc="T T T"
Te 2.1010380917 1.2130349067 3.443408665 0.011094311058 0.00640564694553 0.0154464177389
Te 3.27e-08 -2.4260663533 3.443408665 -0 -0.0128110367807 0.0154464177389
Te -2.1010380261 1.2130349067 3.443408665 -0.011094311058 0.00640564694553 0.0154464177389
Te 4.2142177948 -2.4330763371 3.4039721643 0 -2.57110337382e-07 0.00996739644927
Te 0 0 6.7769316876 0 2.57110337382e-07 0.0449734831045
Te -2.2750399749 -3.5526611326 7.1111124158 0.0422175173981 -0.0243745742045 -0.026757987032
Te -4.214217762 -0.1939102063 7.1111124158 -0 0.0487486341882 -0.0267577299216
Te -1.9391778198 3.7465747988 7.1111124158 -0.0422175173981 -0.0243745742045 -0.026757987032
Te 0 0 -0.0621913103 0 2.57110337382e-07 0.00731890286391
Te -2.079236256 -3.6657085107 -0.0182243557 -0.00536357874812 0.00309637979309 0.00126009776351
Te -4.214217762 0.0321845499 -0.0182243557 -0 -0.00619301669651 0.00126009776351
Te 2.079236256 -3.6657085107 -0.0182243557 0.00536357874812 0.00309637979309 0.00126009776351
Te 0 2.354217121 14.497246972 0 -0.0846870029268 -0.0267821554037
Te -2.0388117631 -1.1771051005 14.497246972 0.0733412379588 0.0423435014634 -0.0267818982934
Te -4.214217762 2.4330797971 13.0533896458 -0 2.57110337382e-07 0.0324861482385
Te 2.0388117631 -1.1771051005 14.497246972 -0.0733412379588 0.0423435014634 -0.0267818982934
Te 1.9349806706 1.1171615629 -13.8653582761 0.0552555826067 0.031901993552 -0.025889982533
Te 3.27e-08 -2.2343196657 -13.8653582761 -0 -0.0638034728833 -0.0258897254226
Te -1.9349806051 1.1171615629 -13.8653582761 -0.0552555826067 0.031901993552 -0.025889982533
Te 4.2142177948 -2.4330763371 -13.7903138258 0 -2.57110337382e-07 0.0647468107111
Te 2.2895653657 1.3218812269 10.4700217266 -0.0638091293107 -0.0368400546917 0.0377689943407
Te 3.27e-08 -2.6437589937 10.4700217266 -0 0.0736801093835 0.0377689943407
Te -2.2895653003 1.3218812269 10.4700217266 0.0638091293107 -0.0368400546917 0.0377689943407
Te 4.2142177948 -2.4330763371 10.099367003 0 -2.57110337382e-07 0.0640163602426
Te -0 -0 -7.1311585331 0 2.57110337382e-07 0.0141940332855
Te -1.9438630709 -3.7438662912 -7.0342743493 -0.0429276561499 0.0247838938616 0.0103268367009
Te 4.2142178275 0.1885001109 -7.0342743493 -0 -0.0495683019438 0.0103268367009
Te 1.9438630709 -3.7438662912 -7.0342743493 0.0429276561499 0.0247838938616 0.0103268367009
Te -0 2.4840647884 -3.4425528418 0 -0.0159097305668 -0.025550082667
Te -2.1512631589 -1.2420289341 -3.4425528418 0.0137785429803 0.00795473672825 -0.025550082667
Te -4.214217762 2.4330797971 -3.5053600569 -0 2.57110337382e-07 0.0108431142584
Te 2.1512631589 -1.2420289341 -3.4425528418 -0.0137785429803 0.00795473672825 -0.025550082667
Te 0 2.6131976838 -10.4839993968 0 -0.0363520592714 -0.000221114890148
Te -2.2630954748 -1.3065953819 -10.4839993968 0.0314818752607 0.0181759010805 -0.000221114890148
Te -4.214217762 2.4330797971 -10.4847096272 -0 2.57110337382e-07 -0.0302850266402
Te 2.2630954748 -1.3065953819 -10.4839993968 -0.0314818752607 0.0181759010805 -0.000221114890148
Sb -0 2.2777367288 8.6199203197 0 0.0292822963244 -7.07053427799e-05
Sb -1.9725778947 -1.1388649044 8.6199203197 -0.0253593067966 -0.0146411481622 -7.07053427799e-05
Sb -4.214217762 2.4330797971 8.1339119975 -0 2.57110337382e-07 -0.0178187748219
Sb 1.9725778947 -1.1388649044 8.6199203197 0.0253593067966 -0.0146411481622 -7.07053427799e-05
Sb 0 2.4273500921 1.8576036527 0 -0.00141899195201 0.0128143792151
Sb -2.1021468112 -1.213671586 1.8576036527 0.00122898741268 0.000709624531173 0.0128143792151
Sb -4.214217762 2.4330797971 1.8665667418 -0 2.57110337382e-07 0.00974088224204
Sb 2.1021468111 -1.213671586 1.8576036527 -0.00122898741268 0.000709624531173 0.0128143792151
Sb 0 0 -11.9569888296 0 0 -0.0292756114556
Sb -2.0400609037 -3.6883264179 -12.3678379342 -0.0210377962459 0.0121458923379 -0.0327586851961
Sb -4.214217762 0.0774203643 -12.3678379342 -0 -0.0242922988965 -0.0327586851961
Sb -2.1741568255 3.6109095135 -12.3678379342 0.0210377962459 0.0121458923379 -0.0327586851961
Sb 0 0 11.388127044 0 0 -0.0617131658404
Sb -2.515871832 -3.4136167524 12.5798442988 0.367892496891 -0.212402963476 -0.45159862388
Sb 4.2142178275 -0.4719989664 12.5798442988 0 0.424803098739 -0.451596566998
Sb 2.515871832 -3.4136167524 12.5798442988 -0.367892496891 -0.212402963476 -0.45159862388
Sb 2.1246168185 1.2266480963 -1.8934623998 -0.00088574511228 -0.000511135350715 -0.00907265247519
Sb 3.27e-08 -2.4532927325 -1.8934623998 -0 0.00102252781177 -0.00907239536485
Sb -2.1246167529 1.2266480963 -1.8934623998 0.00088574511228 -0.000511135350715 -0.00907265247519
Sb 4.2142177948 -2.4330763371 -1.8075018656 0 -0 -0.0106130005064
Sb 2.1115733668 1.2191174551 -8.7293274685 0.00580580852841 0.00335194746844 0.0166072709122
Sb 3.27e-08 -2.43823145 -8.7293274685 0 -0.00670389493689 0.0166072709122
Sb -2.1115733013 1.2191174551 -8.7293274685 -0.00580580852841 0.00335194746844 0.0166072709122
Sb 4.2142177948 -2.4330763371 -8.2716687027 0 -0 0.00479973577824
Cr -4.2142177948 -2.4330763371 14.7905172343 -0 2.57110337382e-06 1.40004857657
61
Lattice="8.42843558953 0 0 -4.21421779477 7.29923593142 0 0 0 31.0334408416" Properties=species:S:1:pos:R:3:forces:R:3 energy=-133597.812062 ionic_step=28 pbc="T T T"
Te 2.0989282676 1.2118167986 3.4332032574 0.0117874805276 0.00680571063049 0.0175051002103
Te 3.27e-08 -2.4236301371 3.4332032574 -0 -0.013611421261 0.0175051002103
Te -2.098928202 1.2118167986 3.4332032574 -0.0117874805276 0.00680571063049 0.0175051002103
Te 4.2142177948 -2.4330763371 3.3904028813 0 -2.57110337382e-07 0.0128025521396
Te 0 0 6.7821177669 0 2.57110337382e-07 0.0409718178134
Te -2.2758810312 -3.5521755483 7.1103239478 0.0419616926124 -0.0242267357605 -0.0282484556578
Te -4.214217762 -0.1948813749 7.1103239478 -0 0.0484532144106 -0.0282484556578
Te -1.9383367635 3.7470603831 7.1103239478 -0.0419616926124 -0.0242267357605 -0.0282484556578
Te 0 0 -0.0558312573 0 2.57110337382e-07 0.00590685289101
Te -2.0808712873 -3.6647645245 -0.0136374193 -0.0050725298462 0.00292822963244 0.000663087560107
Te -4.214217762 0.0302965776 -0.0136374193 -0 -0.00585697348555 0.000663087560107
Te 2.0808712873 -3.6647645245 -0.0136374193 0.0050725298462 0.00292822963244 0.000663087560107
Te 0 2.3514900744 14.4959793483 0 -0.139935129334 -0.0339853586158
Te -2.0364500725 -1.1757415772 14.4959793483 0.121187671973 0.069967693222 -0.0339853586158
Te -4.214217762 2.4330797971 13.0497416301 -0 2.57110337382e-07 0.0313618047331
Te 2.0364500725 -1.1757415772 14.4959793483 -0.121187671973 0.069967693222 -0.0339853586158
Te 1.9365961266 1.1180942473 -13.8464493531 0.0546295189352 0.0315404964176 -0.0233114229594
Te 3.27e-08 -2.2361850344 -13.8464493531 -0 -0.0630807357249 -0.0233114229594
Te -1.936596061 1.1180942473 -13.8464493531 -0.0546295189352 0.0315404964176 -0.0233114229594
Te 4.2142177948 -2.4330763371 -13.77195177 0 -2.57110337382e-07 0.122438513765
Te 2.2784698908 1.3154752484 10.4576397081 -0.0637024285207 -0.0367783482108 0.0375735904843
Te 3.27e-08 -2.6309470368 10.4576397081 -0 0.0735572106422 0.0375735904843
Te -2.2784698253 1.3154752484 10.4576397081 0.0637024285207 -0.0367783482108 0.0375735904843
Te 4.2142177948 -2.4330763371 10.1076861174 0 -2.57110337382e-07 0.0622412704733
Te -0 -0 -7.1291717342 0 2.57110337382e-07 0.0149921037727
Te -1.9357500843 -3.7485503284 -7.0479138582 -0.0432505867337 0.0249705559665 0.013636618074
Te 4.2142178275 0.1978681853 -7.0479138582 -0 -0.049941111933 0.013636618074
Te 1.9357500843 -3.7485503284 -7.0479138582 0.0432505867337 0.0249705559665 0.013636618074
Te -0 2.4824668487 -3.4346263903 0 -0.0150453256126 -0.0274748106526
Te -2.1498793032 -1.2412299643 -3.4346263903 0.0130298376778 0.00752253425111 -0.0274748106526
Te -4.214217762 2.4330797971 -3.4872597373 -0 2.57110337382e-07 0.00793056835654
Te 2.1498793032 -1.2412299643 -3.4346263903 -0.0130298376778 0.00752253425111 -0.0274748106526
Te 0 2.6125386446 -10.4787537865 0 -0.036329690672 0.000172263926046
Te -2.2625247304 -1.3062658623 -10.4787537865 0.0314625919854 0.018164845336 0.000172263926046
Te -4.214217762 2.4330797971 -10.4898597205 -0 2.57110337382e-07 -0.0294064806173
Te 2.2625247304 -1.3062658623 -10.4787537865 -0.0314625919854 0.018164845336 0.000172263926046
Sb -0 2.2865015648 8.6347444869 0 0.0276781849295 -0.000134468706451
Sb -1.9801684617 -1.1432473224 8.6347444869 -0.0239698825334 -0.0138389639096 -0.000134468706451
Sb -4.214217762 2.4330797971 8.1262117872 -0 2.57110337382e-07 -0.0181938988041
Sb 1.9801684617 -1.1432473224 8.6347444869 0.0239698825334 -0.0138389639096 -0.000134468706451
Sb 0 2.4250058572 1.8454266748 0 -0.00109760403028 0.0133975054603
Sb -2.1001166451 -1.2124994686 1.8454266748 0.000950794027637 0.00054893057031 0.0133977625706
Sb -4.214217762 2.4330797971 1.8628461666 -0 2.57110337382e-07 0.0101915966635
Sb 2.1001166451 -1.2124994686 1.8454266748 -0.000950794027637 0.00054893057031 0.0133977625706
Sb 0 0 -11.9528546527 0 0 -0.0289133429903
Sb -2.0399011633 -3.6884186441 -12.3575370025 -0.0193771205768 0.0111873850001 -0.0294830994979
Sb -4.214217762 0.0776048167 -12.3575370025 -0 -0.0223747700003 -0.0294830994979
Sb -2.1743165659 3.6108172873 -12.3575370025 0.0193771205768 0.0111873850001 -0.0294830994979
Sb 0 0 11.365161138 0 0 -0.0632982510703
Sb -2.52208655 -3.4100286816 12.566803425 0.54446507797 -0.314347212248 -0.684897458696
Sb 4.2142178275 -0.479175108 12.566803425 0 0.628690310731 -0.684894373372
Sb 2.52208655 -3.4100286816 12.566803425 -0.54446507797 -0.314347212248 -0.684897458696
Sb 2.1221077942 1.2251995098 -1.8869814285 -0.000418575629257 -0.000241683717139 -0.010095951618
Sb 3.27e-08 -2.4503955594 -1.8869814285 -0 0.000483367434277 -0.0100956945076
Sb -2.1221077286 1.2251995098 -1.8869814285 0.000418575629257 -0.000241683717139 -0.010095951618
Sb 4.2142177948 -2.4330763371 -1.8032775303 0 -0 -0.0113485931817
Sb 2.1054839763 1.2156017422 -8.7313556681 0.00620278688933 0.00358128988939 0.016533223135
Sb 3.27e-08 -2.4312000242 -8.7313556681 0 -0.00716232266844 0.016533223135
Sb -2.1054839108 1.2156017422 -8.7313556681 -0.00620278688933 0.00358128988939 0.016533223135
Sb 4.2142177948 -2.4330763371 -8.2777830144 0 -0 0.00417830009279
Cr -4.2142177948 -2.4330763371 14.7784779563 -0 3.59954472334e-06 2.05259049908
61
Lattice="8.42843558953 0 0 -4.21421779477 7.29923593142 0 0 0 31.0334408416" Properties=species:S:1:pos:R:3:forces:R:3 energy=-133597.854427 ionic_step=29 pbc="T T T"
Te 2.097619175 1.2110609934 3.4314803224 0.012341810415 0.00712581300053 0.0189192070659
Te 3.27e-08 -2.4221185265 3.4314803224 -0 -0.0142516260011 0.0189192070659
Te -2.0976191095 1.2110609934 3.4314803224 -0.012341810415 0.00712581300053 0.0189192070659
Te 4.2142177948 -2.4330763371 3.382279628 0 -2.57110337382e-07 0.0140698489925
Te 0 0 6.7855071764 0 2.57110337382e-07 0.0393728486253
Te -2.2867296862 -3.5459120715 7.112283035 0.0425700156706 -0.0245779484813 -0.0282911359738
Te -4.214217762 -0.2074083285 7.112283035 -0 0.0491556398523 -0.0282911359738
Te -1.9274881085 3.75332386 7.112283035 -0.0425700156706 -0.0245779484813 -0.0282911359738
Te 0 0 -0.0513862756 0 2.57110337382e-07 0.00505838877765
Te -2.0820407251 -3.6640893489 -0.0085476481 -0.00478970847508 0.0027649645682 2.39112613765e-05
Te -4.214217762 0.0289462264 -0.0085476481 -0 -0.00553044335708 2.39112613765e-05
Te 2.0820407251 -3.6640893489 -0.0085476481 0.00478970847508 0.0027649645682 2.39112613765e-05
Te 0 2.3514803881 14.4985481471 0 -0.12665718018 -0.033681454197
Te -2.036441684 -1.1757367341 14.4985481471 0.109688412134 0.0633285900901 -0.0336811970867
Te -4.214217762 2.4330797971 13.0244791334 -0 2.57110337382e-07 0.029745352042
Te 2.036441684 -1.1757367341 14.4985481471 -0.109688412134 0.0633285900901 -0.0336811970867
Te 1.9371220342 1.1183978803 -13.8336771853 0.0546732276925 0.0315656932307 -0.0232039508384
Te 3.27e-08 -2.2367923005 -13.8336771853 -0 -0.0631313864614 -0.023203693728
Te -1.9371219687 1.1183978803 -13.8336771853 -0.0546732276925 0.0315656932307 -0.0232039508384
Te 4.2142177948 -2.4330763371 -13.7589514669 0 -2.57110337382e-07 0.120798921143
Te 2.2777801608 1.3150770325 10.4564848221 -0.0635988130547 -0.0367186986125 0.0379111763573
Te 3.27e-08 -2.6301506049 10.4564848221 -0 0.073437397225 0.0379114334676
Te -2.2777800954 1.3150770325 10.4564848221 0.0635988130547 -0.0367186986125 0.0379111763573
Te 4.2142177948 -2.4330763371 10.1121174707 0 -2.57110337382e-07 0.063298765291
Te -0 -0 -7.1271184589 0 2.57110337382e-07 0.0149674211803
Te -1.9270262589 -3.7535870337 -7.0593129153 -0.0438740793018 0.0253305104388 0.0157549501437
Te 4.2142178275 0.2079415959 -7.0593129153 -0 -0.050661277988 0.0157549501437
Te 1.9270262589 -3.7535870337 -7.0593129153 0.0438740793018 0.0253305104388 0.0157549501437
Te -0 2.4829314478 -3.4336580905 0 -0.0147861583925 -0.0281324988956
Te -2.1502816576 -1.2414622638 -3.4336580905 0.0128053803533 0.00739295064107 -0.0281324988956
Te -4.214217762 2.4330797971 -3.4787443955 -0 2.57110337382e-07 0.00688181529036
Te 2.1502816576 -1.2414622638 -3.4336580905 -0.0128053803533 0.00739295064107 -0.0281324988956
Te 0 2.6130509124 -10.4777066223 0 -0.0365181525493 0.000422432284318
Te -2.2629683671 -1.3065219962 -10.4777066223 0.0316258570496 0.0182589477195 0.000422432284318
Te -4.214217762 2.4330797971 -10.484123284 -0 2.57110337382e-07 -0.0302132928561
Te 2.2629683671 -1.3065219962 -10.4777066223 -0.0316258570496 0.0182589477195 0.000422432284318
Sb -0 2.2884629143 8.6466977721 0 0.0270145831487 0.00028179292977
Sb -1.9818670394 -1.1442279971 8.6466977721 -0.0233952409294 -0.0135072915743 0.00028179292977
Sb -4.214217762 2.4330797971 8.1036474621 -0 2.57110337382e-07 -0.0205420875154
Sb 1.9818670394 -1.1442279971 8.6466977721 0.0233952409294 -0.0135072915743 0.00028179292977
Sb 0 2.4239640479 1.8377911478 0 -0.000931767862671 0.013339398524
Sb -2.0992144123 -1.2119785639 1.8377911478 0.000807069349041 0.000465883931336 0.0133396556344
Sb -4.214217762 2.4330797971 1.8635507961 -0 2.57110337382e-07 0.00982649998439
Sb 2.0992144123 -1.2119785639 1.8377911478 -0.000807069349041 0.000465883931336 0.0133396556344
Sb 0 0 -11.9408136919 0 0 -0.0279355523772
Sb -2.0361414451 -3.6905893194 -12.3545053387 -0.0204554413317 0.011809849127 -0.0306030721275
Sb -4.214217762 0.0819461674 -12.3545053387 -0 -0.0236196982539 -0.0306030721275
Sb -2.1780762841 3.608646612 -12.3545053387 0.0204554413317 0.011809849127 -0.0306030721275
Sb 0 0 11.3433274089 0 0 -0.0636242669781
Sb -2.529214195 -3.4059135319 12.5635977138 0.496196725892 -0.28647927989 -0.627339710129
Sb 4.2142178275 -0.4874054074 12.5635977138 0 0.572954960235 -0.627336881915
Sb 2.529214195 -3.4059135319 12.5635977138 -0.496196725892 -0.28647927989 -0.627339710129
Sb 2.1203996732 1.2242133252 -1.8881079339 -4.55085297165e-05 -2.62252544129e-05 -0.0105199265643
Sb 3.27e-08 -2.4484231902 -1.8881079339 -0 5.24505088259e-05 -0.0105199265643
Sb -2.1203996076 1.2242133252 -1.8881079339 4.55085297165e-05 -2.62252544129e-05 -0.0105199265643
Sb 4.2142177948 -2.4330763371 -1.8036557096 0 -0 -0.0117663974799
Sb 2.0994460884 1.2121157644 -8.7412349664 0.00666095751055 0.00384585642655 0.0160580832315
Sb 3.27e-08 -2.4242280686 -8.7412349664 0 -0.00769145574277 0.0160583403418
Sb -2.0994460229 1.2121157644 -8.7412349664 -0.00666095751055 0.00384585642655 0.0160580832315
Sb 4.2142177948 -2.4330763371 -8.2677105386 0 -0 0.00464238425176
Cr -4.2142177948 -2.4330763371 14.7824518185 -0 3.34243438596e-06 1.88259685731
61
Lattice="8.42843558953 0 0 -4.21421779477 7.29923593142 0 0 0 31.0334408416" Properties=species:S:1:pos:R:3:forces:R:3 energy=-133597.898342 ionic_step=30 pbc="T T T"
Te 2.095536574 1.2098586025 3.4310005428 0.0132208706585 0.00763334880652 0.0205037780752
Te 3.27e-08 -2.4197137449 3.4310005428 -0 -0.0152664405027 0.0205037780752
Te -2.0955365084 1.2098586025 3.4310005428 -0.0132208706585 0.00763334880652 0.0205037780752
Te 4.2142177948 -2.4330763371 3.3733341748 0 -2.57110337382e-07 0.0148645770454
Te 0 0 6.7895876869 0 2.57110337382e-07 0.0376083003798
Te -2.3039744397 -3.5359558038 7.1140417219 0.0431896515837 -0.024935846071 -0.0278856729717
Te -4.214217762 -0.2273208639 7.1140417219 -0 0.0498711779212 -0.0278854158614
Te -1.9102433551 3.7632801276 7.1140417219 -0.0431896515837 -0.024935846071 -0.0278856729717
Te 0 0 -0.0461213624 0 2.57110337382e-07 0.00397055494018
Te -2.0831235042 -3.6634642059 -0.0026721938 -0.00453619768242 0.00261866878623 -0.00072762225479
Te -4.214217762 0.0276959403 -0.0026721938 -0 -0.00523785179314 -0.00072762225479
Te 2.0831235042 -3.6634642059 -0.0026721938 0.00453619768242 0.00261866878623 -0.00072762225479
Te 0 2.3514941798 14.5056669199 0 -0.102555400044 -0.0322848308443
Te -2.036453628 -1.1757436299 14.5056669199 0.0888156807244 0.0512775714667 -0.032284573734
Te -4.214217762 2.4330797971 12.9865853885 -0 2.57110337382e-07 0.0274390723157
Te 2.036453628 -1.1757436299 14.5056669199 -0.0888156807244 0.0512775714667 -0.032284573734
Te 1.9354699508 1.1174440491 -13.8194998513 0.0547341628425 0.0316009173469 -0.0232913683531
Te 3.27e-08 -2.2348846381 -13.8194998513 -0 -0.0632015775835 -0.0232911112427
Te -1.9354698853 1.1174440491 -13.8194998513 -0.0547341628425 0.0316009173469 -0.0232913683531
Te 4.2142177948 -2.4330763371 -13.7415547979 0 -2.57110337382e-07 0.108634773971
Te 2.2803923947 1.3165852071 10.4564845402 -0.0635425058908 -0.0366860455996 0.038336951076
Te 3.27e-08 -2.6331669541 10.4564845402 -0 0.0733720911993 0.0383372081863
Te -2.2803923292 1.3165852071 10.4564845402 0.0635425058908 -0.0366860455996 0.038336951076
Te 4.2142177948 -2.4330763371 10.1162020218 0 -2.57110337382e-07 0.0647486104835
Te -0 -0 -7.124194617 0 2.57110337382e-07 0.0144508865125
Te -1.9135726055 -3.7613545078 -7.0742334659 -0.0444597766504 0.0256686105325 0.0181293641095
Te 4.2142178275 0.223476544 -7.0742334659 -0 -0.0513377352857 0.0181293641095
Te 1.9135726055 -3.7613545078 -7.0742334659 0.0444597766504 0.0256686105325 0.0181293641095
Te -0 2.4836871139 -3.4345180588 0 -0.0144840537461 -0.0287801598355
Te -2.1509360833 -1.2418400969 -3.4345180588 0.0125436420298 0.00724176976269 -0.0287801598355
Te -4.214217762 2.4330797971 -3.4702545598 -0 2.57110337382e-07 0.0059384774625
Te 2.1509360833 -1.2418400969 -3.4345180588 -0.0125436420298 0.00724176976269 -0.0287801598355
Te 0 2.6168500164 -10.4761145318 0 -0.0370292879 0.000557415211443
Te -2.2662584861 -1.3084215482 -10.4761145318 0.0320686010506 0.0185145153949 0.000557415211443
Te -4.214217762 2.4330797971 -10.4789950797 -0 2.57110337382e-07 -0.0314695339645
Te 2.2662584861 -1.3084215482 -10.4761145318 -0.0320686010506 0.0185145153949 0.000557415211443
Sb -0 2.2896109658 8.6629539039 0 0.0262525081087 0.000783929418677
Sb -1.9828612807 -1.1448020229 8.6629539039 -0.0227352386933 -0.0131262540543 0.000783929418677
Sb -4.214217762 2.4330797971 8.0685232151 -0 2.57110337382e-07 -0.024283557145
Sb 1.9828612807 -1.1448020229 8.6629539039 0.0227352386933 -0.0131262540543 0.000783929418677
Sb 0 2.4221268111 1.8296667985 0 -0.000668486877192 0.0131725339151
Sb -2.0976233192 -1.2110599455 1.8296667985 0.000579012479783 0.000334243438596 0.0131725339151
Sb -4.214217762 2.4330797971 1.8662442203 -0 2.57110337382e-07 0.00920634985062
Sb 2.0976233192 -1.2110599455 1.8296667985 -0.000579012479783 0.000334243438596 0.0131725339151
Sb 0 0 -11.9248391083 0 0 -0.0266165763464
Sb -2.0303422185 -3.6939375061 -12.3502072302 -0.0221729383855 0.0128012665879 -0.0323599070629
Sb -4.214217762 0.0886425407 -12.3502072302 -0 -0.0256027902861 -0.0323599070629
Sb -2.1838755107 3.6052984254 -12.3502072302 0.0221729383855 0.0128012665879 -0.0323599070629
Sb 0 0 11.3127148224 0 0 -0.0631146742894
Sb -2.540897144 -3.399168375 12.5604153354 0.410396178094 -0.236942345407 -0.522394726609
Sb 4.2142178275 -0.5008957211 12.5604153354 0 0.47388160549 -0.522392412616
Sb 2.540897144 -3.399168375 12.5604153354 -0.410396178094 -0.236942345407 -0.522394726609
Sb 2.1182678176 1.2229824972 -1.89096122 0.000438373125236 0.000253253682321 -0.0108719106162
Sb 3.27e-08 -2.4459615342 -1.89096122 -0 -0.000506250254304 -0.0108716535058
Sb -2.118267752 1.2229824972 -1.89096122 -0.000438373125236 0.000253253682321 -0.0108719106162
Sb 4.2142177948 -2.4330763371 -1.8051733861 0 -0 -0.0120793007605
Sb 2.0908422628 1.2071483411 -8.7544934344 0.00726722368609 0.00419578359573 0.0154451321872
Sb 3.27e-08 -2.4142932219 -8.7544934344 0 -0.00839156719146 0.0154451321872
Sb -2.0908421974 1.2071483411 -8.7544934344 -0.00726722368609 0.00419578359573 0.0154451321872
Sb 4.2142177948 -2.4330763371 -8.251018789 0 -0 0.00547079375881
Cr -4.2142177948 -2.4330763371 14.791624694 -0 2.8282137112e-06 1.58022764435
61
Lattice="8.42843558953 0 0 -4.21421779477 7.29923593142 0 0 0 31.0334408416" Properties=species:S:1:pos:R:3:forces:R:3 energy=-133597.940515 ionic_step=31 pbc="T T T"
Te 2.0921035778 1.2078765603 3.433440857 0.0145858694397 0.0084213919906 0.0221449133587
Te 3.27e-08 -2.4157496605 3.433440857 -0 -0.0168425268709 0.0221449133587
Te -2.0921035123 1.2078765603 3.433440857 -0.0145858694397 0.0084213919906 0.0221449133587
Te 4.2142177948 -2.4330763371 3.3636526431 0 -2.57110337382e-07 0.0144935668285
Te 0 0 6.7966862427 0 2.57110337382e-07 0.03510121748
Te -2.3304465828 -3.5206720977 7.1117233417 0.043315635649 -0.0250083511861 -0.0265512703207
Te -4.214217762 -0.2578882761 7.1117233417 -0 0.0500164452619 -0.0265510132104
Te -1.8837712119 3.7785638337 7.1117233417 -0.043315635649 -0.0250083511861 -0.0265512703207
Te -0 0 -0.0386715668 0 2.57110337382e-07 0.00238007039314
Te -2.0843554545 -3.6627529387 0.0048130691 -0.00428937175854 0.00247622965932 -0.00165450502105
Te -4.214217762 0.026273406 0.0048130691 -0 -0.00495271642898 -0.00165450502105
Te 2.0843554545 -3.6627529387 0.0048130691 0.00428937175854 0.00247622965932 -0.00165450502105
Te 0 2.3513333369 14.5162209362 0 -0.0752250854008 -0.0310183053224
Te -2.0363143339 -1.1756632085 14.5162209362 0.0651468743961 0.0376124141452 -0.0310180482121
Te -4.214217762 2.4330797971 12.9349892004 -0 2.57110337382e-07 0.0243735457631
Te 2.0363143339 -1.1756632085 14.5162209362 -0.0651468743961 0.0376124141452 -0.0310180482121
Te 1.9321499936 1.11552727 -13.8016876882 0.0547760718275 0.0316250857186 -0.0229463262803
Te 3.27e-08 -2.2310510799 -13.8016876882 -0 -0.0632499143269 -0.0229463262803
Te -1.932149928 1.11552727 -13.8016876882 -0.0547760718275 0.0316250857186 -0.0229463262803
Te 4.2142177948 -2.4330763371 -13.7215905708 0 -2.57110337382e-07 0.0910391709221
Te 2.2869711512 1.3203834557 10.4554406165 -0.0634188358186 -0.0366145689258 0.0386172013437
Te 3.27e-08 -2.6407634513 10.4554406165 -0 0.073229394962 0.0386172013437
Te -2.2869710857 1.3203834557 10.4554406165 0.0634188358186 -0.0366145689258 0.0386172013437
Te 4.2142177948 -2.4330763371 10.1222253772 0 -2.57110337382e-07 0.0664414249448
Te -0 -0 -7.1152173508 0 2.57110337382e-07 0.0126027774074
Te -1.8941576306 -3.772563754 -7.0932467839 -0.0445687914334 0.0257316025652 0.020749061337
Te 4.2142178275 0.2458950364 -7.0932467839 -0 -0.0514634622406 0.020749061337
Te 1.8941576306 -3.772563754 -7.0932467839 0.0445687914334 0.0257316025652 0.020749061337
Te -0 2.4844590737 -3.439006729 0 -0.0139130116867 -0.0289264556175
Te -2.1516046199 -1.2422260768 -3.439006729 0.0120492188511 0.0069563772882 -0.0289264556175
Te -4.214217762 2.4330797971 -3.4609822309 -0 2.57110337382e-07 0.00507587228059
Te 2.1516046199 -1.2422260768 -3.439006729 -0.0120492188511 0.0069563772882 -0.0289264556175
Te 0 2.6242321557 -10.471816712 0 -0.0379381729427 0.000621435685451
Te -2.2726516033 -1.3121126178 -10.471816712 0.0328556157933 0.0189690864713 0.000621435685451
Te -4.214217762 2.4330797971 -10.4711809086 -0 2.57110337382e-07 -0.0331453791436
Te 2.2726516033 -1.3121126178 -10.471816712 -0.0328556157933 0.0189690864713 0.000621435685451
Sb -0 2.2909871759 8.6839107335 0 0.0252901441159 0.00128195214218
Sb -1.9840531131 -1.1454901279 8.6839107335 -0.0219019440899 -0.0126449435028 0.00128195214218
Sb -4.214217762 2.4330797971 8.0116825976 -0 2.57110337382e-07 -0.0303310493906
Sb 1.9840531131 -1.1454901279 8.6839107335 0.0219019440899 -0.0126449435028 0.00128195214218
Sb 0 2.4192980433 1.8210297563 0 -0.00025042546861 0.0128084656773
Sb -2.0951735356 -1.2096455616 1.8210297563 0.00021700112475 0.000125212734305 0.0128084656773
Sb -4.214217762 2.4330797971 1.8730779858 -0 2.57110337382e-07 0.00816093921883
Sb 2.0951735356 -1.2096455616 1.8210297563 -0.00021700112475 0.000125212734305 0.0128084656773
Sb 0 0 -11.9038497872 0 0 -0.0247252727046
Sb -2.0221096691 -3.6986905729 -12.3425115504 -0.0243136390545 0.0140371959797 -0.0342640662215
Sb -4.214217762 0.0981486743 -12.3425115504 -0 -0.0280746490697 -0.0342640662215
Sb -2.1921080601 3.6005453585 -12.3425115504 0.0243136390545 0.0140371959797 -0.0342640662215
Sb 0 0 11.2725856073 0 0 -0.0608148223216
Sb -2.5561530926 -3.3903603448 12.5567913605 0.312870627581 -0.180635952852 -0.400874096749
Sb 4.2142178275 -0.5185117815 12.5567913605 0 0.36126959171 -0.400872296977
Sb 2.5561530926 -3.3903603448 12.5567913605 -0.312870627581 -0.180635952852 -0.400874096749
Sb 2.1152150905 1.2212200036 -1.8969573133 0.00112357217436 0.000648946491551 -0.0111166796574
Sb 3.27e-08 -2.442436547 -1.8969573133 -0 -0.00129763587277 -0.0111166796574
Sb -2.1152150249 1.2212200036 -1.8969573133 -0.00112357217436 0.000648946491551 -0.0111166796574
Sb 4.2142177948 -2.4330763371 -1.8098537713 0 -0 -0.0122811323754
Sb 2.07760496 1.1995057771 -8.7709514851 0.00814808370196 0.00470434784307 0.0146069524873
Sb 3.27e-08 -2.3990080941 -8.7709514851 0 -0.00940843857581 0.0146069524873
Sb -2.0776048945 1.1995057771 -8.7709514851 -0.00814808370196 0.00470434784307 0.0146069524873
Sb 4.2142177948 -2.4330763371 -8.223968547 0 -0 0.00700342847994
Cr -4.2142177948 -2.4330763371 14.8040917049 -0 2.05688269905e-06 1.23418901192
61
Lattice="8.42843558953 0 0 -4.21421779477 7.29923593142 0 0 0 31.0334408416" Properties=species:S:1:pos:R:3:forces:R:3 energy=-133597.972498 ionic_step=32 pbc="T T T"
Te 2.0881693377 1.2056051247 3.4379566601 0.015964752179 0.00921740559513 0.0228869337924
Te 3.27e-08 -2.4112067892 3.4379566601 -0 -0.0184348111903 0.0228869337924
Te -2.0881692721 1.2056051247 3.4379566601 -0.015964752179 0.00921740559513 0.0228869337924
Te 4.2142177948 -2.4330763371 3.3577440603 0 -2.57110337382e-07 0.0123060720781
Te 0 0 6.8063013437 0 2.57110337382e-07 0.032369163035
Te -2.3541083855 -3.5070109432 7.100699081 0.0427358518382 -0.0246738506372 -0.0246707653131
Te -4.214217762 -0.2852105851 7.100699081 -0 0.0493471870537 -0.0246705082028
Te -1.8601094093 3.7922249883 7.100699081 -0.0427358518382 -0.0246738506372 -0.0246707653131
Te -0 0 -0.0314684874 0 2.57110337382e-07 0.000762075039999
Te -2.0851336649 -3.6623036385 0.0101743454 -0.00422072329846 0.00243637755703 -0.00228108291325
Te -4.214217762 0.0253748056 0.0101743454 -0 -0.00487326933473 -0.00228108291325
Te 2.0851336649 -3.6623036385 0.0101743454 0.00422072329846 0.00243637755703 -0.00228108291325
Te 0 2.3504777958 14.5222400932 0 -0.0503568593486 -0.0297016432847
Te -2.035573414 -1.1752354379 14.5222400932 0.0436102840957 0.0251783011191 -0.0297013861743
Te -4.214217762 2.4330797971 12.9023273292 -0 2.57110337382e-07 0.0229082739504
Te 2.035573414 -1.1752354379 14.5222400932 -0.0436102840957 0.0251783011191 -0.0297013861743
Te 1.9290345264 1.1137285534 -13.7871684668 0.0547542174488 0.0316124873121 -0.0223621715938
Te 3.27e-08 -2.2274536466 -13.7871684668 -0 -0.0632247175138 -0.0223619144834
Te -1.9290344609 1.1137285534 -13.7871684668 -0.0547542174488 0.0316124873121 -0.0223621715938
Te 4.2142177948 -2.4330763371 -13.7130534046 0 -2.57110337382e-07 0.0708842915748
Te 2.2940979669 1.3244981266 10.4488999413 -0.063129586689 -0.0364477043169 0.0384390238799
Te 3.27e-08 -2.648992793 10.4488999413 -0 0.0728956657441 0.0384392809902
Te -2.2940979014 1.3244981266 10.4488999413 0.063129586689 -0.0364477043169 0.0384390238799
Te 4.2142177948 -2.4330763371 10.1302683963 0 -2.57110337382e-07 0.0688112109245
Te -0 -0 -7.0983558821 0 2.57110337382e-07 0.00930816554423
Te -1.8776371135 -3.7821018834 -7.1070297567 -0.0439152169558 0.0253541645899 0.0224935549762
Te 4.2142178275 0.2649712952 -7.1070297567 -0 -0.0507085862901 0.0224935549762
Te 1.8776371135 -3.7821018834 -7.1070297567 0.0439152169558 0.0253541645899 0.0224935549762
Te -0 2.4840064786 -3.4457998306 0 -0.0129174804604 -0.0281684943429
Te -2.1512126611 -1.2419997792 -3.4457998306 0.0111871278898 0.00645861167503 -0.0281684943429
Te -4.214217762 2.4330797971 -3.4539234904 -0 2.57110337382e-07 0.00444235240928
Te 2.1512126611 -1.2419997792 -3.4457998306 -0.0111871278898 0.00645861167503 -0.0281684943429
Te 0 2.6322400367 -10.4632583323 0 -0.0388915380737 0.00053710349479
Te -2.2795866285 -1.3161165583 -10.4632583323 0.0336811970867 0.0194457690368 0.00053710349479
Te -4.214217762 2.4330797971 -10.4631923738 -0 2.57110337382e-07 -0.0344826100083
Te 2.2795866285 -1.3161165583 -10.4632583323 -0.0336811970867 0.0194457690368 0.00053710349479
Sb -0 2.2944411773 8.69826725 0 0.0244231680582 0.00138582471849
Sb -1.9870443646 -1.1472171286 8.69826725 -0.0211509247944 -0.0122114554739 0.00138582471849
Sb -4.214217762 2.4330797971 7.9554754701 -0 2.57110337382e-07 -0.0360898067272
Sb 1.9870443646 -1.1472171286 8.69826725 0.0211509247944 -0.0122114554739 0.00138582471849
Sb 0 2.4164882333 1.8162128232 0 0.00021108758699 0.0124978763898
Sb -2.0927401699 -1.2082406566 1.8162128232 -0.000182548339541 -0.000105415238326 0.0124978763898
Sb -4.214217762 2.4330797971 1.882327365 -0 2.57110337382e-07 0.00725822482428
Sb 2.0927401699 -1.2082406566 1.8162128232 0.000182548339541 -0.000105415238326 0.0124978763898
Sb 0 0 -11.8896072975 0 0 -0.0235700759588
Sb -2.0166124656 -3.7018643863 -12.3311272839 -0.0259380621661 0.0149751344905 -0.0356190376995
Sb -4.214217762 0.1044963011 -12.3311272839 -0 -0.0299505260912 -0.0356187805892
Sb -2.1976052636 3.5973715451 -12.3311272839 0.0259380621661 0.0149751344905 -0.0356190376995
Sb 0 0 11.2450336791 0 0 -0.057965011342
Sb -2.5643330079 -3.3856376663 12.552495737 0.227785360741 -0.131511937571 -0.288995104541
Sb 4.2142178275 -0.5279571385 12.552495737 0 0.263022075369 -0.288993818989
Sb 2.5643330079 -3.3856376663 12.552495737 -0.227785360741 -0.131511937571 -0.288995104541
Sb 2.1121504847 1.2194506518 -1.902719552 0.00176506246612 0.00101918537738 -0.0111562746493
Sb 3.27e-08 -2.4388978434 -1.902719552 -0 -0.00203811364442 -0.011156017539
Sb -2.1121504192 1.2194506518 -1.902719552 -0.00176506246612 0.00101918537738 -0.0111562746493
Sb 4.2142177948 -2.4330763371 -1.8165834688 0 -0 -0.0122610777691
Sb 2.064473929 1.1919245693 -8.7790755513 0.0090356285866 0.00521676874547 0.0141634371553
Sb 3.27e-08 -2.3838456784 -8.7790755513 0 -0.0104335374909 0.0141634371553
Sb -2.0644738635 1.1919245693 -8.7790755513 -0.0090356285866 0.00521676874547 0.0141634371553
Sb 4.2142177948 -2.4330763371 -8.1994337645 0 -0 0.00852372190488
Cr -4.2142177948 -2.4330763371 14.8090929051 -0 1.54266202429e-06 0.918443890767
61
Lattice="8.42843558953 0 0 -4.21421779477 7.29923593142 0 0 0 31.0334408416" Properties=species:S:1:pos:R:3:forces:R:3 energy=-133598.014791 ionic_step=33 pbc="T T T"
Te 2.0825194979 1.2023431866 3.4468083443 0.0177254437694 0.0102340198691 0.0226087404073
Te 3.27e-08 -2.4046829131 3.4468083443 -0 -0.0204680397383 0.0226087404073
Te -2.0825194323 1.2023431866 3.4468083443 -0.0177254437694 0.0102340198691 0.0226087404073
Te 4.2142177948 -2.4330763371 3.3550591649 0 -2.57110337382e-07 0.00715718046169
Te 0 0 6.8223815953 0 2.57110337382e-07 0.0287343941954
Te -2.38077821 -3.4916131056 7.0748902833 0.0415348894523 -0.0239801669469 -0.0214730840471
Te -4.214217762 -0.3160062602 7.0748902833 -0 0.0479600767835 -0.0214728269368
Te -1.8334395848 3.8076228258 7.0748902833 -0.0415348894523 -0.0239801669469 -0.0214730840471
Te -0 0 -0.0228487622 0 2.57110337382e-07 -0.00131820469976
Te -2.0854702714 -3.6621092985 0.0141807681 -0.0043695901838 0.00252250952005 -0.00270428652858
Te -4.214217762 0.0249861256 0.0141807681 -0 -0.00504553326078 -0.00270428652858
Te 2.0854702714 -3.6621092985 0.0141807681 0.0043695901838 0.00252250952005 -0.00270428652858
Te 0 2.3488724479 14.5233925969 0 -0.0321506192482 -0.0290156729045
Te -2.0341831425 -1.174432764 14.5233925969 0.0278435068764 0.0160753096241 -0.0290154157942
Te -4.214217762 2.4330797971 12.8860833597 -0 2.57110337382e-07 0.0229170157018
Te 2.0341831425 -1.174432764 14.5233925969 -0.0278435068764 0.0160753096241 -0.0290154157942
Te 1.9253665819 1.1116108636 -13.7727880445 0.0547094802501 0.0315867762783 -0.0208979282224
Te 3.27e-08 -2.2232182671 -13.7727880445 -0 -0.063173038336 -0.020897671112
Te -1.9253665164 1.1116108636 -13.7727880445 -0.0547094802501 0.0315867762783 -0.0208979282224
Te 4.2142177948 -2.4330763371 -13.7165041523 0 -2.57110337382e-07 0.0540818739165
Te 2.3038680439 1.3301388858 10.4331370774 -0.0624559576051 -0.0360586963764 0.0376054721661
Te 3.27e-08 -2.6602743116 10.4331370774 -0 0.0721176498632 0.0376054721661
Te -2.3038679785 1.3301388858 10.4331370774 0.0624559576051 -0.0360586963764 0.0376054721661
Te 4.2142177948 -2.4330763371 10.1429589475 0 -2.57110337382e-07 0.0722233222118
Te -0 -0 -7.0658093418 0 2.57110337382e-07 0.00290611814342
Te -1.8602499119 -3.7921403936 -7.1175423902 -0.042512422955 0.0245442670271 0.0236829473969
Te 4.2142178275 0.2850483157 -7.1175423902 -0 -0.0490890482749 0.0236832045072
Te 1.8602499119 -3.7921403936 -7.1175423902 0.042512422955 0.0245442670271 0.0236829473969
Te -0 2.4819535776 -3.4577732143 0 -0.0110035511089 -0.025954003007
Te -2.1494347976 -1.2409733287 -3.4577732143 0.00952979465505 0.00550164699929 -0.025954003007
Te -4.214217762 2.4330797971 -3.4480283612 -0 2.57110337382e-07 0.00405283024815
Te 2.1494347976 -1.2409733287 -3.4577732143 -0.00952979465505 0.00550164699929 -0.025954003007
Te 0 2.6432469254 -10.4466528377 0 -0.0401837746294 0.000386179726747
Te -2.2891188693 -1.3216200027 -10.4466528377 0.0348003983853 0.0200918873147 0.000386179726747
Te -4.214217762 2.4330797971 -10.4507257786 -0 2.57110337382e-07 -0.0361188601954
Te 2.2891188693 -1.3216200027 -10.4466528377 -0.0348003983853 0.0200918873147 0.000386179726747
Sb -0 2.3017783656 8.7069301905 0 0.0234767449063 0.00113565636021
Sb -1.9933985532 -1.1508857228 8.7069301905 -0.0203315141491 -0.0117383724532 0.00113565636021
Sb -4.214217762 2.4330797971 7.8816216098 -0 2.57110337382e-07 -0.0434555036726
Sb 1.9933985532 -1.1508857228 8.7069301905 0.0203315141491 -0.0117383724532 0.00113565636021
Sb 0 2.4133718085 1.8152854305 0 0.000819667755573 0.0121510345447
Sb -2.0900412681 -1.2066824442 1.8152854305 -0.000709624531173 -0.000409833877786 0.0121510345447
Sb -4.214217762 2.4330797971 1.8977043846 -0 2.57110337382e-07 0.00630383125192
Sb 2.0900412681 -1.2066824442 1.8152854305 0.000709624531173 -0.000409833877786 0.0121510345447
Sb 0 0 -11.8789180802 0 -0 -0.0231296459509
Sb -2.0136724503 -3.7035618057 -12.3120333192 -0.0269395069302 0.0155533756392 -0.035903658843
Sb -4.214217762 0.10789114 -12.3120333192 -0 -0.0311067512785 -0.035903658843
Sb -2.2005452789 3.5956741257 -12.3120333192 0.0269395069302 0.0155533756392 -0.035903658843
Sb 0 0 11.2265119765 0 0 -0.0550545223229
Sb -2.5645927743 -3.3854876901 12.5469565504 0.168353020704 -0.0971987632748 -0.207183880738
Sb 4.2142178275 -0.528257091 12.5469565504 0 0.194395983888 -0.207182852297
Sb 2.5645927743 -3.3854876901 12.5469565504 -0.168353020704 -0.0971987632748 -0.207183880738
Sb 2.1082813713 1.2172168171 -1.9099108298 0.00251659598229 0.00145318762688 -0.0108973645396
Sb 3.27e-08 -2.434430174 -1.9099108298 -0 -0.00290611814342 -0.0108971074292
Sb -2.1082813058 1.2172168171 -1.9099108298 -0.00251659598229 0.00145318762688 -0.0108973645396
Sb 4.2142177948 -2.4330763371 -1.8281051175 0 -0 -0.0119677148741
Sb 2.0480236881 1.1824270138 -8.7784883827 0.01022707789 0.00590479600831 0.0142094599057
Sb 3.27e-08 -2.3648505675 -8.7784883827 0 -0.0118093349063 0.0142094599057
Sb -2.0480236226 1.1824270138 -8.7784883827 -0.01022707789 0.00590479600831 0.0142094599057
Sb 4.2142177948 -2.4330763371 -8.1702256848 0 -0 0.0104548776489
Cr -4.2142177948 -2.4330763371 14.8049214249 -0 1.28555168691e-06 0.68896211602
61
Lattice="8.42843558953 0 0 -4.21421779477 7.29923593142 0 0 0 31.0334408416" Properties=species:S:1:pos:R:3:forces:R:3 energy=-133598.061745 ionic_step=34 pbc="T T T"
Te 2.0768121859 1.199048067 3.4556300465 0.0192346814499 0.0111053668025 0.0210820192239
Te 3.27e-08 -2.3980926738 3.4556300465 -0 -0.022210733605 0.0210820192239
Te -2.0768121203 1.199048067 3.4556300465 -0.0192346814499 0.0111053668025 0.0210820192239
Te 4.2142177948 -2.4330763371 3.3570828471 0 -2.57110337382e-07 0.000744591537057
Te 0 0 6.8409220479 0 2.57110337382e-07 0.0252160963387
Te -2.3983203178 -3.4814851603 7.0427910315 0.040476109083 -0.023369015675 -0.0184129568116
Te -4.214217762 -0.3362621509 7.0427910315 -0 0.0467377742396 -0.0184129568116
Te -1.815897477 3.8177507712 7.0427910315 -0.040476109083 -0.023369015675 -0.0184129568116
Te -0 0 -0.0184138864 0 2.57110337382e-07 -0.00284595432448
Te -2.084185783 -3.6628508986 0.0124037008 -0.00495040243595 0.0028577814 -0.00241940827476
Te -4.214217762 0.0264693258 0.0124037008 -0 -0.00571607702067 -0.00241940827476
Te 2.084185783 -3.6628508986 0.0124037008 0.00495040243595 0.0028577814 -0.00241940827476
Te 0 2.3479775449 14.5196699348 0 -0.0200160397652 -0.0280113999267
Te -2.0334081342 -1.1739853125 14.5196699348 0.0173343789463 0.0100080198826 -0.0280111428164
Te -4.214217762 2.4330797971 12.898853973 -0 2.57110337382e-07 0.0249996094346
Te 2.0334081342 -1.1739853125 14.5196699348 -0.0173343789463 0.0100080198826 -0.0280111428164
Te 1.9191273993 1.1080086682 -13.7662765637 0.0546323471489 0.03154229619 -0.019368121715
Te 3.27e-08 -2.2160138762 -13.7662765637 -0 -0.0630840781593 -0.019368121715
Te -1.9191273337 1.1080086682 -13.7662765637 -0.0546323471489 0.03154229619 -0.019368121715
Te 4.2142177948 -2.4330763371 -13.7324763064 0 -2.57110337382e-07 0.0408658883544
Te 2.3153565318 1.3367717705 10.4109918945 -0.0614563126133 -0.0354817407793 0.0365484915691
Te 3.27e-08 -2.6735400809 10.4109918945 -0 0.0709634815587 0.0365484915691
Te -2.3153564664 1.3367717705 10.4109918945 0.0614563126133 -0.0354817407793 0.0365484915691
Te 4.2142177948 -2.4330763371 10.1534957085 0 -2.57110337382e-07 0.0756747713809
Te -0 -0 -7.030526518 0 2.57110337382e-07 -0.00443515331983
Te -1.8488536262 -3.7987200453 -7.1194514479 -0.0410810897068 0.0237179144028 0.0238768085913
Te 4.2142178275 0.298207619 -7.1194514479 -0 -0.0474360859159 0.0238768085913
Te 1.8488536262 -3.7987200453 -7.1194514479 0.0410810897068 0.0237179144028 0.0238768085913
Te -0 2.4788344468 -3.4699682455 0 -0.00879060243508 -0.0234618325067
Te -2.1467335523 -1.2394137633 -3.4699682455 0.00761303708987 0.00439530121754 -0.0234618325067
Te -4.214217762 2.4330797971 -3.4468129743 -0 2.57110337382e-07 0.00394124436172
Te 2.1467335523 -1.2394137633 -3.4699682455 -0.00761303708987 0.00439530121754 -0.0234618325067
Te 0 2.6572247012 -10.4266641959 0 -0.0411631079045 -0.000145781561295
Te -2.3012239726 -1.3286088906 -10.4266641959 0.035648348278 0.0205814253971 -0.000145781561295
Te -4.214217762 2.4330797971 -10.4424010189 -0 2.57110337382e-07 -0.038085497166
Te 2.3012239726 -1.3286088906 -10.4266641959 -0.035648348278 0.0205814253971 -0.000145781561295
Sb -0 2.3102211619 8.7029335939 0 0.0229414411839 0.000700882779702
Sb -2.0007102258 -1.1551071209 8.7029335939 -0.0198679442108 -0.0114707205919 0.000700882779702
Sb -4.214217762 2.4330797971 7.8186516088 -0 2.57110337382e-07 -0.0493060493997
Sb 2.0007102258 -1.1551071209 8.7029335939 0.0198679442108 -0.0114707205919 0.000700882779702
Sb 0 2.4116798787 1.820851441 0 0.00128349480421 0.0120996124772
Sb -2.0885760146 -1.2058364793 1.820851441 -0.0011114879885 -0.000641747402105 0.0120996124772
Sb -4.214217762 2.4330797971 1.9138818489 -0 2.57110337382e-07 0.00598450021289
Sb 2.0885760146 -1.2058364793 1.820851441 0.0011114879885 -0.000641747402105 0.0120996124772
Sb 0 0 -11.8762354597 0 -0 -0.0241110361086
Sb -2.0168692317 -3.7017161422 -12.2900482813 -0.0269760165981 0.0155744586869 -0.0351498113338
Sb -4.214217762 0.104199813 -12.2900482813 -0 -0.0311489173738 -0.0351498113338
Sb -2.1973484975 3.5975197892 -12.2900482813 0.0269760165981 0.0155744586869 -0.0351498113338
Sb 0 0 11.2246473073 0 0 -0.0533357397175
Sb -2.5553189881 -3.3908419155 12.5427911527 0.132816258312 -0.076681615462 -0.155089469729
Sb 4.2142178275 -0.5175486401 12.5427911527 0 0.153361945372 -0.155088698398
Sb 2.5553189881 -3.3908419155 12.5427911527 -0.132816258312 -0.076681615462 -0.155089469729
Sb 2.1055538153 1.2156420612 -1.9135303727 0.00300382007163 0.00173446633598 -0.0102605022339
Sb 3.27e-08 -2.4312806622 -1.9135303727 -0 -0.00346867556162 -0.0102605022339
Sb -2.1055537497 1.2156420612 -1.9135303727 -0.00300382007163 0.00173446633598 -0.0102607593442
Sb 4.2142177948 -2.4330763371 -1.8386791212 0 -0 -0.0113434509749
Sb 2.0356064413 1.1752579098 -8.7655924019 0.0112187524613 0.00647712361932 0.0151021469971
Sb 3.27e-08 -2.3505123594 -8.7655924019 0 -0.0129542472386 0.0151021469971
Sb -2.0356063759 1.1752579098 -8.7655924019 -0.0112187524613 0.00647712361932 0.0151021469971
Sb 4.2142177948 -2.4330763371 -8.1493588568 0 -0 0.0117831096519
Cr -4.2142177948 -2.4330763371 14.7930287919 -0 1.02844134953e-06 0.542980008661
61
Lattice="8.42843558953 0 0 -4.21421779477 7.29923593142 0 0 0 31.0334408416" Properties=species:S:1:pos:R:3:forces:R:3 energy=-133598.095283 ionic_step=35 pbc="T T T"
Te 2.0729262299 1.1968045082 3.4624401082 0.020111941921 0.0116118741672 0.0192483082977
Te 3.27e-08 -2.3936055563 3.4624401082 -0 -0.023223491224 0.0192483082977
Te -2.0729261644 1.1968045082 3.4624401082 -0.020111941921 0.0116118741672 0.0192483082977
Te 4.2142177948 -2.4330763371 3.3611307227 0 -2.57110337382e-07 -0.00431945366801
Te 0 0 6.8557041938 0 2.57110337382e-07 0.0230797665454
Te -2.4069627054 -3.4764954731 7.0194201079 0.0397919384752 -0.0229740941967 -0.0164442629583
Te -4.214217762 -0.3462415252 7.0194201079 -0 0.0459476741728 -0.0164440058479
Te -1.8072550894 3.8227404583 7.0194201079 -0.0397919384752 -0.0229740941967 -0.0164442629583
Te -0 0 -0.0206610246 0 2.57110337382e-07 -0.00314754475023
Te -2.081599413 -3.6643441408 0.0063973993 -0.00574461626812 0.00331646624189 -0.00163342197339
Te -4.214217762 0.0294558101 0.0063973993 -0 -0.00663318959411 -0.00163342197339
Te 2.081599413 -3.6643441408 0.0063973993 0.00574461626812 0.00331646624189 -0.00163342197339
Te 0 2.3500556819 14.515864855 0 -0.022802858712 -0.0280553657944
Te -2.0352078528 -1.175024381 14.515864855 0.0197478736833 0.0114013008009 -0.0280553657944
Te -4.214217762 2.4330797971 12.9187545716 -0 2.57110337382e-07 0.0270505785959
Te 2.0352078528 -1.175024381 14.515864855 -0.0197478736833 0.0114013008009 -0.0280553657944
Te 1.9105838322 1.1030760351 -13.7671337379 0.0546500877622 0.0315523234931 -0.0178370296559
Te 3.27e-08 -2.2061486101 -13.7671337379 -0 -0.0631043898759 -0.0178370296559
Te -1.9105837666 1.1030760351 -13.7671337379 -0.0546500877622 0.0315523234931 -0.0178370296559
Te 4.2142177948 -2.4330763371 -13.7472622686 0 -2.57110337382e-07 0.0405175038473
Te 2.3284026197 1.3443039363 10.3937237445 -0.0603232273565 -0.0348273949707 0.0357699614675
Te 3.27e-08 -2.6886044126 10.3937237445 -0 0.0696550470517 0.0357702185779
Te -2.3284025542 1.3443039363 10.3937237445 0.0603232273565 -0.0348273949707 0.0357699614675
Te 4.2142177948 -2.4330763371 10.1557044198 0 -2.57110337382e-07 0.0766685028348
Te -0 -0 -7.0073928637 0 2.57110337382e-07 -0.00974345334541
Te -1.844097268 -3.8014661313 -7.1152843443 -0.0403251853149 0.0232815981602 0.0233157938351
Te 4.2142178275 0.303699791 -7.1152843443 -0 -0.0465634534308 0.0233160509455
Te 1.844097268 -3.8014661313 -7.1152843443 0.0403251853149 0.0232815981602 0.0233157938351
Te -0 2.4771206078 -3.4789733715 0 -0.00745285734968 -0.0218610635462
Te -2.1452493249 -1.2385568438 -3.4789733715 0.00645449790963 0.00372630011967 -0.0218610635462
Te -4.214217762 2.4330797971 -3.4511789138 -0 2.57110337382e-07 0.00433179496421
Te 2.1452493249 -1.2385568438 -3.4789733715 -0.00645449790963 0.00372630011967 -0.0218610635462
Te 0 2.671343401 -10.4117099318 0 -0.0414844958262 -0.000892429981052
Te -2.3134511195 -1.3356682405 -10.4117099318 0.0359267987733 0.0207421193579 -0.000892429981052
Te -4.214217762 2.4330797971 -10.4360153329 -0 2.57110337382e-07 -0.0402580795169
Te 2.3134511195 -1.3356682405 -10.4117099318 -0.0359267987733 0.0207421193579 -0.000892429981052
Sb -0 2.3145917573 8.6899614652 0 0.0232458598233 0.000638147857381
Sb -2.0044952707 -1.1572924186 8.6899614652 -0.0201314823066 -0.0116229299117 0.000638404967719
Sb -4.214217762 2.4330797971 7.7751772412 -0 2.57110337382e-07 -0.053137250537
Sb 2.0044952707 -1.1572924186 8.6899614652 0.0201314823066 -0.0116229299117 0.000638404967719
Sb 0 2.4129621679 1.8296660365 0 0.00132900333393 0.012280875265
Sb -2.0896865091 -1.2064776239 1.8296660365 -0.00115082587012 -0.000664630222132 0.012280875265
Sb -4.214217762 2.4330797971 1.9263017168 -0 2.57110337382e-07 0.00618967426213
Sb 2.0896865091 -1.2064776239 1.8296660365 0.00115082587012 -0.000664630222132 0.012280875265
Sb 0 0 -11.8718072119 0 -0 -0.024707274981
Sb -2.0233826364 -3.6979556245 -12.2757979256 -0.026316785693 0.0151939353876 -0.0338989695424
Sb -4.214217762 0.0966787776 -12.2757979256 -0 -0.0303878707751 -0.0338989695424
Sb -2.1908350928 3.6012803069 -12.2757979256 0.026316785693 0.0151939353876 -0.0338989695424
Sb 0 0 11.2282071772 0 0 -0.0519982517424
Sb -2.5436955748 -3.3975526994 12.545172937 0.145995734206 -0.0842907958969 -0.169168574694
Sb 4.2142178275 -0.5041270723 12.545172937 0 0.168580306242 -0.169167803363
Sb 2.5436955748 -3.3975526994 12.545172937 -0.145995734206 -0.0842907958969 -0.169168574694
Sb 2.1051222958 1.2153929231 -1.9138744502 0.003090980476 0.00178460285177 -0.009399439714
Sb 3.27e-08 -2.4307823861 -1.9138744502 -0 -0.00356920570353 -0.009399439714
Sb -2.1051222302 1.2153929231 -1.9138744502 -0.003090980476 0.00178460285177 -0.009399439714
Sb 4.2142177948 -2.4330763371 -1.8445720614 0 -0 -0.0107258719445
Sb 2.0306105461 1.172373527 -8.7518465038 0.0117329731361 0.00677408605899 0.0159683517238
Sb 3.27e-08 -2.3447435938 -8.7518465038 0 -0.013548172118 0.0159683517238
Sb -2.0306104807 1.172373527 -8.7518465038 -0.0117329731361 0.00677408605899 0.0159683517238
Sb 4.2142177948 -2.4330763371 -8.1351108793 0 -0 0.0126678263228
Cr -4.2142177948 -2.4330763371 14.7841952003 -0 1.02844134953e-06 0.583436320248
61
Lattice="8.42843558953 0 0 -4.21421779477 7.29923593142 0 0 0 31.0334408416" Properties=species:S:1:pos:R:3:forces:R:3 energy=-133598.114461 ionic_step=36 pbc="T T T"
Te 2.0710377686 1.195714204 3.4621985584 0.0204549271111 0.011809849127 0.0186119602127
Te 3.27e-08 -2.3914249479 3.4621985584 -0 -0.0236196982539 0.0186119602127
Te -2.071037703 1.195714204 3.4621985584 -0.0204549271111 0.011809849127 0.0186119602127
Te 4.2142177948 -2.4330763371 3.3608001374 0 -2.57110337382e-07 -0.00610894161619
Te 0 0 6.8642220918 0 2.57110337382e-07 0.0208688747543
Te -2.4074666922 -3.4762044961 7.0105509002 0.0395517974201 -0.0228352546145 -0.0165216531698
Te -4.214217762 -0.3468234793 7.0105509002 -0 0.0456702521188 -0.0165216531698
Te -1.8067511026 3.8230314354 7.0105509002 -0.0395517974201 -0.0228352546145 -0.0165216531698
Te -0 0 -0.0256012625 0 2.57110337382e-07 -0.00277010677495
Te -2.0792541672 -3.6656981697 0.0006338922 -0.00637607925673 0.00368079158996 -0.000873660926423
Te -4.214217762 0.0321638679 0.0006338922 -0 -0.00736209740059 -0.000873660926423
Te 2.0792541672 -3.6656981697 0.0006338922 0.00637607925673 0.00368079158996 -0.000873660926423
Te 0 2.3532844103 14.5129906599 0 -0.0323496226494 -0.0291622257968
Te -2.0380040123 -1.1766387452 14.5129906599 0.0280157708025 0.0161748113247 -0.0291619686865
Te -4.214217762 2.4330797971 12.9339975893 -0 2.57110337382e-07 0.0281895773905
Te 2.0380040123 -1.1766387452 14.5129906599 -0.0280157708025 0.0161748113247 -0.0291619686865
Te 1.9028575288 1.0986152497 -13.7659362034 0.0546027794601 0.0315250697974 -0.0166239830841
Te 3.27e-08 -2.1972270393 -13.7659362034 -0 -0.0630496253741 -0.0166237259737
Te -1.9028574633 1.0986152497 -13.7659362034 -0.0546027794601 0.0315250697974 -0.0166239830841
Te 4.2142177948 -2.4330763371 -13.7507520958 0 -2.57110337382e-07 0.0488144544346
Te 2.3362745978 1.3488488272 10.3819908118 -0.0596082035082 -0.0344147328792 0.0356663460016
Te 3.27e-08 -2.6976941942 10.3819908118 -0 0.0688294657584 0.0356663460016
Te -2.3362745324 1.3488488272 10.3819908118 0.0596082035082 -0.0344147328792 0.0356663460016
Te 4.2142177948 -2.4330763371 10.15364946 0 -2.57110337382e-07 0.076110059182
Te -0 -0 -7.001066614 0 2.57110337382e-07 -0.0112999993279
Te -1.8431607002 -3.8020068591 -7.1121384933 -0.0400688463086 0.0231335026059 0.0232150065829
Te 4.2142178275 0.3047812467 -7.1121384933 -0 -0.0462672623222 0.0232150065829
Te 1.8431607002 -3.8020068591 -7.1121384933 0.0400688463086 0.0231335026059 0.0232150065829
Te -0 2.4769592127 -3.4798299647 0 -0.00718032039206 -0.0220932341809
Te -2.1451095527 -1.2384761463 -3.4798299647 0.00621847061991 0.00359003164086 -0.0220932341809
Te -4.214217762 2.4330797971 -3.4527934244 -0 2.57110337382e-07 0.00396258451973
Te 2.1451095527 -1.2384761463 -3.4798299647 -0.00621847061991 0.00359003164086 -0.0220932341809
Te 0 2.6810127022 -10.4037974373 0 -0.0411975606897 -0.00135317170564
Te -2.3218249761 -1.3405028911 -10.4037974373 0.0356781730771 0.0205986517897 -0.00135317170564
Te -4.214217762 2.4330797971 -10.4336037513 -0 2.57110337382e-07 -0.041347198906
Te 2.3218249761 -1.3405028911 -10.4037974373 -0.0356781730771 0.0205986517897 -0.00135317170564
Sb -0 2.3163969329 8.6795038196 0 0.0235849883584 0.000831237720755
Sb -2.0060585979 -1.1581950064 8.6795038196 -0.0204251023119 -0.011792365624 0.000831237720755
Sb -4.214217762 2.4330797971 7.7553610182 -0 2.57110337382e-07 -0.0545259034692
Sb 2.0060585979 -1.1581950064 8.6795038196 0.0204251023119 -0.011792365624 0.000831237720755
Sb 0 2.4154719212 1.8336395679 0 0.00112280084335 0.0128146363254
Sb -2.0918600182 -1.2077325006 1.8336395679 -0.000972391295977 -0.000561528976841 0.0128146363254
Sb -4.214217762 2.4330797971 1.9307868599 -0 2.57110337382e-07 0.00682602234714
Sb 2.0918600182 -1.2077325006 1.8336395679 0.000972391295977 -0.000561271866504 0.0128146363254
Sb 0 0 -11.8625770774 0 -0 -0.0241765992447
Sb -2.0295335918 -3.6944043671 -12.2697301203 -0.0255693659423 0.0147622471311 -0.0329463757424
Sb -4.214217762 0.0895762628 -12.2697301203 -0 -0.0295250084829 -0.0329463757424
Sb -2.1846841374 3.6048315643 -12.2697301203 0.0255693659423 0.0147622471311 -0.0329463757424
Sb 0 0 11.2242731101 0 0 -0.0504954418204
Sb -2.5366154505 -3.401640413 12.5483017931 0.180622326004 -0.10428241018 -0.213160667641
Sb 4.2142178275 -0.4959516451 12.5483017931 0 0.208563534808 -0.213159639199
Sb 2.5366154505 -3.401640413 12.5483017931 -0.180622583114 -0.10428241018 -0.213160667641
Sb 2.1058677383 1.2158233048 -1.9096522882 0.00301076205074 0.00173832299104 -0.00898394940879
Sb 3.27e-08 -2.4316431493 -1.9096522882 -0 -0.00347638887174 -0.00898394940879
Sb -2.1058676727 1.2158233048 -1.9096522882 -0.00301076205074 0.00173832299104 -0.00898394940879
Sb 4.2142177948 -2.4330763371 -1.8433522698 0 -0 -0.0106330551128
Sb 2.0308660008 1.1725210139 -8.7445203055 0.0117949367274 0.00680982439589 0.0162365178056
Sb 3.27e-08 -2.3450385675 -8.7445203055 0 -0.0136196487918 0.0162365178056
Sb -2.0308659353 1.1725210139 -8.7445203055 -0.0117949367274 0.00680982439589 0.0162365178056
Sb 4.2142177948 -2.4330763371 -8.1302733719 0 -0 0.0127290185831
Cr -4.2142177948 -2.4330763371 14.7795678817 -0 1.28555168691e-06 0.706885277639
61
Lattice="8.42843558953 0 0 -4.21421779477 7.29923593142 0 0 0 31.0334408416" Properties=species:S:1:pos:R:3:forces:R:3 energy=-133598.13151 ionic_step=37 pbc="T T T"
Te 2.0692685765 1.19469276 3.460008363 0.0208421352792 0.0120332780101 0.0186358714741
Te 3.27e-08 -2.3893820598 3.460008363 -0 -0.0240665560203 0.0186358714741
Te -2.0692685109 1.19469276 3.460008363 -0.0208421352792 0.0120332780101 0.0186358714741
Te 4.2142177948 -2.4330763371 3.3576350672 0 -2.57110337382e-07 -0.00699083007341
Te 0 0 6.8713428773 0 2.57110337382e-07 0.0179632708315
Te -2.4093492939 -3.475117575 7.0052728654 0.0391134242949 -0.0225822580426 -0.017020961445
Te -4.214217762 -0.3489973215 7.0052728654 -0 0.0451642589748 -0.0170207043347
Te -1.8048685008 3.8241183565 7.0052728654 -0.0391134242949 -0.0225822580426 -0.017020961445
Te -0 0 -0.0302507759 0 2.57110337382e-07 -0.00242763580556
Te -2.0771955131 -3.6668867347 -0.0037200193 -0.00691035453781 0.00398932399481 -0.000276650723023
Te -4.214217762 0.034540998 -0.0037200193 -0 -0.00797890509996 -0.000276650723023
Te 2.0771955131 -3.6668867347 -0.0037200193 0.00691035453781 0.00398932399481 -0.000276650723023
Te 0 2.3567388076 14.5113597747 0 -0.0427168256733 -0.0308982347948
Te -2.0409956067 -1.1783659438 14.5113597747 0.0369938066735 0.0213584128366 -0.0308982347948
Te -4.214217762 2.4330797971 12.9411793333 -0 2.57110337382e-07 0.0286096956818
Te 2.0409956067 -1.1783659438 14.5113597747 -0.0369938066735 0.0213584128366 -0.0308982347948
Te 1.8949385716 1.0940432355 -13.7601351348 0.0544721674087 0.0314497364685 -0.0152777533576
Te 3.27e-08 -2.1880830108 -13.7601351348 -0 -0.0628989587164 -0.0152774962472
Te -1.894938506 1.0940432355 -13.7601351348 -0.0544721674087 0.0314497364685 -0.0152777533576
Te 4.2142177948 -2.4330763371 -13.7483117086 0 -2.57110337382e-07 0.059866342287
Te 2.3431078169 1.3527939899 10.3712683483 -0.0589482012722 -0.0340336953592 0.0357211105034
Te 3.27e-08 -2.7055845197 10.3712683483 -0 0.0680673907184 0.0357211105034
Te -2.3431077515 1.3527939899 10.3712683483 0.0589482012722 -0.0340336953592 0.0357211105034
Te 4.2142177948 -2.4330763371 10.1515248287 0 -2.57110337382e-07 0.0752363982556
Te -0 -0 -6.9984480706 0 2.57110337382e-07 -0.0118849253455
Te -1.8407411039 -3.8034038144 -7.111504297 -0.0397299748839 0.0229378416392 0.0234896004232
Te 4.2142178275 0.3075751572 -7.111504297 -0 -0.045876197499 0.0234896004232
Te 1.8407411039 -3.8034038144 -7.111504297 0.0397299748839 0.0229378416392 0.0234896004232
Te -0 2.4775652287 -3.4785168668 0 -0.00720860252917 -0.0228622512
Te -2.1456343777 -1.2387791543 -3.4785168668 0.00624289610196 0.00360417270942 -0.0228622512
Te -4.214217762 2.4330797971 -3.4519989237 -0 2.57110337382e-07 0.00327841391195
Te 2.1456343777 -1.2387791543 -3.4785168668 -0.00624289610196 0.00360417270942 -0.0228622512
Te 0 2.6898804531 -10.3969847899 0 -0.0406964526421 -0.00155088955509
Te -2.3295046701 -1.3449367665 -10.3969847899 0.0352441708276 0.0203482263211 -0.00155088955509
Te -4.214217762 2.4330797971 -10.4302128959 -0 2.57110337382e-07 -0.041958350178
Te 2.3295046701 -1.3449367665 -10.3969847899 -0.0352441708276 0.0203482263211 -0.00155088955509
Sb -0 2.317780028 8.6729257307 0 0.0237567380637 0.00114054145662
Sb -2.0072563928 -1.158886554 8.6729257307 -0.0205739691973 -0.0118782404767 0.00114054145662
Sb -4.214217762 2.4330797971 7.7335631729 -0 2.57110337382e-07 -0.056059823742
Sb 2.0072563928 -1.158886554 8.6729257307 0.0205739691973 -0.0118782404767 0.00114054145662
Sb 0 2.4179282111 1.8343662979 0 0.000903742835896 0.0134234736044
Sb -2.0939872267 -1.2089606455 1.8343662979 -0.00078264386699 -0.00045174286278 0.0134234736044
Sb -4.214217762 2.4330797971 1.9338059251 -0 2.57110337382e-07 0.00745440001171
Sb 2.0939872267 -1.2089606455 1.8343662979 0.00078264386699 -0.00045174286278 0.0134234736044
Sb 0 0 -11.8469565648 0 -0 -0.0226956437014
Sb -2.0340387773 -3.6918032958 -12.2657181523 -0.0250001236553 0.0144336601199 -0.0322238956944
Sb -4.214217762 0.0843741202 -12.2657181523 -0 -0.0288675773502 -0.0322238956944
Sb -2.1801789519 3.6074326356 -12.2657181523 0.0250001236553 0.0144336601199 -0.0322238956944
Sb 0 0 11.2109333719 0 0 -0.048121284965
Sb -2.5327911351 -3.4038483836 12.5510893785 0.218009768604 -0.125868108555 -0.261489183538
Sb 4.2142178275 -0.491535704 12.5510893785 0 0.251734417337 -0.261488155096
Sb 2.5327911351 -3.4038483836 12.5510893785 -0.218009768604 -0.125868108555 -0.261489183538
Sb 2.1064936977 1.2161847028 -1.9049125313 0.00298993611341 0.00172623880518 -0.0087921450971
Sb 3.27e-08 -2.4323659454 -1.9049125313 -0 -0.00345247761036 -0.0087921450971
Sb -2.1064936321 1.2161847028 -1.9049125313 -0.00298993611341 0.00172623880518 -0.0087921450971
Sb 4.2142177948 -2.4330763371 -1.8405593457 0 -0 -0.0108030050458
Sb 2.0308231682 1.1724962845 -8.7421308564 0.0117944225067 0.00680956728555 0.0160441992733
Sb 3.27e-08 -2.3449891087 -8.7421308564 0 -0.0136188774608 0.0160441992733
Sb -2.0308231028 1.1724962845 -8.7421308564 -0.0117944225067 0.00680956728555 0.0160441992733
Sb 4.2142177948 -2.4330763371 -8.1237063598 0 -0 0.0127986954845
Cr -4.2142177948 -2.4330763371 14.7777095896 -0 1.54266202429e-06 0.841543217298
61
Lattice="8.42843558953 0 0 -4.21421779477 7.29923593142 0 0 0 31.0334408416" Properties=species:S:1:pos:R:3:forces:R:3 energy=-133598.154414 ionic_step=38 pbc="T T T"
Te 2.0666661124 1.193190226 3.4557182129 0.0214622854129 0.0123914327101 0.0190295074006
Te 3.27e-08 -2.3863769917 3.4557182129 -0 -0.0247828654202 0.0190295074006
Te -2.0666660468 1.193190226 3.4557182129 -0.0214622854129 0.0123914327101 0.0190295074006
Te 4.2142177948 -2.4330763371 3.3516497427 0 -2.57110337382e-07 -0.00783569464204
Te 0 0 6.8800430003 0 2.57110337382e-07 0.0133021175251
Te -2.4131045313 -3.4729494866 6.9988976749 0.0383737178542 -0.0221551977722 -0.0178583698139
Te -4.214217762 -0.3533334982 6.9988976749 -0 0.044310138434 -0.0178583698139
Te -1.8011132635 3.8262864448 6.9988976749 -0.0383737178542 -0.0221551977722 -0.0178583698139
Te -0 0 -0.0361741387 0 2.57110337382e-07 -0.00205251182332
Te -2.0745302686 -3.6684255151 -0.0086992998 -0.00759272537322 0.00438347414202 0.000433745139163
Te -4.214217762 0.0376185587 -0.0086992998 -0 -0.00876720539438 0.000433745139163
Te 2.0745302686 -3.6684255151 -0.0086992998 0.00759272537322 0.00438347414202 0.000433745139163
Te 0 2.3611870848 14.5098030091 0 -0.050747409951 -0.0330322505951
Te -2.044847926 -1.1805900824 14.5098030091 0.04394889841 0.0253737049755 -0.0330319934848
Te -4.214217762 2.4330797971 12.9475806126 -0 2.57110337382e-07 0.0290195295596
Te 2.044847926 -1.1805900824 14.5098030091 -0.04394889841 0.0253737049755 -0.0330319934848
Te 1.8835740415 1.0874819179 -13.7482049758 0.0541106702743 0.0312409628746 -0.0135206613119
Te 3.27e-08 -2.1749603756 -13.7482049758 -0 -0.0624816686388 -0.0135204042016
Te -1.8835739759 1.0874819179 -13.7482049758 -0.0541106702743 0.0312409628746 -0.0135206613119
Te 4.2142177948 -2.4330763371 -13.7424332422 0 -2.57110337382e-07 0.07115502876
Te 2.3516484765 1.3577249443 10.356090384 -0.0580385448985 -0.0335084189399 0.0358244688591
Te 3.27e-08 -2.7154464285 10.356090384 -0 0.0670168378799 0.0358247259694
Te -2.351648411 1.3577249443 10.356090384 0.0580385448985 -0.0335084189399 0.0358244688591
Te 4.2142177948 -2.4330763371 10.1491362227 0 -2.57110337382e-07 0.074453240168
Te -0 -0 -6.9963341619 0 2.57110337382e-07 -0.0121577194134
Te -1.8361606997 -3.8060483132 -7.1119008255 -0.039141706432 0.0225981988835 0.0240827539715
Te 4.2142178275 0.3128641548 -7.1119008255 -0 -0.0451969119876 0.0240827539715
Te 1.8361606997 -3.8060483132 -7.1119008255 0.039141706432 0.0225981988835 0.0240827539715
Te -0 2.4788084863 -3.4753874841 0 -0.00739732151681 -0.0241848267755
Te -2.1467110699 -1.2394007831 -3.4753874841 0.00640641827654 0.00369853220323 -0.0241848267755
Te -4.214217762 2.4330797971 -3.449212948 -0 2.57110337382e-07 0.00219315117787
Te 2.1467110699 -1.2394007831 -3.4753874841 -0.00640641827654 0.00369853220323 -0.0241848267755
Te 0 2.7018666979 -10.3873392025 0 -0.0397358884217 -0.00165373369004
Te -2.3398850577 -1.3509298889 -10.3873392025 0.0344124188862 0.0198679442108 -0.00165373369004
Te -4.214217762 2.4330797971 -10.4253613001 -0 2.57110337382e-07 -0.0424352898538
Te 2.3398850577 -1.3509298889 -10.3873392025 -0.0344124188862 0.0198679442108 -0.00165373369004
Sb -0 2.3198405588 8.6666740006 0 0.0238109883449 0.00160334006391
Sb -2.009040864 -1.1599168194 8.6666740006 -0.020621020389 -0.0119054941725 0.00160359717425
Sb -4.214217762 2.4330797971 7.7008664049 -0 2.57110337382e-07 -0.0583054254287
Sb 2.009040864 -1.1599168194 8.6666740006 0.020621020389 -0.0119054941725 0.00160359717425
Sb 0 2.4208973774 1.8331477579 0 0.000638662078056 0.0143138467027
Sb -2.0965585989 -1.2104452287 1.8331477579 -0.000553044335708 -0.000319331039028 0.0143138467027
Sb -4.214217762 2.4330797971 1.9373116832 -0 2.57110337382e-07 0.00830903477316
Sb 2.0965585989 -1.2104452287 1.8331477579 0.000553044335708 -0.000319331039028 0.0143138467027
Sb 0 0 -11.8208901157 0 -0 -0.0201052570522
Sb -2.0388565998 -3.6890217234 -12.2610043068 -0.0245260121932 0.0141598376106 -0.0316996477165
Sb -4.214217762 0.0788109754 -12.2610043068 -0 -0.0283199323316 -0.0316996477165
Sb -2.1753611294 3.610214208 -12.2610043068 0.0245260121932 0.0141598376106 -0.0316996477165
Sb 0 0 11.1857711427 0 0 -0.0439021043286
Sb -2.5294036694 -3.4058041387 12.5539119324 0.248467830501 -0.14345291297 -0.300571240371
Sb 4.2142178275 -0.4876241937 12.5539119324 0 0.286904026167 -0.30056995482
Sb 2.5294036694 -3.4058041387 12.5539119324 -0.248467830501 -0.14345291297 -0.300571240371
Sb 2.1071158935 1.2165439279 -1.8981726032 0.00302747422267 0.00174809318386 -0.00869290050687
Sb 3.27e-08 -2.4330843956 -1.8981726032 -0 -0.00349592925738 -0.00869290050687
Sb -2.107115828 1.2165439279 -1.8981726032 -0.00302747422267 0.00174809318386 -0.00869290050687
Sb 4.2142177948 -2.4330763371 -1.8359228015 0 -0 -0.011196383862
Sb 2.0301681506 1.1721181097 -8.7415818641 0.0117627979352 0.0067913124516 0.015477013869
Sb 3.27e-08 -2.3442327592 -8.7415818641 0 -0.0135823677929 0.0154772709794
Sb -2.0301680851 1.1721181097 -8.7415818641 -0.0117627979352 0.0067913124516 0.015477013869
Sb 4.2142177948 -2.4330763371 -8.113204449 0 -0 0.0128742859237
Cr -4.2142177948 -2.4330763371 14.7765709705 -0 1.79977236167e-06 0.948027263297
61
Lattice="8.42843558953 0 0 -4.21421779477 7.29923593142 0 0 0 31.0334408416" Properties=species:S:1:pos:R:3:forces:R:3 energy=-133598.186418 ionic_step=39 pbc="T T T"
Te 2.0627732152 1.1909426597 3.4487182362 0.022421049861 0.0129449912665 0.0197558441037
Te 3.27e-08 -2.3818818592 3.4487182362 -0 -0.025889982533 0.0197558441037
Te -2.0627731496 1.1909426597 3.4487182362 -0.022421049861 0.0129449912665 0.0197558441037
Te 4.2142177948 -2.4330763371 3.3424650864 0 -2.57110337382e-07 -0.00892429981052
Te 0 0 6.890354994 0 2.57110337382e-07 0.00626295070828
Te -2.4194001931 -3.4693146829 6.9899342029 0.0372146644533 -0.0214861966743 -0.0190667883995
Te -4.214217762 -0.3606031057 6.9899342029 -0 0.0429718791279 -0.0190665312892
Te -1.7948176016 3.8299212485 6.9899342029 -0.0372146644533 -0.0214861966743 -0.0190667883995
Te -0 0 -0.0445165287 0 2.57110337382e-07 -0.00155654598251
Te -2.0707704123 -3.6705962701 -0.015075772 -0.00853246365635 0.00492597695389 0.00137142653959
Te -4.214217762 0.0419600688 -0.015075772 -0 -0.00985221101813 0.00137142653959
Te 2.0707704123 -3.6705962701 -0.015075772 0.00853246365635 0.00492597695389 0.00137142653959
Te 0 2.3670594269 14.5083490083 0 -0.0539638602717 -0.0356036110793
Te -2.0499335211 -1.1835262535 14.5083490083 0.0467341746948 0.0269819301358 -0.0356033539689
Te -4.214217762 2.4330797971 12.9552785805 -0 2.57110337382e-07 0.029659220079
Te 2.0499335211 -1.1835262535 14.5083490083 -0.0467341746948 0.0269819301358 -0.0356033539689
Te 1.8661017732 1.0773942944 -13.7274656692 0.0531917579285 0.0307105442485 -0.0111992120757
Te 3.27e-08 -2.1547851287 -13.7274656692 -0 -0.0614205742764 -0.0111992120757
Te -1.8661017076 1.0773942944 -13.7274656692 -0.0531917579285 0.0307105442485 -0.0111992120757
Te 4.2142177948 -2.4330763371 -13.7328622614 0 -2.57110337382e-07 0.0802065981875
Te 2.3633227944 1.364465118 10.3339137191 -0.0566660899176 -0.0327160048801 0.0358758909265
Te 3.27e-08 -2.7289267759 10.3339137191 -0 0.0654320097603 0.0358761480369
Te -2.3633227289 1.364465118 10.3339137191 0.0566660899176 -0.0327160048801 0.0358758909265
Te 4.2142177948 -2.4330763371 10.1457002517 0 -2.57110337382e-07 0.07388322655
Te -0 -0 -6.994837838 0 2.57110337382e-07 -0.0119610300053
Te -1.8287947172 -3.8103010672 -7.1122989944 -0.0382035108109 0.0220564674026 0.0249253045471
Te 4.2142178275 0.3213696628 -7.1122989944 -0 -0.0441134490259 0.0249253045471
Te 1.8287947172 -3.8103010672 -7.1122989944 0.0382035108109 0.0220564674026 0.0249253045471
Te -0 2.4811493857 -3.4698598477 0 -0.00789020203357 -0.0262075137996
Te -2.1487383473 -1.2405712328 -3.4698598477 0.00683322143659 0.00394484390645 -0.0262075137996
Te -4.214217762 2.4330797971 -3.4445996425 -0 2.57110337382e-07 0.00080809779039
Te 2.1487383473 -1.2405712328 -3.4698598477 -0.00683322143659 0.00394484390645 -0.0262075137996
Te 0 2.719059157 -10.3729910921 0 -0.0378985779507 -0.00161850957382
Te -2.3547741571 -1.3595261185 -10.3729910921 0.0328214201185 0.0189492889754 -0.00161850957382
Te -4.214217762 2.4330797971 -10.4184779759 -0 2.57110337382e-07 -0.0427916447814
Te 2.3547741571 -1.3595261185 -10.3729910921 -0.0328214201185 0.0189492889754 -0.00161850957382
Sb -0 2.3227605303 8.6595671204 0 0.0237731931253 0.00229393843012
Sb -2.0115696324 -1.1613768051 8.6595671204 -0.0205881102658 -0.0118864680075 0.00229419554046
Sb -4.214217762 2.4330797971 7.651821253 -0 2.57110337382e-07 -0.0615108200048
Sb 2.0115696324 -1.1613768051 8.6595671204 0.0205881102658 -0.0118864680075 0.00229419554046
Sb 0 2.42467049 1.8297605762 0 0.0002985051017 0.0156155963409
Sb -2.0998262088 -1.212331785 1.8297605762 -0.000258395889069 -0.000149381106019 0.0156155963409
Sb -4.214217762 2.4330797971 1.9418748654 -0 2.57110337382e-07 0.00952156712425
Sb 2.0998262088 -1.212331785 1.8297605762 0.000258395889069 -0.000149123995681 0.0156155963409
Sb 0 0 -11.7784227613 0 -0 -0.0158757920023
Sb -2.0442257185 -3.6859218598 -12.2557612203 -0.024220308002 0.0139834599192 -0.03158806183
Sb -4.214217762 0.0726112482 -12.2557612203 -0 -0.0279671769487 -0.03158806183
Sb -2.1699920107 3.6133140716 -12.2557612203 0.024220308002 0.0139834599192 -0.03158806183
Sb 0 0 11.1434306569 0 0 -0.0364029671182
Sb -2.5259598595 -3.4077924242 12.5572431803 0.26229136779 -0.151434132063 -0.317690675075
Sb 4.2142178275 -0.4836476227 12.5572431803 0 0.302866207243 -0.317689389524
Sb 2.5259598595 -3.4077924242 12.5572431803 -0.26229136779 -0.151434132063 -0.317690675075
Sb 2.1079035819 1.2169987002 -1.8886806894 0.00312311926817 0.00180311479606 -0.00868364453473
Sb 3.27e-08 -2.4339939402 -1.8886806894 -0 -0.00360622959211 -0.00868338742439
Sb -2.1079035164 1.2169987002 -1.8886806894 -0.00312311926817 0.00180311479606 -0.00868364453473
Sb 4.2142177948 -2.4330763371 -1.8286222802 0 -0 -0.011877726256
Sb 2.0290332909 1.1714628978 -8.7431320994 0.0116368138699 0.00671855022612 0.0143333870884
Sb 3.27e-08 -2.3429223354 -8.7431320994 0 -0.0134368433419 0.0143336441987
Sb -2.0290332254 1.1714628978 -8.7431320994 -0.0116368138699 0.00671855022612 0.0143333870884
Sb 4.2142177948 -2.4330763371 -8.096278523 0 -0 0.0129812438241
Cr -4.2142177948 -2.4330763371 14.7762839985 -0 1.79977236167e-06 0.990033693108
61
Lattice="8.42843558953 0 0 -4.21421779477 7.29923593142 0 0 0 31.0334408416" Properties=species:S:1:pos:R:3:forces:R:3 energy=-133598.22839 ionic_step=40 pbc="T T T"
Te 2.0570042464 1.1876119425 3.4394726095 0.0238210156481 0.0137533461672 0.0205567428047
Te 3.27e-08 -2.3752204247 3.4394726095 -0 -0.0275064352241 0.0205567428047
Te -2.0570041809 1.1876119425 3.4394726095 -0.0238210156481 0.0137533461672 0.0205567428047
Te 4.2142177948 -2.4330763371 3.3303350194 0 -2.57110337382e-07 -0.0107960630667
Te 0 0 6.9021890451 0 2.57110337382e-07 -0.00336351743363
Te -2.4295990062 -3.4634263927 6.9747297242 0.0354850832137 -0.0204875801239 -0.020345912328
Te -4.214217762 -0.3723796861 6.9747297242 -0 0.0409746460272 -0.0203456552177
Te -1.7846187885 3.8358095388 6.9747297242 -0.0354850832137 -0.0204875801239 -0.020345912328
Te -0 0 -0.0552507049 0 2.57110337382e-07 -0.00102741290818
Te -2.0657307145 -3.6735059424 -0.0226779309 -0.00976453639308 0.00563714414709 0.00255361987087
Te -4.214217762 0.0477794133 -0.0226779309 -0 -0.0112748025149 0.00255361987087
Te 2.0657307145 -3.6735059424 -0.0226779309 0.00976453639308 0.00563714414709 0.00255361987087
Te 0 2.3741699736 14.5057913677 0 -0.0528428592007 -0.0390704868685
Te -2.0560914322 -1.1870815268 14.5057913677 0.0457633260609 0.0264214296003 -0.0390702297582
Te -4.214217762 2.4330797971 12.9676876396 -0 2.57110337382e-07 0.0308637820096
Te 2.0560914323 -1.1870815268 14.5057913677 -0.0457633260609 0.0264214296003 -0.0390702297582
Te 1.8408504719 1.062815442 -13.6941454569 0.0512192074201 0.0295715454539 -0.00799253194785
Te 3.27e-08 -2.1256274239 -13.6941454569 -0 -0.0591428337976 -0.00799253194785
Te -1.8408504063 1.062815442 -13.6941454569 -0.0512192074201 0.0295715454539 -0.00799253194785
Te 4.2142177948 -2.4330763371 -13.7212950366 0 -2.57110337382e-07 0.0861479038638
Te 2.3790605015 1.3735512916 10.3015960171 -0.0545529000546 -0.0314960163292 0.0355961548795
Te 3.27e-08 -2.7470991232 10.3015960171 -0 0.0629920326585 0.0355961548795
Te -2.379060436 1.3735512917 10.3015960171 0.0545529000546 -0.0314960163292 0.0355961548795
Te 4.2142177948 -2.4330763371 10.1417740591 0 -2.57110337382e-07 0.0737243323615
Te -0 -0 -6.9915968443 0 2.57110337382e-07 -0.0113035988726
Te -1.8180325855 -3.8165145897 -7.1111080916 -0.0367816906451 0.0212357712057 0.0258159347558
Te 4.2142178275 0.3337967079 -7.1111080916 -0 -0.0424717995217 0.0258159347558
Te 1.8180325855 -3.8165145897 -7.1111080916 0.0367816906451 0.0212357712057 0.0258159347558
Te -0 2.4849056302 -3.4623084501 0 -0.00871244089251 -0.0286809152453
Te -2.1519913489 -1.242449355 -3.4623084501 0.00754541707114 0.00435622044626 -0.0286809152453
Te -4.214217762 2.4330797971 -3.4382936465 -0 2.57110337382e-07 -0.000580555141808
Te 2.1519913489 -1.242449355 -3.4623084501 -0.00754541707114 0.00435622044626 -0.0286809152453
Te 0 2.7422700647 -10.3513387145 0 -0.0347710878068 -0.00130869161727
Te -2.3748753835 -1.3711315723 -10.3513387145 0.0301127627141 0.0173855439034 -0.00130869161727
Te -4.214217762 2.4330797971 -10.4070487893 -0 2.57110337382e-07 -0.0429070873229
Te 2.3748753835 -1.3711315723 -10.3513387145 -0.0301127627141 0.0173855439034 -0.00130869161727
Sb -0 2.3273561694 8.6502427513 0 0.0236145560472 0.00319151061792
Sb -2.0155495707 -1.1636746247 8.6502427513 -0.0204505562353 -0.0118072780236 0.00319151061792
Sb -4.214217762 2.4330797971 7.5782535251 -0 2.57110337382e-07 -0.0659421166696
Sb 2.0155495707 -1.1636746247 8.6502427513 0.0204505562353 -0.0118072780236 0.00319151061792
Sb 0 2.4292815161 1.8238479766 0 -0.00010901478305 0.0173652321868
Sb -2.1038194726 -1.214637298 1.8238479766 9.43594938191e-05 5.45073915249e-05 0.0173652321868
Sb -4.214217762 2.4330797971 1.9487594315 -0 2.57110337382e-07 0.0111159083264
Sb 2.1038194726 -1.214637298 1.8238479766 -9.43594938191e-05 5.45073915249e-05 0.0173652321868
Sb 0 0 -11.7129461874 0 -0 -0.00959561490142
Sb -2.0499143401 -3.6826375311 -12.2500217724 -0.0240822397509 0.0139037557146 -0.0319549582815
Sb -4.214217762 0.0660425908 -12.2500217724 -0 -0.0278075114292 -0.0319549582815
Sb -2.1643033891 3.6165984003 -12.2500217724 0.0240822397509 0.0139037557146 -0.0319549582815
Sb 0 0 11.0804829822 0 0 -0.0243396071986
Sb -2.5208927564 -3.4107179189 12.5612245741 0.258925279253 -0.149490635022 -0.311631355754
Sb 4.2142178275 -0.4777966333 12.5612245741 0 0.298979470273 -0.311630070203
Sb 2.5208927564 -3.4107179189 12.5612245741 -0.258925279253 -0.149490635022 -0.311631355754
Sb 2.1087609741 1.217493716 -1.8768624793 0.00331800890391 0.00191572912383 -0.00877851824922
Sb 3.27e-08 -2.4349839719 -1.8768624793 -0 -0.00383145824766 -0.00877826113888
Sb -2.1087609085 1.217493716 -1.8768624793 -0.00331800890391 0.00191572912383 -0.00877851824922
Sb 4.2142177948 -2.4330763371 -1.818994055 0 -0 -0.0129131095847
Sb 2.0267999243 1.1701734624 -8.7467656087 0.0113820175255 0.00657148311314 0.012364693235
Sb 3.27e-08 -2.3403434647 -8.7467656087 -0 -0.0131429662263 0.012364693235
Sb -2.0267998589 1.1701734624 -8.7467656087 -0.0113820175255 0.00657148311314 0.012364693235
Sb 4.2142177948 -2.4330763371 -8.0690400046 0 -0 0.0133070026215
Cr -4.2142177948 -2.4330763371 14.7752078703 -0 1.79977236167e-06 0.964567428411
61
Lattice="8.42843558953 0 0 -4.21421779477 7.29923593142 0 0 0 31.0334408416" Properties=species:S:1:pos:R:3:forces:R:3 energy=-133598.286167 ionic_step=41 pbc="T T T"
Te 2.0482044124 1.1825313535 3.4262904197 0.0257580849299 0.0148715190245 0.0210887040927
Te 3.27e-08 -2.3650592469 3.4262904197 -0 -0.029743038049 0.0210887040927
Te -2.0482043468 1.1825313535 3.4262904197 -0.0257580849299 0.0148715190245 0.0210887040927
Te 4.2142177948 -2.4330763371 3.3144070753 0 -2.57110337382e-07 -0.0139351231757
Te 0 0 6.9144485314 0 2.57110337382e-07 -0.0157518648197
Te -2.4439686434 -3.4551300749 6.9480572574 0.0330258228367 -0.0190675597306 -0.0217299372741
Te -4.214217762 -0.3889723216 6.9480572574 -0 0.0381348623508 -0.0217299372741
Te -1.7702491514 3.8441058565 6.9480572574 -0.0330258228367 -0.0190675597306 -0.0217299372741
Te -0 0 -0.0695633736 0 2.57110337382e-07 -0.000463569938299
Te -2.0586861365 -3.6775731333 -0.0319262665 -0.0114280402759 0.00659770836755 0.00410579497765
Te -4.214217762 0.0559137951 -0.0319262665 -0 -0.0131956738454 0.00410579497765
Te 2.0586861365 -3.6775731333 -0.0319262665 0.0114280402759 0.00659770836755 0.00410579497765
Te 0 2.3822443158 14.5000158788 0 -0.0463030006591 -0.0441291327565
Te -2.0630840145 -1.1911186979 14.5000158788 0.0400996995491 0.0231515003295 -0.0441288756462
Te -4.214217762 2.4330797971 12.9944393665 -0 2.57110337382e-07 0.0336058637578
Te 2.0630840145 -1.1911186979 14.5000158788 -0.0400996995491 0.0231515003295 -0.0441288756462
Te 1.8032822818 1.0411254273 -13.6389642008 0.0471278106214 0.0272094727844 -0.00344167897619
Te 3.27e-08 -2.0822473943 -13.6389642008 -0 -0.0544186884585 -0.00344142186585
Te -1.8032822163 1.0411254273 -13.6389642008 -0.0471278106214 0.0272094727844 -0.00344167897619
Te 4.2142177948 -2.4330763371 -13.7088008519 0 -2.57110337382e-07 0.0856215990031
Te 2.4002848034 1.3858051538 10.2516227287 -0.0513292506445 -0.0296347945969 0.0345594859992
Te 3.27e-08 -2.7716068475 10.2516227287 -0 0.0592695891939 0.0345594859992
Te -2.4002847379 1.3858051538 10.2516227287 0.0513292506445 -0.0296347945969 0.0345594859992
Te 4.2142177948 -2.4330763371 10.1372959253 0 -2.57110337382e-07 0.0743408829505
Te -0 -0 -6.9858213882 0 2.57110337382e-07 -0.00890887319027
Te -1.8029227498 -3.8252382615 -7.1049409345 -0.0346638727961 0.0200129544411 0.0265664398306
Te 4.2142178275 0.3512440514 -7.1049409345 -0 -0.0400264231029 0.0265664398306
Te 1.8029227498 -3.8252382615 -7.1049409344 0.0346638727961 0.0200129544411 0.0265664398306
Te -0 2.4910339354 -3.4508533379 0 -0.0101540585542 -0.0317369287154
Te -2.1572986145 -1.2455135076 -3.4508533379 0.00879394486946 0.00507690072194 -0.0317369287154
Te -4.214217762 2.4330797971 -3.4295525369 -0 2.57110337382e-07 -0.00164910570397
Te 2.1572986145 -1.2455135076 -3.4508533379 -0.00879394486946 0.00507690072194 -0.0317369287154
Te 0 2.7737831164 -10.317213301 0 -0.0294219072376 -0.000436059132199
Te -2.4021664741 -1.3868880982 -10.317213301 0.0254801486552 0.0147108250636 -0.000436059132199
Te -4.214217762 2.4330797971 -10.3891625317 -0 2.57110337382e-07 -0.0423411874703
Te 2.4021664741 -1.3868880982 -10.317213301 -0.0254801486552 0.0147108250636 -0.000436059132199
Sb -0 2.3352574439 8.6359747937 0 0.0232003512936 0.00426443205581
Sb -2.0223922719 -1.1676252619 8.6359747937 -0.0200918873147 -0.0116000470916 0.00426443205581
Sb -4.214217762 2.4330797971 7.4679019332 -0 2.57110337382e-07 -0.0712416749437
Sb 2.0223922719 -1.1676252619 8.6359747937 0.0200918873147 -0.0116000470916 0.00426443205581
Sb 0 2.4349760274 1.8134978584 0 -0.000609608609932 0.0198250067845
Sb -2.1087510617 -1.2174845537 1.8134978584 0.000527847522644 0.000304675749797 0.0198252638948
Sb -4.214217762 2.4330797971 1.9586410389 -0 2.57110337382e-07 0.0134214167217
Sb 2.1087510617 -1.2174845537 1.8134978584 -0.000527847522644 0.000304675749797 0.0198252638948
Sb 0 0 -11.6093250471 0 0 -0.000946680262239
Sb -2.0560204223 -3.6791121812 -12.2444167104 -0.0240966379297 0.0139119832454 -0.0331050128206
Sb -4.214217762 0.058991891 -12.2444167104 -0 -0.0278242236011 -0.0331050128206
Sb -2.1581973069 3.6201237502 -12.2444167104 0.0240966379297 0.0139119832454 -0.0331050128206
Sb 0 0 10.9853218422 0 0 -0.00570836371055
Sb -2.5119335579 -3.415890517 12.565445792 0.229738885085 -0.132639880621 -0.270747726787
Sb 4.2142178275 -0.4674514371 12.565445792 0 0.265277704359 -0.270746698345
Sb 2.5119335579 -3.415890517 12.565445792 -0.229738885085 -0.132639880621 -0.270747726787
Sb 2.1098303392 1.2181111145 -1.8613935261 0.00365996565263 0.00211318986294 -0.00912278899097
Sb 3.27e-08 -2.4362187689 -1.8613935261 -0 -0.00422612261554 -0.00912278899097
Sb -2.1098302736 1.2181111145 -1.8613935261 -0.00365996565263 0.00211318986294 -0.00912304610131
Sb 4.2142177948 -2.4330763371 -1.8051127448 0 -0 -0.0145431891237
Sb 2.02355008 1.1682971631 -8.7525289276 0.0108289731898 0.00625215207411 0.00910144883297
Sb 3.27e-08 -2.336590866 -8.7525289276 -0 -0.0125043041482 0.00910144883297
Sb -2.0235500145 1.1682971631 -8.7525289276 -0.0108289731898 0.00625215207411 0.00910144883297
Sb 4.2142177948 -2.4330763371 -8.0263342673 0 -0 0.0139623768715
Cr -4.2142177948 -2.4330763371 14.7704683095 -0 1.54266202429e-06 0.83935006612
61
Lattice="8.42843558953 0 0 -4.21421779477 7.29923593142 0 0 0 31.0334408416" Properties=species:S:1:pos:R:3:forces:R:3 energy=-133598.362658 ionic_step=42 pbc="T T T"
Te 2.0343781212 1.1745487369 3.4071913607 0.0281589812604 0.0162578579637 0.0203142877565
Te 3.27e-08 -2.3490940136 3.4071913607 -0 -0.032515458817 0.0203142877565
Te -2.0343780556 1.1745487369 3.4071913607 -0.0281589812604 0.0162578579637 0.0203142877565
Te 4.2142177948 -2.4330763371 3.2946644746 0 -2.57110337382e-07 -0.0190971274194
Te 0 0 6.9237066651 0 2.57110337382e-07 -0.0278373362283
Te -2.4652436612 -3.4428469319 6.9050833994 0.0293031222617 -0.01691811731 -0.0232872545877
Te -4.214217762 -0.4135386077 6.9050833994 -0 0.0338362346201 -0.0232869974773
Te -1.7489741335 3.8563889995 6.9050833994 -0.0293031222617 -0.01691811731 -0.0232872545877
Te -0 0 -0.0903792665 0 2.57110337382e-07 0.000166093277949
Te -2.0478450953 -3.6838322142 -0.0443577808 -0.0138299650478 0.00798430441705 0.00624186766061
Te -4.214217762 0.068431957 -0.0443577808 -0 -0.0159691230548 0.00624186766061
Te 2.0478450953 -3.6838322142 -0.0443577808 0.0138299650478 0.00798430441705 0.00624186766061
Te 0 2.39082578 14.494439621 0 -0.0347757157929 -0.0512999400661
Te -2.070515777 -1.19540943 14.494439621 0.0301168764795 0.0173878578964 -0.0512999400661
Te -4.214217762 2.4330797971 13.0422640566 -0 2.57110337382e-07 0.0391154811776
Te 2.070515777 -1.19540943 14.494439621 -0.0301168764795 0.0173878578964 -0.0512999400661
Te 1.7416052418 1.005516155 -13.5507292619 0.0383618907787 0.0221482557931 0.00269605899778
Te 3.27e-08 -2.0110288498 -13.5507292619 -0 -0.0442965115861 0.00269631610812
Te -1.7416051762 1.005516155 -13.5507292619 -0.0383618907787 0.0221482557931 0.00269605899778
Te 4.2142177948 -2.4330763371 -13.6934603537 0 -2.57110337382e-07 0.0726254427795
Te 2.4343326671 1.4054627062 10.1754573009 -0.0456566252709 -0.0263597231194 0.0318276886645
Te 3.27e-08 -2.8109219524 10.1754573009 -0 0.0527194462388 0.0318279457748
Te -2.4343326016 1.4054627062 10.1754573009 0.0456566252709 -0.0263597231194 0.0318276886645
Te 4.2142177948 -2.4330763371 10.1281226239 0 -2.57110337382e-07 0.0753153311292
Te -0 -0 -6.9808159191 0 2.57110337382e-07 -0.000840493692901
Te -1.7787621133 -3.839187418 -7.0897393765 -0.0312052245377 0.018016235561 0.0267718709902
Te 4.2142178275 0.3791423645 -7.0897393765 -0 -0.0360327282323 0.0267718709902
Te 1.7787621133 -3.839187418 -7.0897393765 0.0312052245377 0.018016235561 0.0267718709902
Te -0 2.5014927288 -3.433649867 0 -0.0128092370084 -0.0358216406454
Te -2.1663561909 -1.2507429043 -3.433649867 0.011093539727 0.00640461850418 -0.0358216406454
Te -4.214217762 2.4330797971 -3.4202752522 -0 2.57110337382e-07 -0.00137348342229
Te 2.1663561909 -1.2507429043 -3.433649867 -0.011093539727 0.00640461850418 -0.0358216406454
Te 0 2.8221255432 -10.2647322401 0 -0.0196869385333 0.00130920583795
Te -2.4440322242 -1.4110593116 -10.2647322401 0.0170495006925 0.00984346926666 0.00130920583795
Te -4.214217762 2.4330797971 -10.369073973 -0 2.57110337382e-07 -0.0412664662601
Te 2.4440322242 -1.4110593116 -10.2647322401 -0.0170495006925 0.00984346926666 0.00130920583795
Sb -0 2.3460940978 8.6144020935 0 0.0225346926302 0.00526741948194
Sb -2.0317770852 -1.1730435889 8.6144020935 -0.0195154459383 -0.0112673463151 0.00526741948194
Sb -4.214217762 2.4330797971 7.3026249185 -0 2.57110337382e-07 -0.0752960478539
Sb 2.0317770852 -1.1730435889 8.6144020935 0.0195154459383 -0.0112673463151 0.00526741948194
Sb 0 2.4414379287 1.7972181634 0 -0.00122255965425 0.023268485533
Sb -2.1143472298 -1.2207155043 1.7972181634 0.00105903747967 0.000611408382294 0.0232687426434
Sb -4.214217762 2.4330797971 1.9726345561 -0 2.57110337382e-07 0.0169589978537
Sb 2.1143472298 -1.2207155043 1.7972181634 -0.00105903747967 0.000611408382294 0.0232687426434
Sb 0 0 -11.4437976593 0 0 0.00766034539195
Sb -2.0615707062 -3.6759077218 -12.2402979307 -0.0242712158488 0.0140127704976 -0.0353110195153
Sb -4.214217762 0.0525829722 -12.2402979307 -0 -0.0280260552159 -0.0353110195153
Sb -2.152647023 3.6233282096 -12.2402979307 0.0242712158488 0.0140127704976 -0.0353110195153
Sb 0 0 10.8364163225 0 0 0.0210043719021
Sb -2.5006334917 -3.4224146163 12.5700919477 0.167921075337 -0.0969493662475 -0.188850885241
Sb 4.2142178275 -0.4544032385 12.5700919477 0 0.193897189833 -0.18885011391
Sb 2.5006334917 -3.4224146163 12.5700919477 -0.167921075337 -0.0969493662475 -0.188850885241
Sb 2.111747682 1.2192180934 -1.8414493082 0.00415824548647 0.00240089633047 -0.00976376506207
Sb 3.27e-08 -2.4384327267 -1.8414493082 -0 -0.0048015355506 -0.00976350795173
Sb -2.1117476165 1.2192180934 -1.8414493082 -0.00415824548647 0.00240089633047 -0.00976376506207
Sb 4.2142177948 -2.4330763371 -1.7833713654 0 -0 -0.0167941901274
Sb 2.0198734999 1.1661744875 -8.761976308 0.00966991978892 0.0055828938659 0.00437318972852
Sb 3.27e-08 -2.3323455149 -8.761976308 -0 -0.0111657877318 0.00437344683886
Sb -2.0198734344 1.1661744875 -8.761976308 -0.00966991978892 0.0055828938659 0.00437318972852
Sb 4.2142177948 -2.4330763371 -7.9588652462 0 -0 0.0153821401545
Cr -4.2142177948 -2.4330763371 14.7640038306 -0 1.28555168691e-06 0.601067918745
61
Lattice="8.42843558953 0 0 -4.21421779477 7.29923593142 0 0 0 31.0334408416" Properties=species:S:1:pos:R:3:forces:R:3 energy=-133598.44339 ionic_step=43 pbc="T T T"
Te 2.0246012601 1.1689040609 3.3940923756 0.0291879368306 0.016851782843 0.017674021702
Te 3.27e-08 -2.3378046616 3.3940923756 -0 -0.033703565686 0.017674021702
Te -2.0246011946 1.1689040609 3.3940923756 -0.0291879368306 0.016851782843 0.017674021702
Te 4.2142177948 -2.4330763371 3.288008813 0 -2.57110337382e-07 -0.0227907745262
Te 0 0 6.9138370636 0 2.57110337382e-07 -0.0312527899501
Te -2.4697934283 -3.4402201214 6.8642578808 0.0279149835502 -0.0161167043884 -0.0236924604794
Te -4.214217762 -0.4187922286 6.8642578808 -0 0.0322334087769 -0.0236924604794
Te -1.7444243665 3.85901581 6.8642578808 -0.0279149835502 -0.0161167043884 -0.0236924604794
Te -0 0 -0.1025363821 0 2.57110337382e-07 0.000430402704777
Te -2.0408512798 -3.6878700974 -0.048162675 -0.0152903517641 0.00882762632366 0.00743948761214
Te -4.214217762 0.0765077233 -0.048162675 -0 -0.0176555097577 0.00743948761214
Te 2.0408512798 -3.6878700974 -0.048162675 0.0152903517641 0.00882762632366 0.00743948761214
Te -0 2.3896770665 14.4811951761 0 -0.0267021940888 -0.0555132071647
Te -2.0695209624 -1.1948350733 14.4811951761 0.0231250179648 0.0133509684892 -0.0555132071647
Te -4.214217762 2.4330797971 13.1121097728 -0 2.57110337382e-07 0.0466087048502
Te 2.0695209624 -1.1948350733 14.4811951761 -0.0231250179648 0.0133509684892 -0.0555132071647
Te 1.6979082244 0.9802876585 -13.4723822813 0.0316009173469 0.0182448066509 0.00612719645014
Te 3.27e-08 -1.9605718567 -13.4723822814 -0 -0.0364896133019 0.00612719645014
Te -1.6979081588 0.9802876585 -13.4723822813 -0.0316009173469 0.0182448066509 0.00612719645014
Te 4.2142177948 -2.4330763371 -13.6987239191 0 -2.57110337382e-07 0.0596208019148
Te 2.453951244 1.4167895022 10.1142016662 -0.0425065094173 -0.0245409245927 0.0284793407408
Te 3.27e-08 -2.8335755442 10.1142016662 -0 0.0490821062958 0.0284793407408
Te -2.4539511785 1.4167895022 10.1142016662 0.0425065094173 -0.0245409245927 0.0284793407408
Te 4.2142177948 -2.4330763371 10.1243229081 0 -2.57110337382e-07 0.0768597929259
Te -0 -0 -6.9780354927 0 2.57110337382e-07 0.0106685363393
Te -1.76850194 -3.8451111345 -7.0618995804 -0.029784947034 0.0171960535848 0.025889211202
Te 4.2142178275 0.3909897975 -7.0618995804 -0 -0.0343926213902 0.025889211202
Te 1.76850194 -3.8451111345 -7.0618995804 0.029784947034 0.0171960535848 0.025889211202
Te -0 2.5109215881 -3.418817564 0 -0.0155770297903 -0.0372763709343
Te -2.1745218188 -1.255457334 -3.418817564 0.0134903222921 0.00778838633996 -0.0372763709343
Te -4.214217762 2.4330797971 -3.4169004805 -0 2.57110337382e-07 0.00131511937571
Te 2.1745218188 -1.255457334 -3.418817564 -0.0134903222921 0.00778838633996 -0.0372763709343
Te 0 2.8467212449 -10.2236753108 0 -0.0130252096918 0.00331826601425
Te -2.4653327168 -1.4233571624 -10.2236753108 0.0112802018319 0.00651260484588 0.00331826601425
Te -4.214217762 2.4330797971 -10.3526640775 -0 2.57110337382e-07 -0.0389038793699
Te 2.4653327168 -1.4233571624 -10.2236753108 -0.0112802018319 0.00651260484588 0.00331826601425
Sb -0 2.3561371626 8.5912854415 0 0.0218590066635 0.00566002696712
Sb -2.0404746303 -1.1780651213 8.5912854415 -0.0189302628104 -0.0109295033318 0.00566002696712
Sb -4.214217762 2.4330797971 7.1961404259 -0 2.57110337382e-07 -0.0748072811025
Sb 2.0404746303 -1.1780651213 8.5912854415 0.0189302628104 -0.0109295033318 0.00566002696712
Sb 0 2.4440465827 1.7815693287 0 -0.00160231162256 0.0254025013333
Sb -2.1166063894 -1.2220198313 1.7815693287 0.00138762449085 0.000801155811281 0.0254025013333
Sb -4.214217762 2.4330797971 1.9789027735 -0 2.57110337382e-07 0.0193771205768
Sb 2.1166063894 -1.2220198313 1.7815693287 -0.00138762449085 0.000801155811281 0.0254025013333
Sb 0 0 -11.3097684046 0 0 0.0093320768056
Sb -2.0617266292 -3.6758176996 -12.2479156083 -0.0241994820647 0.0139713757333 -0.037429351585
Sb -4.214217762 0.0524029278 -12.2479156083 -0 -0.027943008577 -0.037429351585
Sb -2.1524911 3.6234182318 -12.2479156083 0.0241994820647 0.0139713757333 -0.037429351585
Sb 0 0 10.7335858511 0 0 0.033747017333
Sb -2.4847574897 -3.4315806346 12.5701273436 0.127878454283 -0.0738307760412 -0.134625286646
Sb 4.2142178275 -0.4360712019 12.5701273436 0 0.147660266531 -0.134624772425
Sb 2.4847574897 -3.4315806346 12.5701273436 -0.127878454283 -0.0738307760412 -0.134625286646
Sb 2.1135307803 1.2202475662 -1.8321633021 0.00448426139427 0.00258910109743 -0.0108264020865
Sb 3.27e-08 -2.4404916722 -1.8321633021 -0 -0.00517794508453 -0.0108264020865
Sb -2.1135307147 1.2202475662 -1.8321633021 -0.00448426139427 0.00258910109743 -0.0108264020865
Sb 4.2142177948 -2.4330763371 -1.7661733215 0 -0 -0.018756199112
Sb 2.0213883034 1.1670490602 -8.7663978765 0.00858568549618 0.00495708730472 0.00119067797241
Sb 3.27e-08 -2.3340946602 -8.7663978765 -0 -0.0099139174991 0.00119067797241
Sb -2.0213882379 1.1670490602 -8.7663978765 -0.00858568549618 0.00495708730472 0.00119067797241
Sb 4.2142177948 -2.4330763371 -7.9099355935 0 -0 0.0167026588473
Cr -4.2142177948 -2.4330763371 14.7471388741 -0 7.71331012145e-07 0.446395224872
61
Lattice="8.42843558953 0 0 -4.21421779477 7.29923593142 0 0 0 31.0334408416" Properties=species:S:1:pos:R:3:forces:R:3 energy=-133598.590503 ionic_step=44 pbc="T T T"
Te 2.0176781164 1.1649069801 3.3884764908 0.0303205078667 0.0175058715413 0.0140837329508
Te 3.27e-08 -2.3298105 3.3884764908 -0 -0.0350114859723 0.0140837329508
Te -2.0176780508 1.1649069801 3.3884764908 -0.0303205078667 0.0175058715413 0.0140837329508
Te 4.2142177948 -2.4330763371 3.2998672549 0 -2.57110337382e-07 -0.0255925058726
Te 0 0 6.8713186368 0 2.57110337382e-07 -0.0268672589254
Te -2.4635266931 -3.4438382244 6.824757636 0.0282240301757 -0.0162953960729 -0.0223115208573
Te -4.214217762 -0.4115560227 6.824757636 -0 0.0325902779251 -0.0223115208573
Te -1.7506911016 3.8553977071 6.824757636 -0.0282240301757 -0.0162953960729 -0.0223115208573
Te -0 0 -0.1051194429 0 2.57110337382e-07 0.000264309426828
Te -2.0367117574 -3.6902600529 -0.040917527 -0.0161421583118 0.00931947839907 0.00764980386812
Te -4.214217762 0.0812876343 -0.040917527 -0 -0.0186392139085 0.00764980386812
Te 2.0367117574 -3.6902600529 -0.040917527 0.0161421583118 0.00931947839907 0.00764980386812
Te -0 2.3750206742 14.4730644811 0 -0.018608360668 -0.0567028566958
Te -2.0568281603 -1.1875068771 14.4730644811 0.0161154188367 0.00930405177883 -0.0567025995855
Te -4.214217762 2.4330797971 13.1994537021 -0 2.57110337382e-07 0.0552057032012
Te 2.0568281603 -1.1875068771 14.4730644811 -0.0161154188367 0.00930405177883 -0.0567025995855
Te 1.6610941547 0.9590330355 -13.3974281117 0.0253780758513 0.0146522039067 0.00641490291767
Te 3.27e-08 -1.9180626109 -13.3974281117 -0 -0.0293041507031 0.00641490291767
Te -1.6610940892 0.9590330355 -13.3974281117 -0.0253780758513 0.0146522039067 0.00641490291767
Te 4.2142177948 -2.4330763371 -13.7217241383 0 -2.57110337382e-07 0.0450030507933
Te 2.4659387963 1.4237105219 10.0698072005 -0.0414215037935 -0.0239146038109 0.0238174161033
Te 3.27e-08 -2.8474175838 10.0698072005 -0 0.0478294647321 0.0238176732137
Te -2.4659387308 1.4237105219 10.0698072005 0.0414215037935 -0.0239146038109 0.0238174161033
Te 4.2142177948 -2.4330763371 10.1195652847 0 -2.57110337382e-07 0.0779602251698
Te -0 -0 -6.9871220359 0 2.57110337382e-07 0.0249237618851
Te -1.7643254995 -3.8475224047 -7.0169516817 -0.0295941711636 0.0170860103604 0.0233026812079
Te 4.2142178275 0.3958123379 -7.0169516817 -0 -0.0341722778311 0.0233026812079
Te 1.7643254995 -3.8475224047 -7.0169516817 0.0295941711636 0.0170860103604 0.0233026812079
Te -0 2.5219030838 -3.4074218969 0 -0.0195121035039 -0.0361553698633
Te -2.1840320686 -1.2609480818 -3.4074218969 0.0168983198141 0.00975605175195 -0.0361553698633
Te -4.214217762 2.4330797971 -3.4263362012 -0 2.57110337382e-07 0.00805886641489
Te 2.1840320686 -1.2609480818 -3.4074218969 -0.0168983198141 0.00975605175195 -0.0361553698633
Te 0 2.8541018232 -10.1953921785 0 -0.0084111075771 0.00579321012188
Te -2.4717244821 -1.4270474516 -10.1953921785 0.00728419296836 0.00420555378855 0.00579321012188
Te -4.214217762 2.4330797971 -10.3570170024 -0 2.57110337382e-07 -0.0353462436315
Te 2.4717244821 -1.4270474516 -10.1953921785 -0.00728419296836 0.00420555378855 0.00579321012188
Sb -0 2.3611391213 8.570254058 0 0.021464599406 0.0056970508557
Sb -2.0448064516 -1.1805661006 8.570254058 -0.0185888202824 -0.010732299703 0.0056970508557
Sb -4.214217762 2.4330797971 7.1511072535 -0 2.57110337382e-07 -0.073590634986
Sb 2.0448064516 -1.1805661006 8.570254058 0.0185888202824 -0.010732299703 0.0056970508557
Sb 0 2.4392648806 1.7661480651 0 -0.00164164950418 0.0259840849165
Sb -2.1124653159 -1.2196289803 1.7661480651 0.00142182016572 0.00082095330726 0.0259840849165
Sb -4.214217762 2.4330797971 1.976365441 -0 2.57110337382e-07 0.0197602149795
Sb 2.1124653159 -1.2196289803 1.7661480651 -0.00142182016572 0.00082095330726 0.0259840849165
Sb 0 0 -11.1966458159 0 0 0.0066007936916
Sb -2.0505573017 -3.6822663168 -12.2729301461 -0.0245949177636 0.0141996897129 -0.0400698747499
Sb -4.214217762 0.0653001622 -12.2729301461 -0 -0.0283998936465 -0.0400698747499
Sb -2.1636604275 3.6169696146 -12.2729301461 0.0245949177636 0.0141996897129 -0.0400698747499
Sb 0 0 10.6599721629 0 0 0.0403328986251
Sb -2.474571294 -3.4374616402 12.5630899776 0.0973769407386 -0.0562207748132 -0.0952555233448
Sb 4.2142178275 -0.4243091908 12.5630899776 0 0.112440521185 -0.0952550091242
Sb 2.474571294 -3.4374616402 12.5630899776 -0.0973769407386 -0.0562207748132 -0.0952555233448
Sb 2.1158693685 1.2215977514 -1.8404226064 0.00462567207983 0.00267086218472 -0.012446197212
Sb 3.27e-08 -2.4431920425 -1.8404226064 -0 -0.0053414672591 -0.0124459401016
Sb -2.1158693029 1.2215977514 -1.8404226064 -0.00462567207983 0.00267086218472 -0.012446197212
Sb 4.2142177948 -2.4330763371 -1.751287521 0 -0 -0.0203019464603
Sb 2.0306557154 1.1723996055 -8.7686459397 0.00724074132134 0.00418035697549 -0.000751019295492
Sb 3.27e-08 -2.3447957508 -8.7686459397 -0 -0.00836071395098 -0.000751019295492
Sb -2.0306556499 1.1723996055 -8.7686459397 -0.00724074132134 0.00418035697549 -0.000751019295492
Sb 4.2142177948 -2.4330763371 -7.8722182857 0 -0 0.018437639404
Cr -4.2142177948 -2.4330763371 14.7286110961 -0 7.71331012145e-07 0.337998277963
61
Lattice="8.42843558953 0 0 -4.21421779477 7.29923593142 0 0 0 31.0334408416" Properties=species:S:1:pos:R:3:forces:R:3 energy=-133598.739249 ionic_step=45 pbc="T T T"
Te 2.0140941529 1.1628377769 3.3988911017 0.0319613860399 0.0184530660242 0.011495917405
Te 3.27e-08 -2.3256720935 3.3988911017 -0 -0.0369061320484 0.011495917405
Te -2.0140940873 1.1628377769 3.3988911017 -0.0319613860399 0.0184530660242 0.011495917405
Te 4.2142177948 -2.4330763371 3.3269372099 0 -2.57110337382e-07 -0.0273709380763
Te 0 0 6.8127322623 0 2.57110337382e-07 -0.0150733506393
Te -2.4689072327 -3.440731767 6.803498435 0.0276146786761 -0.015943412021 -0.01920434243
Te -4.214217762 -0.4177689375 6.803498435 -0 0.0318868240421 -0.01920434243
Te -1.7453105621 3.8585041645 6.803498435 -0.0276146786761 -0.015943412021 -0.01920434243
Te -0 0 -0.0965195045 0 2.57110337382e-07 -0.000507792916329
Te -2.0349779728 -3.6912610544 -0.0245588273 -0.0164964563567 0.00952388111729 0.00660207924329
Te -4.214217762 0.0832896373 -0.0245588273 -0 -0.0190482764553 0.00660207924329
Te 2.0349779728 -3.6912610544 -0.0245588273 0.0164964563567 0.00952388111729 0.00660207924329
Te 0 2.3557667365 14.4890300821 0 -0.0103818583131 -0.0548573186941
Te -2.0401537689 -1.1778799083 14.4890300821 0.00899114849824 0.0051908006014 -0.0548573186941
Te -4.214217762 2.4330797971 13.2384888211 -0 2.57110337382e-07 0.0590947541645
Te 2.0401537689 -1.1778799083 14.4890300821 -0.00899114849824 0.0051908006014 -0.0548573186941
Te 1.6338144509 0.9432830838 -13.3544616524 0.0202541239376 0.0116938923648 0.0048290463567
Te 3.27e-08 -1.8865627075 -13.3544616524 -0 -0.0233872705089 0.0048290463567
Te -1.6338143854 0.9432830838 -13.3544616524 -0.0202541239376 0.0116938923648 0.0048290463567
Te 4.2142177948 -2.4330763371 -13.7471712118 0 -2.57110337382e-07 0.0279890313274
Te 2.4834327711 1.4338106777 10.0639341334 -0.0398647007007 -0.0230157460714 0.0186638965009
Te 3.27e-08 -2.8676178953 10.0639341334 -0 0.0460314921428 0.0186641536112
Te -2.4834327056 1.4338106777 10.0639341334 0.0398647007007 -0.0230157460714 0.0186638965009
Te 4.2142177948 -2.4330763371 10.1078980039 0 -2.57110337382e-07 0.0773071649129
Te -0 -0 -7.007176531 0 2.57110337382e-07 0.0333536385168
Te -1.7534865333 -3.8537802877 -6.97721073 -0.0284729129823 0.0164386065308 0.0189647155956
Te 4.2142178275 0.4083281038 -6.97721073 -0 -0.032877470172 0.0189647155956
Te 1.7534865333 -3.8537802877 -6.97721073 0.0284729129823 0.0164386065308 0.0189647155956
Te -0 2.5323074799 -3.411356846 0 -0.0234073251152 -0.0327728262647
Te -2.1930425358 -1.2661502799 -3.411356846 0.0202716074405 0.0117036625576 -0.0327728262647
Te -4.214217762 2.4330797971 -3.4521726322 -0 2.57110337382e-07 0.0168726087803
Te 2.1930425358 -1.2661502799 -3.411356846 -0.0202716074405 0.0117036625576 -0.0327728262647
Te 0 2.8590435205 -10.1925689433 0 -0.00503344907492 0.00842576286633
Te -2.4760041155 -1.4295183002 -10.1925689433 0.00435930577031 0.00251659598229 0.00842576286633
Te -4.214217762 2.4330797971 -10.3919311209 -0 2.57110337382e-07 -0.0322346943285
Te 2.4760041155 -1.4295183002 -10.1925689433 -0.00435930577031 0.00251659598229 0.00842576286633
Sb -0 2.3517958317 8.5633432669 0 0.0223493160769 0.00546050934531
Sb -2.0367149292 -1.1758944558 8.5633432669 -0.0193550090878 -0.0111745294833 0.00546050934531
Sb -4.214217762 2.4330797971 7.1671701609 -0 2.57110337382e-07 -0.0730620161324
Sb 2.0367149292 -1.1758944558 8.5633432669 0.0193550090878 -0.0111745294833 0.00546050934531
Sb 0 2.4275335726 1.7602007867 0 -0.00132977466494 0.0244455366576
Sb -2.1023057098 -1.2137633263 1.7602007867 0.00115159720113 0.000664887332469 0.0244455366576
Sb -4.214217762 2.4330797971 1.9705647793 -0 2.57110337382e-07 0.0170279034241
Sb 2.1023057098 -1.2137633263 1.7602007867 -0.00115159720113 0.000664887332469 0.0244455366576
Sb 0 0 -11.1414422373 0 0 0.00264617959233
Sb -2.0287859979 -3.6948359909 -12.3041821902 -0.0259313772973 0.0149712778354 -0.0425918700493
Sb -4.214217762 0.0904395103 -12.3041821902 -0 -0.0299428127811 -0.0425918700493
Sb -2.1854317313 3.6043999406 -12.3041821902 0.0259313772973 0.0149712778354 -0.0425918700493
Sb 0 0 10.6276714579 0 0 0.0439753807747
Sb -2.4850017775 -3.4314395949 12.5552165691 0.0706204963686 -0.0407728144123 -0.0654659483248
Sb 4.2142178275 -0.4363532813 12.5552165691 0 0.0815448574936 -0.0654654341041
Sb 2.4850017775 -3.4314395949 12.5552165691 -0.0706204963686 -0.0407728144123 -0.0654659483248
Sb 2.1181967765 1.2229414816 -1.8719859577 0.00457245023999 0.00264000894423 -0.0135990799648
Sb 3.27e-08 -2.4458795031 -1.8719859577 -0 -0.00528001788847 -0.0135990799648
Sb -2.118196711 1.2229414816 -1.8719859577 -0.00457245023999 0.00264000894423 -0.0135990799648
Sb 4.2142177948 -2.4330763371 -1.7462881623 0 -0 -0.0205521148186
Sb 2.0422780062 1.1791097413 -8.772655158 0.00599915550213 0.00346379046521 -0.00108474851341
Sb 3.27e-08 -2.3582160225 -8.772655158 -0 -0.00692732382007 -0.00108474851341
Sb -2.0422779407 1.1791097413 -8.772655158 -0.00599915550213 0.00346379046521 -0.00108474851341
Sb 4.2142177948 -2.4330763371 -7.8418823165 0 -0 0.0216852000754
Cr -4.2142177948 -2.4330763371 14.7329726629 -0 5.14220674763e-07 0.260914541934
61
Lattice="8.42843558953 0 0 -4.21421779477 7.29923593142 0 0 0 31.0334408416" Properties=species:S:1:pos:R:3:forces:R:3 energy=-133598.81425 ionic_step=46 pbc="T T T"
Te 2.0144199503 1.1630258762 3.4062912704 0.0331255816476 0.0191251524461 0.0121577194134
Te 3.27e-08 -2.3260482922 3.4062912704 -0 -0.0382503048923 0.0121577194134
Te -2.0144198848 1.1630258762 3.4062912704 -0.0331255816476 0.0191251524461 0.0121577194134
Te 4.2142177948 -2.4330763371 3.3441550178 0 -2.57110337382e-07 -0.0271027719944
Te 0 0 6.778079497 0 2.57110337382e-07 -0.00787194719961
Te -2.4633087321 -3.4439640643 6.8016778486 0.0283518140134 -0.0163689296294 -0.0179200762948
Te -4.214217762 -0.4113043428 6.8016778486 -0 0.0327378592588 -0.0179200762948
Te -1.7509090627 3.8552718671 6.8016778486 -0.0283518140134 -0.0163689296294 -0.0179200762948
Te -0 0 -0.0856300988 0 2.57110337382e-07 -0.00144213188237
Te -2.0347481836 -3.6913937233 -0.0116914503 -0.0165509637483 0.00955550568879 0.00527256168869
Te -4.214217762 0.0835549751 -0.0116914503 -0 -0.0191112684879 0.00527256168869
Te 2.0347481836 -3.6913937233 -0.0116914503 0.0165509637483 0.00955550568879 0.00527256168869
Te 0 2.3459901491 14.4933327516 0 0.000527076191632 -0.0518380720022
Te -2.0316869998 -1.1729916146 14.4933327516 -0.000456370848852 -0.000263538095816 -0.0518378148919
Te -4.214217762 2.4330797971 13.2630014893 -0 2.57110337382e-07 0.0609981419921
Te 2.0316869998 -1.1729916146 14.4933327516 0.000456370848852 -0.000263538095816 -0.0518378148919
Te 1.6281200762 0.9399954335 -13.3428378048 0.0185209431533 0.0106932189317 0.00346610445824
Te 3.27e-08 -1.8799874069 -13.3428378048 -0 -0.0213859236427 0.00346610445824
Te -1.6281200106 0.9399954335 -13.3428378048 -0.0185209431533 0.0106932189317 0.00346610445824
Te 4.2142177948 -2.4330763371 -13.7730934292 0 -2.57110337382e-07 0.0135042062503
Te 2.4894117004 1.4372626158 10.0700140003 -0.0394630943537 -0.0227838325471 0.0158495667479
Te 3.27e-08 -2.8745217715 10.0700140003 -0 0.0455679222045 0.0158495667479
Te -2.4894116349 1.4372626158 10.0700140003 0.0394630943537 -0.0227838325471 0.0158495667479
Te 4.2142177948 -2.4330763371 10.1023022403 0 -2.57110337382e-07 0.0777380818383
Te -0 -0 -7.023484662 0 2.57110337382e-07 0.0354904825308
Te -1.754524972 -3.8531807446 -6.9551607866 -0.0284888538232 0.016447862503 0.0156564768845
Te 4.2142178275 0.4071290175 -6.9551607866 -0 -0.0328959821163 0.0156564768845
Te 1.754524972 -3.8531807446 -6.9551607866 0.0284888538232 0.016447862503 0.0156564768845
Te -0 2.5369057906 -3.4145598172 0 -0.0256464990435 -0.0298669652316
Te -2.1970247878 -1.2684494352 -3.4145598172 0.022210733605 0.0128231209666 -0.0298669652316
Te -4.214217762 2.4330797971 -3.467614791 -0 2.57110337382e-07 0.0214553434338
Te 2.1970247878 -1.2684494352 -3.4145598172 -0.022210733605 0.0128231209666 -0.0298669652316
Te 0 2.8571858885 -10.202206591 0 -0.00382220227552 0.00981107336415
Te -2.4743953598 -1.4285894842 -10.202206591 0.00331029559379 0.00191110113776 0.00981107336415
Te -4.214217762 2.4330797971 -10.4277729226 -0 2.57110337382e-07 -0.0287639618842
Te 2.4743953598 -1.4285894842 -10.202206591 -0.00331029559379 0.00191110113776 0.00981107336415
Sb -0 2.3423126679 8.5564626407 0 0.0233242784762 0.00552787225371
Sb -2.0285022723 -1.1711528739 8.5564626407 -0.0201993594357 -0.011662010683 0.00552787225371
Sb -4.214217762 2.4330797971 7.2419489259 -0 2.57110337382e-07 -0.0724999729349
Sb 2.0285022723 -1.1711528739 8.5564626407 0.0201993594357 -0.011662010683 0.00552787225371
Sb 0 2.4199303523 1.7590374151 0 -0.00125007046035 0.0228704787308
Sb -2.095721131 -1.2099617161 1.7590374151 0.00108269163071 0.000625035230175 0.0228704787308
Sb -4.214217762 2.4330797971 1.9591680465 -0 2.57110337382e-07 0.0145262198414
Sb 2.095721131 -1.2099617161 1.7590374151 -0.00108269163071 0.000625035230175 0.0228704787308
Sb 0 0 -11.1501575384 0 0 -3.67667782456e-05
Sb -2.0201518427 -3.699820925 -12.3204573506 -0.0264054887594 0.0152451003447 -0.0434513899072
Sb -4.214217762 0.1004093786 -12.3204573506 -0 -0.0304904577998 -0.0434511327968
Sb -2.1940658865 3.5994150064 -12.3204573506 0.0264054887594 0.0152451003447 -0.0434513899072
Sb 0 0 10.6523626453 0 0 0.0409985572885
Sb -2.4876530342 -3.4299088905 12.5476657108 0.038807205883 -0.0224053661304 -0.0265677253823
Sb 4.2142178275 -0.4394146902 12.5476657108 -0 0.0448102180402 -0.026567468272
Sb 2.4876530342 -3.4299088905 12.5476657108 -0.038807205883 -0.0224053661304 -0.0265677253823
Sb 2.1198612887 1.2239024886 -1.8944071504 0.00428371533112 0.00247314433527 -0.0143925224659
Sb 3.27e-08 -2.4478015171 -1.8944071504 -0 -0.00494628867055 -0.0143925224659
Sb -2.1198612231 1.2239024886 -1.8944071504 -0.00428371533112 0.00247314433527 -0.0143925224659
Sb 4.2142177948 -2.4330763371 -1.7428006187 0 -0 -0.0203867928717
Sb 2.0543903661 1.1861028188 -8.7659494223 0.00514606340269 0.00297116705878 -0.000682113725073
Sb 3.27e-08 -2.3722021775 -8.7659494223 -0 -0.00594207700723 -0.000682113725073
Sb -2.0543903006 1.1861028188 -8.7659494223 -0.00514606340269 0.00297116705878 -0.000682113725073
Sb 4.2142177948 -2.4330763371 -7.8491397289 0 -0 0.0216903422822
Cr -4.2142177948 -2.4330763371 14.7322959873 -0 2.57110337382e-07 0.154022718939
61
Lattice="8.42843558953 0 0 -4.21421779477 7.29923593142 0 0 0 31.0334408416" Properties=species:S:1:pos:R:3:forces:R:3 energy=-133598.874145 ionic_step=47 pbc="T T T"
Te 2.0072254528 1.1588721292 3.4117060888 0.034760546283 0.020069261605 0.0121379219174
Te 3.27e-08 -2.3177407982 3.4117060888 -0 -0.0401382660997 0.0121379219174
Te -2.0072253873 1.1588721292 3.4117060888 -0.034760546283 0.020069261605 0.0121379219174
Te 4.2142177948 -2.4330763371 3.3497029207 0 -2.57110337382e-07 -0.0278992998196
Te 0 0 6.7572118714 0 2.57110337382e-07 -0.0030207893539
Te -2.4800654407 -3.4342895695 6.7803801884 0.0252502920136 -0.0145784132399 -0.0173642037454
Te -4.214217762 -0.4306533324 6.7803801884 -0 0.0291563122591 -0.0173642037454
Te -1.734152354 3.8649463619 6.7803801884 -0.0252502920136 -0.0145784132399 -0.0173642037454
Te -0 0 -0.0793980197 0 2.57110337382e-07 -0.0030146187058
Te -2.0285865599 -3.69495114 -0.000855286 -0.0177897213538 0.010270529537 0.00438604524539
Te -4.214217762 0.0906698086 -0.000855286 -0 -0.0205415732948 0.00438604524539
Te 2.0285865599 -3.69495114 -0.000855286 0.0177897213538 0.010270529537 0.00438604524539
Te 0 2.3459150961 14.4936562544 0 0.00587162877478 -0.0514207819246
Te -2.0316220019 -1.1729540881 14.4936562544 -0.0050848711424 -0.00293594294256 -0.0514207819246
Te -4.214217762 2.4330797971 13.2900438116 -0 2.57110337382e-07 0.063445061073
Te 2.0316220019 -1.1729540881 14.4936562544 0.0050848711424 -0.00293594294256 -0.0514207819246
Te 1.5935664623 0.9200458859 -13.2910646606 0.0125482700159 0.00724485508674 0.00371627281651
Te 3.27e-08 -1.8400883117 -13.2910646606 -0 -0.0144897101735 0.00371652992685
Te -1.5935663967 0.9200458859 -13.2910646606 -0.0125482700159 0.00724485508674 0.00371627281651
Te 4.2142177948 -2.4330763371 -13.7940289284 0 -2.57110337382e-07 0.00614725105646
Te 2.5231182597 1.4567231159 10.0406810022 -0.0332618501264 -0.019203571099 0.0113812461945
Te 3.27e-08 -2.9134427718 10.0406810022 -0 0.0384073993084 0.0113815033049
Te -2.5231181942 1.4567231159 10.0406810022 0.0332618501264 -0.019203571099 0.0113812461945
Te 4.2142177948 -2.4330763371 10.0931567079 0 -2.57110337382e-07 0.0778272991254
Te -0 -0 -7.0298286009 0 2.57110337382e-07 0.0384709055617
Te -1.738541302 -3.862408925 -6.9328933931 -0.025614103141 0.0147879581648 0.0129041107228
Te 4.2142178275 0.4255853785 -6.9328933931 -0 -0.0295764305504 0.0129041107228
Te 1.738541302 -3.862408925 -6.9328933931 0.025614103141 0.0147879581648 0.0129041107228
Te -0 2.5473416115 -3.4172094586 0 -0.0284801120718 -0.0278249949321
Te -2.2060624696 -1.2736673457 -3.4172094586 0.0246648517754 0.0142400560359 -0.0278249949321
Te -4.214217762 2.4330797971 -3.4794193035 -0 2.57110337382e-07 0.0250919120457
Te 2.2060624696 -1.2736673457 -3.4172094586 -0.0246648517754 0.0142400560359 -0.0278249949321
Te 0 2.8858712365 -10.1895989864 0 0.00317017045992 0.0115185431147
Te -2.4992375883 -1.4429321582 -10.1895989864 -0.00274542418256 -0.00158508522996 0.0115185431147
Te -4.214217762 2.4330797971 -10.4543633495 -0 2.57110337382e-07 -0.0260144239363
Te 2.4992375883 -1.4429321582 -10.1895989864 0.00274542418256 -0.00158508522996 0.0115185431147
Sb -0 2.3330805368 8.5380408476 0 0.0245154706693 0.00569447975233
Sb -2.0205070159 -1.1665368084 8.5380408476 -0.0212308861093 -0.0122577353347 0.00569447975233
Sb -4.214217762 2.4330797971 7.2472854538 -0 2.57110337382e-07 -0.0699957182488
Sb 2.0205070159 -1.1665368084 8.5380408476 0.0212308861093 -0.0122577353347 0.00569447975233
Sb 0 2.4161597514 1.7518098833 0 -0.00154317624496 0.0221783377025
Sb -2.0924556963 -1.2080764157 1.7518098833 0.00133645953371 0.000771588122482 0.0221783377025
Sb -4.214217762 2.4330797971 1.9569469986 -0 2.57110337382e-07 0.012704593101
Sb 2.0924556963 -1.2080764157 1.7518098833 -0.00133645953371 0.000771588122482 0.0221783377025
Sb 0 0 -11.0893764864 0 0 -0.00239575412372
Sb -2.0181203755 -3.7009937937 -12.3275432698 -0.0261684330284 0.0151080605349 -0.043592286372
Sb -4.214217762 0.1027551159 -12.3275432698 -0 -0.0302163781801 -0.043592286372
Sb -2.1960973537 3.5982421378 -12.3275432698 0.0261684330284 0.0151080605349 -0.043592286372
Sb 0 0 10.6204385719 0 0 0.0443736446873
Sb -2.4824513915 -3.4329120617 12.5442383849 0.0198476324942 -0.0114591506268 -0.00378672104896
Sb 4.2142178275 -0.4334083478 12.5442383849 -0 0.0229177870328 -0.00378646393862
Sb 2.4824513915 -3.4329120617 12.5442383849 -0.0198476324942 -0.0114591506268 -0.00378672104896
Sb 2.1217204 1.2249758475 -1.9156602632 0.00431893944734 0.00249371316226 -0.0152507567721
Sb 3.27e-08 -2.4499482349 -1.9156602632 -0 -0.00498716921419 -0.0152507567721
Sb -2.1217203344 1.2249758475 -1.9156602632 -0.00431893944734 0.00249371316226 -0.0152507567721
Sb 4.2142177948 -2.4330763371 -1.732019356 0 -0 -0.0207395482546
Sb 2.0623978537 1.1907259461 -8.762766352 0.00413793376982 0.00238906925495 -2.15972683401e-05
Sb 3.27e-08 -2.3814484321 -8.762766352 -0 -0.0047781385099 -2.13401580027e-05
Sb -2.0623977883 1.1907259461 -8.762766352 -0.00413793376982 0.00238906925495 -2.15972683401e-05
Sb 4.2142177948 -2.4330763371 -7.8193731148 0 -0 0.023628954226
Cr -4.2142177948 -2.4330763371 14.7295117358 -0 2.57110337382e-07 0.0874226569165
61
Lattice="8.42843558953 0 0 -4.21421779477 7.29923593142 0 0 0 31.0334408416" Properties=species:S:1:pos:R:3:forces:R:3 energy=-133598.929949 ionic_step=48 pbc="T T T"
Te 2.0097238339 1.1603145709 3.4178539324 0.0350513380746 0.020236897545 0.0148967158376
Te 3.27e-08 -2.3206256815 3.4178539324 -0 -0.0404737950899 0.0148967158376
Te -2.0097237684 1.1603145709 3.4178539324 -0.0350513380746 0.020236897545 0.0148967158376
Te 4.2142177948 -2.4330763371 3.3491241585 0 -2.57110337382e-07 -0.0259041236015
Te 0 0 6.7496415479 0 2.57110337382e-07 7.04482324426e-05
Te -2.4716855964 -3.4391276772 6.7907661097 0.0259056662636 -0.0149568796565 -0.0177835507057
Te -4.214217762 -0.4209771171 6.7907661097 -0 0.0299132450923 -0.0177835507057
Te -1.7425321984 3.8601082542 6.7907661097 -0.0259056662636 -0.0149568796565 -0.0177835507057
Te -0 0 -0.0634588555 0 2.57110337382e-07 -0.00485527161111
Te -2.0291128917 -3.6946472621 0.015015239 -0.0176799352397 0.0102070232837 0.00225845720356
Te -4.214217762 0.0900620527 0.015015239 -0 -0.0204145607881 0.00225845720356
Te 2.0291128917 -3.6946472621 0.015015239 0.0176799352397 0.0102070232837 0.00225845720356
Te 0 2.3505580662 14.4713659609 0 0.0082267594652 -0.0494834555325
Te -2.0356429302 -1.1752755731 14.4713659609 -0.00712452744884 -0.00411350828777 -0.0494831984221
Te -4.214217762 2.4330797971 13.3004501734 -0 2.57110337382e-07 0.0630475684914
Te 2.0356429302 -1.1752755731 14.4713659609 0.00712452744884 -0.00411350828777 -0.0494831984221
Te 1.6102513445 0.9296789117 -13.2836755481 0.0141207568393 0.00815271168803 0.00263718073052
Te 3.27e-08 -1.8593543632 -13.2836755481 -0 -0.0163051662657 0.00263743784086
Te -1.610251279 0.9296789117 -13.2836755481 -0.0141207568393 0.00815271168803 0.00263718073052
Te 4.2142177948 -2.4330763371 -13.8191463268 0 -2.57110337382e-07 0.00417932853414
Te 2.5224659779 1.4563465207 10.0425712685 -0.0328458456005 -0.0189634300439 0.0106865340629
Te 3.27e-08 -2.9126895813 10.0425712685 -0 0.0379271171982 0.0106867911733
Te -2.5224659125 1.4563465207 10.0425712685 0.0328458456005 -0.0189634300439 0.0106865340629
Te 4.2142177948 -2.4330763371 10.0991546451 0 -2.57110337382e-07 0.0799543729466
Te -0 -0 -7.0329811484 0 2.57110337382e-07 0.0371164483044
Te -1.7502038443 -3.8556755499 -6.9272266452 -0.0269752452671 0.0155739444662 0.0109179333666
Te 4.2142178275 0.4121186283 -6.9272266452 -0 -0.0311481460428 0.0109179333666
Te 1.7502038443 -3.8556755499 -6.9272266452 0.0269752452671 0.0155739444662 0.0109179333666
Te -0 2.5513328605 -3.4196225505 0 -0.0300091472482 -0.0245509518959
Te -2.2095189911 -1.2756629702 -3.4196225505 0.0259889700129 0.0150044450689 -0.0245509518959
Te -4.214217762 2.4330797971 -3.4796796456 -0 2.57110337382e-07 0.0271320825729
Te 2.2095189911 -1.2756629702 -3.4196225505 -0.0259889700129 0.0150044450689 -0.0245509518959
Te 0 2.876035775 -10.2040117931 0 0.00227645492718 0.0119083223862
Te -2.4907198328 -1.4380144275 -10.2040117931 -0.00197152206704 -0.00113822746359 0.0119083223862
Te -4.214217762 2.4330797971 -10.4668730856 -0 2.57110337382e-07 -0.0216265789185
Te 2.4907198328 -1.4380144275 -10.2040117931 0.00197152206704 -0.00113822746359 0.0119083223862
Sb -0 2.3233084617 8.5265916808 0 0.025634671968 0.00610714184383
Sb -2.0120441546 -1.1616507708 8.5265916808 -0.0222001920812 -0.0128172074288 0.00610714184383
Sb -4.214217762 2.4330797971 7.3617703252 -0 2.57110337382e-07 -0.0652962555021
Sb 2.0120441546 -1.1616507708 8.5265916808 0.0222001920812 -0.0128172074288 0.00610714184383
Sb 0 2.4159785418 1.746850538 0 -0.00202037303114 0.0205253753435
Sb -2.0922987643 -1.2079858109 1.746850538 0.00174963584588 0.00101018651557 0.0205253753435
Sb -4.214217762 2.4330797971 1.9430171285 -0 2.57110337382e-07 0.0100738401289
Sb 2.0922987643 -1.2079858109 1.746850538 -0.00174963584588 0.00101018651557 0.0205253753435
Sb 0 0 -11.1193882389 0 0 -0.00308532404858
Sb -2.0252969759 -3.6968503796 -12.3313690964 -0.0254395252219 0.0146871709126 -0.0427659337477
Sb -4.214217762 0.0944682877 -12.3313690964 -0 -0.0293751131562 -0.0427659337477
Sb -2.1889207533 3.6023855519 -12.3313690964 0.0254395252219 0.0146871709126 -0.0427659337477
Sb 0 0 10.6846191095 0 0 0.0343507124052
Sb -2.4653611175 -3.4427791406 12.5387231382 0.01562253832 -0.00901968774568 0.00357357657927
Sb 4.2142178275 -0.41367419 12.5387231382 -0 0.0180393754914 0.00357357657927
Sb 2.4653611175 -3.4427791406 12.5387231382 -0.01562253832 -0.00901968774568 0.00357357657927
Sb 2.1214053357 1.224793945 -1.9334261108 0.00417547187908 0.00241066652329 -0.0161732686627
Sb 3.27e-08 -2.4495844299 -1.9334261108 -0 -0.00482133304658 -0.0161732686627
Sb -2.1214052702 1.224793945 -1.9334261108 -0.00417521476874 0.00241066652329 -0.0161732686627
Sb 4.2142177948 -2.4330763371 -1.7282592411 0 -0 -0.0210149134259
Sb 2.0726711699 1.1966572508 -8.7535827938 0.00372064369225 0.00214815686882 0.000588268451929
Sb 3.27e-08 -2.3933110414 -8.7535827938 -0 -0.00429631373765 0.000588268451929
Sb -2.0726711045 1.1966572508 -8.7535827938 -0.00372064369225 0.00214815686882 0.000588268451929
Sb 4.2142177948 -2.4330763371 -7.843889714 0 -0 0.0219438530748
Cr -4.2142177948 -2.4330763371 14.7106830315 -0 2.57110337382e-07 0.0638854910809
61
Lattice="8.42843558953 0 0 -4.21421779477 7.29923593142 0 0 0 31.0334408416" Properties=species:S:1:pos:R:3:forces:R:3 energy=-133598.979602 ionic_step=49 pbc="T T T"
Te 2.0068328245 1.158645445 3.4102502675 0.0357555632887 0.0206436460987 0.0173215234294
Te 3.27e-08 -2.3172874298 3.4102502675 -0 -0.0412870350871 0.0173215234294
Te -2.0068327589 1.158645445 3.4102502675 -0.0357555632887 0.0206436460987 0.0173215234294
Te 4.2142177948 -2.4330763371 3.33105452 0 -2.57110337382e-07 -0.0251749586847
Te 0 0 6.7611981824 0 2.57110337382e-07 -0.00284595432448
Te -2.473859503 -3.437872571 6.7952980982 0.0248396868048 -0.0143413575088 -0.0201787906087
Te -4.214217762 -0.4234873294 6.7952980982 -0 0.0286822007969 -0.0201787906087
Te -1.7403582918 3.8613633604 6.7952980982 -0.0248396868048 -0.0143413575088 -0.0201787906087
Te -0 0 -0.0636644442 0 2.57110337382e-07 -0.00582277781068
Te -2.0249417924 -3.6970554485 0.016172149 -0.0184075574945 0.0106273986853 0.00199646176977
Te -4.214217762 0.0948784256 0.016172149 -0 -0.021255054481 0.00199646176977
Te 2.0249417924 -3.6970554485 0.016172149 0.0184075574945 0.0106273986853 0.00199646176977
Te 0 2.3625871062 14.4588011961 0 0.00543659808393 -0.0505242381782
Te -2.0460603796 -1.1812900931 14.4588011961 -0.0047079473878 -0.00271842759714 -0.0505242381782
Te -4.214217762 2.4330797971 13.3014983054 -0 2.57110337382e-07 0.0625865696564
Te 2.0460603796 -1.1812900931 14.4588011961 0.0047079473878 -0.00271842759714 -0.0505242381782
Te 1.6032066983 0.9256116814 -13.2588977384 0.0124184292955 0.00717003597856 0.00241709428172
Te 3.27e-08 -1.8512199025 -13.2588977384 -0 -0.0143395577364 0.00241709428172
Te -1.6032066327 0.9256116814 -13.2588977384 -0.0124184292955 0.00717003597856 0.00241709428172
Te 4.2142177948 -2.4330763371 -13.8099717842 0 -2.57110337382e-07 0.00490257991319
Te 2.5317461312 1.4617044222 10.017841957 -0.0302233201592 -0.0174493072671 0.0105430664947
Te 3.27e-08 -2.9234053843 10.017841957 -0 0.0348988716445 0.0105430664947
Te -2.5317460658 1.4617044222 10.017841957 0.0302233201592 -0.0174493072671 0.0105430664947
Te 4.2142177948 -2.4330763371 10.0995533776 0 -2.57110337382e-07 0.080824948549
Te -0 -0 -7.0349662637 0 2.57110337382e-07 0.0388426871096
Te -1.7461914373 -3.8579921153 -6.934410375 -0.0262872180042 0.015176708995 0.0121080971183
Te 4.2142178275 0.4167517591 -6.934410375 -0 -0.0303536751003 0.0121080971183
Te 1.7461914373 -3.8579921153 -6.934410375 0.0262872180042 0.015176708995 0.0121080971183
Te -0 2.5572290051 -3.4133399669 0 -0.0311509742565 -0.0260249654601
Te -2.2146251996 -1.2786110425 -3.4133399669 0.0269778163704 0.0155754871282 -0.0260249654601
Te -4.214217762 2.4330797971 -3.4701692142 -0 2.57110337382e-07 0.0259542601173
Te 2.2146251996 -1.2786110425 -3.4133399669 -0.0269778163704 0.0155754871282 -0.0260249654601
Te 0 2.8910698526 -10.1975778911 0 0.0052630486062 0.0119124361516
Te -2.5037397198 -1.4455314663 -10.1975778911 -0.00455779495076 -0.0026315243031 0.0119124361516
Te -4.214217762 2.4330797971 -10.4710227079 -0 2.57110337382e-07 -0.0211609520975
Te 2.5037397198 -1.4455314663 -10.1975778911 0.00455779495076 -0.0026315243031 0.0119124361516
Sb -0 2.3190537689 8.5229810924 0 0.0258876685399 0.00654474363805
Sb -2.0083594842 -1.1595234244 8.5229810924 -0.0224192500887 -0.0129437057148 0.00654474363805
Sb -4.214217762 2.4330797971 7.3836498379 -0 2.57110337382e-07 -0.0623037482853
Sb 2.0083594842 -1.1595234244 8.5229810924 0.0224192500887 -0.0129437057148 0.00654474363805
Sb 0 2.4201204758 1.7383886962 0 -0.00249885536901 0.0209614344757
Sb -2.0958857827 -1.2100567779 1.7383886962 0.00216409770974 0.00124955623967 0.020961691586
Sb -4.214217762 2.4330797971 1.9407458335 -0 2.57110337382e-07 0.0101268048585
Sb 2.0958857827 -1.2100567779 1.7383886962 -0.00216409770974 0.00124955623967 0.020961691586
Sb 0 0 -11.0891184155 0 0 -0.00301641847816
Sb -2.0381079329 -3.6894539666 -12.3220645926 -0.0244175116308 0.0140971026883 -0.0416778427999
Sb -4.214217762 0.0796754618 -12.3220645926 -0 -0.0281947195973 -0.0416775856896
Sb -2.1761097963 3.6097819648 -12.3220645926 0.0244175116308 0.0140971026883 -0.0416778427999
Sb 0 0 10.6674518997 0 0 0.0359751355168
Sb -2.4553179249 -3.4485775832 12.5340253264 0.0151116600796 -0.00872478218871 0.00478713737171
Sb 4.2142178275 -0.4020773047 12.5340253264 -0 0.0174490501567 0.00478713737171
Sb 2.4553179249 -3.4485775832 12.5340253264 -0.0151116600796 -0.00872478218871 0.00478713737171
Sb 2.120525811 1.2242861509 -1.9294284382 0.00444466640232 0.00256621827741 -0.0165849023128
Sb 3.27e-08 -2.4485688417 -1.9294284382 -0 -0.00513243655481 -0.0165846452025
Sb -2.1205257454 1.2242861509 -1.9294284382 -0.00444466640232 0.00256621827741 -0.0165849023128
Sb 4.2142177948 -2.4330763371 -1.7159577321 0 -0 -0.0212308861093
Sb 2.074327303 1.1976134201 -8.7541021255 0.0034128826184 0.00197049362569 0.00116805226272
Sb 3.27e-08 -2.39522338 -8.7541021255 -0 -0.00394073014105 0.00116830937306
Sb -2.0743272375 1.1976134201 -8.7541021255 -0.0034128826184 0.00197049362569 0.00116805226272
Sb 4.2142177948 -2.4330763371 -7.8439568322 0 -0 0.0206513594088
Cr -4.2142177948 -2.4330763371 14.6971163253 -0 0 0.0573823993175
