81
Properties=species:S:1:pos:R:3 pbc="F F F"
Te      12.85693974       7.42179623      15.00576123
Te       2.16995208       3.71760952      15.01023560
Te       0.03281701       7.41795557      15.00631497
Te      14.99849921       3.70786960      15.00576094
Te       0.04686737       2.49336580      22.33719771
Te       2.18764562       6.19162733      22.34029990
Te       4.32002196       2.49358855      22.34027042
Te      -2.08692176       6.19564546      22.29178558
Te       2.18706973       1.26366119      25.08858915
Te       4.32772092       4.96185033      25.09169189
Te       6.46151099       1.25957197      25.13710234
Te       0.05457085       4.96163130      25.08861850
Te       2.17981269       1.24398459      18.64769326
Te       4.31990094       4.95733837      18.64024952
Te       6.44932274       1.25254523      18.64540466
Te       0.03402170       4.96526531      18.64769473
Te       0.06150192       0.03647797      32.42213931
Te       2.20475820       3.73767741      32.41865118
Te       4.34189332       0.03733159      32.42257216
Te      -2.07219731       3.73677334      32.42213856
Te       0.05493435       2.49802044      28.78863933
Te       2.19477542       6.21123128      28.78119125
Te       4.34056770       2.48995182      28.78118969
Te      -2.07448793       6.20281373      28.78348484
Sb       0.03021517       2.48376775      16.69379396
Sb       2.18105871       6.19204129      16.69946237
Sb       4.31709544       2.48769266      16.69946152
Sb      -2.08950856       6.19414965      16.70511261
Sb       0.02478045       0.02868900      26.84430719
Sb       2.19060491       3.72950269      26.81983483
Sb       4.36431213       0.05026332      26.85412521
Sb       6.48130896       3.71492852      26.84150598
Sb      12.88668089       7.40847347      20.58738718
Sb       2.18414699       3.72571483      20.60905339
Sb       4.27955464       0.00138025      20.57476283
Sb      15.00187921       3.74028807      20.58737809
Sb       2.19365136       1.26324545      30.72942541
Sb       4.34449489       4.97151962      30.73508932
Sb       6.46421894       1.26113672      30.72377051
Sb       0.05761535       4.96759480      30.72942554
Te       4.31321009       7.41880986      15.00674733
Te      10.71839220       3.71423064      15.00920785
Te       8.60013816       7.42546373      15.00698006
Te       6.44690892       3.71851431      15.00674802
Te       8.59829344       2.49170658      22.29200008
Te      10.74431792       6.19630021      22.29133380
Te      12.87967729       2.49336559      22.29133884
Te       6.46449476       6.19398265      22.29288566
Te      10.73899034       1.25898665      25.13756036
Te      12.88514146       4.96365293      25.13689470
Te      15.01894068       1.26137632      25.13600912
Te       8.60375336       4.96199166      25.13755391
Te      10.72324611       1.25056138      18.65153603
Te      12.87693349       4.95891419      18.66012636
Te      15.00530131       1.25351288      18.64320550
Te       8.58856759       4.95256707      18.65153907
Te       8.62637320       0.03349251      32.42312501
Te      10.76492156       3.74105844      32.41967809
Te      12.88317594       0.02982551      32.42190544
Te       6.48481402       3.74741912      32.42312528
Te       8.60625600       2.49630363      28.76875678
Te      10.76019028       6.20479882      28.77735220
Te      12.89486826       2.50279249      28.77734983
Te       6.47788820       6.20170443      28.78567800
Sb       8.58967640       2.48674210      16.69853427
Sb      10.72947900       6.19377694      16.69417972
Sb      12.86995056       2.48173360      16.69417999
Sb       6.44600113       6.18331559      16.70099639
Sb       8.59650621       0.04674245      26.84149787
Sb      10.74825026       3.73152308      26.83008737
Sb      12.87854275       0.02715960      26.83366077
Sb      -2.09734770       3.70888776      26.84431961
Sb       8.61921181       0.02303072      20.58458483
Sb      10.73502272       3.72383554      20.59880160
Sb      12.87392429       0.02448999      20.59522833
Sb       6.47218412       3.74647115      20.58457409
Sb      10.75383552       1.26151223      30.73470067
Sb      12.89363866       4.96854687      30.73034962
Sb      15.03731199       1.27197430      30.72788713
Sb       8.61336305       4.97355555      30.73470095
V        2.18731339       3.72761978      23.71444288
81
Properties=species:S:1:pos:R:3 pbc="F F F"
Te      12.85905958       7.42100241      15.00650391
Te       2.16978621       3.71755879      15.00943497
Te       0.03332946       7.41820605      15.00649448
Te      14.99891029       3.71012348      15.00606341
Te       0.04704234       2.49396323      22.32681154
Te       2.18803656       6.19248213      22.32921717
Te       4.32108678       2.49356915      22.32856742
Te      -2.08651412       6.19538282      22.29275240
Te       2.17536736       1.25628144      25.08121389
Te       4.32808794       4.97659104      25.08427185
Te       6.47465003       1.25261887      25.11832921
Te       0.05251023       4.96107391      25.09153636
Te       2.17804871       1.24620817      18.64645245
Te       4.31890568       4.95669514      18.64109870
Te       6.44955652       1.25274899      18.64496507
Te       0.03558370       4.96292517      18.64812724
Te       0.06436203       0.03787315      32.42161918
Te       2.20493921       3.73726874      32.41910444
Te       4.34099096       0.03732403      32.42204516
Te      -2.07212315       3.73706986      32.42205079
Te       0.05490765       2.49648508      28.78829343
Te       2.20146060       6.21184503      28.78638419
Te       4.34094785       2.49341131      28.78617349
Te      -2.07711888       6.20281642      28.78442769
Sb       0.03175048       2.48423666      16.69538594
Sb       2.18081128       6.19147749      16.69933665
Sb       4.31617572       2.48758357      16.69959794
Sb      -2.09204625       6.19310182      16.70387491
Sb       0.02636246       0.02600134      26.84589805
Sb       2.16905284       3.74380968      26.84001065
Sb       4.35611240       0.01880389      26.86572817
Sb       6.49952054       3.73103159      26.85704497
Sb      12.88443336       7.41277873      20.58919837
Sb       2.18228089       3.72589770      20.60498289
Sb       4.28856077       0.00531903      20.57926491
Sb      15.00449906       3.73619760      20.58930440
Sb       2.19168445       1.26253253      30.73032933
Sb       4.34111713       4.97340592      30.73248533
Sb       6.46787263       1.25940921      30.72399603
Sb       0.05868215       4.96778883      30.73079122
Te       4.31242460       7.41861081      15.00678395
Te      10.71937512       3.71489718      15.00869713
Te       8.59712646       7.42362754      15.00702627
Te       6.44657556       3.71806807      15.00676531
Te       8.59902358       2.49223996      22.29262329
Te      10.74381518       6.19581567      22.29211774
Te      12.87943498       2.49342245      22.29162124
Te       6.46512668       6.19423492      22.29328749
Te      10.73818097       1.25871649      25.13811255
Te      12.88464146       4.96374434      25.13695864
Te      15.01896446       1.26101070      25.13629451
Te       8.60550398       4.96280635      25.13219553
Te      10.72440123       1.25125827      18.64959372
Te      12.87525348       4.95817537      18.65590867
Te      15.00537263       1.25332423      18.64321803
Te       8.58914520       4.95287008      18.65036078
Te       8.62253963       0.03329841      32.41978738
Te      10.76295408       3.74091008      32.42098310
Te      12.88614247       0.03055012      32.42265351
Te       6.48663748       3.74645414      32.42412574
Te       8.61012585       2.49312057      28.77281485
Te      10.75973961       6.20450880      28.77821896
Te      12.89321253       2.50186861      28.78000886
Te       6.47551956       6.20575360      28.78550607
Sb       8.58992039       2.48672710      16.69877597
Sb      10.73055494       6.19269462      16.69570656
Sb      12.86932555       2.48307582      16.69583848
Sb       6.44838479       6.18484614      16.70062255
Sb       8.60322068       0.04501290      26.84801664
Sb      10.74806698       3.73140934      26.83042731
Sb      12.87943302       0.02767764      26.83310757
Sb      -2.09445907       3.71415367      26.84111956
Sb       8.61291006       0.02299684      20.58702618
Sb      10.73544507       3.72409677      20.59794215
Sb      12.87328445       0.02409981      20.59526220
Sb       6.47015748       3.74170270      20.58655495
Sb      10.75327474       1.26289142      30.73161036
Sb      12.89390241       4.96869736      30.72944177
Sb      15.03529988       1.27081626      30.72759489
Sb       8.61385071       4.97213391      30.73717372
V        2.71787213       3.41697122      24.27637034
81
Properties=species:S:1:pos:R:3 pbc="F F F"
Te      12.86117942       7.42020858      15.00724660
Te       2.16962034       3.71750806      15.00863433
Te       0.03384192       7.41845652      15.00667399
Te      14.99932136       3.71237736      15.00636589
Te       0.04721732       2.49456066      22.31642538
Te       2.18842751       6.19333692      22.31813444
Te       4.32215160       2.49354975      22.31686442
Te      -2.08610648       6.19512017      22.29371923
Te       2.16366498       1.24890169      25.07383864
Te       4.32845497       4.99133176      25.07685181
Te       6.48778907       1.24566578      25.09955608
Te       0.05044960       4.96051653      25.09445423
Te       2.17628473       1.24843175      18.64521164
Te       4.31791043       4.95605190      18.64194788
Te       6.44979029       1.25295275      18.64452548
Te       0.03714570       4.96058504      18.64855975
Te       0.06722214       0.03926832      32.42109905
Te       2.20512022       3.73686007      32.41955769
Te       4.34008859       0.03731646      32.42151816
Te      -2.07204899       3.73736637      32.42196302
Te       0.05488096       2.49494972      28.78794753
Te       2.20814579       6.21245877      28.79157713
Te       4.34132800       2.49687080      28.79115728
Te      -2.07974982       6.20281912      28.78537053
Sb       0.03328579       2.48470558      16.69697792
Sb       2.18056385       6.19091369      16.69921093
Sb       4.31525600       2.48747448      16.69973436
Sb      -2.09458393       6.19205400      16.70263722
Sb       0.02794448       0.02331367      26.84748891
Sb       2.14750077       3.75811667      26.86018646
Sb       4.34791267      -0.01265555      26.87733113
Sb       6.51773212       3.74713467      26.87258396
Sb      12.88218582       7.41708399      20.59100955
Sb       2.18041480       3.72608057      20.60091239
Sb       4.29756690       0.00925782      20.58376698
Sb      15.00711891       3.73210712      20.59123072
Sb       2.18971754       1.26181961      30.73123324
Sb       4.33773936       4.97529223      30.72988134
Sb       6.47152631       1.25768171      30.72422154
Sb       0.05974896       4.96798286      30.73215690
Te       4.31163911       7.41841176      15.00682058
Te      10.72035803       3.71556372      15.00818640
Te       8.59411477       7.42179136      15.00707247
Te       6.44624221       3.71762183      15.00678260
Te       8.59975372       2.49277335      22.29324650
Te      10.74331245       6.19533113      22.29290168
Te      12.87919267       2.49347931      22.29190364
Te       6.46575859       6.19448718      22.29368932
Te      10.73737159       1.25844633      25.13866474
Te      12.88414146       4.96383575      25.13702257
Te      15.01898823       1.26064508      25.13657991
Te       8.60725461       4.96362103      25.12683715
Te      10.72555636       1.25195516      18.64765142
Te      12.87357347       4.95743655      18.65169097
Te      15.00544395       1.25313558      18.64323055
Te       8.58972282       4.95317308      18.64918249
Te       8.61870605       0.03310432      32.41644974
Te      10.76098660       3.74076172      32.42228810
Te      12.88910900       0.03127474      32.42340158
Te       6.48846093       3.74548917      32.42512620
Te       8.61399570       2.48993750      28.77687291
Te      10.75928893       6.20421877      28.77908572
Te      12.89155679       2.50094473      28.78266789
Te       6.47315091       6.20980277      28.78533413
Sb       8.59016437       2.48671209      16.69901766
Sb      10.73163089       6.19161230      16.69723341
Sb      12.86870053       2.48441805      16.69749697
Sb       6.45076845       6.18637669      16.70024871
Sb       8.60993514       0.04328335      26.85453540
Sb      10.74788369       3.73129559      26.83076726
Sb      12.88032328       0.02819568      26.83255437
Sb      -2.09157044       3.71941957      26.83791951
Sb       8.60660831       0.02296295      20.58946754
Sb      10.73586742       3.72435800      20.59708271
Sb      12.87264460       0.02370964      20.59529608
Sb       6.46813084       3.73693425      20.58853581
Sb      10.75271396       1.26427062      30.72852004
Sb      12.89416615       4.96884785      30.72853392
Sb      15.03328777       1.26965822      30.72730265
Sb       8.61433838       4.97071227      30.73964648
V        3.24843087       3.10632267      24.83829779
81
Properties=species:S:1:pos:R:3 pbc="F F F"
Te      12.86329926       7.41941476      15.00798929
Te       2.16945447       3.71745733      15.00783369
Te       0.03435437       7.41870699      15.00685351
Te      14.99973244       3.71463124      15.00666837
Te       0.04739229       2.49515809      22.30603922
Te       2.18881845       6.19419171      22.30705171
Te       4.32321641       2.49353036      22.30516142
Te      -2.08569884       6.19485753      22.29468605
Te       2.15196261       1.24152195      25.06646338
Te       4.32882199       5.00607248      25.06943177
Te       6.50092812       1.23871268      25.08078294
Te       0.04838897       4.95995915      25.09737209
Te       2.17452075       1.25065533      18.64397083
Te       4.31691518       4.95540867      18.64279706
Te       6.45002406       1.25315650      18.64408589
Te       0.03870770       4.95824491      18.64899226
Te       0.07008226       0.04066350      32.42057892
Te       2.20530123       3.73645140      32.42001095
Te       4.33918623       0.03730890      32.42099117
Te      -2.07197482       3.73766289      32.42187525
Te       0.05485426       2.49341437      28.78760164
Te       2.21483097       6.21307251      28.79677007
Te       4.34170815       2.50033029      28.79614108
Te      -2.08238076       6.20282182      28.78631338
Sb       0.03482111       2.48517449      16.69856990
Sb       2.18031642       6.19034989      16.69908522
Sb       4.31433629       2.48736539      16.69987077
Sb      -2.09712162       6.19100617      16.70139953
Sb       0.02952649       0.02062601      26.84907978
Sb       2.12594870       3.77242367      26.88036228
Sb       4.33971294      -0.04411498      26.88893409
Sb       6.53594370       3.76323775      26.88812295
Sb      12.87993829       7.42138925      20.59282074
Sb       2.17854871       3.72626343      20.59684189
Sb       4.30657303       0.01319660      20.58826905
Sb      15.00973876       3.72801665      20.59315703
Sb       2.18775063       1.26110668      30.73213715
Sb       4.33436159       4.97717854      30.72727735
Sb       6.47518000       1.25595420      30.72444705
Sb       0.06081577       4.96817689      30.73352259
Te       4.31085361       7.41821271      15.00685720
Te      10.72134095       3.71623025      15.00767567
Te       8.59110308       7.41995517      15.00711867
Te       6.44590885       3.71717559      15.00679989
Te       8.60048386       2.49330674      22.29386971
Te      10.74280971       6.19484658      22.29368561
Te      12.87895035       2.49353617      22.29218604
Te       6.46639050       6.19473944      22.29409115
Te      10.73656222       1.25817616      25.13921694
Te      12.88364146       4.96392716      25.13708651
Te      15.01901201       1.26027946      25.13686530
Te       8.60900524       4.96443571      25.12147877
Te      10.72671148       1.25265205      18.64570911
Te      12.87189347       4.95669772      18.64747328
Te      15.00551527       1.25294693      18.64324307
Te       8.59030043       4.95347609      18.64800421
Te       8.61487247       0.03291023      32.41311211
Te      10.75901912       3.74061336      32.42359310
Te      12.89207553       0.03199935      32.42414965
Te       6.49028439       3.74452419      32.42612666
Te       8.61786554       2.48675444      28.78093098
Te      10.75883825       6.20392875      28.77995248
Te      12.88990105       2.50002085      28.78532693
Te       6.47078227       6.21385193      28.78516220
Sb       8.59040836       2.48669709      16.69925935
Sb      10.73270683       6.19052998      16.69876026
Sb      12.86807551       2.48576027      16.69915546
Sb       6.45315210       6.18790723      16.69987487
Sb       8.61664961       0.04155380      26.86105417
Sb      10.74770040       3.73118185      26.83110721
Sb      12.88121354       0.02871372      26.83200116
Sb      -2.08868180       3.72468548      26.83471947
Sb       8.60030657       0.02292907      20.59190889
Sb      10.73628977       3.72461922      20.59622326
Sb      12.87200476       0.02331946      20.59532996
Sb       6.46610421       3.73216580      20.59051666
Sb      10.75215317       1.26564981      30.72542973
Sb      12.89442990       4.96899834      30.72762607
Sb      15.03127566       1.26850019      30.72701041
Sb       8.61482605       4.96929062      30.74211925
V        3.77898962       2.79567411      25.40022524
81
Properties=species:S:1:pos:R:3 pbc="F F F"
Te      12.86541909       7.41862094      15.00873198
Te       2.16928860       3.71740660      15.00703305
Te       0.03486682       7.41895746      15.00703302
Te      15.00014351       3.71688511      15.00697085
Te       0.04756726       2.49575552      22.29565306
Te       2.18920940       6.19504651      22.29596899
Te       4.32428123       2.49351096      22.29345843
Te      -2.08529120       6.19459489      22.29565288
Te       2.14026024       1.23414220      25.05908813
Te       4.32918902       5.02081320      25.06201173
Te       6.51406716       1.23175959      25.06200981
Te       0.04632834       4.95940176      25.10028996
Te       2.17275676       1.25287890      18.64273002
Te       4.31591992       4.95476543      18.64364624
Te       6.45025783       1.25336026      18.64364629
Te       0.04026971       4.95590477      18.64942477
Te       0.07294237       0.04205868      32.42005879
Te       2.20548224       3.73604274      32.42046420
Te       4.33828387       0.03730134      32.42046417
Te      -2.07190066       3.73795941      32.42178748
Te       0.05482756       2.49187901      28.78725574
Te       2.22151616       6.21368625      28.80196301
Te       4.34208830       2.50378977      28.80112488
Te      -2.08501170       6.20282452      28.78725623
Sb       0.03635642       2.48564340      16.70016188
Sb       2.18006899       6.18978609      16.69895950
Sb       4.31341657       2.48725630      16.70000719
Sb      -2.09965931       6.18995834      16.70016184
Sb       0.03110850       0.01793834      26.85067064
Sb       2.10439663       3.78673066      26.90053810
Sb       4.33151322      -0.07557441      26.90053705
Sb       6.55415528       3.77934082      26.90366194
Sb      12.87769076       7.42569451      20.59463192
Sb       2.17668261       3.72644630      20.59277139
Sb       4.31557916       0.01713538      20.59277113
Sb      15.01235861       3.72392617      20.59508334
Sb       2.18578373       1.26039376      30.73304106
Sb       4.33098382       4.97906484      30.72467336
Sb       6.47883368       1.25422670      30.72467256
Sb       0.06188257       4.96837091      30.73488827
Te       4.31006812       7.41801367      15.00689382
Te      10.72232387       3.71689679      15.00716494
Te       8.58809139       7.41811899      15.00716488
Te       6.44557549       3.71672934      15.00681718
Te       8.60121400       2.49384012      22.29449292
Te      10.74230698       6.19436204      22.29446955
Te      12.87870804       2.49359303      22.29246843
Te       6.46702241       6.19499170      22.29449298
Te      10.73575285       1.25790600      25.13976913
Te      12.88314145       4.96401857      25.13715044
Te      15.01903579       1.25991385      25.13715069
Te       8.61075587       4.96525040      25.11612039
Te      10.72786661       1.25334894      18.64376680
Te      12.87021346       4.95595890      18.64325559
Te      15.00558659       1.25275828      18.64325560
Te       8.59087804       4.95377909      18.64682592
Te       8.61103889       0.03271614      32.40977447
Te      10.75705164       3.74046499      32.42489811
Te      12.89504205       0.03272396      32.42489772
Te       6.49210784       3.74355922      32.42712712
Te       8.62173539       2.48357138      28.78498905
Te      10.75838757       6.20363873      28.78081924
Te      12.88824532       2.49909696      28.78798596
Te       6.46841363       6.21790110      28.78499026
Sb       8.59065235       2.48668208      16.69950105
Sb      10.73378278       6.18944767      16.70028710
Sb      12.86745049       2.48710250      16.70081395
Sb       6.45553576       6.18943778      16.69950102
Sb       8.62336407       0.03982426      26.86757294
Sb      10.74751712       3.73106811      26.83144715
Sb      12.88210381       0.02923176      26.83144796
Sb      -2.08579317       3.72995139      26.83151942
Sb       8.59400482       0.02289519      20.59435025
Sb      10.73671212       3.72488045      20.59536382
Sb      12.87136492       0.02292928      20.59536383
Sb       6.46407757       3.72739736      20.59249752
Sb      10.75159239       1.26702901      30.72233941
Sb      12.89469364       4.96914883      30.72671822
Sb      15.02926355       1.26734215      30.72671817
Sb       8.61531371       4.96786898      30.74459201
V        4.30954836       2.48502556      25.96215270
