61
Lattice="8.42843558953 0 0 -4.21421779477 7.29923593142 0 0 0 31.0334408416" Properties=species:S:1:pos:R:3:forces:R:3 energy=-133599.022026 ionic_step=0 pbc="T T T"
Te 2.0042773535 1.1571700424 3.4062196896 0.000219058007449 0.000144753119946 0.013423216494
Te 3.27e-08 -2.3143366247 3.4062196896 4.9879405452e-05 -0.000247340144561 0.0134450708727
Te -2.0042772879 1.1571700424 3.4062196896 -0.00020620249058 0.000203374276869 0.0134921220644
Te 4.2142177948 -2.4330763371 3.3076936251 -6.22207016464e-05 -2.95676887989e-05 0.00942360808571
Te 0 0 6.7762890792 7.45619978407e-06 2.4939702726e-05 0.0218664628633
Te -2.4822104666 -3.4330511377 6.8079484996 0.00551758784021 -0.0032051374658 0.0198062377299
Te -4.214217762 -0.433130196 6.8079484996 1.13128548448e-05 0.00638739211157 0.0198419760668
Te -1.7320073282 3.8661847937 6.8079484996 -0.00548364927568 -0.00321516476896 0.0197622718622
Te -0 0 -0.0648213531 1.4141068556e-05 -1.92832753036e-05 0.0210244265084
Te -2.0202278012 -3.6997770739 0.0173101984 -0.000787014742725 0.000450971531767 0.023964226106
Te -4.214217762 0.1003216763 0.0173101984 -2.57110337382e-07 -0.000937424290093 0.0239344013069
Te 2.0202278012 -3.6997770739 0.0173101984 0.000804498245667 0.000482596103265 0.0238950634252
Te 0 2.37858373 14.4469846319 8.79317353845e-05 -0.000292848674278 -0.0148046703368
Te -2.0599138556 -1.189288405 14.4469846319 0.000229085310607 0.000123927182618 -0.0147365360974
Te -4.214217762 2.4330797971 13.2783148416 -0.000129326499703 -2.80250267746e-05 -0.00800770145775
Te 2.0599138556 -1.189288405 14.4469846319 -0.000207488042267 0.000224200214197 -0.014734736325
Te 1.6051115611 0.9267114549 -13.2381247333 -9.46166041564e-05 -7.04482324426e-05 -0.0272855774443
Te 3.27e-08 -1.8534194497 -13.2381247333 -1.25984065317e-05 0.000176377691444 -0.0273069176023
Te -1.6051114955 0.9267114549 -13.2381247333 0.000128555168691 -4.91080744399e-05 -0.0272938049751
Te 4.2142177948 -2.4330763371 -13.7892933317 1.20841858569e-05 1.46552892308e-05 -0.0290041029393
Te 2.5379573224 1.4652904567 9.9960067581 0.00275827969943 0.00165399080038 0.0249659279804
Te 3.27e-08 -2.9305774534 9.9960067581 -8.02184252631e-05 -0.0032642728434 0.0249461304845
Te -2.5379572569 1.4652904567 9.9960067581 -0.00281150153927 0.00160102607088 0.0248625696248
Te 4.2142177948 -2.4330763371 10.1012481675 5.8621156923e-05 -7.19908944669e-06 0.0244303671477
Te -0 -0 -7.0321655601 4.47371987044e-05 2.44254820513e-05 -0.0207151227725
Te -1.7397785673 -3.8616945892 -6.950729908 0.000354298044912 -0.000264566537166 -0.0201991023254
Te 4.2142178275 0.4241567069 -6.950729908 -6.45346946828e-05 0.000522191095222 -0.0201978167737
Te 1.7397785673 -3.8616945892 -6.950729908 -0.000422689394655 -0.000212887359352 -0.0201170841278
Te -0 2.5663972665 -3.4115517171 -2.00546063158e-05 0.000157351526478 -0.00558212253489
Te -2.2225651432 -1.2831951732 -3.4115517171 -0.00017869168448 -0.000112614327773 -0.00558752185198
Te -4.214217762 2.4330797971 -3.4604723586 -1.92832753036e-05 -3.34243438596e-06 -0.00679182667227
Te 2.2225651432 -1.2831951732 -3.4115517171 0.000134725816788 -0.000127783837679 -0.00555589728048
Te 0 2.9029543982 -10.1933471663 8.53606320107e-05 -0.00228519667865 -0.0186677531559
Te -2.5140320334 -1.4514737391 -10.1933471663 0.00202911478262 0.00108860516847 -0.0186775233488
Te -4.214217762 2.4330797971 -10.4643385275 -6.81342394061e-05 -8.22753079621e-06 -0.0195794664123
Te 2.5140320334 -1.4514737391 -10.1933471663 -0.00201985881047 0.0012387576055 -0.0187019488308
Sb -0 2.3110713928 8.5314350902 -5.16791778137e-05 -0.00843630439017 0.027709809501
Sb -2.001446547 -1.1555322364 8.5314350902 0.00733895747022 0.00425826140771 0.0277581462444
Sb -4.214217762 2.4330797971 7.4007314449 5.16791778137e-05 -2.26257096896e-05 0.0276897548947
Sb 2.001446547 -1.1555322364 8.5314350902 -0.00726362414137 0.00420966755395 0.0276966968738
Sb 0 2.4255087226 1.7303760921 3.26530128475e-05 0.00206305334715 0.0216219509324
Sb -2.1005521391 -1.2127509013 1.7303760921 -0.00168535826154 -0.00102946979088 0.0215718144167
Sb -4.214217762 2.4330797971 1.9454408203 -3.3681454197e-05 4.62798607287e-05 0.0200589771915
Sb 2.1005521391 -1.2127509013 1.7303760921 0.00169744244739 -0.00101969959806 0.0216402057664
Sb 0 0 -11.05131667 9.59021558433e-05 -2.95676887989e-05 -0.019115896474
Sb -2.0519246061 -3.6814769029 -12.3111017828 0.00105698059698 -0.000593924879352 -0.0244218825065
Sb -4.214217762 0.0637213344 -12.3111017828 -5.29647295006e-05 0.00123078718505 -0.0244038847829
Sb -2.1622931231 3.6177590285 -12.3111017828 -0.00106186569339 -0.000578755369446 -0.0244239393892
Sb 0 0 10.6411371804 4.4480088367e-05 4.73083020782e-05 0.015453359718
Sb -2.4474995301 -3.4530915376 12.5283393326 0.0066414171249 -0.00389522161133 0.00551244563346
Sb 4.2142178275 -0.3930493959 12.5283393326 -7.86757632388e-05 0.00766214516431 0.00556026815622
Sb 2.4474995301 -3.4530915376 12.5283393326 -0.00662727605635 -0.00381011808966 0.00553867088788
Sb 2.117538477 1.222561412 -1.9270763883 -0.00131640492739 -0.000797556266558 0.0129539901283
Sb 3.27e-08 -2.4451193639 -1.9270763883 5.70784948987e-05 0.00146964268847 0.0130043837544
Sb -2.1175384114 1.222561412 -1.9270763883 0.00131151983098 -0.000743820206045 0.0130254668021
Sb 4.2142177948 -2.4330763371 -1.7063179234 -0.000145010230283 -6.55631360323e-05 0.014712624836
Sb 2.0711971458 1.1958062222 -8.7643013774 -0.00181622742326 -0.00101250050861 -0.0174274528884
Sb 3.27e-08 -2.3916089842 -8.7643013774 -9.25597214574e-06 0.00208465061549 -0.0174757896318
Sb -2.0711970804 1.1958062222 -8.7643013774 0.0017552922733 -0.00103641176999 -0.0174688476527
Sb 4.2142177948 -2.4330763371 -7.8343090984 -2.26257096896e-05 1.92832753036e-05 -0.0190235938629
Cr -4.2142177948 -2.4330763371 14.6822718583 -4.93651847773e-05 8.74175147098e-06 -0.0143914940246
61
Lattice="8.42843558953 0 0 -4.21421779477 7.29923593142 0 0 0 31.0334408416" Properties=species:S:1:pos:R:3:forces:R:3 energy=-133599.037255 ionic_step=1 pbc="T T T"
Te 2.0036895071 1.156830649 3.407097213 -0.00232042079487 -0.00133954485776 -0.0190307929523
Te 3.27e-08 -2.3136578379 3.407097213 -0 0.00269657321846 -0.0190097099046
Te -2.0036894415 1.156830649 3.407097213 0.00231707836048 -0.0013631990088 -0.0190192229871
Te 4.2142177948 -2.4330763371 3.3086188774 -4.88509641025e-06 5.14220674763e-06 -0.0150337556474
Te 0 0 6.7731696445 -8.48464113359e-06 3.85665506072e-06 -0.0166918602132
Te -2.4815417167 -3.4334372408 6.8099864345 -0.000989874798919 0.000560757645829 -0.0114519515373
Te -4.214217762 -0.4323579898 6.8099864345 -3.34243438596e-06 -0.00114851187708 -0.0114694350403
Te -1.7326760781 3.8657986906 6.8099864345 0.000997845219378 0.000554586997732 -0.0114491233236
Te 0 0 -0.0669091912 -2.41683717139e-05 9.25597214574e-06 0.00372552878866
Te -2.0188668403 -3.7005628254 0.0152915174 -0.00103898287336 0.000613208154655 0.00338177226758
Te -4.214217762 0.1018931793 0.0152915174 2.87963577867e-05 -0.00118142200027 0.00339488489479
Te 2.0188668403 -3.7005628254 0.0152915174 0.00103872576302 0.000574384493711 0.00337071652307
Te 0 2.3772653932 14.4470036723 -9.25597214574e-06 -0.00493034782963 0.00488766751362
Te -2.058772143 -1.1886292366 14.4470036723 0.00426417494547 0.00247314433527 0.00488458218958
Te -4.214217762 2.4330797971 13.2806375531 1.49123995681e-05 -6.17064809716e-06 0.0110686000243
Te 2.058772143 -1.1886292366 14.4470036723 -0.00426700315919 0.00245463239098 0.00487326933473
Te 1.6065602881 0.9275478782 -13.2389339702 -0.00784906437959 -0.00452205661387 -0.0105921745691
Te 3.27e-08 -1.8550922964 -13.2389339702 -1.28555168691e-06 0.00903280037289 -0.0106145431685
Te -1.6065602225 0.9275478782 -13.2389339702 0.00782283912517 -0.00450200200755 -0.0105818901556
Te 4.2142177948 -2.4330763371 -13.7934100786 2.8282137112e-06 -1.49123995681e-05 -0.00489846614779
Te 2.5370329278 1.464756757 9.9947802417 -0.00116419560766 -0.000664373111794 0.0106243133613
Te 3.27e-08 -2.929510054 9.9947802417 1.77406132793e-05 0.00134468706451 0.0106155716098
Te -2.5370328623 1.464756757 9.9947802417 0.0011726802488 -0.000653831587961 0.0106222564786
Te 4.2142177948 -2.4330763371 10.1014959118 -1.38839582186e-05 -1.4141068556e-05 0.0134885225197
Te 0 0 -7.0309656233 -2.2882820027e-05 -9.25597214574e-06 0.0158390252241
Te -1.7402851852 -3.8614020931 -6.9504335845 0.00209544924966 -0.00119350618613 0.0135821106825
Te 4.2142178275 0.4235717147 -6.9504335845 3.39385645344e-05 0.00238675526191 0.0135777398068
Te 1.7402851852 -3.8614020931 -6.9504335845 -0.00205971091276 -0.00120739014434 0.0135741402621
Te 0 2.5686071975 -3.4130365665 -8.99886180836e-06 -0.00524068000685 0.0112966568935
Te -2.2244789987 -1.2843001387 -3.4130365665 0.00453414079973 0.00262792475838 0.0113185112722
Te -4.214217762 2.4330797971 -3.4632482397 1.79977236167e-06 -1.7483502942e-05 0.0082645546848
Te 2.2244789987 -1.2843001387 -3.4130365665 -0.00453491213074 0.00261198391746 0.0113071984174
Te 0 2.9019968311 -10.192012689 -2.77679164372e-05 -0.003493358154 -0.00997665242142
Te -2.5132027564 -1.4509949556 -10.192012689 0.00303467331212 0.00175992025938 -0.00994399940857
Te -4.214217762 2.4330797971 -10.4652495525 2.77679164372e-05 4.37087573549e-06 -0.0101936535462
Te 2.5132027564 -1.4509949556 -10.192012689 -0.00300330585095 0.0017167257227 -0.0099627684632
Sb 0 2.3095519311 8.5359913241 -4.37087573549e-06 0.00706333518855 -0.000884459560593
Sb -2.0001306552 -1.1547725056 8.5359913241 -0.00609762876134 -0.00353783824237 -0.00088471667093
Sb -4.214217762 2.4330797971 7.403336531 -3.34243438596e-06 1.77406132793e-05 -0.0131758763495
Sb 2.0001306552 -1.1547725056 8.5359913241 0.00609737165101 -0.00353269603562 -0.000863376512928
Sb 0 2.424374148 1.7322398381 7.97042045883e-06 -0.00744848647395 -0.0124680515906
Sb -2.0995695691 -1.212183614 1.7322398381 0.00642210200712 0.00373195654709 -0.0124747364594
Sb -4.214217762 2.4330797971 1.9491686688 -1.15699651822e-05 -2.4939702726e-05 -0.00762486416539
Sb 2.0995695691 -1.212183614 1.7322398381 -0.00643495752399 0.0037409554089 -0.0124441403293
Sb 0 -0 -11.0486766263 -1.77406132793e-05 1.20841858569e-05 -0.0210313684875
Sb -2.0513120133 -3.6818305837 -12.3104403129 0.000208516483617 -0.000107729231363 -0.0160555121281
Sb -4.214217762 0.0644286959 -12.3104403129 2.4939702726e-05 0.000246825923886 -0.0160472845973
Sb -2.1629057159 3.6174053477 -12.3104403129 -0.000194889635735 -0.000141667795897 -0.0160567976798
Sb -0 -0 10.6366266779 6.68486877192e-06 -6.68486877192e-06 0.0162987385073
Sb -2.4480272592 -3.4527868529 12.5260489673 -0.00709650242207 0.00410168121225 0.0118077922443
Sb 4.2142178275 -0.3936587653 12.5260489673 -1.28555168691e-06 -0.00818459336987 0.0118139628923
Sb 2.4480272592 -3.4527868529 12.5260489673 0.00709881641511 0.00410090988124 0.0118085635753
Sb 2.1166177853 1.2220298501 -1.9274695551 -0.00644215661343 -0.00372398612664 0.0108549413339
Sb 3.27e-08 -2.4440562402 -1.9274695551 -1.77406132793e-05 0.00745157179799 0.0108536557822
Sb -2.1166177197 1.2220298501 -1.9274695551 0.00644678459951 -0.00374378362261 0.0108683110715
Sb 4.2142177948 -2.4330763371 -1.7060507535 2.05688269905e-05 1.31126272065e-05 0.0105494942531
Sb 2.0703201916 1.1952999122 -8.7658484095 -0.00141307841425 -0.000819153534898 0.00873326682984
Sb 3.27e-08 -2.3905963643 -8.7658484095 -1.00273031579e-05 0.00164370638688 0.00873352394018
Sb -2.0703201262 1.1952999122 -8.7658484095 0.00142593393112 -0.000833037493116 0.0087350666022
Sb 4.2142177948 -2.4330763371 -7.8313650473 -1.54266202429e-06 1.23412961943e-05 0.0116712666551
Cr -4.2142177948 -2.4330763371 14.677282738 -3.85665506072e-06 -5.6564274224e-06 -0.00163265064237
61
Lattice="8.42843558953 0 0 -4.21421779477 7.29923593142 0 0 0 31.0334408416" Properties=species:S:1:pos:R:3:forces:R:3 energy=-133599.051979 ionic_step=2 pbc="T T T"
Te 2.0028731488 1.156359324 3.4082364821 -0.00118913531039 -0.000691626807557 0.001863278615
Te 3.27e-08 -2.312715188 3.4082364821 1.7483502942e-05 0.00137296920162 0.00186996348378
Te -2.0028730832 1.156359324 3.4082364821 0.00118116488993 -0.000679028401025 0.00186790660108
Te 4.2142177948 -2.4330763371 3.3095493177 -1.20841858569e-05 4.88509641025e-06 0.00182034118866
Te 0 0 6.7698341298 5.14220674763e-06 -5.14220674763e-07 0.0034313945627
Te -2.481077412 -3.4337053074 6.8128375294 0.000193861194386 -0.000124184292955 0.00435133534985
Te -4.214217762 -0.4318218566 6.8128375294 -7.97042045883e-06 0.000252225240971 0.00434567892242
Te -1.7331403828 3.865530624 6.8128375294 -0.000215972683401 -0.000121098968907 0.00435262090153
Te 0 0 -0.0693933847 4.88509641025e-06 8.99886180836e-06 0.00213555846229
Te -2.0172372559 -3.7015036668 0.0129794698 -0.000199260511471 0.000106957900351 0.00169204313031
Te -4.214217762 0.1037748622 0.0129794698 -4.88509641025e-06 -0.000225999986558 0.00170078488178
Te 2.0172372559 -3.7015036668 0.0129794698 0.000202860056194 0.000110814555411 0.00169564267503
Te 0 2.3759158806 14.4467493126 4.37087573549e-06 0.00357357657927 -0.00196200898456
Te -2.0576034313 -1.1879544803 14.4467493126 -0.00310075066882 -0.00179025927919 -0.00197409317042
Te -4.214217762 2.4330797971 13.2833401695 6.68486877192e-06 -5.91353775978e-06 -0.00290946057781
Te 2.0576034313 -1.1879544803 14.4467493126 0.0031033217722 -0.00178460285177 -0.00197563583244
Te 1.6079639409 0.9283582779 -13.2396939763 -0.00189721717954 -0.00109246182353 0.0033324070828
Te 3.27e-08 -1.8567130957 -13.2396939763 2.57110337382e-06 0.00218595208842 0.00333472107584
Te -1.6079638753 0.9283582779 -13.2396939763 0.00189850273123 -0.00109323315455 0.00332906464842
Te 4.2142177948 -2.4330763371 -13.7981539626 2.8282137112e-06 -4.11376539811e-06 0.00461050256993
Te 2.5364860922 1.4644410411 9.9933338594 0.000931510752334 0.000517048888474 -0.0055594968252
Te 3.27e-08 -2.9288786223 9.9933338594 1.00273031579e-05 -0.00105260972124 -0.00555306906677
Te -2.5364860267 1.4644410411 9.9933338594 -0.000938195621106 0.000546873687611 -0.00554535575665
Te 4.2142177948 -2.4330763371 10.1014982487 -7.19908944669e-06 4.37087573549e-06 -0.00371061638909
Te -0 0 -7.0296508483 2.57110337382e-06 5.39931708501e-06 0.00685893247033
Te -1.7406730428 -3.8611781633 -6.9502721822 -0.000383351513036 0.000213658690364 0.00616859121446
Te 4.2142178275 0.4231238551 -6.9502721822 -3.59954472334e-06 -0.000445572214682 0.00617219075918
Te 1.7406730428 -3.8611781633 -6.9502721822 0.00038103752 0.000224971545209 0.00615573569759
Te -0 2.5713107603 -3.4148974062 -4.37087573549e-06 0.000785214970363 -0.00208387928448
Te -2.2268203517 -1.2856519201 -3.4148974062 -0.000688541483508 -0.000388493719784 -0.00209467791865
Te -4.214217762 2.4330797971 -3.4664448534 9.51308248312e-06 -3.59954472334e-06 -0.0030228462366
Te 2.2268203517 -1.2856519201 -3.4148974062 0.000692141028231 -0.000391064823157 -0.00209004993258
Te -0 2.9012872056 -10.1904597286 1.02844134953e-06 -8.8960176734e-05 -0.00766857292274
Te -2.5125882029 -1.4506401428 -10.1904597286 7.94470942509e-05 4.26803160054e-05 -0.00766600181937
Te -4.214217762 2.4330797971 -10.4661276715 -8.22753079621e-06 6.68486877192e-06 -0.00795962182466
Te 2.5125882029 -1.4506401428 -10.1904597286 -8.27895286369e-05 4.49943090418e-05 -0.00767808600523
Sb 0 2.3078076743 8.5408879661 3.08532404858e-06 0.00106495101743 -0.00346456179622
Sb -1.9986200851 -1.1539003771 8.5408879661 -0.000914284359729 -0.000530418626018 -0.00345324894137
Sb -4.214217762 2.4330797971 7.4067428087 6.17064809716e-06 -4.62798607287e-06 0.00230525128496
Sb 1.9986200851 -1.1539003771 8.5408879661 0.000914798580404 -0.000528618853657 -0.00344836384496
Sb -0 2.4232366027 1.7343889584 -1.15699651822e-05 -0.00127578149409 0.00158611367131
Sb -2.0985844264 -1.2116148413 1.7343889584 0.00109554714758 0.000642004512442 0.00158071435422
Sb -4.214217762 2.4330797971 1.9534997888 -2.57110337382e-07 -8.22753079621e-06 0.00173163812227
Sb 2.0985844264 -1.2116148413 1.7343889584 -0.00109400448556 0.000625806561187 0.00158508522996
Sb 0 0 -11.0463829621 4.37087573549e-06 -2.57110337382e-07 -0.0116874646064
Sb -2.0508954186 -3.6820711049 -12.3098022663 -0.000176377691444 0.000101558583266 -0.0053283546319
Sb -4.214217762 0.0649097383 -12.3098022663 -6.68486877192e-06 -0.000205174049231 -0.00532989729392
Sb -2.1633223106 3.6171648265 -12.3098022663 0.000177663243131 0.000109271893387 -0.00532449797684
Sb -0 -0 10.6316248957 8.99886180836e-06 -2.23685993522e-05 -0.00527050480599
Sb -2.4484594245 -3.4525373421 12.5234368637 -0.00101275761895 0.000595981762051 -0.00288966308183
Sb 4.2142178275 -0.394157787 12.5234368637 4.37087573549e-06 -0.00117036625576 -0.00289866194364
Sb 2.4484594245 -3.4525373421 12.5234368637 0.00101481450165 0.000594439100026 -0.00289429106791
Sb 2.1157161768 1.221509306 -1.9281601481 -0.000698568786666 -0.000408034105425 0.000981133047448
Sb 3.27e-08 -2.4430151519 -1.9281601481 1.43981788934e-05 0.000813497107475 0.000980361716436
Sb -2.1157161112 1.221509306 -1.9281601481 0.000702939662401 -0.000389522161133 0.000990903240269
Sb 4.2142177948 -2.4330763371 -1.7054585633 -1.05415238326e-05 3.08532404858e-06 -0.00188204766963
Sb 2.0694218997 1.1947812829 -8.767312261 -3.67667782456e-05 -1.92832753036e-05 0.00378877793166
Sb 3.27e-08 -2.3895591056 -8.767312261 3.34243438596e-06 4.03663229689e-05 0.00378800660064
Sb -2.0694218343 1.1947812829 -8.767312261 3.93378816194e-05 -2.00546063158e-05 0.00379237747638
Sb 4.2142177948 -2.4330763371 -7.8277753839 2.31399303643e-06 -5.91353775978e-06 0.00640796093856
Cr -4.2142177948 -2.4330763371 14.6717947056 2.57110337382e-06 5.6564274224e-06 0.00285109653122
61
Lattice="8.42843558953 0 0 -4.21421779477 7.29923593142 0 0 0 31.0334408416" Properties=species:S:1:pos:R:3:forces:R:3 energy=-133599.07209 ionic_step=3 pbc="T T T"
Te 2.0012868171 1.1554434546 3.4104455486 0.000149381106019 8.61319630228e-05 -0.00629071862472
Te 3.27e-08 -2.3108834491 3.4104455486 1.28555168691e-06 -0.000172006815708 -0.00629020440404
Te -2.0012867515 1.1554434546 3.4104455486 -0.000148352664669 8.63890733602e-05 -0.0062899472937
Te 4.2142177948 -2.4330763371 3.3110487203 -1.02844134953e-06 7.71331012145e-07 -0.00626063671524
Te -0 -0 6.7648183977 7.71331012145e-07 -1.28555168691e-06 -0.00166324677252
Te -2.4807134657 -3.433915432 6.8183822387 -0.000447371987044 0.000258910109743 -0.0013081773966
Te -4.214217762 -0.4314016074 6.8183822387 -2.57110337382e-07 -0.000517305998812 -0.00130869161727
Te -1.7335043291 3.8653204994 6.8183822387 0.000447886207719 0.000259167220081 -0.0013081773966
Te 0 -0 -0.0736374456 5.14220674763e-07 -5.14220674763e-07 -0.00120996124772
Te -2.0144305175 -3.7031241388 0.0092246445 -0.000667458435843 0.000384637064723 -0.00180491456842
Te -4.214217762 0.1070158061 0.0092246445 -1.54266202429e-06 -0.000771073901808 -0.00180440034774
Te 2.0144305175 -3.7031241388 0.0092246445 0.000667458435843 0.000385151285398 -0.00180440034774
Te 0 2.3739196028 14.4458308888 1.02844134953e-06 0.00735412698013 -0.00312183371649
Te -2.0558746048 -1.1869563414 14.4458308888 -0.00637016571897 -0.00367667782456 -0.00312311926817
Te -4.214217762 2.4330797971 13.2877521374 2.57110337382e-07 -1.54266202429e-06 -0.00270197253554
Te 2.0558746048 -1.1869563414 14.4458308888 0.00636990860863 -0.00367667782456 -0.00312234793716
Te 1.6099790645 0.9295217106 -13.2407092935 0.000112357217436 6.55631360323e-05 -0.00105492371428
Te 3.27e-08 -1.8590399611 -13.2407092935 -2.57110337382e-07 -0.000129326499703 -0.00105492371428
Te -1.6099789989 0.9295217106 -13.2407092935 -0.000112100107098 6.47918050202e-05 -0.00105595215563
Te 4.2142177948 -2.4330763371 -13.8058794871 5.14220674763e-07 2.57110337382e-07 -0.0071854625988
Te 2.5362805586 1.4643223762 9.9908450049 0.000599838417111 0.000345556293441 -0.00124544247428
Te 3.27e-08 -2.9286412925 9.9908450049 7.71331012145e-07 -0.000691883917894 -0.00124569958461
Te -2.5362804931 1.4643223762 9.9908450049 -0.000600095527449 0.00034658473479 -0.00124518536394
Te 4.2142177948 -2.4330763371 10.1010567262 -1.02844134953e-06 -0 0.000688284373171
Te -0 0 -7.0275624207 5.14220674763e-07 -5.14220674763e-07 0.00558340808658
Te -1.7410438529 -3.8609640759 -6.9502273227 0.000126241175654 -7.17337841295e-05 0.00591559464248
Te 4.2142178275 0.4226956802 -6.9502273227 -7.71331012145e-07 0.000143981788934 0.00591559464248
Te 1.7410438529 -3.8609640759 -6.9502273227 -0.000126755396329 -7.2762225479e-05 0.00591585175281
Te 0 2.5760743002 -3.4182889294 2.57110337382e-07 0.000283849812469 0.00359954472334
Te -2.2309456963 -1.28803369 -3.4182889294 -0.000245283261862 -0.000142953347584 0.00359877339233
Te -4.214217762 2.4330797971 -3.4718444562 -1.28555168691e-06 2.57110337382e-07 0.0032663297261
Te 2.2309456963 -1.28803369 -3.4182889294 0.000245540372199 -0.000140639354548 0.00360083027503
Te -0 2.9006065623 -10.1878614737 1.02844134953e-06 0.000319845259703 0.00713378342099
Te -2.5119987488 -1.4502998211 -10.1878614737 -0.000277164943697 -0.000160436850526 0.00713301208998
Te -4.214217762 2.4330797971 -10.4673872247 -5.14220674763e-07 -2.57110337382e-07 0.00659693703654
Te 2.5119987488 -1.4502998211 -10.1878614737 0.00027690783336 -0.000159408409177 0.00713352631065
Sb 0 2.3048725601 8.548483068 5.14220674763e-07 0.00177020467287 -0.00080424113533
Sb -1.9960782029 -1.1524328201 8.548483068 -0.00153263472113 -0.000886002222617 -0.000804755356005
Sb -4.214217762 2.4330797971 7.4130457949 -2.57110337382e-07 5.14220674763e-07 -0.00110557445074
Sb 1.9960782029 -1.1524328201 8.548483068 0.00153289183147 -0.000884973781268 -0.000804498245667
Sb -0 2.4216074709 1.7379949008 -5.14220674763e-07 0.000402891898677 -0.00734075724258
Sb -2.0971735576 -1.2108002755 1.7379949008 -0.000348898727827 -0.000200803173495 -0.00734204279427
Sb -4.214217762 2.4330797971 1.9607763278 -2.57110337382e-07 2.57110337382e-07 -0.00738138067589
Sb 2.0971735576 -1.2108002755 1.7379949008 0.000349155838164 -0.000201574504507 -0.00734127146326
Sb 0 -0 -11.043483327 0 2.57110337382e-07 0.0055952351621
Sb -2.0505993275 -3.6822420532 -12.3088848864 -0.000777501660242 0.000448657538731 0.00166298966218
Sb -4.214217762 0.065251635 -12.3088848864 0 -0.000897315077462 0.00166273255185
Sb -2.1636184017 3.6169938782 -12.3088848864 0.000777501660242 0.000448143318056 0.00166247544151
Sb -0 -0 10.6236427599 7.71331012145e-07 -7.71331012145e-07 -0.00127166772869
Sb -2.4487594859 -3.4523641014 12.5188794982 -0.00362242754337 0.00209056415325 -0.000921740559513
Sb 4.2142178275 -0.3945042682 12.5188794982 0 -0.00418087119616 -0.000922511890525
Sb 2.4487594859 -3.4523641014 12.5188794982 0.00362114199168 0.00209107837392 -0.000923283221537
Sb 2.1144492294 1.2207778333 -1.9297668272 0.000136011368475 7.76473218893e-05 0.00329538319422
Sb 3.27e-08 -2.4415522064 -1.9297668272 0 -0.000156323085128 0.00329564030456
Sb -2.1144491638 1.2207778333 -1.9297668272 -0.000135754258138 7.99613149257e-05 0.00329615452523
Sb 4.2142177948 -2.4330763371 -1.7041373903 -7.71331012145e-07 0 0.00325475976091
Sb 2.0680668511 1.1939989448 -8.7693317325 -0.000372038658191 -0.000214944242051 0.00806246595961
Sb 3.27e-08 -2.3879944295 -8.7693317325 -5.14220674763e-07 0.000429631373765 0.00806349440096
Sb -2.0680667857 1.1939989448 -8.7693317325 0.000371781547854 -0.000214430021376 0.00806220884928
Sb 4.2142177948 -2.4330763371 -7.8215638988 5.14220674763e-07 5.14220674763e-07 0.00675943076976
Cr -4.2142177948 -2.4330763371 14.663562657 1.02844134953e-06 7.71331012145e-07 -0.0026844890326
61
Lattice="8.42843558953 0 0 -4.21421779477 7.29923593142 0 0 0 31.0334408416" Properties=species:S:1:pos:R:3:forces:R:3 energy=-133599.096371 ionic_step=4 pbc="T T T"
Te 1.998453677 1.1538077396 3.4142925171 -0.000561271866504 -0.000323959025101 0.00262509654467
Te 3.27e-08 -2.3076120192 3.4142925171 -0 0.000647918050202 0.00262278255163
Te -1.9984536114 1.1538077396 3.4142925171 0.000561271866504 -0.000323701914763 0.002625353655
Te 4.2142177948 -2.4330763371 3.313250769 0 1.02844134953e-06 0.00300613406467
Te -0 -0 6.7576680804 -2.57110337382e-07 7.71331012145e-07 -0.000991931681618
Te -2.4807479256 -3.4338955365 6.8282516773 0.000366639341106 -0.00021108758699 -0.00143056191719
Te -4.214217762 -0.4314413983 6.8282516773 -2.57110337382e-07 0.000421660953306 -0.00143159035854
Te -1.7334698692 3.8653403949 6.8282516773 -0.000366382230769 -0.000212373138677 -0.00143030480685
Te 0 0 -0.0804626795 0 -3.59954472334e-06 -0.000478482337867
Te -2.0098532683 -3.7057668161 0.0034638639 0.000349155838164 -0.000199003401133 -0.000587754231254
Te -4.214217762 0.1123011606 0.0034638639 -5.14220674763e-07 0.000400063684966 -0.000590068224291
Te 2.0098532683 -3.7057668161 0.0034638639 -0.000348641617489 -0.000199774732146 -0.000587754231254
Te 0 2.371171085 14.443582167 5.14220674763e-07 0.000684941938785 0.000205174049231
Te -2.0534943197 -1.1855820825 14.443582167 -0.000593153548339 -0.000341956748718 0.000204145607881
Te -4.214217762 2.4330797971 13.2946878522 0 -1.79977236167e-06 9.89874798919e-05
Te 2.0534943197 -1.1855820825 14.443582167 0.000592639327665 -0.00034272807973 0.000204145607881
Te 1.6127505177 0.9311218106 -13.242028487 -0.000157865747152 -9.17883904452e-05 0.00134263018181
Te 3.27e-08 -1.8622401611 -13.242028487 2.57110337382e-07 0.000182034118866 0.00134314440248
Te -1.6127504521 0.9311218106 -13.242028487 0.000157608636815 -9.230261112e-05 0.00134263018181
Te 4.2142177948 -2.4330763371 -13.8177829881 2.57110337382e-07 -0 0.000615779258029
Te 2.5370376987 1.4647595115 9.9868365734 -0.000613465264993 -0.000352755382888 -0.00176660512815
Te 3.27e-08 -2.929515563 9.9868365734 0 0.000706796317462 -0.00176686223849
Te -2.5370376332 1.4647595115 9.9868365734 0.000613465264993 -0.00035249827255 -0.00176660512815
Te 4.2142177948 -2.4330763371 10.099723131 -0 -1.54266202429e-06 -0.00141924906235
Te -0 0 -7.0244687557 0 2.31399303643e-06 0.000716052289608
Te -1.7412169875 -3.8608641165 -6.9504963535 -5.47645018623e-05 2.93105784615e-05 0.000910170594331
Te 4.2142178275 0.4224957615 -6.9504963535 -0 -6.01638189473e-05 0.000910684815006
Te 1.7412169875 -3.8608641165 -6.9504963535 5.47645018623e-05 2.93105784615e-05 0.000910170594331
Te 0 2.5840365519 -3.423931313 2.57110337382e-07 -0.00053710349479 -0.00113025704313
Te -2.2378412053 -1.2920148159 -3.423931313 0.000464341269311 0.000270737185263 -0.00112845727077
Te -4.214217762 2.4330797971 -3.4804662582 -0 -2.05688269905e-06 -0.00102124226008
Te 2.2378412053 -1.2920148159 -3.423931313 -0.000464855489986 0.000270480074925 -0.00112820016043
Te -0 2.9002355609 -10.183687717 2.57110337382e-07 -0.00033681454197 -0.000301076205074
Te -2.5116774524 -1.4501143205 -10.183687717 0.000292334453603 0.00016789305031 -0.000301076205074
Te -4.214217762 2.4330797971 -10.4691172789 0 2.57110337382e-07 -1.97974959784e-05
Te 2.5116774524 -1.4501143205 -10.183687717 -0.000292334453603 0.00016789305031 -0.000301076205074
Sb 0 2.3000179338 8.5598368121 -2.57110337382e-07 -0.0013570283607 -0.00249756981733
Sb -1.9918739752 -1.1500055069 8.5598368121 0.00117705112453 0.000677999959675 -0.00249885536901
Sb -4.214217762 2.4330797971 7.4239269358 2.57110337382e-07 2.31399303643e-06 -0.00198874845965
Sb 1.9918739752 -1.1500055069 8.5598368121 -0.00117705112453 0.000677999959675 -0.00249885536901
Sb 0 2.4194032699 1.7436071493 -2.57110337382e-07 -0.0012022479376 0.00252122396836
Sb -2.0952646644 -1.2096981749 1.7436071493 0.00104103975606 0.000601381079136 0.00251839575465
Sb -4.214217762 2.4330797971 1.972348832 0 -0 0.00294417047336
Sb 2.0952646644 -1.2096981749 1.7436071493 -0.00104103975606 0.000601638189473 0.00251839575465
Sb 0 -0 -11.0400459047 -0 -7.71331012145e-07 0.000308275294521
Sb -2.0506711689 -3.6822005755 -12.3076455432 -0.000202088725182 0.000115699651822 0.000866461836976
Sb -4.214217762 0.0651686797 -12.3076455432 2.57110337382e-07 -0.00023268485533 0.000864919174952
Sb -2.1635465603 3.6170353559 -12.3076455432 0.000201831614845 0.000115956762159 0.000866461836976
Sb -0 -0 10.6115356476 -0 -5.14220674763e-07 -0.00160231162256
Sb -2.4483995862 -3.4525718897 12.5111728289 6.04209292847e-05 -3.52241162213e-05 0.000231913524318
Sb 4.2142178275 -0.3940886916 12.5111728289 7.71331012145e-07 7.07053427799e-05 0.000233199076005
Sb 2.4483995862 -3.4525718897 12.5111728289 -6.09351499594e-05 -3.44527852091e-05 0.000231656413981
Sb 2.1127859914 1.2198175619 -1.9329381545 -0.000468455034709 -0.000273565398974 -0.00246980190089
Sb 3.27e-08 -2.4396316636 -1.9329381545 -2.57110337382e-07 0.000544816804912 -0.00246928768021
Sb -2.1127859258 1.2198175619 -1.9329381545 0.000468455034709 -0.000273308288637 -0.00246980190089
Sb 4.2142177948 -2.4330763371 -1.7013715676 -0 2.05688269905e-06 -0.00278527628486
Sb 2.0661134064 1.1928711225 -8.7719840674 -0.000416518746558 -0.00023962683444 1.4141068556e-05
Sb 3.27e-08 -2.3857387848 -8.7719840674 -2.57110337382e-07 0.000481310551578 1.079863417e-05
Sb -2.066113341 1.1928711225 -8.7719840674 0.000416518746558 -0.00023962683444 1.4141068556e-05
Sb 4.2142177948 -2.4330763371 -7.8114056813 0 2.57110337382e-07 0.000526819081295
Cr -4.2142177948 -2.4330763371 14.6522378583 2.57110337382e-07 0 0.000708596089824
61
Lattice="8.42843558953 0 0 -4.21421779477 7.29923593142 0 0 0 31.0334408416" Properties=species:S:1:pos:R:3:forces:R:3 energy=-133599.12246 ionic_step=5 pbc="T T T"
Te 1.993473046 1.1509321697 3.4208477242 -0.000852834989095 -0.000492366296086 0.00668306899956
Te 3.27e-08 -2.3018608792 3.4208477242 5.14220674763e-07 0.000983704150822 0.00668306899956
Te -1.9934729804 1.1509321697 3.4208477242 0.000853092099432 -0.000492109185748 0.00668306899956
Te 4.2142177948 -2.4330763371 3.3163959042 -2.57110337382e-07 -1.02844134953e-06 0.00699751494218
Te -0 -0 6.747796082 -0 0 0.00155294643779
Te -2.4818282481 -3.4332718118 6.8454115947 0.000477711006855 -0.000276136502348 0.00125187023271
Te -4.214217762 -0.4326888478 6.8454115947 5.14220674763e-07 0.000550730342671 0.00125032757069
Te -1.7323895467 3.8659641196 6.8454115947 -0.000477968117192 -0.000274336729986 0.00125135601204
Te 0 0 -0.0912866486 0 1.28555168691e-06 0.000696254793629
Te -2.0024766722 -3.7100256978 -0.0051009479 0.000559214983805 -0.000325758797463 0.000580812252145
Te -4.214217762 0.1208189241 -0.0051009479 5.14220674763e-07 0.000646889608852 0.000578498259109
Te 2.0024766722 -3.7100256978 -0.0051009479 -0.000560757645829 -0.000323444804426 0.000579783810796
Te 0 2.3677804285 14.4386595858 7.71331012145e-07 -0.00149586794289 0.000560757645829
Te -2.0505579264 -1.1838867543 14.4386595858 0.00129506476939 0.000748705302455 0.000560243425155
Te -4.214217762 2.4330797971 13.3056095915 2.57110337382e-07 5.14220674763e-07 -6.09351499594e-05
Te 2.0505579264 -1.1838867543 14.4386595858 -0.00129557899007 0.000746905530094 0.00055972920448
Te 1.6164577866 0.9332622043 -13.2436502293 -0.000340156976356 -0.000195660966747 0.00370058908593
Te 3.27e-08 -1.8665209485 -13.2436502293 -2.57110337382e-07 0.000391579043832 0.00370084619627
Te -1.616457721 0.9332622043 -13.2436502293 0.000340156976356 -0.000195918077085 0.0037003319756
Te 4.2142177948 -2.4330763371 -13.8356195146 -0 -0 0.0053538085553
Te 2.5400251398 1.4664843122 9.9805334335 -0.00106006592102 -0.000611922602968 -0.00256030473965
Te 3.27e-08 -2.9329651644 9.9805334335 5.14220674763e-07 0.00122333098526 -0.00256056184998
Te -2.5400250743 1.4664843122 9.9805334335 0.00105980881069 -0.000612951044318 -0.00255953340863
Te 4.2142177948 -2.4330763371 10.0965818589 -5.14220674763e-07 -0 -0.00279067560194
Te -0 0 -7.0199646611 0 -7.71331012145e-07 -0.00222786107341
Te -1.7408025461 -3.8611033945 -6.951358672 -0.000476682565506 0.000275622281673 -0.00223814548691
Te 4.2142178275 0.4229743174 -6.951358672 5.14220674763e-07 -0.000550216121997 -0.00223943103859
Te 1.7408025461 -3.8611033945 -6.951358672 0.000476682565506 0.000275622281673 -0.00223891681792
Te 0 2.5971988984 -3.4331310437 2.57110337382e-07 -5.81069362482e-05 -0.00374481206396
Te -2.2492401264 -1.2985959891 -3.4331310437 5.01365157894e-05 2.87963577867e-05 -0.00374609761565
Te -4.214217762 2.4330797971 -3.4942512353 2.57110337382e-07 5.14220674763e-07 -0.00366536496971
Te 2.2492401264 -1.2985959891 -3.4331310437 -5.09078468016e-05 2.80250267746e-05 -0.00374584050531
Te -0 2.9007326999 -10.1771155153 0 -0.000185890773927 -0.00440147186564
Te -2.5121079872 -1.45036289 -10.1771155153 0.000161722402213 9.230261112e-05 -0.00440070053462
Te -4.214217762 2.4330797971 -10.4714689045 -5.14220674763e-07 2.57110337382e-07 -0.00394278702375
Te 2.5121079872 -1.45036289 -10.1771155153 -0.000162236622888 9.33310524695e-05 -0.00440070053462
Sb 0 2.2919760538 8.576522036 2.57110337382e-07 -0.0025042546861 -0.00163110798035
Sb -1.984909506 -1.1459845669 8.576522036 0.00216898280615 0.00125187023271 -0.00163110798035
Sb -4.214217762 2.4330797971 7.4422755294 0 1.02844134953e-06 0.000118013644858
Sb 1.984909506 -1.1459845669 8.576522036 -0.00216846858548 0.00125187023271 -0.00163059375967
Sb 0 2.4165176984 1.7521572585 1.02844134953e-06 -0.00188436166267 0.00688412928339
Sb -2.0927656873 -1.2082553892 1.7521572585 0.0016321364217 0.000942566496841 0.00688490061441
Sb -4.214217762 2.4330797971 1.9905874443 -2.57110337382e-07 7.71331012145e-07 0.00761200864852
Sb 2.0927656873 -1.2082553892 1.7521572585 -0.00163239353204 0.000941538055492 0.00688567194542
Sb 0 -0 -11.0364076607 2.57110337382e-07 -7.71331012145e-07 -0.00325527398159
Sb -2.0516082666 -3.6816595417 -12.3060800055 0.000194632525398 -0.000112100107098 0.000693940800593
Sb -4.214217762 0.064086612 -12.3060800055 -2.57110337382e-07 0.000223171772847 0.000694969241943
Sb -2.1626094626 3.6175763897 -12.3060800055 -0.000194632525398 -0.000112100107098 0.000693940800593
Sb -0 -0 10.5937820562 2.57110337382e-07 5.14220674763e-07 -0.0031205481648
Sb -2.446463636 -3.4536896116 12.4983938576 0.00121356079244 -0.00070011144869 -0.00171801127438
Sb 4.2142178275 -0.3918532479 12.4983938576 -7.71331012145e-07 0.00140099422839 -0.0017167257227
Sb 2.446463636 -3.4536896116 12.4983938576 -0.00121356079244 -0.000700625669365 -0.00171749705371
Sb 2.1107111278 1.2186196383 -1.9390671773 -0.000654345808636 -0.000375381092577 -0.00401683480091
Sb 3.27e-08 -2.4372358165 -1.9390671773 2.31399303643e-06 0.000754361729878 -0.00401709191125
Sb -2.1107110622 1.2186196383 -1.9390671773 0.000652803146612 -0.000377952195951 -0.00401683480091
Sb 4.2142177948 -2.4330763371 -1.6959567687 -2.57110337382e-07 -1.02844134953e-06 -0.00465215444458
Sb 2.0633498623 1.1912755889 -8.7752797184 -0.000334500548933 -0.000193861194386 -0.00393327394126
Sb 3.27e-08 -2.3825477175 -8.7752797184 -0 0.000386436837085 -0.00393378816194
Sb -2.0633497969 1.1912755889 -8.7752797184 0.000334500548933 -0.000193346973711 -0.00393275972059
Sb 4.2142177948 -2.4330763371 -7.7949891793 0 0 -0.00265774955751
Cr -4.2142177948 -2.4330763371 14.636943416 -2.57110337382e-07 -2.57110337382e-07 0.00122795897133
61
Lattice="8.42843558953 0 0 -4.21421779477 7.29923593142 0 0 0 31.0334408416" Properties=species:S:1:pos:R:3:forces:R:3 energy=-133599.144269 ionic_step=6 pbc="T T T"
Te 1.9864948841 1.1469033241 3.42961325 9.87303695545e-05 5.70784948987e-05 0.00307144009036
Te 3.27e-08 -2.2938031882 3.42961325 2.57110337382e-07 -0.000114156989797 0.0030716972007
Te -1.9864948185 1.1469033241 3.42961325 -9.89874798919e-05 5.70784948987e-05 0.00307144009036
Te 4.2142177948 -2.4330763371 3.319626239 -2.57110337382e-07 2.57110337382e-07 0.00281355842197
Te -0 -0 6.7379577987 2.57110337382e-07 -2.57110337382e-07 0.00192807042002
Te -2.4849706588 -3.4314575392 6.8690858491 3.67667782456e-05 -2.13401580027e-05 0.00155551754116
Te -4.214217762 -0.4363173929 6.8690858491 -5.14220674763e-07 4.19089849932e-05 0.0015557746515
Te -1.729247136 3.8677783922 6.8690858491 -3.62525575708e-05 -2.15972683401e-05 0.0015557746515
Te 0 0 -0.1047417625 0 2.57110337382e-07 0.00389547872167
Te -1.9931430992 -3.7154144412 -0.0145697297 0.000110814555411 -6.45346946828e-05 0.00426854582121
Te -4.214217762 0.1315964108 -0.0145697297 0 0.000128812279028 0.00426828871087
Te 1.9931430992 -3.7154144412 -0.0145697297 -0.000111071665749 -6.4020474008e-05 0.00426957426256
Te 0 2.365717424 14.4301528873 -0 -0.00642261622779 0.00126678263228
Te -2.0487713129 -1.182855252 14.4301528873 0.00556232503891 0.0032113081139 0.00126652552194
Te -4.214217762 2.4330797971 13.3193035119 -2.57110337382e-07 2.57110337382e-07 0.000674657525289
Te 2.0487713129 -1.182855252 14.4301528873 -0.00556181081824 0.00321156522423 0.00126652552194
Te 1.6200207394 0.935319277 -13.244961384 0.000105672348664 6.01638189473e-05 0.00126421152891
Te 3.27e-08 -1.8706350939 -13.244961384 -2.57110337382e-07 -0.000121613189582 0.00126395441857
Te -1.6200206738 0.935319277 -13.244961384 -0.000105415238326 6.11922602968e-05 0.00126446863924
Te 4.2142177948 -2.4330763371 -13.8559789073 -0 0 0.00686664578045
Te 2.5465565401 1.4702552197 9.9729985558 -0.000432459587476 -0.00024939702726 -0.000226257096896
Te 3.27e-08 -2.9405069794 9.9729985558 5.14220674763e-07 0.00049879405452 -0.000226257096896
Te -2.5465564746 1.4702552197 9.9729985558 0.000432459587476 -0.00024939702726 -0.000226514207233
Te 4.2142177948 -2.4330763371 10.0910410958 -0 -5.14220674763e-07 -0.00167096008264
Te -0 0 -7.0151045027 2.57110337382e-07 -5.14220674763e-07 -0.00585620215454
Te -1.7391622945 -3.8620503946 -6.9530303565 -0.00013652558915 7.91899839135e-05 -0.00604235003881
Te 4.2142178275 0.4248683177 -6.9530303565 -5.14220674763e-07 -0.00015812285749 -0.00604235003881
Te 1.7391622945 -3.8620503946 -6.9530303565 0.00013652558915 7.91899839135e-05 -0.00604235003881
Te 0 2.6142632789 -3.4447329212 2.57110337382e-07 0.000204659828556 -0.000223943103859
Te -2.2640183066 -1.3071281794 -3.4447329212 -0.000177663243131 -0.000102844134953 -0.000223171772847
Te -4.214217762 2.4330797971 -3.5112870706 -0 2.57110337382e-07 -0.000113642769123
Te 2.2640183066 -1.3071281794 -3.4447329212 0.000178177463805 -0.000102072803941 -0.000223171772847
Te -0 2.9030020395 -10.1691316674 2.57110337382e-07 -0.000148095554332 -0.00612925333284
Te -2.5140732919 -1.4514975597 -10.1691316674 0.000127783837679 7.40477771659e-05 -0.00612848200183
Te -4.214217762 2.4330797971 -10.4738964605 2.57110337382e-07 -5.14220674763e-07 -0.00550473232334
Te 2.5140732919 -1.4514975597 -10.1691316674 -0.000127783837679 7.35335564911e-05 -0.00612848200183
Sb 0 2.2813841445 8.5950120378 -5.14220674763e-07 -0.000713224075897 0.00094950847595
Sb -1.9757366478 -1.1406886122 8.5950120378 0.000618350361403 0.000357126258623 0.000950022696625
Sb -4.214217762 2.4330797971 7.4664039057 0 7.71331012145e-07 0.00150563813571
Sb 1.9757366478 -1.1406886122 8.5950120378 -0.00061860747174 0.00035738336896 0.000949765586288
Sb 0 2.4139058697 1.7619960499 0 0.000559986314817 0.00474882793144
Sb -2.0905037784 -1.2069494748 1.7619960499 -0.000485167206639 -0.000280250267746 0.00474882793144
Sb -4.214217762 2.4330797971 2.0131430557 0 0 0.00424000657376
Sb 2.0905037784 -1.2069494748 1.7619960499 0.000485167206639 -0.000280250267746 0.00474908504178
Sb 0 -0 -11.0346041417 0 2.57110337382e-07 -0.00424412033916
Sb -2.053988605 -3.680285252 -12.3048206098 0.00069522635228 -0.00040160634699 -0.000875203588447
Sb -4.214217762 0.0613380326 -12.3048206098 -0 0.00080321269398 -0.000875717809122
Sb -2.1602291242 3.6189506794 -12.3048206098 -0.00069522635228 -0.000401863457327 -0.00087494647811
Sb -0 -0 10.5749090049 -2.57110337382e-07 2.57110337382e-07 -0.000352241162213
Sb -2.4428495243 -3.455776221 12.4828606099 0.00275750836842 -0.0015922843194 -0.00183885313295
Sb 4.2142178275 -0.3876800292 12.4828606099 -2.57110337382e-07 0.00318405441813 -0.00183731047093
Sb 2.4428495243 -3.455776221 12.4828606099 -0.00275750836842 -0.00159177009873 -0.00183833891228
Sb 2.1090612432 1.2176670765 -1.94860014 0.000226771317571 0.000131126272065 0.00216846858548
Sb 3.27e-08 -2.4353306929 -1.94860014 -5.14220674763e-07 -0.000261738323454 0.0021679543648
Sb -2.1090611776 1.2176670765 -1.94860014 -0.000227285538245 0.000130097830715 0.00216846858548
Sb 4.2142177948 -2.4330763371 -1.687480091 0 -5.14220674763e-07 0.00239498279271
Sb 2.0604554587 1.1896045034 -8.7779559823 0.000452257083454 0.000260966992442 -0.00757858430466
Sb 3.27e-08 -2.3792055465 -8.7779559823 0 -0.000521933984885 -0.00757807008399
Sb -2.0604553933 1.1896045034 -8.7779559823 -0.000452257083454 0.000260966992442 -0.00757909852534
Sb 4.2142177948 -2.4330763371 -7.7741676 -0 0 -0.006838106533
Cr -4.2142177948 -2.4330763371 14.6183804307 -2.57110337382e-07 2.57110337382e-07 0.00173755166003
61
Lattice="8.42843558953 0 0 -4.21421779477 7.29923593142 0 0 0 31.0334408416" Properties=species:S:1:pos:R:3:forces:R:3 energy=-133599.165897 ionic_step=7 pbc="T T T"
Te 1.9795909076 1.1429173095 3.4376721256 -0.000159665519514 -8.94743974088e-05 0.00646221121975
Te 3.27e-08 -2.285831159 3.4376721256 2.31399303643e-06 0.000181005677517 0.00646015433705
Te -1.979590842 1.1429173095 3.4376721256 0.000159151298839 -8.92172870714e-05 0.00646066855773
Te 4.2142177948 -2.4330763371 3.3214322495 -1.02844134953e-06 -7.71331012145e-07 0.00706719184361
Te -0 -0 6.7329700202 -2.31399303643e-06 -2.8282137112e-06 0.00294005670796
Te -2.489995566 -3.4285564064 6.8919996417 -5.34789501754e-05 3.52241162213e-05 0.00287835022699
Te -4.214217762 -0.4421196586 6.8919996417 1.54266202429e-06 -6.4020474008e-05 0.00288272110272
Te -1.7242222288 3.870679525 6.8919996417 5.42502811875e-05 3.34243438596e-05 0.00287783600631
Te 0 0 -0.1158760279 -1.28555168691e-06 -2.57110337382e-07 0.00151206589414
Te -1.9850025383 -3.7201143984 -0.0208382196 0.000875974919459 -0.000503679150931 0.00137708296702
Te -4.214217762 0.1409963253 -0.0208382196 -1.28555168691e-06 0.00100992940524 0.00137888273938
Te 1.9850025383 -3.7201143984 -0.0208382196 -0.000874689367772 -0.000505993143967 0.00137785429803
Te -0 2.3667344581 14.419805565 -2.57110337382e-07 0.00117396580048 -0.00210856187687
Te -2.0496520899 -1.183363769 14.419805565 -0.00101250050861 -0.00058724001058 -0.00210753343552
Te -4.214217762 2.4330797971 13.3310264255 2.57110337382e-07 2.05688269905e-06 -0.0031858541905
Te 2.0496520899 -1.183363769 14.419805565 0.00101430028097 -0.000588268451929 -0.00210496233214
Te 1.6218058115 0.9363498893 -13.2452585694 0.000699854338353 0.000404177450364 0.00871938287162
Te 3.27e-08 -1.8726963186 -13.2452585694 -1.54266202429e-06 -0.000809897562752 0.00871861154061
Te -1.6218057459 0.9363498893 -13.2452585694 -0.000699597228015 0.000404691671039 0.00871912576129
Te 4.2142177948 -2.4330763371 -13.8706621612 -2.57110337382e-07 1.02844134953e-06 0.00749193812096
Te 2.5551915896 1.4752406702 9.9672294483 -0.00121021835806 -0.000700882779702 -0.00389727849403
Te 3.27e-08 -2.9504778803 9.9672294483 5.14220674763e-07 0.00139945156637 -0.00389753560437
Te -2.5551915241 1.4752406702 9.9672294483 0.00120841858569 -0.000701911221052 -0.00390036381808
Te 4.2142177948 -2.4330763371 10.0842208264 2.57110337382e-07 2.8282137112e-06 -0.00375998157387
Te -0 0 -7.0120249017 -1.28555168691e-06 -3.59954472334e-06 -0.0057389598407
Te -1.7363932427 -3.8636491082 -6.9550558902 -0.00105338105225 0.000610894161619 -0.00548750593074
Te 4.2142178275 0.4280657449 -6.9550558902 1.79977236167e-06 -0.00121767455784 -0.00548981992377
Te 1.7363932427 -3.8636491082 -6.9550558902 0.0010523526109 0.000607551727233 -0.00548802015141
Te 0 2.629561834 -3.4545854993 -2.57110337382e-07 0.000434773580512 -0.00405797245489
Te -2.2772672378 -1.314777457 -3.4545854993 -0.000373324209878 -0.000219315117787 -0.00405797245489
Te -4.214217762 2.4330797971 -3.5254749241 -2.57110337382e-06 2.8282137112e-06 -0.00353501002866
Te 2.2772672378 -1.314777457 -3.4545854993 0.000373581320216 -0.000215715573063 -0.00406054355827
Te -0 2.9068024745 -10.1626672783 -5.14220674763e-07 -6.60773567071e-05 -0.0023667006556
Te -2.5173645637 -1.4533977773 -10.1626672783 5.68213845613e-05 3.47098955465e-05 -0.00236387244189
Te -4.214217762 2.4330797971 -10.4755355708 1.02844134953e-06 1.02844134953e-06 -0.00180799989247
Te 2.5173645637 -1.4533977773 -10.1626672783 -5.83640465856e-05 3.47098955465e-05 -0.00236310111087
Sb 0 2.2715549708 8.607805344 -1.02844134953e-06 -0.000976247951038 -2.08259373279e-05
Sb -1.9672243376 -1.1357740254 8.607805344 0.000839465251551 0.0004890238617 -2.18543786774e-05
Sb -4.214217762 2.4330797971 7.4875300935 5.14220674763e-07 -1.79977236167e-06 0.00145550161992
Sb 1.9672243376 -1.1357740254 8.607805344 -0.000841779244587 0.000486709868663 -1.9540385641e-05
Sb 0 2.4128630035 1.7689452637 -1.79977236167e-06 -0.00136011368475 0.00698697341835
Sb -2.0896006302 -1.2064280417 1.7689452637 0.00117885089689 0.000681342394061 0.00698645919767
Sb -4.214217762 2.4330797971 2.0320803798 2.05688269905e-06 1.02844134953e-06 0.00744668670158
Sb 2.0896006302 -1.2064280417 1.7689452637 -0.00117807956588 0.000677999959675 0.00698697341835
Sb 0 -0 -11.0361351842 1.02844134953e-06 -1.54266202429e-06 0.00162519444259
Sb -2.0573656617 -3.6783355065 -12.3046421888 0.00026508075784 -0.000151437988718 0.0063064023553
Sb -4.214217762 0.0574385417 -12.3046421888 2.57110337382e-07 0.000305704191147 0.00630768790698
Sb -2.1568520675 3.6209004249 -12.3046421888 -0.00026508075784 -0.000152723540405 0.00630820212766
Sb -0 -0 10.5641475955 2.05688269905e-06 -3.08532404858e-06 -0.00559780626547
Sb -2.4383671426 -3.4583641264 12.4701744761 -0.000446600656032 0.000259424330418 -0.00627194957009
Sb 4.2142178275 -0.3825042182 12.4701744761 -2.05688269905e-06 -0.000517048888474 -0.0062727209011
Sb 2.4383671426 -3.4583641264 12.4701744761 0.000447629097381 0.000257881668394 -0.00627014979773
Sb 2.1087972119 1.2175146379 -1.9591948195 -3.59954472334e-06 -2.31399303643e-06 -0.00276882122326
Sb 3.27e-08 -2.4350258156 -1.9591948195 -2.05688269905e-06 6.17064809716e-06 -0.00276933544394
Sb -2.1087971463 1.2175146379 -1.9591948195 5.91353775978e-06 -1.79977236167e-06 -0.00276830700259
Sb 4.2142177948 -2.4330763371 -1.6779951679 1.28555168691e-06 -0 -0.00327095771217
Sb 2.0586393492 1.1885559716 -8.7785832933 -0.000660002236059 -0.000384122844048 -0.00579629544593
Sb 3.27e-08 -2.377108483 -8.7785832933 1.54266202429e-06 0.000766960136409 -0.00579629544593
Sb -2.0586392838 1.1885559716 -8.7785832933 0.000660259346396 -0.000383865733711 -0.00579475278391
Sb 4.2142177948 -2.4330763371 -7.7558389267 2.57110337382e-06 2.57110337382e-06 -0.00550293255098
Cr -4.2142177948 -2.4330763371 14.6029708081 -2.05688269905e-06 0 -0.00140022289738
61
Lattice="8.42843558953 0 0 -4.21421779477 7.29923593142 0 0 0 31.0334408416" Properties=species:S:1:pos:R:3:forces:R:3 energy=-133599.193791 ionic_step=8 pbc="T T T"
Te 1.9719586721 1.1385108343 3.4457986309 0.000617064809716 0.000356869148286 0.00409011124707
Te 3.27e-08 -2.2770182084 3.4457986309 1.54266202429e-06 -0.00071091008286 0.00409062546774
Te -1.9719586065 1.1385108343 3.4457986309 -0.000616807699379 0.000355840706936 0.00409191101943
Te 4.2142177948 -2.4330763371 3.3221280851 -1.28555168691e-06 -7.71331012145e-07 0.00504013394369
Te -0 -0 6.7320157378 -1.54266202429e-06 -0 -0.00307606807643
Te -2.4971529326 -3.4244240969 6.9166518824 -0.00118245044162 0.000681085283724 -0.00227876892021
Te -4.214217762 -0.4503842776 6.9166518824 2.57110337382e-06 -0.00136962676723 -0.00227748336853
Te -1.7170648622 3.8748118345 6.9166518824 0.00118347888297 0.00068339927676 -0.00227774047886
Te 0 0 -0.125920196 -1.79977236167e-06 -3.85665506072e-06 0.000661030677408
Te -1.9770089718 -3.7247294883 -0.0245445422 0.000925854324911 -0.000530675736356 0.000741506213009
Te -4.214217762 0.1502265051 -0.0245445422 -2.57110337382e-07 0.00106597945878 0.000737906668285
Te 1.9770089718 -3.7247294883 -0.0245445422 -0.000925597214574 -0.000531961288043 0.000741763323346
Te -0 2.3706109317 14.4065646981 -3.34243438596e-06 0.00708236135351 0.000411633650148
Te -2.053009213 -1.1853020059 14.4065646981 -0.00613053888453 -0.00354040934575 0.000411376539811
Te -4.214217762 2.4330797971 13.342201241 7.71331012145e-07 -7.71331012145e-07 -0.00116599538003
Te 2.053009213 -1.1853020059 14.4065646981 0.00612925333284 -0.00354298044912 0.000413176312172
Te 1.6222363235 0.9365984457 -13.2446988177 0.00127835259746 0.000737649557948 0.0129298217566
Te 3.27e-08 -1.8731934312 -13.2446988177 5.14220674763e-07 -0.00148121265366 0.0129334213013
Te -1.6222362579 0.9365984457 -13.2446988177 -0.00128143792151 0.000739706440647 0.0129264793222
Te 4.2142177948 -2.4330763371 -13.8818666171 1.02844134953e-06 -1.79977236167e-06 0.00633725559578
Te 2.5659746198 1.4814662584 9.962720702 0.000420118291282 0.000245283261862 -0.00762409283438
Te 3.27e-08 -2.9629290568 9.962720702 -7.71331012145e-07 -0.000484395875627 -0.00762589260674
Te -2.5659745543 1.4814662584 9.962720702 -0.000420889622294 0.000244254820513 -0.00762255017235
Te 4.2142177948 -2.4330763371 10.0754749795 2.8282137112e-06 -3.34243438596e-06 -0.00658665262304
Te -0 0 -7.0103075464 -7.71331012145e-07 -3.34243438596e-06 -0.00668564010293
Te -1.7323607616 -3.8659772633 -6.9574179368 -0.00124338559158 0.000720166055006 -0.00625215207411
Te 4.2142178275 0.4327220551 -6.9574179368 -1.54266202429e-06 -0.00143930366866 -0.00625215207411
Te 1.7323607616 -3.8659772633 -6.9574179368 0.00124184292955 0.000719394723994 -0.00625292340512
Te 0 2.6445856087 -3.4635704054 2.57110337382e-07 0.000549187680647 -0.00231939235352
Te -2.2902782023 -1.3222893443 -3.4635704054 -0.000477453896518 -0.000273565398974 -0.0023157928088
Te -4.214217762 2.4330797971 -3.5387096953 2.57110337382e-07 -0 -0.00119684862051
Te 2.2902782023 -1.3222893443 -3.4635704054 0.000477968117192 -0.000275365171336 -0.00231322170542
Te -0 2.9121345481 -10.1569459986 -2.57110337382e-07 0.000289249129554 0.00201703059676
Te -2.5219822727 -1.456063814 -10.1569459986 -0.000248882806585 -0.000142182016572 0.00202191569317
Te -4.214217762 2.4330797971 -10.4768850464 -1.02844134953e-06 5.14220674763e-07 0.00297193838979
Te 2.5219822727 -1.456063814 -10.1569459986 0.000247340144561 -0.000146552892308 0.0020172877071
Sb 0 2.2609321609 8.6169795221 -5.14220674763e-07 0.00293799982526 -0.00620150133764
Sb -1.9580247187 -1.1304626204 8.6169795221 -0.00254076435401 -0.00147015690915 -0.00620535799271
Sb -4.214217762 2.4330797971 7.5071159456 -1.28555168691e-06 2.57110337382e-06 -0.00470460495341
Sb 1.9580247187 -1.1304626204 8.6169795221 0.00253947880232 -0.00146835713679 -0.00620381533068
Sb 0 2.4130251729 1.7735510375 -7.71331012145e-07 -3.62525575708e-05 0.00471000427049
Sb -2.089741073 -1.2065091264 1.7735510375 3.18816818353e-05 1.72263926046e-05 0.00470846160847
Sb -4.214217762 2.4330797971 2.04973439 -2.31399303643e-06 -5.14220674763e-07 0.00456962202628
Sb 2.089741073 -1.2065091264 1.7735510375 -3.11103508232e-05 1.72263926046e-05 0.0047079473878
Sb 0 -0 -11.0404803183 1.02844134953e-06 -7.71331012145e-07 0.0080678652767
Sb -2.06180473 -3.675772608 -12.305448457 -0.000365096679082 0.000214430021376 0.0117237171639
Sb -4.214217762 0.0523127447 -12.305448457 -7.71331012145e-07 -0.000425260498029 0.0117237171639
Sb -2.1524129992 3.6234633234 -12.305448457 0.000366896451444 0.000214687131714 0.011726031157
Sb -0 -0 10.5604708915 1.28555168691e-06 -7.71331012145e-07 -0.00636270951918
Sb -2.4325528799 -3.4617209942 12.4585177436 -0.0035668917105 0.00205945380243 -0.00378517838693
Sb 4.2142178275 -0.3757904828 12.4585177436 2.57110337382e-06 -0.00411659361182 -0.00378774949031
Sb 2.4325528799 -3.4617209942 12.4585177436 0.00356586326915 0.00205713980939 -0.00378389283525
Sb 2.1096758005 1.2180218915 -1.9720207009 0.000816839541861 0.000469483476059 -0.00120327637895
Sb 3.27e-08 -2.4360403229 -1.9720207009 1.02844134953e-06 -0.000944109158865 -0.00119967683422
Sb -2.1096757349 1.2180218915 -1.9720207009 -0.000816582431524 0.000470254807071 -0.00120199082726
Sb 4.2142177948 -2.4330763371 -1.6665203982 -7.71331012145e-07 3.85665506072e-06 -0.00169564267503
Sb 2.0575457429 1.1879245774 -8.7776374121 -0.000917626794115 -0.00053221839838 -0.00495605886337
Sb 3.27e-08 -2.3758456946 -8.7776374121 1.54266202429e-06 0.00106237991406 -0.00495554464269
Sb -2.0575456775 1.1879245774 -8.7776374121 0.000917369683778 -0.000531961288043 -0.00495734441506
Sb 4.2142177948 -2.4330763371 -7.7377866238 0 2.31399303643e-06 -0.00637119416032
Cr -4.2142177948 -2.4330763371 14.589089186 -1.54266202429e-06 -7.71331012145e-06 0.000271508516275
61
Lattice="8.42843558953 0 0 -4.21421779477 7.29923593142 0 0 0 31.0334408416" Properties=species:S:1:pos:R:3:forces:R:3 energy=-133599.231754 ionic_step=9 pbc="T T T"
Te 1.9602757826 1.1317657117 3.456665071 0.00140845042818 0.000810926004102 -0.000899114849824
Te 3.27e-08 -2.2635279634 3.456665071 1.28555168691e-06 -0.00162365178056 -0.000898086408474
Te -1.960275717 1.1317657117 3.456665071 -0.00141282130391 0.000812725776463 -0.000899629070498
Te 4.2142177948 -2.4330763371 3.3213246136 -1.54266202429e-06 -2.57110337382e-07 -0.000992445902293
Te -0 -0 6.7371778171 5.14220674763e-07 1.79977236167e-06 0.0131691914807
Te -2.5098997386 -3.4170647216 6.9527689338 -1.87690546289e-05 3.85665506072e-06 0.0142277147397
Te -4.214217762 -0.4651030282 6.9527689338 2.57110337382e-07 -1.43981788934e-05 0.0142333711671
Te -1.7043180562 3.8821712098 6.9527689338 1.90261649662e-05 4.62798607287e-06 0.01422797185
Te 0 0 -0.1376508446 -2.31399303643e-06 0 -0.00664270267659
Te -1.9662290191 -3.7309532998 -0.0249294015 0.00128169503185 -0.000740477771659 -0.00741017703368
Te -4.214217762 0.1626741281 -0.0249294015 3.59954472334e-06 0.00148326953635 -0.00740889148199
Te 1.9662290191 -3.7309532998 -0.0249294015 -0.00128375191455 -0.00074433442672 -0.00740657748895
Te -0 2.3802314006 14.3837164566 -1.79977236167e-06 -0.00168998624761 -0.0160182311292
Te -2.0613407795 -1.1901122403 14.3837164566 0.00146450048173 0.000848721223697 -0.0160236304463
Te -4.214217762 2.4330797971 13.3567221639 -1.54266202429e-06 -3.85665506072e-06 -0.0141618944933
Te 2.0613407795 -1.1901122403 14.3837164566 -0.00146398626105 0.000845635899648 -0.0160336577495
Te 1.6208403382 0.9357924728 -13.2426908553 0.000790357177111 0.000464084158974 -0.00389573583201
Te 3.27e-08 -1.8715814856 -13.2426908553 -7.71331012145e-06 -0.000917369683778 -0.00388442297716
Te -1.6208402726 0.9357924728 -13.2426908553 -0.000792156949473 0.000458427731551 -0.00389573583201
Te 4.2142177948 -2.4330763371 -13.8921597616 2.05688269905e-06 -2.31399303643e-06 -0.001947867916
Te 2.5827271542 1.4911383432 9.9591994594 -0.000238341282753 -0.000142953347584 0.00903897102099
Te 3.27e-08 -2.9822732264 9.9591994594 5.91353775978e-06 0.000274336729986 0.00904205634504
Te -2.5827270887 1.4911383432 9.9591994594 0.000243226379163 -0.000138839582186 0.00903742835896
Te 4.2142177948 -2.4330763371 10.0606340614 -4.37087573549e-06 2.05688269905e-06 0.00845867298952
Te -0 0 -7.0102169532 3.59954472334e-06 7.71331012145e-07 0.00212938781419
Te -1.7250325352 -3.8702082188 -6.9607454485 -5.01365157894e-05 2.67394750877e-05 0.00319459594197
Te 4.2142178275 0.441183966 -6.9607454485 -2.31399303643e-06 -5.29647295006e-05 0.00319562438332
Te 1.7250325352 -3.8702082188 -6.9607454485 4.83367434277e-05 3.0339019811e-05 0.00319331039028
Te 0 2.6645143332 -3.4737683132 4.11376539811e-06 0.000153237761079 0.00763900523395
Te -2.3075369759 -1.3322537066 -3.4737683132 -0.000132926044426 -7.73902115519e-05 0.00764183344766
Te -4.214217762 2.4330797971 -3.5557923349 -2.57110337382e-06 -1.02844134953e-06 0.00964857963092
Te 2.3075369759 -1.3322537066 -3.4737683132 0.000132668934089 -7.66188805397e-05 0.0076379767926
Te -0 2.9212504968 -10.1503578481 -1.28555168691e-06 0.000366382230769 -0.0013102342793
Te -2.5298769122 -1.4606217884 -10.1503578481 -0.000318045487341 -0.000183833891228 -0.00131563359638
Te -4.214217762 2.4330797971 -10.4787407089 -5.14220674763e-07 1.54266202429e-06 -0.00094565182089
Te 2.5298769122 -1.4606217884 -10.1503578481 0.000316245714979 -0.000179463015492 -0.00131254827233
Sb 0 2.2439858029 8.6245925975 -1.79977236167e-06 0.000876232029797 0.016278683901
Sb -1.943348749 -1.1219894415 8.6245925975 -0.000760532377975 -0.000434259359838 0.0162840832181
Sb -4.214217762 2.4330797971 7.5296070269 2.57110337382e-07 -3.08532404858e-06 0.0148836032103
Sb 1.943348749 -1.1219894415 8.6245925975 0.000762332150337 -0.000438116014898 0.0162871685421
Sb 0 2.4148890089 1.7751823647 -1.54266202429e-06 0.000896029525775 -0.00770045460458
Sb -2.0913552015 -1.2074410445 1.7751823647 -0.000779558542941 -0.000443258221646 -0.00770019749424
Sb -4.214217762 2.4330797971 2.0718217001 1.02844134953e-06 -3.08532404858e-06 -0.00761277997953
Sb 2.0913552015 -1.2074410445 1.7751823647 0.000777501660242 -0.000445315104345 -0.00769531239783
Sb 0 -0 -11.0500351978 -2.8282137112e-06 -3.34243438596e-06 0.00129017967298
Sb -2.0691020049 -3.6715595225 -12.3081735917 -0.000870061381699 0.000507021585317 -0.000384379954386
Sb -4.214217762 0.0438865735 -12.3081735917 4.37087573549e-06 -0.0010076154122 -0.000379494857975
Sb -2.1451157243 3.6276764089 -12.3081735917 0.000870832712712 0.000501622268232 -0.000382323071686
Sb -0 -0 10.5681058304 1.54266202429e-06 5.14220674763e-07 0.00278681894688
Sb -2.422297749 -3.4676417995 12.4435812383 0.00039672125058 -0.000227542648583 -0.011747371315
Sb 4.2142178275 -0.3639488721 12.4435812383 -4.11376539811e-06 0.000453285524804 -0.0117432575496
Sb 2.422297749 -3.4676417995 12.4435812383 -0.000394407257543 -0.000222657552172 -0.0117442859909
Sb 2.1124786595 1.2196401236 -1.9932804341 0.00213041625554 0.00123361539876 0.00201008861765
Sb 3.27e-08 -2.4392767872 -1.9932804341 -3.59954472334e-06 -0.00246208859077 0.00200931728664
Sb -2.1124785939 1.2196401236 -1.9932804341 -0.00213144469689 0.001227701861 0.0020090601763
Sb 4.2142177948 -2.4330763371 -1.6475494138 2.57110337382e-06 7.71331012145e-07 0.00074921952313
Sb 2.0570738692 1.1876521409 -8.774372532 -0.000736621116598 -0.000426031829041 -0.00167635939973
Sb 3.27e-08 -2.3753008215 -8.774372532 -2.57110337382e-06 0.000852834989095 -0.00167970183411
Sb -2.0570738038 1.1876521409 -8.774372532 0.000738163778623 -0.000426546049716 -0.00168021605479
Sb 4.2142177948 -2.4330763371 -7.7134682701 1.02844134953e-06 -0 -0.000813754217813
Cr -4.2142177948 -2.4330763371 14.573311033 -2.31399303643e-06 -2.57110337382e-06 -0.0145061652351
61
Lattice="8.42843558953 0 0 -4.21421779477 7.29923593142 0 0 0 31.0334408416" Properties=species:S:1:pos:R:3:forces:R:3 energy=-133599.253049 ionic_step=10 pbc="T T T"
Te 1.9535386397 1.1278760186 3.4608822642 0.000246054592874 0.000138839582186 0.00254590656075
Te 3.27e-08 -2.2557485772 3.4608822642 2.8282137112e-06 -0.00028282137112 0.00254719211244
Te -1.9535385741 1.1278760186 3.4608822642 -0.000246311703212 0.000142182016572 0.00254822055379
Te 4.2142177948 -2.4330763371 3.3192865311 -2.57110337382e-06 2.57110337382e-07 0.00275570859606
Te -0 -0 6.7453822975 -1.28555168691e-06 -2.57110337382e-07 -0.00816222477052
Te -2.5180291026 -3.4123712289 6.9711339903 -6.68486877192e-05 3.95949919568e-05 -0.00902662972479
Te -4.214217762 -0.4744900135 6.9711339903 2.57110337382e-07 -7.45619978407e-05 -0.00902662972479
Te -1.6961886922 3.8868647025 6.9711339903 6.53060256949e-05 3.85665506072e-05 -0.00902894371783
Te 0 0 -0.1408260716 -0 -5.14220674763e-07 -0.00271328539039
Te -1.9613245422 -3.7337849022 -0.0198860373 0.000827123955357 -0.000477711006855 -0.00278759027789
Te -4.214217762 0.1683373329 -0.0198860373 2.57110337382e-07 0.000955679124048 -0.00278681894688
Te 1.9613245422 -3.7337849022 -0.0198860373 -0.000827638176031 -0.00047822522753 -0.00278707605722
Te -0 2.3881395314 14.3686139233 -1.54266202429e-06 0.00549881878558 0.00803855469824
Te -2.0681894185 -1.1940663057 14.3686139233 -0.00476399744134 -0.00274722395492 0.00803984024992
Te -4.214217762 2.4330797971 13.3629766898 1.79977236167e-06 -2.05688269905e-06 0.0064714671919
Te 2.0681894185 -1.1940663057 14.3686139233 0.00476219766898 -0.00274928083762 0.00804086869127
Te 1.6186627102 0.9345352181 -13.2408132334 0.000346841845128 0.000198232070121 0.00606780396221
Te 3.27e-08 -1.8690669761 -13.2408132334 7.71331012145e-07 -0.000398006802267 0.00606703263119
Te -1.6186626446 0.9345352181 -13.2408132334 -0.000345813403778 0.000198746290796 0.00606806107254
Te 4.2142177948 -2.4330763371 -13.892285668 -1.02844134953e-06 1.79977236167e-06 0.00117756534521
Te 2.5904910591 1.4956208378 9.9610698851 0.00063429120232 0.000364839568745 -0.00970488679481
Te 3.27e-08 -2.9912382157 9.9610698851 -1.28555168691e-06 -0.000731478909851 -0.00970411546379
Te -2.5904909936 1.4956208378 9.9610698851 -0.000635062533333 0.000364068237732 -0.00970360124312
Te 4.2142177948 -2.4330763371 10.0516692306 5.14220674763e-07 2.57110337382e-06 -0.00911224746714
Te -0 0 -7.0123783325 2.57110337382e-07 -2.57110337382e-07 0.000109271893387
Te -1.7202772609 -3.872953679 -6.961715131 -0.000270480074925 0.000155808864453 0.000345556293441
Te 4.2142178275 0.4466748864 -6.961715131 -5.14220674763e-07 -0.000312646170256 0.000344527852091
Te 1.7202772609 -3.872953679 -6.961715131 0.000269451633576 0.000155551754116 0.000344527852091
Te 0 2.6735269092 -3.4756023931 2.57110337382e-07 0.00028282137112 -0.000519362881511
Te -2.315342092 -1.3367599946 -3.4756023931 -0.000243740599838 -0.000140639354548 -0.000519619991848
Te -4.214217762 2.4330797971 -3.5631183788 -5.14220674763e-07 7.71331012145e-07 0.000521933984885
Te 2.315342092 -1.3367599946 -3.4756023931 0.00024451193085 -0.000140896464885 -0.000518848660836
Te -0 2.9262465331 -10.1485609144 -0 0.000480282110229 0.00351675519471
Te -2.5342036045 -1.4631198065 -10.1485609144 -0.00041831851892 -0.000238855503428 0.00351546964302
Te -4.214217762 2.4330797971 -10.480241686 -2.57110337382e-07 -1.28555168691e-06 0.00399935129797
Te 2.5342036045 -1.4631198065 -10.1485609144 0.00041729007757 -0.00023859839309 0.00351444120167
Sb 0 2.2322607018 8.6248399721 5.14220674763e-07 0.000327815680162 -0.0132409252648
Sb -1.9331945183 -1.1161268909 8.6248399721 -0.000282050040108 -0.000162493733225 -0.0132414394855
Sb -4.214217762 2.4330797971 7.5331542688 0 -5.14220674763e-07 -0.0106988753591
Sb 1.9331945183 -1.1161268909 8.6248399721 0.000282050040108 -0.000161465291876 -0.0132422108165
Sb 0 2.4168909802 1.7701759144 5.14220674763e-07 0.000430402704777 0.00143364724124
Sb -2.0930889587 -1.2084420301 1.7701759144 -0.000373067099541 -0.000215458462726 0.00143236168955
Sb -4.214217762 2.4330797971 2.0799648125 -1.28555168691e-06 -5.14220674763e-07 0.00100401586748
Sb 2.0930889587 -1.2084420301 1.7701759144 0.000372552878866 -0.000214687131714 0.00143621834461
Sb -0 -0 -11.0564430169 2.57110337382e-07 -7.71331012145e-07 0.00517974485689
Sb -2.0729022362 -3.6693654569 -12.3110277117 -0.000679028401025 0.000391579043832 0.00555126929441
Sb -4.214217762 0.0394984424 -12.3110277117 -0 -0.000783672308339 0.00555204062542
Sb -2.141315493 3.6298704745 -12.3110277117 0.000679285511362 0.00039183615417 0.00555101218407
Sb -0 -0 10.5853776947 -5.14220674763e-07 -7.71331012145e-07 -0.005208026994
Sb -2.4149343899 -3.4718930388 12.4363140984 -0.00149972459795 0.000866461836976 0.00538903267152
Sb 4.2142178275 -0.3554463934 12.4363140984 -5.14220674763e-07 -0.00172855279822 0.00539057533354
Sb 2.4149343899 -3.4718930388 12.4363140984 0.00149766771525 0.000865690505964 0.00539006111287
Sb 2.1149547509 1.2210696963 -2.0068614753 0.00128632301792 0.000743820206045 -0.00258935820777
Sb 3.27e-08 -2.4421359325 -2.0068614753 -1.02844134953e-06 -0.00148532641905 -0.00259038664912
Sb -2.1149546853 1.2210696963 -2.0068614753 -0.00128606590758 0.000742534654358 -0.00258935820777
Sb 4.2142177948 -2.4330763371 -1.6355641833 5.14220674763e-07 7.71331012145e-07 -0.00299790653387
Sb 2.0576455513 1.1879822018 -8.7718487128 -0.000165836167611 -9.69305971929e-05 0.000956964675734
Sb 3.27e-08 -2.3759609435 -8.7718487128 5.14220674763e-07 0.000192575642699 0.000958507337759
Sb -2.0576454859 1.1879822018 -8.7718487128 0.000165836167611 -9.64163765181e-05 0.000956964675734
Sb 4.2142177948 -2.4330763371 -7.7026151804 2.57110337382e-07 2.57110337382e-07 -9.64163765181e-05
Cr -4.2142177948 -2.4330763371 14.5707715287 -2.31399303643e-06 1.79977236167e-06 0.00745362868069
61
Lattice="8.42843558953 0 0 -4.21421779477 7.29923593142 0 0 0 31.0334408416" Properties=species:S:1:pos:R:3:forces:R:3 energy=-133599.274834 ionic_step=11 pbc="T T T"
Te 1.9467363266 1.1239486995 3.4628474703 2.26257096896e-05 1.51695099055e-05 -0.00347587465106
Te 3.27e-08 -2.247893939 3.4628474703 1.28555168691e-06 -2.33970407017e-05 -0.0034740748787
Te -1.946736261 1.1239486995 3.4628474703 -2.21114890148e-05 1.56837305803e-05 -0.00347793153376
Te 4.2142177948 -2.4330763371 3.3165971446 -2.57110337382e-06 7.71331012145e-07 -0.00341185417705
Te -0 -0 6.7538811295 2.57110337382e-07 1.54266202429e-06 -0.00998256595918
Te -2.5249047652 -3.4084015614 6.9867885203 0.000742020433683 -0.00042911715309 -0.010774980019
Te -4.214217762 -0.4824293486 6.9867885203 5.14220674763e-07 0.00085720586483 -0.01077575135
Te -1.6893130296 3.89083437 6.9867885203 -0.000742791764696 -0.000430145594439 -0.0107767797914
Te 0 0 -0.1419505625 2.57110337382e-07 2.05688269905e-06 -0.00368002025894
Te -1.956922206 -3.7363265934 -0.0118348717 0.000680828173387 -0.000392607485182 -0.00427651624167
Te -4.214217762 0.1734207153 -0.0118348717 -0 0.000785472080701 -0.00427651624167
Te 1.956922206 -3.7363265934 -0.0118348717 -0.000681856614736 -0.000391579043832 -0.00427625913133
Te -0 2.395385683 14.3536043728 -5.14220674763e-07 0.00423923524275 0.00895489594066
Te -2.074464767 -1.1976893815 14.3536043728 -0.0036687074041 -0.00212013184205 0.00895463883033
Te -4.214217762 2.4330797971 13.3689556693 -7.71331012145e-07 2.57110337382e-07 0.00764389033036
Te 2.074464767 -1.1976893815 14.3536043728 0.00366999295579 -0.0021211602834 0.00895592438201
Te 1.6168229744 0.9334730457 -13.2392612436 0.000386951057759 0.00022188622116 0.00593873457284
Te 3.27e-08 -1.8669426312 -13.2392612436 2.57110337382e-07 -0.000444029552658 0.0059384774625
Te -1.6168229088 0.9334730457 -13.2392612436 -0.000386179726747 0.000221114890148 0.00593719191082
Te 4.2142177948 -2.4330763371 -13.8906579434 -2.57110337382e-07 1.02844134953e-06 0.00169847088874
Te 2.5942187326 1.4977730122 9.9658969898 0.000692912359243 0.000400835015978 -0.00701808376917
Te 3.27e-08 -2.9955425644 9.9658969898 -2.57110337382e-07 -0.000800641590606 -0.00701679821748
Te -2.5942186671 1.4977730122 9.9658969898 -0.000692398138569 0.000400835015978 -0.00701808376917
Te 4.2142177948 -2.4330763371 10.0439829465 -5.14220674763e-07 -1.28555168691e-06 -0.00631462988609
Te 0 0 -7.0153617745 1.02844134953e-06 -1.02844134953e-06 0.00144084633069
Te -1.7163020191 -3.875248787 -6.9611349966 -0.000215972683401 0.000123927182618 0.00157814325085
Te 4.2142178275 0.4512651024 -6.9611349966 -7.71331012145e-07 -0.000248625696248 0.00157865747152
Te 1.7163020191 -3.875248787 -6.9611349966 0.000215972683401 0.00012469851363 0.00157891458186
Te 0 2.6815444796 -3.4739794772 -0 -2.33970407017e-05 0.00129815009344
Te -2.3222855084 -1.3407687797 -3.4739794772 1.77406132793e-05 1.13128548448e-05 0.00129866431411
Te -4.214217762 2.4330797971 -3.5699520636 5.14220674763e-07 -2.05688269905e-06 0.00200931728664
Te 2.3222855084 -1.3407687797 -3.4739794772 -1.77406132793e-05 1.079863417e-05 0.00129840720378
Te -0 2.9292201008 -10.1477440763 -1.02844134953e-06 0.00033578610062 0.00615547858725
Te -2.5367787885 -1.4646065904 -10.1477440763 -0.000289763350229 -0.000166607498623 0.00615342170455
Te -4.214217762 2.4330797971 -10.4829715144 5.14220674763e-07 1.28555168691e-06 0.00598784264728
Te 2.5367787885 -1.4646065904 -10.1477440763 0.000290020460566 -0.00016789305031 0.00615470725624
Sb 0 2.217885826 8.6262355167 -0 -0.000445572214682 -0.012066702354
Sb -1.9207455165 -1.108939453 8.6262355167 0.000387208168097 0.000223428883185 -0.0120664452437
Sb -4.214217762 2.4330797971 7.5284011764 2.57110337382e-07 5.14220674763e-07 -0.0110246341566
Sb 1.9207455165 -1.108939453 8.6262355167 -0.000387465278434 0.000223943103859 -0.012066702354
Sb 0 2.4183420688 1.7608586927 0 -2.13401580027e-05 -0.00413947643184
Sb -2.0943456377 -1.2091675744 1.7608586927 1.51695099055e-05 1.02844134953e-05 -0.00414076198353
Sb -4.214217762 2.4330797971 2.0861875691 2.57110337382e-07 -1.79977236167e-06 -0.00471514647724
Sb 2.0943456377 -1.2091675744 1.7608586927 -1.56837305803e-05 9.51308248312e-06 -0.00414024776286
Sb -0 -0 -11.0601320941 0 -7.71331012145e-07 0.00657482554752
Sb -2.0749169306 -3.668202272 -12.3142591851 -0.000387465278434 0.000224457324534 0.00586494390601
Sb -4.214217762 0.0371720726 -12.3142591851 -7.71331012145e-07 -0.000448400428394 0.00586365835433
Sb -2.1393007986 3.6310336594 -12.3142591851 0.000386436837085 0.000225228655546 0.00586520101635
Sb -0 -0 10.6093877845 -2.57110337382e-07 -1.02844134953e-06 -0.00273668243109
Sb -2.4068646964 -3.4765520807 12.4275394672 -0.0005694993973 0.000330386783535 0.00750710763087
Sb 4.2142178275 -0.3461283097 12.4275394672 7.71331012145e-07 -0.000660002236059 0.00750376519648
Sb 2.4068646964 -3.4765520807 12.4275394672 0.000570013617975 0.000329872562861 0.00750505074817
Sb 2.1169492501 1.2222212215 -2.0204003915 0.00100195898478 0.000575670045397 -0.000223428883185
Sb 3.27e-08 -2.444438983 -2.0204003915 5.14220674763e-07 -0.00115931051125 -0.000222657552172
Sb -2.1169491845 1.2222212215 -2.0204003915 -0.00100118765376 0.00057541293506 -0.000223171772847
Sb 4.2142177948 -2.4330763371 -1.6234410075 -1.02844134953e-06 2.05688269905e-06 -0.00106932189317
Sb 2.0582549591 1.1883340437 -8.7708260798 -0.000243997710175 -0.00014141068556 0.00403971762094
Sb 3.27e-08 -2.3766646272 -8.7708260798 1.02844134953e-06 0.000282564260782 0.0040394605106
Sb -2.0582548937 1.1883340437 -8.7708260798 0.000244254820513 -0.000140125133873 0.00403868917959
Sb 4.2142177948 -2.4330763371 -7.693634906 -7.71331012145e-07 -0 0.00235924445581
Cr -4.2142177948 -2.4330763371 14.5729701749 -5.14220674763e-07 -5.14220674763e-07 0.00767217246747
61
Lattice="8.42843558953 0 0 -4.21421779477 7.29923593142 0 0 0 31.0334408416" Properties=species:S:1:pos:R:3:forces:R:3 energy=-133599.299243 ionic_step=12 pbc="T T T"
Te 1.938345204 1.1191040804 3.4642629848 0.000736621116598 0.000425517608367 -0.00339719888782
Te 3.27e-08 -2.2382047006 3.4642629848 -7.71331012145e-07 -0.00085334920977 -0.00340362664626
Te -1.9383451384 1.1191040804 3.4642629848 -0.000736106895924 0.000422689394655 -0.00340028421187
Te 4.2142177948 -2.4330763371 3.3136030954 5.14220674763e-07 1.79977236167e-06 -0.00409936721921
Te -0 -0 6.7595818335 2.57110337382e-06 -1.28555168691e-06 -8.48464113359e-05
Te -2.5312769222 -3.4047225932 7.0052110513 0.00171852549506 -0.00099270301263 1.079863417e-05
Te -4.214217762 -0.4897872851 7.0052110513 5.14220674763e-07 0.0019815493702 5.14220674763e-06
Te -1.6829408726 3.8945133382 7.0052110513 -0.00171749705371 -0.000991417460944 8.48464113359e-06
Te 0 0 -0.1441845379 2.57110337382e-07 -1.79977236167e-06 0.00285212497257
Te -1.9508136475 -3.7398533729 -0.0032458161 0.000225485765884 -0.000128555168691 0.00275673703741
Te -4.214217762 0.1804742743 -0.0032458161 2.57110337382e-07 0.000260709882105 0.00275236616167
Te 1.9508136475 -3.7398533729 -0.0032458161 -0.000225999986558 -0.000128812279028 0.00275622281673
Te -0 2.4016376461 14.3370198941 -3.85665506072e-06 -0.000869804271362 -0.0024410055431
Te -2.0798791233 -1.200815363 14.3370198941 0.000754875950552 0.000434773580512 -0.00244589063951
Te -4.214217762 2.4330797971 13.3778999892 3.59954472334e-06 4.88509641025e-06 -0.00197177917738
Te 2.0798791233 -1.200815363 14.3370198941 -0.000757189943589 0.000429888484102 -0.00244254820513
Te 1.6161334076 0.9330749239 -13.2383768035 -0.000521933984885 -0.00029953354305 -0.00137039809824
Te 3.27e-08 -1.8661463878 -13.2383768035 1.54266202429e-06 0.00060189529981 -0.00137091231892
Te -1.616133342 0.9330749239 -13.2383768035 0.00052141976421 -0.000300047763724 -0.00137039809824
Te 4.2142177948 -2.4330763371 -13.8916273191 -2.57110337382e-07 5.14220674763e-07 -0.001672759855
Te 2.5963362606 1.4989955681 9.9718467131 0.000773387894844 0.000448143318056 0.00356226372442
Te 3.27e-08 -2.9979876762 9.9718467131 -2.8282137112e-06 -0.000891658650039 0.00356637748982
Te -2.5963361951 1.4989955681 9.9718467131 -0.000773902115519 0.00044582932502 0.00356663460016
Te 4.2142177948 -2.4330763371 10.0365385418 2.31399303643e-06 -1.79977236167e-06 0.0046233580868
Te 0 0 -7.0180325022 -5.14220674763e-07 -1.79977236167e-06 -0.00201651637608
Te -1.7128410143 -3.8772469999 -6.9595754507 0.000191804311687 -0.000108500562375 -0.00135342881598
Te 4.2142178275 0.4552615283 -6.9595754507 -7.71331012145e-07 0.0002180295661 -0.00135317170564
Te 1.7128410143 -3.8772469999 -6.9595754507 -0.000188976097975 -0.000109271893387 -0.00135420014699
Te 0 2.6925073557 -3.4715440799 7.71331012145e-07 0.000308018184183 -0.000146038671633
Te -2.3317796332 -1.3462502178 -3.4715440799 -0.000265852088853 -0.000151437988718 -0.000144753119946
Te -4.214217762 2.4330797971 -3.5799144463 -5.14220674763e-07 -7.71331012145e-07 -2.00546063158e-05
Te 2.3317796332 -1.3462502178 -3.4715440799 0.000267651861214 -0.000152980650742 -0.000145524450958
Te -0 2.9309627523 -10.1461739699 -0 -0.000633262760971 0.00249294183125
Te -2.5382879683 -1.4654779162 -10.1461739699 0.00054893057031 0.000315474383967 0.00249499871395
Te -4.214217762 2.4330797971 -10.4872750648 0 7.71331012145e-07 0.00239446857204
Te 2.5382879683 -1.4654779162 -10.1461739699 -0.00054893057031 0.000315474383967 0.00249782692766
Sb 0 2.1996784874 8.6328002707 1.02844134953e-06 -0.00060780883757 0.00321002256221
Sb -1.9049775061 -1.0998357837 8.6328002707 0.000529390184669 0.000301076205074 0.00321696454132
Sb -4.214217762 2.4330797971 7.5216229808 -7.71331012145e-07 2.8282137112e-06 0.00209647769101
Sb 1.9049775061 -1.0998357837 8.6328002707 -0.000532989729392 0.000306989742834 0.0032133649966
Sb 0 2.4187464856 1.7497306615 -5.14220674763e-07 0.000757961274601 -0.000511649571389
Sb -2.0946958728 -1.2093697828 1.7497306615 -0.000654602918974 -0.000379237747638 -0.000509335578353
Sb -4.214217762 2.4330797971 2.0957321806 7.71331012145e-07 3.85665506072e-06 -0.00180362901673
Sb 2.0946958728 -1.2093697828 1.7497306615 0.000654602918974 -0.00038103752 -0.000511135350715
Sb -0 -0 -11.0609436042 5.14220674763e-07 -1.02844134953e-06 0.00201600215541
Sb -2.0756637015 -3.6677711234 -12.3175595268 -8.33037493116e-05 4.93651847773e-05 0.000486452758326
Sb -4.214217762 0.0363097754 -12.3175595268 1.28555168691e-06 -9.48737144938e-05 0.000487481199676
Sb -2.1385540277 3.631464808 -12.3175595268 8.3560859649e-05 4.9879405452e-05 0.000485424316977
Sb -0 -0 10.6357988831 -1.54266202429e-06 -4.88509641025e-06 0.0022188622116
Sb -2.3975393014 -3.4819361025 12.4138668101 0.000417547187908 -0.000232427744993 0.000589554003616
Sb 4.2142178275 -0.335360266 12.4138668101 4.88509641025e-06 0.000475397013819 0.00059212510699
Sb 2.3975393014 -3.4819361025 12.4138668101 -0.000419346960269 -0.000237827062078 0.000591610886315
Sb 2.1181426154 1.2229102116 -2.035591272 0.000905285497921 0.000522448205559 0.0032642728434
Sb 3.27e-08 -2.4458169632 -2.035591272 2.57110337382e-07 -0.00104412508011 0.00326247307104
Sb -2.1181425498 1.2229102116 -2.035591272 -0.000906571049608 0.000524505088259 0.00326452995373
Sb 4.2142177948 -2.4330763371 -1.6091426421 -1.02844134953e-06 5.6564274224e-06 0.00335091902709
Sb 2.0584326344 1.1884366247 -8.7717611859 -0.000701911221052 -0.000407005664075 0.00163599307676
Sb 3.27e-08 -2.3768697891 -8.7717611859 1.02844134953e-06 0.000810668893764 0.00163367908372
Sb -2.058432569 1.1884366247 -8.7717611859 0.000701397000377 -0.000403920340027 0.00163445041474
Sb 4.2142177948 -2.4330763371 -7.6820649646 -1.54266202429e-06 2.57110337382e-07 -0.000425003387692
Cr -4.2142177948 -2.4330763371 14.5749305871 -1.54266202429e-06 -1.54266202429e-06 -0.00324524667843
61
Lattice="8.42843558953 0 0 -4.21421779477 7.29923593142 0 0 0 31.0334408416" Properties=species:S:1:pos:R:3:forces:R:3 energy=-133599.332215 ionic_step=13 pbc="T T T"
Te 1.9248094312 1.1112891947 3.465058035 0.00045174286278 0.000261738323454 -0.000775187667206
Te 3.27e-08 -2.2225749292 3.465058035 -2.57110337382e-07 -0.000531704177705 -0.000774159225856
Te -1.9248093656 1.1112891947 3.465058035 -0.000451485752442 0.000261738323454 -0.000775444777543
Te 4.2142177948 -2.4330763371 3.3084490441 2.57110337382e-07 -2.31399303643e-06 -0.000608580168582
Te -0 -0 6.7621264344 -2.57110337382e-07 2.05688269905e-06 4.13947643184e-05
Te -2.5393438055 -3.4000651737 7.0345033345 0.000766960136409 -0.000442486890634 -0.000200031842483
Te -4.214217762 -0.499102124 7.0345033345 2.57110337382e-07 0.000876489140134 -0.000197460739109
Te -1.6748739893 3.8991707577 7.0345033345 -0.000766445915735 -0.000442486890634 -0.000199260511471
Te 0 0 -0.1491049285 -5.14220674763e-07 1.79977236167e-06 0.0104700471589
Te -1.939883948 -3.7461636408 0.0087188091 7.55904391902e-05 -4.06234333063e-05 0.0107225295102
Te -4.214217762 0.1930948101 0.0087188091 2.57110337382e-07 9.10170594331e-05 0.0107184157448
Te 1.939883948 -3.7461636408 0.0087188091 -7.53333288528e-05 -4.08805436437e-05 0.0107233008412
Te 0 2.4090026348 14.3124787285 1.02844134953e-06 -0.00300253451994 -0.00542862766348
Te -2.0862573876 -1.2044978574 14.3124787285 0.00259938551093 0.00150358125301 -0.00541654347762
Te -4.214217762 2.4330797971 13.3942988166 -5.14220674763e-07 -2.31399303643e-06 -0.00454056855816
Te 2.0862573876 -1.2044978574 14.3124787285 -0.00259938551093 0.00150460969436 -0.00541731480863
Te 1.6167299481 0.9334193369 -13.2381288152 -0.000105672348664 -6.60773567071e-05 -0.00187099192513
Te 3.27e-08 -1.8668352137 -13.2381288152 -7.71331012145e-07 0.00012572695498 -0.00187073481479
Te -1.6167298825 0.9334193369 -13.2381288152 0.000106186569339 -6.63344670445e-05 -0.00187073481479
Te 4.2142177948 -2.4330763371 -13.8963789595 2.57110337382e-07 4.88509641025e-06 -0.000355583596599
Te 2.5978379835 1.4998625886 9.9815870388 -9.41023834817e-05 -4.93651847773e-05 0.000179977236167
Te 3.27e-08 -2.9997217173 9.9815870388 5.14220674763e-07 0.0001079863417 0.000181262787854
Te -2.597837918 1.4998625886 9.9815870388 9.38452731443e-05 -4.88509641025e-05 0.000178948794818
Te 4.2142177948 -2.4330763371 10.0273076842 -7.71331012145e-07 -6.17064809716e-06 0.000247083034224
Te 0 0 -7.0212665032 -0 6.9419791093e-06 -0.00327507147757
Te -1.708995692 -3.8794670988 -6.9563964662 0.000303904418785 -0.000170978374359 -0.00274928083762
Te 4.2142178275 0.4597017261 -6.9563964662 2.57110337382e-07 0.000339128535006 -0.00275262327201
Te 1.708995692 -3.8794670988 -6.9563964662 -0.000303904418785 -0.000170721264021 -0.00274928083762
Te 0 2.7119821586 -3.4670226405 -7.71331012145e-07 0.000721965827368 0.0007049965451
Te -2.3486452994 -1.3559876193 -3.4670226405 -0.000629148995573 -0.000361497134359 0.000704739434763
Te -4.214217762 2.4330797971 -3.5977409249 1.02844134953e-06 5.39931708501e-06 0.000246568813549
Te 2.3486452994 -1.3559876193 -3.4670226405 0.000628377664561 -0.000361497134359 0.0007049965451
Te -0 2.9320130148 -10.143064564 -5.14220674763e-07 -0.000584154686531 -0.000990903240269
Te -2.5391975218 -1.4660030474 -10.143064564 0.000500593826882 0.000287449357193 -0.000997588109041
Te -4.214217762 2.4330797971 -10.4951340094 -2.57110337382e-07 3.34243438596e-06 -0.000988332136895
Te 2.5391975218 -1.4660030474 -10.143064564 -0.000499565385533 0.000286935136518 -0.000997073888366
Sb 0 2.1710610885 8.6488425023 -2.57110337382e-07 -0.000620664354439 0.00163650729743
Sb -1.8801941233 -1.0855270843 8.6488425023 0.00055381566672 0.000323187694089 0.00164036395249
Sb -4.214217762 2.4330797971 7.5102359953 -2.57110337382e-07 8.48464113359e-06 0.000403920340027
Sb 1.8801941233 -1.0855270843 8.6488425023 -0.000552787225371 0.000321902142402 0.00164164950418
Sb 0 2.4179926439 1.7323294665 -2.57110337382e-07 0.00057644137641 0.00646581076447
Sb -2.094043027 -1.208992862 1.7323294665 -0.000500850937219 -0.000288477798542 0.00645835456469
Sb -4.214217762 2.4330797971 2.1137651007 -0 4.11376539811e-06 0.00463312827962
Sb 2.094043027 -1.208992862 1.7323294665 0.000501622268232 -0.000288992019217 0.00645835456469
Sb -0 -0 -11.0584524258 -2.57110337382e-07 5.91353775978e-06 -0.000173549477733
Sb -2.0749073382 -3.6682078102 -12.3221461908 0.000313931721943 -0.00017972012583 -0.000684941938785
Sb -4.214217762 0.0371831489 -12.3221461908 -2.57110337382e-07 0.000349412948502 -0.000684170607773
Sb -2.139310391 3.6310281212 -12.3221461908 -0.000313674611606 -0.00017972012583 -0.00068442771811
Sb -0 -0 10.6754155312 7.71331012145e-07 -5.14220674763e-06 -0.000664630222132
Sb -2.3832824561 -3.4901672999 12.3883785078 0.0012428713709 -0.00072865069614 -0.00411916471519
Sb 4.2142178275 -0.3188978714 12.3883785078 -5.14220674763e-07 0.00144007499967 -0.00411016585338
Sb 2.3832824561 -3.4901672999 12.3883785078 -0.00124389981225 -0.00072762225479 -0.00412045026688
Sb 2.1187417805 1.2232561399 -2.0580894504 0.000248625696248 0.000144238899271 0.00686458889775
Sb 3.27e-08 -2.4465088197 -2.0580894504 -2.57110337382e-07 -0.000296962439676 0.00686664578045
Sb -2.1187417149 1.2232561399 -2.0580894504 -0.000248882806585 0.000144238899271 0.00686304623573
Sb 4.2142177948 -2.4330763371 -1.5863054973 0 3.59954472334e-06 0.00786449099983
Sb 2.0582887682 1.1883535635 -8.7755767559 -0.000473083020782 -0.000265337868178 -0.00180388612707
Sb 3.27e-08 -2.3767036667 -8.7755767559 5.14220674763e-07 0.000543274142887 -0.00179977236167
Sb -2.0582887028 1.1883535635 -8.7755767559 0.000472825910445 -0.000265337868178 -0.00180337190639
Sb 4.2142177948 -2.4330763371 -7.6629020823 -7.71331012145e-07 3.26530128475e-05 -0.00207128087795
Cr -4.2142177948 -2.4330763371 14.5765259584 7.71331012145e-07 2.31399303643e-06 -0.00495940129775
61
Lattice="8.42843558953 0 0 -4.21421779477 7.29923593142 0 0 0 31.0334408416" Properties=species:S:1:pos:R:3:forces:R:3 energy=-133599.357963 ionic_step=14 pbc="T T T"
Te 1.9146375928 1.1054164783 3.4614733783 5.24505088259e-05 2.85392474494e-05 0.00136679855352
Te 3.27e-08 -2.2108294966 3.4614733783 5.14220674763e-07 -5.81069362482e-05 0.00136859832588
Te -1.9146375272 1.1054164783 3.4614733783 -5.16791778137e-05 2.75108060998e-05 0.00136371322947
Te 4.2142177948 -2.4330763371 3.3022678037 -1.28555168691e-06 5.39931708501e-06 0.00144418876507
Te -0 -0 6.7559700104 1.02844134953e-06 2.8282137112e-06 0.000840493692901
Te -2.5423827118 -3.3983106595 7.0544179978 -3.49670058839e-05 2.00546063158e-05 0.00103975420437
Te -4.214217762 -0.5026111523 7.0544179978 5.14220674763e-07 -3.93378816194e-05 0.00104155397673
Te -1.671835083 3.9009252719 7.0544179978 3.47098955465e-05 1.97974959784e-05 0.00103949709403
Te 0 0 -0.1530055207 -3.08532404858e-06 7.19908944669e-06 0.00494603156021
Te -1.9308751375 -3.7513648824 0.0175097154 5.57929432118e-05 -3.65096679082e-05 0.0052203682902
Te -4.214217762 0.2034972933 0.0175097154 2.31399303643e-06 6.71057980566e-05 0.00522268228323
Te 1.9308751375 -3.7513648824 0.0175097154 -5.52787225371e-05 -3.83094402699e-05 0.00522062540053
Te 0 2.4119477205 14.2966878598 1.79977236167e-06 -0.000626063671524 -0.00436701908043
Te -2.0888079055 -1.2059704002 14.2966878598 0.000539674598164 0.000307246853171 -0.00436933307346
Te -4.214217762 2.4330797971 13.4084263265 7.71331012145e-07 -1.28555168691e-06 -0.00368130581063
Te 2.0888079055 -1.2059704002 14.2966878598 -0.000541731480863 0.000306989742834 -0.00436984729414
Te 1.6188462163 0.9346411655 -13.2393452632 0.000121870299919 7.07053427799e-05 -0.00368490535535
Te 3.27e-08 -1.8692788708 -13.2393452632 -1.54266202429e-06 -0.000138325361511 -0.00369184733446
Te -1.6188461507 0.9346411655 -13.2393452632 -0.000123155851606 6.65915773818e-05 -0.00368644801738
Te 4.2142177948 -2.4330763371 -13.9009177276 1.02844134953e-06 -7.71331012145e-07 -0.002900461716
Te 2.5954385253 1.4984772601 9.9918118348 -0.000214944242051 -0.000127783837679 0.00071682362062
Te 3.27e-08 -2.9969510603 9.9918118348 -2.57110337382e-07 0.000247854365236 0.000715538068933
Te -2.5954384598 1.4984772601 9.9918118348 0.000214172911039 -0.000127012506667 0.000716309399945
Te 4.2142177948 -2.4330763371 10.0255701292 1.02844134953e-06 6.68486877192e-06 0.000626577892199
Te 0 0 -7.023561391 -1.02844134953e-06 2.31399303643e-06 0.000574127383373
Te -1.7087040677 -3.8796354683 -6.9527291016 0.000376923754601 -0.000219315117787 0.000543274142887
Te 4.2142178275 0.4600384651 -6.9527291016 0 0.000439658676923 0.000542502811875
Te 1.7087040677 -3.8796354683 -6.9527291016 -0.000376152423589 -0.000219315117787 0.000542502811875
Te 0 2.7282912972 -3.4599078799 -2.57110337382e-07 0.000384379954386 -0.000396464140242
Te -2.3627694211 -1.3641421885 -3.4599078799 -0.000337328762645 -0.000192318532361 -0.000394150147206
Te -4.214217762 2.4330797971 -3.6123788535 -1.28555168691e-06 -2.31399303643e-06 -0.000857462975168
Te 2.3627694211 -1.3641421885 -3.4599078799 0.000335528990283 -0.000192061422024 -0.000392350374844
Te -0 2.9303043013 -10.1412528183 0 0.000408805436437 -0.00015118087838
Te -2.5377177332 -1.4651486906 -10.1412528183 -0.000355583596599 -0.000204659828556 -0.000153751981754
Te -4.214217762 2.4330797971 -10.5025054631 -5.14220674763e-07 -1.02844134953e-06 -0.000490052303049
Te 2.5377177332 -1.4651486906 -10.1412528183 0.000355840706936 -0.000205431159568 -0.000154266202429
Sb 0 2.1511734152 8.666674364 5.14220674763e-07 0.000470511917408 0.00160822516032
Sb -1.862970901 -1.0755832476 8.666674364 -0.000410862319136 -0.000235255958704 0.00161182470505
Sb -4.214217762 2.4330797971 7.4955105833 -2.57110337382e-07 2.57110337382e-07 0.00133928774742
Sb 1.862970901 -1.0755832476 8.666674364 0.000410862319136 -0.000234741738029 0.00161182470505
Sb 0 2.4159658823 1.7165817541 -1.28555168691e-06 0.000233199076005 0.00494140357414
Sb -2.0922878008 -1.2079794811 1.7165817541 -0.000207488042267 -0.000111071665749 0.00494243201549
Sb -4.214217762 2.4330797971 2.1289805103 5.14220674763e-07 1.28555168691e-06 0.00376563800129
Sb 2.0922878008 -1.2079794811 1.7165817541 0.000208516483617 -0.000113642769123 0.0049473171119
Sb -0 -0 -11.0516817006 5.14220674763e-07 -1.79977236167e-06 -0.00138839582186
Sb -2.0710143595 -3.6704554235 -12.3252864211 -9.71877075303e-05 5.47645018623e-05 -0.00254050724367
Sb -4.214217762 0.0416783756 -12.3252864211 1.02844134953e-06 -0.000109786114062 -0.00253845036097
Sb -2.1432033697 3.6287805079 -12.3252864211 9.66734868555e-05 5.73356052361e-05 -0.00254025013333
Sb -0 -0 10.7083568069 0 -1.02844134953e-06 -0.000530418626018
Sb -2.3729579605 -3.496128153 12.3645412627 -2.18543786774e-05 1.77406132793e-05 -0.00254410678839
Sb 4.2142178275 -0.3069761652 12.3645412627 5.14220674763e-07 -2.67394750877e-05 -0.00254847766413
Sb 2.3729579605 -3.496128153 12.3645412627 1.87690546289e-05 1.9540385641e-05 -0.0025428212367
Sb 2.1177042933 1.2226571461 -2.0720091902 0.000113128548448 6.47918050202e-05 0.00210084856675
Sb 3.27e-08 -2.4453108321 -2.0720091902 1.54266202429e-06 -0.000127526727341 0.00209904879438
Sb -2.1177042277 1.2226571461 -2.0720091902 -0.000112357217436 6.55631360323e-05 0.00210033434607
Sb 4.2142177948 -2.4330763371 -1.568085169 5.14220674763e-07 2.57110337382e-07 0.00230576550564
Sb 2.0582575173 1.1883355207 -8.7814309264 0.000207745152604 0.000120070527557 0.00125675532912
Sb 3.27e-08 -2.3766675813 -8.7814309264 -2.57110337382e-07 -0.000241683717139 0.00125624110845
Sb -2.0582574519 1.1883355207 -8.7814309264 -0.000205945380243 0.000119042086208 0.00125829799115
Sb 4.2142177948 -2.4330763371 -7.6498437147 -7.71331012145e-07 1.02844134953e-06 0.000673114863265
Cr -4.2142177948 -2.4330763371 14.5789415238 2.57110337382e-07 0 -0.00420786778159
61
Lattice="8.42843558953 0 0 -4.21421779477 7.29923593142 0 0 0 31.0334408416" Properties=species:S:1:pos:R:3:forces:R:3 energy=-133599.375125 ionic_step=15 pbc="T T T"
Te 1.9101933084 1.1028505683 3.4558462111 -0.000664630222132 -0.000382065961349 -0.00286369493776
Te 3.27e-08 -2.2056976765 3.4558462111 5.14220674763e-07 0.000763360591686 -0.00286549471012
Te -1.9101932428 1.1028505683 3.4558462111 0.000663601780782 -0.000383608623373 -0.00286369493776
Te 4.2142177948 -2.4330763371 3.2964775813 -5.14220674763e-07 1.02844134953e-06 -0.00247854365236
Te -0 -0 6.7449473302 1.28555168691e-06 -1.79977236167e-06 -0.00472028868399
Te -2.5410560821 -3.3990765899 7.0614306604 0.00051062113004 -0.000295676887989 -0.00506455942574
Te -4.214217762 -0.5010792916 7.0614306604 -1.28555168691e-06 0.000588782672604 -0.00506713052912
Te -1.6731617127 3.9001593415 7.0614306604 -0.000513706454088 -0.000293362894952 -0.00506867319114
Te 0 0 -0.1562065003 -2.05688269905e-06 -4.37087573549e-06 -0.000631462988609
Te -1.9259221329 -3.7542245022 0.0189794112 0.000197974959784 -0.000109786114062 -0.00112331506402
Te -4.214217762 0.209216533 0.0189794112 2.05688269905e-06 0.000223428883185 -0.00112717171908
Te 1.9259221329 -3.7542245022 0.0189794112 -0.000196175187422 -0.000110043224399 -0.00112537194672
Te 0 2.411120939 14.2932693327 2.31399303643e-06 0.00669463896474 0.00456499404021
Te -2.0880918921 -1.2055570095 14.2932693327 -0.00580246609403 -0.00334783370305 0.00456885069527
Te -4.214217762 2.4330797971 13.4163088589 1.02844134953e-06 -2.57110337382e-07 0.00364942412879
Te 2.0880918921 -1.2055570095 14.2932693327 0.00580118054234 -0.00334629104102 0.00456447981954
Te 1.6210824095 0.9359322328 -13.2411786826 -0.000900657511848 -0.00052141976421 0.000446600656032
Te 3.27e-08 -1.8718610055 -13.2411786826 2.57110337382e-07 0.00104592485247 0.000446600656032
Te -1.6210823439 0.9359322328 -13.2411786826 0.000903485725559 -0.000520648433198 0.000446086435357
Te 4.2142177948 -2.4330763371 -13.9040854643 1.02844134953e-06 2.57110337382e-07 -0.00577366973624
Te 2.5932198561 1.4971963103 9.9984031701 0.000517563109149 0.000301076205074 -0.00257573135989
Te 3.27e-08 -2.9943891605 9.9984031701 -7.71331012145e-07 -0.000598552865424 -0.0025703320428
Te -2.5932197906 1.4971963103 9.9984031701 -0.000514992005775 0.000298762212037 -0.00257341736685
Te 4.2142177948 -2.4330763371 10.0316268504 3.85665506072e-06 -2.8282137112e-06 -0.00135548569868
Te 0 0 -7.0243200404 1.79977236167e-06 -7.71331012145e-07 0.000871089823049
Te -1.7111939901 -3.8781979102 -6.9509857431 0.000800641590606 -0.00046254149695 0.000957221786072
Te 4.2142178275 0.457163349 -6.9509857431 -2.05688269905e-06 0.000926625655923 0.000954650682698
Te 1.7111939901 -3.8781979102 -6.9509857431 -0.00080321269398 -0.000462798607287 0.000951565358649
Te 0 2.7374864348 -3.4542034754 0 -0.00109786114062 0.00310435021355
Te -2.3707326402 -1.3687397574 -3.4542034754 0.000952336689662 0.000550216121997 0.00310872108928
Te -4.214217762 2.4330797971 -3.6194744751 -1.79977236167e-06 1.54266202429e-06 0.00279273248464
Te 2.3707326402 -1.3687397574 -3.4542034754 -0.000950022696625 0.000549701901322 0.00310692131692
Te -0 2.928409538 -10.1409064272 -2.57110337382e-06 -0.00102612735649 0.00169847088874
Te -2.5360768209 -1.464201309 -10.1409064272 0.000889344657003 0.000513706454088 0.00169718533706
Te -4.214217762 2.4330797971 -10.5061750568 -7.71331012145e-07 1.54266202429e-06 0.00266443442629
Te 2.5360768209 -1.464201309 -10.1409064272 -0.000889858877678 0.00051062113004 0.00169795666807
Sb 0 2.1469992367 8.6793410688 3.59954472334e-06 -0.000550473232334 -0.00553892799821
Sb -1.859355958 -1.0734961583 8.6793410688 0.000475139903481 0.000273822509311 -0.00553969932922
Sb -4.214217762 2.4330797971 7.4870940402 -1.02844134953e-06 5.14220674763e-07 -0.00497122837327
Sb 1.859355958 -1.0734961583 8.6793410688 -0.000477453896518 0.000276393612685 -0.00554124199125
Sb 0 2.4140480743 1.7092741863 1.28555168691e-06 -0.00122384520594 -0.0031693991289
Sb -2.0906269311 -1.2070205771 1.7092741863 0.00106006592102 0.000612179713306 -0.00317377000464
Sb -4.214217762 2.4330797971 2.1380777968 -1.79977236167e-06 7.71331012145e-07 -0.003196909935
Sb 2.0906269311 -1.2070205771 1.7092741863 -0.00106006592102 0.000613465264993 -0.00317248445295
Sb -0 -0 -11.0457040259 -1.02844134953e-06 -1.02844134953e-06 0.001566830396
Sb -2.0667277032 -3.6729303268 -12.3262032976 -0.000523990867584 0.000302618867098 0.000607551727233
Sb -4.214217762 0.0466281822 -12.3262032976 -1.79977236167e-06 -0.000604209292847 0.000606780396221
Sb -2.147490026 3.6263056046 -12.3262032976 0.000525790639945 0.00030339019811 0.000609865720269
Sb -0 -0 10.721701694 1.28555168691e-06 -5.14220674763e-07 -0.000364068237732
Sb -2.3693732185 -3.4981978057 12.350080163 -0.00174269386677 0.00100530141916 0.00588242740895
Sb 4.2142178275 -0.3028368598 12.350080163 -2.57110337382e-07 -0.00201394527271 0.00588679828469
Sb 2.3693732185 -3.4981978057 12.350080163 0.0017421796461 0.00100735830186 0.00588525562267
Sb 2.1161543571 1.2217622896 -2.0737611876 -0.000559986314817 -0.000324730356113 0.00287320802024
Sb 3.27e-08 -2.4435211192 -2.0737611876 -5.14220674763e-07 0.000649203601889 0.00287475068226
Sb -2.1161542915 1.2217622896 -2.0737611876 0.000562300307854 -0.000327044349149 0.00287346513058
Sb 4.2142177948 -2.4330763371 -1.5580485776 -0 4.11376539811e-06 0.00210033434607
Sb 2.0585313991 1.1884936465 -8.7859901441 -0.000359697361997 -0.000206973821592 0.00147709888826
Sb 3.27e-08 -2.3769838328 -8.7859901441 2.8282137112e-06 0.00041240498116 0.00147787021927
Sb -2.0585313337 1.1884936465 -8.7859901441 0.000358668920647 -0.000205688269905 0.00147581333657
Sb 4.2142177948 -2.4330763371 -7.6455111424 0 -1.28555168691e-06 0.000802441362968
Cr -4.2142177948 -2.4330763371 14.5783592451 1.02844134953e-06 5.39931708501e-06 0.00267214773641
61
Lattice="8.42843558953 0 0 -4.21421779477 7.29923593142 0 0 0 31.0334408416" Properties=species:S:1:pos:R:3:forces:R:3 energy=-133599.390428 ionic_step=16 pbc="T T T"
Te 1.9046848431 1.0996702529 3.4490052594 -0.000307246853171 -0.000172521036383 0.0020854219465
Te 3.27e-08 -2.1993370457 3.4490052594 -1.79977236167e-06 0.000350698500189 0.00207847996739
Te -1.9046847775 1.0996702529 3.4490052594 0.000303904418785 -0.000182805449878 0.00208825016021
Te 4.2142177948 -2.4330763371 3.2876215989 2.57110337382e-06 -2.57110337382e-07 0.00241323762666
Te -0 -0 6.7324803452 -7.45619978407e-06 -0 0.000257367447719
Te -2.5406490685 -3.3993115794 7.0707177227 0.000426031829041 -0.000239883944777 0.000346327624453
Te -4.214217762 -0.5006093125 7.0707177227 6.9419791093e-06 0.000486709868663 0.000347356065803
Te -1.6735687263 3.899924352 7.0707177227 -0.000432202477139 -0.000247597254899 0.000347870286477
Te 0 0 -0.1621948674 2.57110337382e-06 -5.39931708501e-06 0.00415001795568
Te -1.9194378937 -3.7579681812 0.0174491171 0.000439658676923 -0.000252225240971 0.004255433194
Te -4.214217762 0.216703891 0.0174491171 -1.79977236167e-06 0.000504964702618 0.00425877562839
Te 1.9194378937 -3.7579681812 0.0174491171 -0.000447886207719 -0.00025531056502 0.00425466186299
Te 0 2.4114804523 14.2901501133 7.45619978407e-06 -0.0058284342381 0.00306604077328
Te -2.0884032395 -1.2057367661 14.2901501133 0.00505041835719 0.00291383145355 0.00306424100091
Te -4.214217762 2.4330797971 13.4256967155 -0 2.57110337382e-07 0.00106700790013
Te 2.0884032395 -1.2057367661 14.2901501133 -0.00504784725381 0.00292000210164 0.00306706921463
Te 1.6230075185 0.9370436955 -13.2431665602 -0.00103846865268 -0.000597781534412 0.00635833864345
Te 3.27e-08 -1.8740839309 -13.2431665602 4.62798607287e-06 0.00120147660658 0.00635885286412
Te -1.6230074529 0.9370436955 -13.2431665602 0.00104155397673 -0.000596495982725 0.00635756731244
Te 4.2142177948 -2.4330763371 -13.9078051458 -2.8282137112e-06 -7.97042045883e-06 0.0108649686371
Te 2.5946557196 1.4980253069 10.0055354716 0.000659488015384 0.000377180864939 -0.00192909886137
Te 3.27e-08 -2.9960471537 10.0055354716 2.57110337382e-06 -0.000765160364048 -0.0019285846407
Te -2.5946556541 1.4980253069 10.0055354716 -0.000668229766855 0.000382837292361 -0.00193244129576
Te 4.2142177948 -2.4330763371 10.0418731122 -4.88509641025e-06 -4.11376539811e-06 -0.00242866424691
Te 0 0 -7.0254334822 -2.05688269905e-06 7.71331012145e-07 -0.00941178101019
Te -1.7140326298 -3.8765590201 -6.9508327297 -0.000351469831201 0.000201060283832 -0.00948660011837
Te 4.2142178275 0.4538855686 -6.9508327297 -2.31399303643e-06 -0.000398778133279 -0.009484029015
Te 1.7140326298 -3.8765590201 -6.9508327297 0.000349670058839 0.000196946518434 -0.00947734414622
Te 0 2.7494967902 -3.448740589 1.15699651822e-05 -0.000623235457813 0.000990389019594
Te -2.3811339082 -1.374744935 -3.448740589 0.000533246839729 0.000304161529122 0.000997073888366
Te -4.214217762 2.4330797971 -3.6269663669 -9.25597214574e-06 -2.57110337382e-06 0.000883431119243
Te 2.3811339082 -1.374744935 -3.448740589 -0.000538646156815 0.000318045487341 0.000996559667691
Te -0 2.9285755783 -10.140608621 6.42775843454e-06 -0.00164139239384 -0.00706153541619
Te -2.5362206159 -1.4642843291 -10.140608621 0.00141564951762 0.000821724638272 -0.00705562187843
Te -4.214217762 2.4330797971 -10.5089137032 -1.79977236167e-06 -7.45619978407e-06 -0.00523579491044
Te 2.5362206159 -1.4642843291 -10.140608621 -0.00141539240729 0.000829952169068 -0.00706359229889
Sb 0 2.146403806 8.6924205009 -2.57110337382e-06 -4.57656400539e-05 -0.000996559667691
Sb -1.8588403002 -1.073198443 8.6924205009 4.19089849932e-05 2.54539234008e-05 -0.00100170187444
Sb -4.214217762 2.4330797971 7.4838733932 6.42775843454e-06 4.62798607287e-06 0.000433230918488
Sb 1.8588403002 -1.073198443 8.6924205009 -4.42229780296e-05 2.13401580027e-05 -0.000995788336679
Sb 0 2.4127449553 1.7034278329 5.6564274224e-06 -0.000950022696625 0.00410836608102
Sb -2.0894983975 -1.2063690176 1.7034278329 0.000820696196922 0.000472568800107 0.00409576767449
Sb -4.214217762 2.4330797971 2.1501614334 -3.59954472334e-06 0 0.00381706006877
Sb 2.0894983975 -1.2063690176 1.7034278329 -0.000822753079621 0.000479253668879 0.0041027096536
Sb 0 -0 -11.0421195565 -5.14220674763e-07 3.85665506072e-06 -0.00388776541155
Sb -2.0629442781 -3.6751146893 -12.3272809347 0.00107626387228 -0.000626835002536 0.0022078064671
Sb -4.214217762 0.0509969072 -12.3272809347 -2.31399303643e-06 0.00124415692259 0.00221577688755
Sb -2.1512734511 3.6241212421 -12.3272809347 -0.00107497832059 -0.000620407244102 0.00220394981204
Sb -0 -0 10.7324178244 1.54266202429e-06 -4.88509641025e-06 -0.00139713757333
Sb -2.3654772134 -3.5004471663 12.3339206495 0.0025083684515 -0.00144136055136 -0.00228673934067
Sb 4.2142178275 -0.2983381385 12.3339206495 1.54266202429e-06 0.00288657775778 -0.00229059599573
Sb 2.3654772134 -3.5004471663 12.3339206495 -0.00249911247935 -0.00143930366866 -0.00229702375417
Sb 2.115194125 1.2212078991 -2.0738519386 -0.00049879405452 -0.000288992019217 0.00440815673441
Sb 3.27e-08 -2.4424123381 -2.0738519386 -3.85665506072e-06 0.000582354914169 0.00441381316183
Sb -2.1151940594 1.2212078991 -2.0738519386 0.000501365157894 -0.000295162667314 0.00441458449284
Sb 4.2142177948 -2.4330763371 -1.5436589744 6.42775843454e-06 1.02844134953e-06 0.00412764935632
Sb 2.0592570146 1.188912581 -8.7896044309 -0.00024939702726 -0.000143724678596 -0.010522754778
Sb 3.27e-08 -2.3778217018 -8.7896044309 -7.71331012145e-06 0.000287963577867 -0.010523526109
Sb -2.0592569492 1.188912581 -8.7896044309 0.000246054592874 -0.000146038671633 -0.0105268685434
Sb 4.2142177948 -2.4330763371 -7.6406674353 7.97042045883e-06 5.14220674763e-07 -0.00919940787151
Cr -4.2142177948 -2.4330763371 14.573266372 3.85665506072e-06 -2.31399303643e-06 0.00375766758083
61
Lattice="8.42843558953 0 0 -4.21421779477 7.29923593142 0 0 0 31.0334408416" Properties=species:S:1:pos:R:3:forces:R:3 energy=-133599.406585 ionic_step=17 pbc="T T T"
Te 1.8983566745 1.0960166814 3.4389362581 0.000268937412901 0.000155808864453 0.00219315117787
Te 3.27e-08 -2.1920299026 3.4389362581 -0 -0.000308275294521 0.00218955163314
Te -1.8983566089 1.0960166814 3.4389362581 -0.000268937412901 0.000154780423104 0.00219417961921
Te 4.2142177948 -2.4330763371 3.2740669592 -0 2.57110337382e-07 0.00250271202407
Te -0 -0 6.7228320144 1.79977236167e-06 -7.71331012145e-07 0.00658870950574
Te -2.541263571 -3.3989567961 7.0790464537 0.000292334453603 -0.000168150160648 0.00698054565991
Te -4.214217762 -0.5013188793 7.0790464537 -3.85665506072e-06 0.000334757659271 0.00698285965295
Te -1.6729542238 3.9002791353 7.0790464537 -0.000292334453603 -0.000164550615924 0.00698105988059
Te 0 0 -0.1691012637 1.28555168691e-06 -1.54266202429e-06 -0.00120301926861
Te -1.9123236879 -3.7620755718 0.015057662 0.00049390895811 -0.000283592702132 -0.000859005637192
Te -4.214217762 0.2249186722 0.015057662 -1.02844134953e-06 0.000567185404264 -0.000862090961241
Te 1.9123236879 -3.7620755718 0.015057662 -0.000495965840809 -0.000282307150445 -0.000859776968204
Te 0 2.413955217 14.2875386651 -2.57110337382e-07 -0.00393841614801 -0.00479922155757
Te -2.0905464476 -1.2069741485 14.2875386651 0.00341262550807 0.00196766541198 -0.00479896444723
Te -4.214217762 2.4330797971 13.4349324356 -2.57110337382e-06 2.57110337382e-07 -0.00412764935632
Te 2.0905464476 -1.2069741485 14.2875386651 -0.00341185417705 0.00197229339805 -0.00480024999892
Te 1.6238692868 0.9375412379 -13.245154445 -0.000466141041673 -0.00026610919919 -0.00223506016286
Te 3.27e-08 -1.8750790157 -13.245154445 -7.71331012145e-07 0.000535817943103 -0.00223557438353
Te -1.6238692212 0.9375412379 -13.245154445 0.000467169483022 -0.000269451633576 -0.0022332603905
Te 4.2142177948 -2.4330763371 -13.9088033025 1.54266202429e-06 1.02844134953e-06 0.000615779258029
Te 2.5981734899 1.5000562934 10.0155334323 0.000622207016464 0.000359954472334 0.00382631604091
Te 3.27e-08 -3.0001091268 10.0155334323 5.14220674763e-07 -0.000724536930741 0.00382734448226
Te -2.5981734244 1.5000562934 10.0155334323 -0.000624006788825 0.000363811127395 0.00382734448226
Te 4.2142177948 -2.4330763371 10.0586320445 -5.14220674763e-07 -5.14220674763e-07 0.00350492811919
Te 0 0 -7.0284107723 -2.31399303643e-06 1.79977236167e-06 -0.0023453604976
Te -1.7172461419 -3.8747036971 -6.9520160621 0.000507278695654 -0.000292077343266 -0.00201677348642
Te 4.2142178275 0.4501749228 -6.9520160621 1.79977236167e-06 0.000584154686531 -0.0020131739417
Te 1.7172461419 -3.8747036971 -6.9520160621 -0.000507278695654 -0.000295162667314 -0.00201291683136
Te 0 2.7625160612 -3.4406246314 -1.02844134953e-06 -0.000363039796383 -0.00148069843298
Te -2.3924089224 -1.3812545706 -3.4406246314 0.000310075066882 0.00018357678089 -0.00147992710197
Te -4.214217762 2.4330797971 -3.6322926497 -7.71331012145e-07 -2.31399303643e-06 -0.00156734461668
Te 2.3924089224 -1.3812545706 -3.4406246314 -0.000312131949581 0.00018357678089 -0.00148198398467
Te -0 2.9305060117 -10.1419981654 7.71331012145e-07 -0.00070602498645 -0.0011940204068
Te -2.5378924195 -1.4652495458 -10.1419981654 0.000611665492631 0.000350441389851 -0.00119633439984
Te -4.214217762 2.4330797971 -10.5106225771 -1.79977236167e-06 -1.28555168691e-06 -0.000722222937705
Te 2.5378924195 -1.4652495458 -10.1419981654 -0.000612179713306 0.000354040934575 -0.00119247774478
Sb 0 2.1494173105 8.7030248968 2.05688269905e-06 0.000512420902402 0.00653651610725
Sb -1.8614500703 -1.0747051952 8.7030248968 -0.000443772442321 -0.000256081896032 0.00653085967983
Sb -4.214217762 2.4330797971 7.4816131519 -2.05688269905e-06 -1.28555168691e-06 0.007388322655
Sb 1.8614500703 -1.0747051952 8.7030248968 0.00044582932502 -0.000254796344345 0.00652983123848
Sb 0 2.4127248135 1.6958270264 4.37087573549e-06 -0.000592896438002 0.00133620242337
Sb -2.0894809542 -1.2063589468 1.6958270264 0.000515763336788 0.000294134225965 0.00133723086472
Sb -4.214217762 2.4330797971 2.1620336177 -2.05688269905e-06 1.28555168691e-06 0.00139868023536
Sb 2.0894809542 -1.2063589468 1.6958270264 -0.000516791778137 0.000299019322375 0.00134365862316
Sb 0 -0 -11.0415988774 7.71331012145e-07 2.57110337382e-07 -0.000935881628069
Sb -2.0593956069 -3.6771635166 -12.3291741793 0.000111328776086 -6.29920326585e-05 -0.00111328776086
Sb -4.214217762 0.0550945617 -12.3291741793 7.71331012145e-07 0.000128298058353 -0.00111200220918
Sb -2.1548221223 3.6220724148 -12.3291741793 -0.000112871438111 -6.60773567071e-05 -0.0011135448712
Sb -0 -0 10.7451024612 5.14220674763e-07 3.08532404858e-06 0.00174372230812
Sb -2.3605434956 -3.5032956509 12.3177124214 0.00145858694397 -0.000843579016949 -0.00253562214726
Sb 4.2142178275 -0.2926411693 12.3177124214 -1.79977236167e-06 0.00168355848917 -0.00253562214726
Sb 2.3605434956 -3.5032956509 12.3177124214 -0.00145627295093 -0.000841265023913 -0.00253845036097
Sb 2.1154155912 1.2213357627 -2.0713814733 -0.000285135364156 -0.000167635939973 -0.0019285846407
Sb 3.27e-08 -2.4426680653 -2.0713814733 -1.28555168691e-06 0.000329101231848 -0.00192729908901
Sb -2.1154155256 1.2213357627 -2.0713814733 0.00028179292977 -0.000166607498623 -0.00193012730272
Sb 4.2142177948 -2.4330763371 -1.5239145391 2.05688269905e-06 4.37087573549e-06 -0.00263255274445
Sb 2.0607567327 1.1897784441 -8.7917965754 -0.000405720112388 -0.000236541510391 -0.00167584517905
Sb 3.27e-08 -2.379553428 -8.7917965754 7.71331012145e-07 0.000466655262348 -0.00167738784108
Sb -2.0607566673 1.1897784441 -8.7917965754 0.000399292353954 -0.000234227517355 -0.00167301696534
Sb 4.2142177948 -2.4330763371 -7.6386029038 1.54266202429e-06 4.37087573549e-06 -0.00233893273916
Cr -4.2142177948 -2.4330763371 14.5677942017 4.11376539811e-06 -2.57110337382e-07 -0.00433513739859
61
Lattice="8.42843558953 0 0 -4.21421779477 7.29923593142 0 0 0 31.0334408416" Properties=species:S:1:pos:R:3:forces:R:3 energy=-133599.422063 ionic_step=18 pbc="T T T"
Te 1.8916768862 1.092160102 3.4285607293 0.000370495996167 0.000224457324534 -0.00119556306882
Te 3.27e-08 -2.1843167439 3.4285607293 2.57110337382e-06 -0.000439658676923 -0.00119684862051
Te -1.8916768206 1.092160102 3.4285607293 -0.000371010216842 0.000226514207233 -0.00120199082726
Te 4.2142177948 -2.4330763371 3.2592750864 -1.54266202429e-06 -9.51308248312e-06 -0.000990131909257
Te -0 -0 6.719709558 -0 6.68486877192e-06 -0.00713584030369
Te -2.5432786958 -3.3977933627 7.0863724562 0.000492623406423 -0.000296448219001 -0.0074474580326
Te -4.214217762 -0.503645746 7.0863724562 -1.28555168691e-06 0.000574898714385 -0.00743460251573
Te -1.670939099 3.9014425687 7.0863724562 -0.000490823634062 -0.000293362894952 -0.00745182890833
Te 0 0 -0.1756683961 -5.14220674763e-06 7.71331012145e-06 0.00874432257435
Te -1.9053378445 -3.7661088522 0.0133680322 0.000360468693009 -0.000205174049231 0.00902123040771
Te -4.214217762 0.232985233 0.0133680322 2.8282137112e-06 0.000411890760485 0.0090163453113
Te 1.9053378445 -3.7661088522 0.0133680322 -0.000358926030985 -0.000204916938893 0.0090225159594
Te 0 2.4181326619 14.2839986215 -3.59954472334e-06 -0.00561734665111 0.00568882332491
Te -2.0941642193 -1.2090628709 14.2839986215 0.00486992690035 0.00281098731859 0.00567905313209
Te -4.214217762 2.4330797971 13.4430557299 6.9419791093e-06 -5.14220674763e-07 0.00420915333327
Te 2.0941642193 -1.2090628709 14.2839986215 -0.00487326933473 0.0028068735532 0.00567005427028
Te 1.6236393493 0.9374084834 -13.2467398119 -0.000848464113359 -0.00049493739946 0.00613850930499
Te 3.27e-08 -1.8748135067 -13.2467398119 -3.34243438596e-06 0.000979590385424 0.00613413842925
Te -1.6236392837 0.9374084834 -13.2467398119 0.000848207003022 -0.000497508502833 0.00613876641532
Te 4.2142177948 -2.4330763371 -13.907962736 2.31399303643e-06 2.05688269905e-06 0.0105620926596
Te 2.6021180507 1.5023336877 10.0263181993 0.0006520318156 0.000368439113468 -0.00545845246261
Te 3.27e-08 -3.0046639155 10.0263181993 -7.71331012145e-07 -0.000746134199081 -0.00545305314553
Te -2.6021179852 1.5023336877 10.0263181993 -0.000650746263913 0.000362268465371 -0.00545279603519
Te 4.2142177948 -2.4330763371 10.0769258982 5.14220674763e-07 -1.54266202429e-06 -0.00566311229117
Te 0 0 -7.0326618457 1.54266202429e-06 -5.6564274224e-06 -0.007515592272
Te -1.7195471073 -3.8733752335 -6.9538312746 -0.000697540345316 0.000392864595519 -0.00774339203092
Te 4.2142178275 0.4475179955 -6.9538312746 -2.05688269905e-06 -0.000786757632388 -0.00775161956172
Te 1.7195471073 -3.8733752335 -6.9538312746 0.000694712131605 0.000397749691929 -0.00774364914126
Te 0 2.7748221094 -3.4316531895 -5.14220674763e-06 -3.41956748718e-05 0.00382657315125
Te -2.4030662678 -1.3874075947 -3.4316531895 3.62525575708e-05 2.00546063158e-05 0.00382168805484
Te -4.214217762 2.4330797971 -3.6356134248 2.05688269905e-06 -2.57110337382e-07 0.00370264596863
Te 2.4030662678 -1.3874075947 -3.4316531895 -3.5738336896e-05 1.46552892308e-05 0.00382477337889
Te -0 2.9333200408 -10.1444179046 3.34243438596e-06 -0.00107343565857 -0.00618504627605
Te -2.540329439 -1.4666565604 -10.1444179046 0.000924825883562 0.000537874825802 -0.00616961965581
Te -4.214217762 2.4330797971 -10.5117178421 -0 -3.34243438596e-06 -0.00489743770645
Te 2.540329439 -1.4666565604 -10.1444179046 -0.000923797442212 0.000539931708501 -0.00617064809716
Sb 0 2.1520078765 8.7100818617 1.79977236167e-06 0.000173035257058 -0.00724614063843
Sb -1.8636935653 -1.0760004782 8.7100818617 -0.000151437988718 -7.91899839135e-05 -0.00724511219708
Sb -4.214217762 2.4330797971 7.4806538081 -2.05688269905e-06 -4.88509641025e-06 -0.00741969011616
Sb 1.8636935653 -1.0760004782 8.7100818617 0.000155037533441 -8.150397695e-05 -0.0072425410937
Sb 0 2.4137814397 1.6869943234 -3.59954472334e-06 0.000321902142402 0.00547876417927
Sb -2.0903960189 -1.2068872598 1.6869943234 -0.00027587939201 -0.000157865747152 0.00546488022105
Sb -4.214217762 2.4330797971 2.1720331222 3.34243438596e-06 6.68486877192e-06 0.00355917840037
Sb 2.0903960189 -1.2068872598 1.6869943234 0.00027587939201 -0.000161208181538 0.00546667999341
Sb 0 -0 -11.0437243441 7.71331012145e-07 -2.05688269905e-06 -0.00390370625247
Sb -2.0570314112 -3.6785284862 -12.3317189583 0.000888059105316 -0.000515249116113 0.0018378246916
Sb -4.214217762 0.057824501 -12.3317189583 3.08532404858e-06 0.0010310124529 0.00184039579498
Sb -2.157186318 3.6207074452 -12.3317189583 -0.00088960176734 -0.000516277557462 0.00183499647789
Sb -0 -0 10.7578684359 -1.79977236167e-06 2.8282137112e-06 -0.0018907894211
Sb -2.3543473315 -3.5068730096 12.3039826718 0.00214095777938 -0.0012318156264 -0.000169692822672
Sb 4.2142178275 -0.2854864519 12.3039826718 5.14220674763e-07 0.00246774501819 -0.00017483502942
Sb 2.3543473315 -3.5068730096 12.3039826718 -0.0021425004414 -0.00123258695741 -0.000166607498623
Sb 2.1167361977 1.2220982156 -2.0690346186 0.000310589287557 0.000174320808745 0.00967480488533
Sb 3.27e-08 -2.4441929711 -2.0690346186 0 -0.000361497134359 0.00967968998174
Sb -2.1167361321 1.2220982156 -2.0690346186 -0.000310589287557 0.000174063698407 0.00967583332668
Sb 4.2142177948 -2.4330763371 -1.5021956604 -1.02844134953e-06 -4.11376539811e-06 0.0098609527696
Sb 2.062254312 1.1906430723 -8.7924924392 -0.000122127410256 -8.09897562752e-05 -0.00859339880631
Sb 3.27e-08 -2.3812826844 -8.7924924392 2.57110337382e-07 0.000156580195465 -0.00860342610946
Sb -2.0622542466 1.1906430723 -8.7924924392 0.000121356079244 -8.17610872874e-05 -0.00859622702002
Sb 4.2142177948 -2.4330763371 -7.6382232824 -2.8282137112e-06 1.02844134953e-06 -0.00704250925122
Cr -4.2142177948 -2.4330763371 14.5641336491 -2.57110337382e-07 -5.14220674763e-06 0.00571736257236
61
Lattice="8.42843558953 0 0 -4.21421779477 7.29923593142 0 0 0 31.0334408416" Properties=species:S:1:pos:R:3:forces:R:3 energy=-133599.444212 ionic_step=19 pbc="T T T"
Te 1.8822202904 1.0867003313 3.4124442723 0.000538389046477 0.000310075066882 0.00177611821063
Te 3.27e-08 -2.1733972025 3.4124442723 2.57110337382e-07 -0.000620664354439 0.00177868931401
Te -1.8822202248 1.0867003313 3.4124442723 -0.00053813193614 0.000309560846207 0.00177611821063
Te 4.2142177948 -2.4330763371 3.2365898046 1.28555168691e-06 1.54266202429e-06 0.00234150384253
Te -0 -0 6.7223352161 -2.57110337382e-07 -2.8282137112e-06 0.00616936254547
Te -2.5466118885 -3.3958689421 7.0933316765 0.00023859839309 -0.000133440265101 0.00580863674213
Te -4.214217762 -0.5074945873 7.0933316765 1.79977236167e-06 0.000272279847287 0.00580889385246
Te -1.6676059063 3.9033669893 7.0933316765 -0.000236027289716 -0.000134982927125 0.00580940807314
Te 0 0 -0.1843686558 7.71331012145e-07 7.71331012145e-07 0.00109657558893
Te -1.8955970246 -3.7717327198 0.0116000888 0.000513706454088 -0.000297476660351 0.0016107962637
Te -4.214217762 0.2442329682 0.0116000888 -2.57110337382e-06 0.000592639327665 0.00161182470505
Te 1.8955970246 -3.7717327198 0.0116000888 -0.000513192233414 -0.000297219550013 0.00161285314639
Te 0 2.4249911046 14.2792803248 -2.8282137112e-06 -0.00309792245511 -0.00235795890413
Te -2.1001038022 -1.2124920923 14.2792803248 0.00268114659822 0.00155011822407 -0.0023584731248
Te -4.214217762 2.4330797971 13.4532221095 3.08532404858e-06 -5.14220674763e-07 -0.00147015690915
Te 2.1001038022 -1.2124920923 14.2792803248 -0.00268346059125 0.00154883267239 -0.00235795890413
Te 1.6223902355 0.9366873069 -13.2489676627 0.00046639815201 0.000264823647503 -0.00346147647217
Te 3.27e-08 -1.8733711536 -13.2489676627 1.28555168691e-06 -0.000537874825802 -0.00346430468588
Te -1.6223901699 0.9366873069 -13.2489676627 -0.000465112600323 0.000271765626612 -0.00346301913419
Te 4.2142177948 -2.4330763371 -13.9047531213 -2.57110337382e-06 2.57110337382e-07 -0.000789328735762
Te 2.6064953172 1.5048609049 10.0429229805 5.14220674763e-05 2.85392474494e-05 0.00327070060183
Te 3.27e-08 -3.0097183498 10.0429229805 7.71331012145e-07 -5.57929432118e-05 0.00327198615352
Te -2.6064952517 1.5048609049 10.0429229805 -5.27076191632e-05 2.67394750877e-05 0.00327378592588
Te 4.2142177948 -2.4330763371 10.1068886007 2.8282137112e-06 3.08532404858e-06 0.00273848220345
Te 0 0 -7.0401445923 2.8282137112e-06 -2.31399303643e-06 -0.00301076205074
Te -1.722368768 -3.8717461462 -6.9568711685 0.000265852088853 -0.00015220931973 -0.00240372454418
Te 4.2142178275 0.4442598209 -6.9568711685 -2.31399303643e-06 0.000303904418785 -0.00240218188216
Te 1.722368768 -3.8717461462 -6.9568711685 -0.000264052316491 -0.000149381106019 -0.00240218188216
Te 0 2.7910290647 -3.4167773764 2.05688269905e-06 0.000399549464291 -0.00124261426057
Te -2.4171018963 -1.3955110723 -3.4167773764 -0.000348898727827 -0.000199260511471 -0.00124261426057
Te -4.214217762 2.4330797971 -3.6372900115 -1.28555168691e-06 -1.79977236167e-06 -0.00148121265366
Te 2.4171018963 -1.3955110723 -3.4167773764 0.000348898727827 -0.000199260511471 -0.00124441403293
Te -0 2.9372815829 -10.1495141068 1.28555168691e-06 -0.000167378829635 -0.00337791561252
Te -2.5437602335 -1.4686373314 -10.1495141068 0.000144496009608 8.20181976247e-05 -0.00337560161948
Te -4.214217762 2.4330797971 -10.5127638556 -1.28555168691e-06 1.02844134953e-06 -0.00351238431897
Te 2.5437602335 -1.4686373314 -10.1495141068 -0.000143724678596 8.30466389743e-05 -0.00337791561252
Sb 0 2.156162059 8.7164397083 1.79977236167e-06 -7.94470942509e-05 0.00562223174752
Sb -1.8672911912 -1.0780775695 8.7164397083 6.9419791093e-05 3.72809989203e-05 0.00562248885786
Sb -4.214217762 2.4330797971 7.4799181497 -2.31399303643e-06 7.71331012145e-07 0.00597575846142
Sb 1.8672911912 -1.0780775695 8.7164397083 -7.14766737921e-05 4.13947643184e-05 0.00562171752685
Sb 0 2.416156701 1.6725343203 -7.71331012145e-07 -0.000167635939973 0.00228493956831
Sb -2.0924530546 -1.2080748905 1.6725343203 0.000143981788934 8.40750803238e-05 0.00228622512
Sb -4.214217762 2.4330797971 2.1832236194 7.71331012145e-07 -1.28555168691e-06 0.00171749705371
Sb 2.0924530546 -1.2080748905 1.6725343203 -0.000143981788934 8.61319630228e-05 0.00228391112696
Sb 0 -0 -11.0486933484 2.57110337382e-06 1.54266202429e-06 -0.00225768587255
Sb -2.0543850527 -3.6800563627 -12.3359076107 0.000210830476653 -0.000122641630931 -0.00283824101436
Sb -4.214217762 0.060880254 -12.3359076107 -1.54266202429e-06 0.000242969268826 -0.00284081211773
Sb -2.1598326765 3.6191795687 -12.3359076107 -0.000208773593954 -0.000122127410256 -0.00284209766942
Sb -0 -0 10.7743595553 5.14220674763e-07 -3.85665506072e-06 0.00178717395514
Sb -2.344258708 -3.5126976818 12.2879377061 0.00129455054872 -0.00074433442672 -0.000368953334143
Sb 4.2142178275 -0.2738371074 12.2879377061 1.28555168691e-06 0.00149483950154 -0.000365353789419
Sb 2.344258708 -3.5126976818 12.2879377061 -0.00129815009344 -0.000746648419756 -0.00036432534807
Sb 2.1195235297 1.2237074832 -2.0643513295 -0.000251711020297 -0.000145010230283 -0.000598295755087
Sb 3.27e-08 -2.4474115064 -2.0643513295 -1.02844134953e-06 0.000290534681241 -0.000599324196437
Sb -2.1195234641 1.2237074832 -2.0643513295 0.000250939689284 -0.000147067112982 -0.000600866858461
Sb 4.2142177948 -2.4330763371 -1.4696173422 7.71331012145e-07 7.71331012145e-07 -0.00126986795633
Sb 2.06415165 1.1917385014 -8.7924056531 -0.000332186555897 -0.000191290091012 -0.00336506009565
Sb 3.27e-08 -2.3834735426 -8.7924056531 -1.02844134953e-06 0.000383094402699 -0.00336300321295
Sb -2.0641515846 1.1917385014 -8.7924056531 0.000332700776572 -0.000191032980675 -0.00336351743363
Sb 4.2142177948 -2.4330763371 -7.6411480311 -2.57110337382e-07 -1.02844134953e-06 -0.00317659821835
Cr -4.2142177948 -2.4330763371 14.562407246 -1.79977236167e-06 3.08532404858e-06 -0.00202294413452
61
Lattice="8.42843558953 0 0 -4.21421779477 7.29923593142 0 0 0 31.0334408416" Properties=species:S:1:pos:R:3:forces:R:3 energy=-133599.472161 ionic_step=20 pbc="T T T"
Te 1.8674789034 1.0781893836 3.3895567734 0.000862348071578 0.000494680289122 0.000883688229581
Te 3.27e-08 -2.156375307 3.3895567734 1.54266202429e-06 -0.000994245674655 0.000886259332954
Te -1.8674788378 1.0781893836 3.3895567734 -0.000859519857867 0.000497251392496 0.00088574511228
Te 4.2142177948 -2.4330763371 3.2032760758 -4.62798607287e-06 0 0.00141950617268
Te -0 -0 6.7334044755 2.57110337382e-06 2.05688269905e-06 0.00754284596776
Te -2.5521024016 -3.3926989914 7.1027691768 -0.000351984051875 0.000197717849446 0.00664655933165
Te -4.214217762 -0.5138344886 7.1027691768 -1.54266202429e-06 -0.000408805436437 0.006647587773
Te -1.6621153932 3.90653694 7.1027691768 0.000353783824237 0.00020131739417 0.00664707355233
Te 0 0 -0.197301418 5.14220674763e-07 -3.85665506072e-06 -4.49943090418e-05
Te -1.8804570732 -3.780473779 0.0099776186 0.00070011144869 -0.000399035243616 0.00083663703784
Te -4.214217762 0.2617150865 0.0099776186 -7.71331012145e-07 0.000802698473305 0.000839722361888
Te 1.8804570732 -3.780473779 0.0099776186 -0.000701397000377 -0.000402377678002 0.000838179699864
Te -0 2.4351804378 14.2705586044 -4.11376539811e-06 -0.00506687341878 -0.00136602722251
Te -2.1089280195 -1.2175867589 14.2705586044 0.00439247300383 0.0025317654922 -0.00136782699487
Te -4.214217762 2.4330797971 13.4688301294 4.62798607287e-06 2.05688269905e-06 -0.000247597254899
Te 2.1089280195 -1.2175867589 14.2705586044 -0.00439041612113 0.00253227971287 -0.00137091231892
Te 1.6202518979 0.9354527365 -13.2523768116 0.000909913483994 0.000520648433198 -0.00380677565527
Te 3.27e-08 -1.8709020129 -13.2523768116 4.62798607287e-06 -0.00105080994888 -0.00380549010359
Te -1.6202518323 0.9354527365 -13.2523768116 -0.000909913483994 0.000527076191632 -0.00380754698628
Te 4.2142177948 -2.4330763371 -13.9006167184 -2.8282137112e-06 -0 0.00060189529981
Te 2.6109261513 1.5074190493 10.06709391 -0.000564871411227 -0.000332186555897 0.00279556069835
Te 3.27e-08 -3.0148346386 10.06709391 7.71331012145e-07 0.000662316229095 0.00279710336037
Te -2.6109260858 1.5074190493 10.06709391 0.000569756507638 -0.000329101231848 0.0028007029051
Te 4.2142177948 -2.4330763371 10.1523638103 -2.8282137112e-06 5.14220674763e-07 0.00144238899271
Te 0 0 -7.051639223 0 -2.31399303643e-06 -0.00185196576016
Te -1.7253720303 -3.8700122111 -6.9612838109 0.000394921478218 -0.000227028427908 -0.00135214326429
Te 4.2142178275 0.4407919507 -6.9612838109 2.8282137112e-06 0.000448400428394 -0.00135008638159
Te 1.7253720303 -3.8700122111 -6.9612838109 -0.000391579043832 -0.000225742876221 -0.00135265748496
Te 0 2.8150096895 -3.3941899834 -4.37087573549e-06 0.00065100337425 -0.00262509654467
Te -2.4378697169 -1.4075013847 -3.3941899834 -0.000562814528528 -0.000325244576788 -0.00262278255163
Te -4.214217762 2.4330797971 -3.6390577 -5.14220674763e-07 -1.54266202429e-06 -0.00267908971552
Te 2.4378697169 -1.4075013847 -3.3941899834 0.000565385631902 -0.000323959025101 -0.0026232967723
Te -0 2.9422689305 -10.1575301292 -5.14220674763e-07 0.000224457324534 -0.00273256866569
Te -2.5480794012 -1.4711310052 -10.1575301292 -0.000196175187422 -0.000112871438111 -0.00272922623131
Te -4.214217762 2.4330797971 -10.5147298767 1.02844134953e-06 2.05688269905e-06 -0.00329486897355
Te 2.5480794012 -1.4711310052 -10.1575301292 0.000192832753036 -0.000111585886424 -0.00273102600367
Sb 0 2.1595187298 8.7241598551 1.28555168691e-06 3.47098955465e-05 0.00592227951125
Sb -1.8701981521 -1.0797559049 8.7241598551 -2.36541510391e-05 -1.92832753036e-05 0.00593153548339
Sb -4.214217762 2.4330797971 7.4813009568 -4.37087573549e-06 5.6564274224e-06 0.0064694103092
Sb 1.8701981521 -1.0797559049 8.7241598551 2.36541510391e-05 -1.6197951255e-05 0.00593230681441
Sb 0 2.4198082086 1.6497220074 -5.14220674763e-07 0.000278707605722 0.00166967453096
Sb -2.0956153515 -1.2099006443 1.6497220074 -0.000241169496464 -0.000139610913198 0.00166427521387
Sb -4.214217762 2.4330797971 2.1984463297 2.05688269905e-06 -2.05688269905e-06 0.000654860029311
Sb 2.0956153515 -1.2099006443 1.6497220074 0.000245026151525 -0.000138839582186 0.00166890319994
Sb 0 -0 -11.0567928792 3.34243438596e-06 -2.05688269905e-06 -0.00211061875957
Sb -2.0515355496 -3.6817015249 -12.3424518415 0.000393378816194 -0.000226514207233 -0.0031714560116
Sb -4.214217762 0.0641705784 -12.3424518415 -3.34243438596e-06 0.000448143318056 -0.00317068468059
Sb -2.1626821796 3.6175344065 -12.3424518415 -0.000392350374844 -0.000221629110823 -0.00317068468059
Sb -0 -0 10.7949804338 -7.71331012145e-07 -8.22753079621e-06 0.00133517398202
Sb -2.3272652377 -3.5225088711 12.2670183326 0.0017738042176 -0.00101918537738 -0.000259681440755
Sb 4.2142178275 -0.254214729 12.2670183326 -4.88509641025e-06 0.00204505562353 -0.000260709882105
Sb 2.3272652377 -3.5225088711 12.2670183326 -0.00177354710726 -0.00101995670839 -0.000257624558056
Sb 2.1240292186 1.2263088452 -2.058890657 -9.95017005667e-05 -6.35062533333e-05 -0.00225562898985
Sb 3.27e-08 -2.4526142302 -2.058890657 -2.05688269905e-06 0.000118270755196 -0.00225305788648
Sb -2.124029153 1.2263088452 -2.058890657 9.97588109041e-05 -5.81069362482e-05 -0.00225614321052
Sb 4.2142177948 -2.4330763371 -1.420749865 -5.39931708501e-06 5.14220674763e-06 -0.00312157660615
Sb 2.0659869335 1.1927981033 -8.7920067686 -0.000111071665749 -6.78771290688e-05 -0.00196149476388
Sb 3.27e-08 -2.3855927465 -8.7920067686 3.85665506072e-06 0.000129069389366 -0.0019602092122
Sb -2.0659868681 1.1927981033 -8.7920067686 0.000109786114062 -6.55631360323e-05 -0.00195789521916
Sb 4.2142177948 -2.4330763371 -7.6461177595 -2.57110337382e-06 3.85665506072e-06 -0.00188204766963
Cr -4.2142177948 -2.4330763371 14.563278253 -1.28555168691e-06 -0 -0.000827895286369
61
Lattice="8.42843558953 0 0 -4.21421779477 7.29923593142 0 0 0 31.0334408416" Properties=species:S:1:pos:R:3:forces:R:3 energy=-133599.504521 ionic_step=21 pbc="T T T"
Te 1.8489879233 1.0675136063 3.3565518102 0.00109400448556 0.000622207016464 0.00245977459773
Te 3.27e-08 -2.1350237524 3.3565518102 -5.6564274224e-06 -0.00125418422575 0.0024685163492
Te -1.8489878577 1.0675136063 3.3565518102 -0.00109451870623 0.000618093251065 0.00246928768021
Te 4.2142177948 -2.4330763371 3.1572651523 7.19908944669e-06 1.23412961943e-05 0.00324627511978
Te -0 -0 6.7607184937 -1.85119442915e-05 -1.02844134953e-05 0.010967812772
Te -2.5575125552 -3.3895754363 7.1044253956 -0.00091325591838 0.000544559694574 0.0100026205655
Te -4.214217762 -0.5200815988 7.1044253956 1.49123995681e-05 -0.00106340835541 0.0100051916689
Te -1.6567052396 3.9096604951 7.1044253956 0.000911456146018 0.000527076191632 0.0100095625446
Te 0 -0 -0.2135264618 8.22753079621e-06 -5.39931708501e-06 0.000430916925452
Te -1.8606997309 -3.7918806912 0.0079153096 0.00114979742877 -0.000661287787746 0.00192369954429
Te -4.214217762 0.2845289109 0.0079153096 -4.88509641025e-06 0.00132437534785 0.00192678486834
Te 1.8606997309 -3.7918806912 0.0079153096 -0.00115288275282 -0.000658459574034 0.00192087133058
Te -0 2.4469989837 14.26232508 1.54266202429e-06 -0.00429991328237 -0.0042361499187
Te -2.1191631756 -1.2234960318 14.26232508 0.00372527167832 0.00215124219287 -0.00424489167017
Te -4.214217762 2.4330797971 13.4880463945 2.05688269905e-06 5.14220674763e-07 -0.0022993377472
Te 2.1191631756 -1.2234960318 14.26232508 -0.00372707145068 0.0021527848549 -0.00423769258072
Te 1.6166443353 0.9333699083 -13.2578774741 0.000818125093548 0.000478482337867 -0.00948377190466
Te 3.27e-08 -1.8667363564 -13.2578774741 2.57110337382e-07 -0.000947965813926 -0.00949045677343
Te -1.6166442697 0.9333699083 -13.2578774741 -0.000823781520971 0.000478996558542 -0.00948762855972
Te 4.2142177948 -2.4330763371 -13.8926622752 3.08532404858e-06 -4.88509641025e-06 -0.00534403836248
Te 2.611018309 1.5074722566 10.0997297226 -0.0013611421261 -0.000788814515087 0.00494885977392
Te 3.27e-08 -3.0149410532 10.0997297226 7.71331012145e-07 0.00159614097447 0.00494217490515
Te -2.6110182435 1.5074722566 10.0997297226 0.00138402494613 -0.000800641590606 0.0049432033465
Te 4.2142177948 -2.4330763371 10.22279731 5.91353775978e-06 7.71331012145e-06 0.00294468469403
Te -0 0 -7.0680938747 2.57110337382e-06 5.14220674763e-06 -0.000428345822078
Te -1.7292897022 -3.8677503411 -6.9676200923 0.000948222924263 -0.000553301446045 -0.000235255958704
Te 4.2142178275 0.4362682107 -6.9676200923 -1.54266202429e-06 0.00110068935433 -0.00022779975892
Te 1.7292897022 -3.8677503411 -6.9676200923 -0.000950022696625 -0.00055381566672 -0.000236541510391
Te 0 2.8426862791 -3.3595708076 7.97042045883e-06 0.000263795206154 -0.00336017499924
Te -2.4618383353 -1.4213396795 -3.3595708076 -0.000226771317571 -0.000132668934089 -0.00335940366823
Te -4.214217762 2.4330797971 -3.634680899 -1.00273031579e-05 -2.31399303643e-06 -0.00318019776307
Te 2.4618383353 -1.4213396795 -3.3595708076 0.000228056869258 -0.00012469851363 -0.00335580412351
Te -0 2.9463938057 -10.1715681355 5.39931708501e-06 0.000774416336193 -0.00278527628486
Te -2.5516516463 -1.4731934428 -10.1715681355 -0.000673114863265 -0.000396464140242 -0.00278373362283
Te -4.214217762 2.4330797971 -10.5166286206 -5.14220674763e-07 5.39931708501e-06 -0.00316040026709
Te 2.5516516463 -1.4731934428 -10.1715681355 0.000670800870229 -0.000391579043832 -0.00278244807114
Sb 0 2.1681001666 8.7275077212 -2.21114890148e-05 0.000288220688205 0.00991314616809
Sb -1.8776298908 -1.0840466233 8.7275077212 -0.000246568813549 -0.000136011368475 0.00991571727146
Sb -4.214217762 2.4330797971 7.4862617011 1.49123995681e-05 4.62798607287e-06 0.00957144652971
Sb 1.8776298908 -1.0840466233 8.7275077212 0.000244254820513 -0.000161465291876 0.00991237483707
Sb 0 2.4251222485 1.6165743046 5.91353775978e-06 0.000300561984399 0.00355480752464
Sb -2.1002174429 -1.2125576642 1.6165743046 -0.000265852088853 -0.000154266202429 0.0035648348278
Sb -4.214217762 2.4330797971 2.2113868591 -2.57110337382e-06 -2.31399303643e-06 0.00233841851849
Sb 2.1002174429 -1.2125576642 1.6165743046 0.000262766764804 -0.000144753119946 0.00356020684172
Sb 0 -0 -11.069128044 7.71331012145e-07 5.39931708501e-06 -0.00355120797992
Sb -2.0484505691 -3.68348264 -12.3513553802 -0.000301590425749 0.000172263926046 -0.00705510765775
Sb -4.214217762 0.0677328086 -12.3513553802 3.08532404858e-06 -0.000336043210958 -0.00706076408517
Sb -2.1657671601 3.6157532914 -12.3513553802 0.000297219550013 0.000165836167611 -0.00706127830585
Sb -0 -0 10.8106366839 -2.10830476653e-05 -9.7701928205e-06 0.00224585879703
Sb -2.3032149639 -3.5363943096 12.2493777281 0.00120276215827 -0.000675943076976 -0.000436830463211
Sb 4.2142178275 -0.226443852 12.2493777281 1.59408409177e-05 0.00137682585668 -0.000434516470175
Sb 2.3032149639 -3.5363943096 12.2493777281 -0.00120327637895 -0.000695483462617 -0.000444543773333
Sb 2.1306040337 1.2301048182 -2.0468947451 -0.000132926044426 -7.99613149257e-05 -0.00297553793452
Sb 3.27e-08 -2.4602061763 -2.0468947451 -6.17064809716e-06 0.000158894188502 -0.00297656637587
Sb -2.1306039681 1.2301048182 -2.0468947451 0.000131640492739 -8.48464113359e-05 -0.00297579504485
Sb 4.2142177948 -2.4330763371 -1.3549717923 -7.71331012145e-07 4.88509641025e-06 -0.00346867556162
Sb 2.0672166605 1.1935080869 -8.790748241 0.000276136502348 0.000168407270985 -0.000571813390337
Sb 3.27e-08 -2.3870127136 -8.790748241 2.31399303643e-06 -0.000333729217921 -0.000574384493711
Sb -2.0672165951 1.1935080869 -8.790748241 -0.000280250267746 0.000170721264021 -0.000570013617975
Sb 4.2142177948 -2.4330763371 -7.6616884533 -2.57110337382e-07 -5.91353775978e-06 -0.00132437534785
Cr -4.2142177948 -2.4330763371 14.5732050904 8.74175147098e-06 8.99886180836e-06 -0.00363348328788
61
Lattice="8.42843558953 0 0 -4.21421779477 7.29923593142 0 0 0 31.0334408416" Properties=species:S:1:pos:R:3:forces:R:3 energy=-133599.539163 ionic_step=22 pbc="T T T"
Te 1.8440575986 1.0646670807 3.3436380011 -0.00267574728113 -0.00153417738316 -0.00544354006304
Te 3.27e-08 -2.1293307012 3.3436380011 -5.91353775978e-06 0.00307658229711 -0.00546462311071
Te -1.844057533 1.0646670807 3.3436380011 0.00267446172944 -0.00153777692788 -0.00546539444172
Te 4.2142177948 -2.4330763371 3.1408999327 1.13128548448e-05 -7.71331012145e-07 -0.00429219997225
Te -0 -0 6.7875661449 1.54266202429e-06 -2.31399303643e-06 0.00189233208313
Te -2.5572363283 -3.3897349161 7.0923335929 -0.00534018170742 0.00307401119373 0.00261841167589
Te -4.214217762 -0.5197626393 7.0923335929 -5.91353775978e-06 -0.00618067540032 0.00261609768286
Te -1.6569814665 3.9095010153 7.0923335929 0.00534506680383 0.00309535135174 0.00262123988961
Te 0 -0 -0.218957242 -1.18270755196e-05 -5.91353775978e-06 0.00913230207346
Te -1.8538538189 -3.7958331821 0.0070783667 -0.000521933984885 0.000318816818353 0.00698363098396
Te -4.214217762 0.2924338928 0.0070783667 2.05688269905e-05 -0.000609094389257 0.00697180390844
Te 1.8538538189 -3.7958331821 0.0070783667 0.000523219536572 0.000297990881025 0.00698285965295
Te -0 2.4487298343 14.2629496546 -1.18270755196e-05 0.00401657769058 -0.00776910306466
Te -2.1206621356 -1.2243614572 14.2629496546 -0.00346764712027 -0.00200340374888 -0.00777578793343
Te -4.214217762 2.4330797971 13.4946307123 2.46825923886e-05 2.10830476653e-05 -0.00301616136782
Te 2.1206621356 -1.2243614572 14.2629496546 0.00347176088566 -0.00201548793473 -0.00777321683006
Te 1.6145402265 0.9321550999 -13.2611105614 0.00179360171357 0.00104592485247 0.00461178812161
Te 3.27e-08 -1.8643067397 -13.2611105614 5.39931708501e-06 -0.00207282353997 0.00460767435622
Te -1.6145401609 0.9321550999 -13.2611105614 -0.00179488726526 0.00103538332864 0.00460741724588
Te 4.2142177948 -2.4330763371 -13.8878828124 1.79977236167e-06 2.31399303643e-06 0.000275108060998
Te 2.6042875005 1.5035862207 10.1100594377 -0.00447706230483 -0.00258164489765 0.00363579728091
Te 3.27e-08 -3.0071689814 10.1100594377 1.79977236167e-06 0.00517100310542 0.00364711013576
Te -2.604287435 1.5035862207 10.1100594377 0.00447397698078 -0.00259372908351 0.00363759705328
Te 4.2142177948 -2.4330763371 10.2567712236 -1.54266202429e-06 1.13128548448e-05 0.00236772909695
Te -0 0 -7.0742524831 -7.71331012145e-07 5.14220674763e-07 -0.00377515108377
Te -1.7298452327 -3.8674296053 -6.9706800168 -5.16791778137e-05 3.83094402699e-05 -0.00676765830056
Te 4.2142178275 0.4356267391 -6.9706800168 1.28555168691e-06 -5.91353775978e-05 -0.00676662985921
Te 1.7298452327 -3.8674296053 -6.9706800168 5.03936261268e-05 3.13674611606e-05 -0.00675994499044
Te 0 2.8465552484 -3.3431013471 -5.6564274224e-06 -0.00147915577096 -0.00250862556183
Te -2.4651889595 -1.4232741641 -3.3431013471 0.00127501016308 0.000740734881996 -0.00250245491374
Te -4.214217762 2.4330797971 -3.6254556016 2.31399303643e-06 4.11376539811e-06 -0.00352344006348
Te 2.4651889595 -1.4232741641 -3.3431013471 -0.0012765528251 0.000733278682212 -0.00251145377554
Te -0 2.9447012494 -10.1801427637 2.31399303643e-06 0.00189593162785 0.00628351953527
Te -2.5501858502 -1.4723471647 -10.1801427637 -0.00165090547633 -0.000941280945154 0.00629174706607
Te -4.214217762 2.4330797971 -10.516400351 -8.99886180836e-06 -6.9419791093e-06 0.0054638517797
Te 2.5501858502 -1.4723471647 -10.1801427637 0.00165476213139 -0.000939995393467 0.00629688927281
Sb 0 2.1760761627 8.7193995073 1.20841858569e-05 -0.000941538055492 0.00258164489765
Sb -1.8845373028 -1.0880346213 8.7193995073 0.000816068210849 0.000457656400539 0.00258858687676
Sb -4.214217762 2.4330797971 7.4954456738 -1.15699651822e-05 8.74175147098e-06 0.00137528319465
Sb 1.8845373028 -1.0880346213 8.7193995073 -0.000822495969284 0.000469997696734 0.00259527174553
Sb 0 2.4273980795 1.602663198 -8.74175147098e-06 -0.00179540148594 -0.00105492371428
Sb -2.1021883694 -1.2136955797 1.602663198 0.00156091685824 0.000892429981052 -0.00105698059698
Sb -4.214217762 2.4330797971 2.2074124524 1.15699651822e-05 1.38839582186e-05 -0.00425646163535
Sb 2.1021883694 -1.2136955797 1.602663198 -0.00155885997554 0.000883174008906 -0.00105492371428
Sb 0 -0 -11.0760274977 -2.31399303643e-06 8.99886180836e-06 0.00511983814828
Sb -2.0491201802 -3.6830960397 -12.3545415777 0.00273513976907 -0.00158817055401 0.00784520772453
Sb -4.214217762 0.066959608 -12.3545415777 7.71331012145e-07 0.00316245714979 0.00784803593824
Sb -2.165097549 3.6161398917 -12.3545415777 -0.00273899642413 -0.00158148568523 0.00784546483486
Sb -0 -0 10.7976110401 -3.08532404858e-06 -1.10557445074e-05 -0.000116985203509
Sb -2.2927723853 -3.5424233379 12.2577250943 -0.00383711467508 0.00222940373544 0.000260966992442
Sb 4.2142178275 -0.2143857952 12.2577250943 -7.71331012145e-07 -0.00444543773333 0.000258910109743
Sb 2.2927723853 -3.5424233379 12.2577250943 0.00383505779238 0.00222451863903 0.000276650723023
Sb 2.1335051775 1.2317797951 -2.038156017 -0.00115493963552 -0.000663601780782 0.00725231128652
Sb 3.27e-08 -2.4635561302 -2.038156017 5.14220674763e-07 0.0013274606719 0.00727082323082
Sb -2.1335051119 1.2317797951 -2.038156017 0.00115391119417 -0.000660002236059 0.00727159456183
Sb 4.2142177948 -2.4330763371 -1.3319833801 2.8282137112e-06 6.9419791093e-06 0.0104003702574
Sb 2.0658005709 1.1926905068 -8.7892922616 0.00340696908064 0.00197152206704 0.000556129659756
Sb 3.27e-08 -2.3853775534 -8.7892922616 -2.05688269905e-06 -0.00393687348599 0.000566414073252
Sb -2.0658005055 1.1926905068 -8.7892922616 -0.00341056862537 0.00196843674299 0.000564357190553
Sb 4.2142177948 -2.4330763371 -7.6774899869 -1.54266202429e-06 -8.48464113359e-06 -0.00299662098218
Cr -4.2142177948 -2.4330763371 14.5868991053 -7.45619978407e-06 -2.05688269905e-06 -0.0165041696669
61
Lattice="8.42843558953 0 0 -4.21421779477 7.29923593142 0 0 0 31.0334408416" Properties=species:S:1:pos:R:3:forces:R:3 energy=-133599.583288 ionic_step=23 pbc="T T T"
Te 1.8311617803 1.057221673 3.3326873393 0.0017298383499 0.000921997669851 -0.00840185160496
Te 3.27e-08 -2.1144398859 3.3326873393 5.14220674763e-06 -0.00194941057803 -0.00838951030876
Te -1.8311617147 1.057221673 3.3326873393 -0.0017208394881 0.000926625655923 -0.0083918243018
Te 4.2142177948 -2.4330763371 3.1230788586 -6.9419791093e-06 5.03936261268e-05 -0.00920557851961
Te -0 -0 6.8199978016 -1.00273031579e-05 -4.08805436437e-05 0.00231836391217
Te -2.5592863139 -3.3885513558 7.0936716817 0.00189001809009 -0.00102407047379 0.00183499647789
Te -4.214217762 -0.5221297598 7.0936716817 7.97042045883e-06 0.00215561306861 0.00184245267768
Te -1.6549314809 3.9106845756 7.0936716817 -0.00188898964874 -0.00103538332864 0.00183165404351
Te 0 -0 -0.2322017069 5.39931708501e-06 1.36268478812e-05 -0.00538363335443
Te -1.837859789 -3.8050673439 0.008260948 0.000812211555789 -0.000492880516761 -0.00547465041387
Te -4.214217762 0.3109022164 0.008260948 -5.39931708501e-06 0.00091814101479 -0.00545690980059
Te 1.837859789 -3.8050673439 0.008260948 -0.000807583569716 -0.000483367434277 -0.00547053664847
Te -0 2.451322429 14.2519808222 -1.02844134953e-06 0.0111472757875 0.0025042546861
Te -2.1229073874 -1.2256577545 14.2519808222 -0.00966194936846 -0.00556283925959 0.00250065514137
Te -4.214217762 2.4330797971 13.5176017533 7.97042045883e-06 -5.91353775978e-06 0.00112022973997
Te 2.1229073874 -1.2256577545 14.2519808222 0.00966297780981 -0.00556618169397 0.00251273932723
Te 1.6140286606 0.9318597471 -13.2664112826 -0.000627863443886 -0.000376666644264 0.000826609734682
Te 3.27e-08 -1.8637160341 -13.2664112826 1.13128548448e-05 0.000739963550984 0.000817867983211
Te -1.614028595 0.9318597471 -13.2664112826 0.000635062533333 -0.000370753106504 0.000825324182995
Te 4.2142177948 -2.4330763371 -13.8908683195 -7.97042045883e-06 1.49123995681e-05 -0.0106240562509
Te 2.5968496545 1.4992919763 10.1216337834 0.0005970102034 0.000303133087773 0.00291614544658
Te 3.27e-08 -2.9985804927 10.1216337834 -6.42775843454e-06 -0.000636605195357 0.00291408856388
Te -2.596849589 1.4992919763 10.1216337834 -0.000585183127881 0.000292848674278 0.00291331723287
Te 4.2142177948 -2.4330763371 10.2914698252 6.42775843454e-06 5.60500535492e-05 0.00438064592831
Te -0 0 -7.0792532324 1.79977236167e-06 1.38839582186e-05 0.000500593826882
Te -1.7279901445 -3.8685006414 -6.9736533625 0.000120841858569 -8.02184252631e-05 0.00129917853479
Te 4.2142178275 0.4377688114 -6.9736533625 1.02844134953e-06 0.000155037533441 0.00131049138963
Te 1.7279901445 -3.8685006414 -6.9736533625 -0.000119299196545 -7.79044322266e-05 0.00130432074154
Te 0 2.8625265391 -3.3246835603 1.02844134953e-06 0.000250939689284 0.000591353775978
Te -2.4790204965 -1.4312598095 -3.3246835603 -0.000248882806585 -0.0001079863417 0.000579783810796
Te -4.214217762 2.4330797971 -3.6262423423 4.88509641025e-06 -3.54812265587e-05 0.00137965407039
Te 2.4790204965 -1.4312598095 -3.3246835603 0.000249139916923 -0.000111842996761 0.000584668907206
Te -0 2.941721036 -10.187005199 -5.14220674763e-07 -0.000731478909851 0.00698748763902
Te -2.5476049109 -1.470857058 -10.187005199 0.000627092112874 0.000369981775492 0.00698440231497
Te -4.214217762 2.4330797971 -10.5204014593 7.71331012145e-07 -6.17064809716e-06 0.00742740342628
Te 2.5476049109 -1.470857058 -10.187005199 -0.00062940610591 0.000369981775492 0.00697514634283
Sb 0 2.1744122375 8.7195249151 -9.7701928205e-06 -0.000934081855707 0.00491003611298
Sb -1.883096302 -1.0872026587 8.7195249151 0.00075513306089 0.000457142179865 0.00490695078893
Sb -4.214217762 2.4330797971 7.514225417 5.91353775978e-06 -8.99886180836e-06 0.00321953564469
Sb 1.883096302 -1.0872026587 8.7195249151 -0.000757961274601 0.000450200200755 0.00490052303049
Sb 0 2.4280351925 1.5821934247 -3.34243438596e-06 0.0017187826054 -0.00932333505413
Sb -2.1027401252 -1.2140141363 1.5821934247 -0.00152337874899 -0.000852834989095 -0.00928862515859
Sb -4.214217762 2.4330797971 2.2153013818 -1.02844134953e-06 -3.85665506072e-06 -0.0106741927667
Sb 2.1027401252 -1.2140141363 1.5821934247 0.00152466430067 -0.000857720085505 -0.00928888226892
Sb 0 -0 -11.0824452475 5.39931708501e-06 3.34243438596e-06 0.00729293471983
Sb -2.0508910901 -3.6820736039 -12.3592535316 -0.00136705566386 0.000784186529014 0.00355917840037
Sb -4.214217762 0.0649147364 -12.3592535316 -8.22753079621e-06 -0.00158225701625 0.00357254813792
Sb -2.1633266391 3.6171623275 -12.3592535316 0.00136859832588 0.000796527825208 0.0035586641797
Sb -0 -0 10.7835479821 -1.4141068556e-05 -1.9540385641e-05 0.00184888043611
Sb -2.2729115411 -3.5538900071 12.258682231 -0.00200957439697 0.00117705112453 0.00464572668615
Sb 4.2142178275 -0.191452457 12.258682231 1.33697375438e-05 -0.00231913524318 0.00462875740388
Sb 2.2729115411 -3.5538900071 12.258682231 0.00200648907293 0.00116111028362 0.00464444113446
Sb 2.1358378118 1.2331265428 -2.0400655368 0.00131151983098 0.000754618840215 -0.000513449343751
Sb 3.27e-08 -2.4662496255 -2.0400655368 2.31399303643e-06 -0.00151000901144 -0.000520905543535
Sb -2.1358377462 1.2331265428 -2.0400655368 -0.00131151983098 0.000753590398866 -0.000517305998812
Sb 4.2142177948 -2.4330763371 -1.2946120752 -4.88509641025e-06 7.71331012145e-06 -0.00216615459244
Sb 2.0624633429 1.1907637564 -8.7907554399 -0.00124235715023 -0.000721194496355 0.00432613853678
Sb 3.27e-08 -2.3815240525 -8.7907554399 -0 0.00145550161992 0.00430556970979
Sb -2.0624632775 1.1907637564 -8.7907554399 0.00124184292955 -0.000717337841295 0.00432151055071
Sb 4.2142177948 -2.4330763371 -7.6847213932 -1.28555168691e-06 -5.14220674763e-06 0.00166298966218
Cr -4.2142177948 -2.4330763371 14.6003549109 1.28555168691e-06 1.36268478812e-05 -0.000214430021376
61
Lattice="8.42843558953 0 0 -4.21421779477 7.29923593142 0 0 0 31.0334408416" Properties=species:S:1:pos:R:3:forces:R:3 energy=-133599.632661 ionic_step=24 pbc="T T T"
Te 1.8204492784 1.0510368043 3.3214744833 0.00124647091563 0.000710652972523 -0.0115990186503
Te 3.27e-08 -2.1020701484 3.3214744833 1.02844134953e-06 -0.00142979058618 -0.0115810209267
Te -1.8204492128 1.0510368043 3.3214744833 -0.00124518536394 0.000704482324426 -0.0115961904366
Te 4.2142177948 -2.4330763371 3.1095372879 -4.37087573549e-06 2.18543786774e-05 -0.0119970254526
Te -0 -0 6.8620392135 7.19908944669e-06 -2.26257096896e-05 0.00029953354305
Te -2.5532435264 -3.3920401624 7.0784952063 0.00163367908372 -0.000926111435249 9.12741697705e-05
Te -4.214217762 -0.5151521466 7.0784952063 -7.45619978407e-06 0.00188410455233 8.97315077462e-05
Te -1.6609742684 3.907195769 7.0784952063 -0.00163522174575 -0.000926882766261 9.30739421321e-05
Te 0 -0 -0.2471038719 -3.08532404858e-06 -1.54266202429e-05 -0.010816117673
Te -1.8204453718 -3.815121567 0.0102116045 0.000310846397894 -0.000176891912119 -0.0117548275148
Te -4.214217762 0.3310106626 0.0102116045 0 0.000337071652307 -0.0117442859909
Te 1.8204453718 -3.815121567 0.0102116045 -0.000313931721943 -0.000179205905155 -0.0117471142046
Te -0 2.4465386685 14.2464939466 -9.25597214574e-06 0.00200108975584 -0.000534789501754
Te -2.1187645312 -1.2232658743 14.2464939466 -0.00174603630116 -0.000994502784992 -0.000522962426234
Te -4.214217762 2.4330797971 13.5526800532 7.45619978407e-06 -1.18270755196e-05 -0.00269451633576
Te 2.1187645312 -1.2232658743 14.2464939466 0.0017483502942 -0.0010014447641 -0.000525276419271
Te 1.6154554184 0.9326834865 -13.2761556256 -0.000252482351309 -0.000156065974791 -0.00309278024836
Te 3.27e-08 -1.8653635128 -13.2761556256 2.05688269905e-06 0.000297476660351 -0.0030848098279
Te -1.6154553528 0.9326834865 -13.2761556256 0.000252225240971 -0.000155294643779 -0.0030950942414
Te 4.2142177948 -2.4330763371 -13.8936935481 -2.57110337382e-06 7.71331012145e-06 -0.00539340354725
Te 2.5774742792 1.488105593 10.1292732713 0.00220497825338 0.00127886681814 0.000821210417597
Te 3.27e-08 -2.976207726 10.1292732713 -2.57110337382e-07 -0.00253999302299 0.00079729915622
Te -2.5774742137 1.488105593 10.1292732713 -0.00220292137069 0.00127886681814 0.000830209279405
Te 4.2142177948 -2.4330763371 10.3357382209 -1.79977236167e-06 -5.14220674763e-06 0.000139868023536
Te -0 0 -7.0792108059 -1.79977236167e-06 -7.45619978407e-06 0.0145475599994
Te -1.7266216551 -3.8692907396 -6.9765693997 -0.000101301472928 6.45346946828e-05 0.0147175099324
Te 4.2142178275 0.4393490076 -6.9765693997 2.57110337382e-07 -0.000121356079244 0.0147267659045
Te 1.7266216551 -3.8692907396 -6.9765693997 0.000101044362591 6.7362908394e-05 0.014714938829
Te 0 2.8722956255 -3.2990605194 6.17064809716e-06 0.000102072803941 0.00214712842747
Te -2.4874807696 -1.4361443527 -3.2990605194 -7.66188805397e-05 -4.70511917408e-05 0.00214789975849
Te -4.214217762 2.4330797971 -3.6222850939 -2.8282137112e-06 -5.91353775978e-06 0.00283952656604
Te 2.4874807696 -1.4361443527 -3.2990605194 7.84186529014e-05 -4.31945366801e-05 0.00214635709646
Te -0 2.9306694137 -10.1971232987 2.05688269905e-06 0.000138325361511 0.0115751073889
Te -2.5380339297 -1.4653312469 -10.1971232987 -9.95017005667e-05 -6.9419791093e-05 0.0115563383343
Te -4.214217762 2.4330797971 -10.5256978805 1.54266202429e-06 1.079863417e-05 0.00860625432318
Te 2.5380339297 -1.4653312469 -10.1971232987 9.84732592172e-05 -6.78771290688e-05 0.0115547956723
Sb 0 2.1854833186 8.7133839204 -2.57110337382e-06 -0.000744077316382 0.000944366269203
Sb -1.892684135 -1.0927381993 8.7133839204 0.000659488015384 0.00037409554089 0.000914027249392
Sb -4.214217762 2.4330797971 7.5440672633 -1.28555168691e-06 -0 0.00175374961128
Sb 1.892684135 -1.0927381993 8.7133839204 -0.00065691691201 0.000371267327179 0.000909913483994
Sb 0 2.42598767 1.5576198423 -1.54266202429e-06 0.000231913524318 -0.0166031571468
Sb -2.1009669195 -1.212990375 1.5576198423 -0.000213658690364 -0.000111071665749 -0.0166023858157
Sb -4.214217762 2.4330797971 2.2167307034 -7.71331012145e-07 -1.28555168691e-06 -0.0157804040671
Sb 2.1009669195 -1.212990375 1.5576198423 0.000211858918002 -0.000106957900351 -0.0166016144847
Sb 0 -0 -11.0868604539 4.88509641025e-06 -2.31399303643e-05 0.00533761060404
Sb -2.052539298 -3.6811220102 -12.3626274485 -0.000104901017652 6.86484600809e-05 -0.000753590398866
Sb -4.214217762 0.063011549 -12.3626274485 -4.11376539811e-06 -0.000130097830715 -0.000743563095708
Sb -2.1616784312 3.6181139212 -12.3626274485 0.000101301472928 7.14766737921e-05 -0.00075024796448
Sb -0 -0 10.7426597127 -2.8282137112e-06 2.4939702726e-05 -0.000121356079244
Sb -2.2512578287 -3.5663917896 12.2779515344 0.00215998394434 -0.00125572688777 9.25597214574e-05
Sb 4.2142178275 -0.166448892 12.2779515344 2.31399303643e-06 0.00249088494855 0.000114156989797
Sb 2.2512578287 -3.5663917896 12.2779515344 -0.00215741284097 -0.00125701243946 0.000104901017652
Sb 2.1356061448 1.2329927897 -2.0391270887 0.000295676887989 0.000160436850526 -0.00245900326672
Sb 3.27e-08 -2.4659821193 -2.0391270887 -4.11376539811e-06 -0.000300047763724 -0.0024746869973
Sb -2.1356060792 1.2329927897 -2.0391270887 -0.000294905556977 0.00015709441614 -0.00245566083233
Sb 4.2142177948 -2.4330763371 -1.2593067688 7.97042045883e-06 5.14220674763e-06 -0.0058662294577
Sb 2.0566950065 1.1874334043 -8.7957548515 -0.00105389527293 -0.000598809975762 0.0174166542542
Sb 3.27e-08 -2.3748633483 -8.7957548515 3.59954472334e-06 0.00121510345447 0.0174215393506
Sb -2.0566949411 1.1874334043 -8.7957548515 0.00105260972124 -0.000596753093063 0.0174230820127
Sb 4.2142177948 -2.4330763371 -7.7044216097 -2.57110337382e-06 -4.62798607287e-06 0.0167599944526
Cr -4.2142177948 -2.4330763371 14.6249246993 -8.99886180836e-06 1.43981788934e-05 -0.00117319446947
61
Lattice="8.42843558953 0 0 -4.21421779477 7.29923593142 0 0 0 31.0334408416" Properties=species:S:1:pos:R:3:forces:R:3 energy=-133599.66313 ionic_step=25 pbc="T T T"
Te 1.8049660766 1.0420975694 3.3133476849 0.000825324182995 0.000441458449284 0.00201163127967
Te 3.27e-08 -2.0841916787 3.3133476849 1.10557445074e-05 -0.000931767862671 0.0020028895282
Te -1.804966011 1.0420975694 3.3133476849 -0.000830466389743 0.000453285524804 0.0020028895282
Te 4.2142177948 -2.4330763371 3.0950178707 -1.13128548448e-05 4.21660953306e-05 0.00218389520572
Te -0 -0 6.875058075 -4.62798607287e-06 8.22753079621e-06 0.00788865937154
Te -2.5519958706 -3.3927604971 7.0883980941 0.00114465522202 -0.000648946491551 0.00819410645235
Te -4.214217762 -0.5137114771 7.0883980941 -2.57110337382e-07 0.00132437534785 0.00819873443843
Te -1.6622219242 3.9064754343 7.0883980941 -0.00115108298046 -0.000656659801673 0.00819487778336
Te 0 -0 -0.2649547822 -1.54266202429e-06 3.18816818353e-05 -0.00247185878359
Te -1.8006123347 -3.8265721817 0.012312622 0.00113977012561 -0.000697026124642 -0.00171852549506
Te -4.214217762 0.3539118919 0.012312622 1.02844134953e-05 0.00134134463012 -0.00170695552988
Te 1.8006123347 -3.8265721817 0.012312622 -0.00112820016043 -0.000696769014304 -0.00170721264021
Te -0 2.4474860273 14.2326069274 7.97042045883e-06 -0.00352755382888 -0.00397749691929
Te -2.1195849676 -1.2237395537 14.2326069274 0.00304290084291 0.00176274847309 -0.00396901227816
Te -4.214217762 2.4330797971 13.5940917842 -1.13128548448e-05 -2.57110337382e-06 -0.00402660499373
Te 2.1195849676 -1.2237395537 14.2326069274 -0.00304187240156 0.00176711934882 -0.00396541273344
Te 1.6179069673 0.9340988896 -13.2839553442 -0.000340414086693 -0.000208516483617 -0.00311103508232
Te 3.27e-08 -1.868194319 -13.2839553442 -2.8282137112e-06 0.000403406119352 -0.00309792245511
Te -1.6179069017 0.9340988896 -13.2839553442 0.000344013631417 -0.000213144469689 -0.00310049355849
Te 4.2142177948 -2.4330763371 -13.899519395 2.57110337382e-07 2.18543786774e-05 -0.000911970366693
Te 2.5717075893 1.4847761915 10.1390647284 0.00155885997554 0.000898343518811 0.00492751961592
Te 3.27e-08 -2.9695489229 10.1390647284 -3.59954472334e-06 -0.00181802719563 0.00493394737435
Te -2.5717075238 1.4847761915 10.1390647284 -0.00155654598251 0.000889858877678 0.00491877786445
Te 4.2142177948 -2.4330763371 10.3650724789 -1.02844134953e-06 1.7483502942e-05 0.00358488943411
Te -0 0 -7.0781443778 -1.28555168691e-06 1.54266202429e-06 -0.00208876438089
Te -1.7257893717 -3.8697712588 -6.9792286212 0.000578498259109 -0.000328329900836 -0.00124055737787
Te 4.2142178275 0.4403100461 -6.9792286212 -0 0.000649203601889 -0.00124955623967
Te 1.7257893717 -3.8697712588 -6.9792286212 -0.000575927155735 -0.000326530128475 -0.00124364270191
Te 0 2.8952888971 -3.2804575874 -1.02844134953e-06 -0.000135754258138 -0.00315962893608
Te -2.5073935176 -1.4476409885 -3.2804575874 0.000108243452038 7.09624531173e-05 -0.00318199753544
Te -4.214217762 2.4330797971 -3.6333311258 -3.34243438596e-06 3.59954472334e-06 -0.00202474390688
Te 2.5073935176 -1.4476409885 -3.2804575874 -0.000117499424183 7.25051151416e-05 -0.00317479844599
Te -0 2.9263896418 -10.2008275832 -2.8282137112e-06 -0.00110351756804 -0.00161722402213
Te -2.5343275402 -1.4631913609 -10.2008275832 0.000932282083346 0.000565128521565 -0.0016197951255
Te -4.214217762 2.4330797971 -10.5325961855 6.9419791093e-06 -1.49123995681e-05 -0.00132566089954
Te 2.5343275402 -1.4631913609 -10.2008275832 -0.00093382474537 0.000553044335708 -0.00161876668415
Sb 0 2.1892072522 8.723004959 -6.9419791093e-06 -6.68486877192e-06 0.00841213601845
Sb -1.8959091546 -1.0946001661 8.723004959 -4.29374263427e-05 2.00546063158e-05 0.00839310985349
Sb -4.214217762 2.4330797971 7.5665565483 1.079863417e-05 -2.15972683401e-05 0.00931356486131
Sb 1.8959091546 -1.0946001661 8.723004959 4.16518746558e-05 9.7701928205e-06 0.00839259563281
Sb 0 2.4239238205 1.5356007278 -1.36268478812e-05 -9.7701928205e-06 0.000766960136409
Sb -2.0991795743 -1.2119584503 1.5356007278 -1.97974959784e-05 2.95676887989e-05 0.000812725776463
Sb -4.214217762 2.4330797971 2.236469103 1.59408409177e-05 -3.54812265587e-05 0.000662573339432
Sb 2.0991795743 -1.2119584503 1.5356007278 1.7483502942e-05 8.22753079621e-06 0.00082583840367
Sb 0 -0 -11.0898600202 -7.19908944669e-06 3.34243438596e-06 -0.000907599490957
Sb -2.0522326435 -3.6812990573 -12.3663902832 0.000169692822672 -8.56177423481e-05 -0.00205893958175
Sb -4.214217762 0.0633656433 -12.3663902832 3.85665506072e-06 0.00017277814672 -0.00204968360961
Sb -2.1619850857 3.6179368741 -12.3663902832 -0.000172006815708 -8.87030663967e-05 -0.00205508292669
Sb -0 -0 10.7333400421 4.11376539811e-06 1.4141068556e-05 0.00299970630623
Sb -2.230702293 -3.5782595391 12.2717637478 0.00238444126888 -0.00139353802861 -0.00104721040416
Sb 4.2142178275 -0.1427133928 12.2717637478 1.79977236167e-06 0.00275262327201 -0.00104901017652
Sb 2.230702293 -3.5782595391 12.2717637478 -0.00238084172415 -0.00138993848389 -0.00104849595584
Sb 2.1350131784 1.2326504403 -2.0488807859 0.000474111462132 0.000258910109743 -0.00404460271735
Sb 3.27e-08 -2.4652974204 -2.0488807859 9.25597214574e-06 -0.000524505088259 -0.00407134219244
Sb -2.1350131128 1.2326504403 -2.0488807859 -0.000480282110229 0.00027793627471 -0.00403149009014
Sb 4.2142177948 -2.4330763371 -1.2189002018 -1.43981788934e-05 9.25597214574e-06 -0.00466449574078
Sb 2.0543140981 1.1860587855 -8.8019295826 -0.000692398138569 -0.000396207029905 -0.00196123765355
Sb 3.27e-08 -2.3721141109 -8.8019295826 1.28555168691e-06 0.00080424113533 -0.00193218418542
Sb -2.0543140327 1.1860587855 -8.8019295826 0.000685199049122 -0.000399035243616 -0.00196843674299
Sb 4.2142177948 -2.4330763371 -7.7049166012 2.57110337382e-07 1.97974959784e-05 -0.00222040487363
Cr -4.2142177948 -2.4330763371 14.6285815285 2.05688269905e-06 -7.71331012145e-07 -0.00325013177484
61
Lattice="8.42843558953 0 0 -4.21421779477 7.29923593142 0 0 0 31.0334408416" Properties=species:S:1:pos:R:3:forces:R:3 energy=-133599.701541 ionic_step=26 pbc="T T T"
Te 1.7940790347 1.0358119299 3.3069196991 0.000303647308448 0.000184348111903 0.00138531049781
Te 3.27e-08 -2.0716203997 3.3069196991 -7.71331012145e-07 -0.000327301459487 0.00138916715287
Te -1.7940789691 1.0358119299 3.3069196991 -0.000313417501268 0.000182291229204 0.00138556760815
Te 4.2142177948 -2.4330763371 3.0857807465 -6.68486877192e-06 1.87690546289e-05 0.0024430624258
Te -0 -0 6.8824028522 -8.48464113359e-06 -1.79977236167e-06 -0.00525122153068
Te -2.5455317929 -3.3964925359 7.0876674745 -0.000410605208798 0.000226514207233 -0.00465009756188
Te -4.214217762 -0.5062473997 7.0876674745 1.02844134953e-05 -0.000473597241457 -0.00459250484631
Te -1.6686860019 3.9027433955 7.0876674745 0.000418061408583 0.000222143331498 -0.00464007025873
Te 0 -0 -0.2803805337 -6.42775843454e-06 3.16245714979e-05 0.0102085659457
Te -1.7845561411 -3.8358422338 0.0148421838 0.000844093237624 -0.000515763336788 0.0107058173382
Te -4.214217762 0.372451996 0.0148421838 9.7701928205e-06 0.000988589247232 0.0107107024346
Te 1.7845561411 -3.8358422338 0.0148421838 -0.00084152213425 -0.000527590412307 0.0107086455519
Te -0 2.4453435625 14.2257754169 2.8282137112e-06 -0.000875974919459 -0.00765674584722
Te -2.1177295395 -1.2226683212 14.2257754169 0.000767988577759 0.000447629097381 -0.00763000637214
Te -4.214217762 2.4330797971 13.6396446884 -6.68486877192e-06 2.93105784615e-05 -0.00928374006218
Te 2.1177295395 -1.2226683212 14.2257754169 -0.000767988577759 0.000451999973117 -0.0076194648483
Te 1.6207338994 0.9357310203 -13.2928520965 -0.000210830476653 -0.000118013644858 -0.00440070053462
Te 3.27e-08 -1.8714585805 -13.2928520965 -3.08532404858e-06 0.000240141055114 -0.00439632965889
Te -1.6207338338 0.9357310203 -13.2928520965 0.000212630249015 -0.000116213872496 -0.004403271638
Te 4.2142177948 -2.4330763371 -13.9003270564 2.05688269905e-06 -4.88509641025e-06 -0.00364222503935
Te 2.5637251079 1.4801675015 10.14478174 0.00199311933538 0.00117705112453 -0.0133478831652
Te 3.27e-08 -2.960331543 10.14478174 -5.14220674763e-06 -0.0023309623187 -0.0133573962477
Te -2.5637250424 1.4801675015 10.14478174 -0.00198951979066 0.00116933781441 -0.0133471118342
Te 4.2142177948 -2.4330763371 10.3921623787 6.17064809716e-06 -1.64550615924e-05 -0.0135517716627
Te -0 0 -7.0730353269 -3.59954472334e-06 1.90261649662e-05 0.00704713723729
Te -1.7260623881 -3.8696136327 -6.982388913 0.000311874839244 -0.000186662104939 0.00662984715972
Te 4.2142178275 0.4399947938 -6.982388913 1.79977236167e-06 0.000347870286477 0.00659745125721
Te 1.7260623881 -3.8696136327 -6.982388913 -0.000307503963508 -0.000185119442915 0.00662444784264
Te 0 2.9110127014 -3.2611175806 -5.6564274224e-06 -0.000290020460566 0.0088319971994
Te -2.5210107252 -1.4555028906 -3.2611175806 0.000248625696248 0.000169178601997 0.0088217127859
Te -4.214217762 2.4330797971 -3.6407882294 8.22753079621e-06 -2.51968130634e-05 0.00750402230682
Te 2.5210107252 -1.4555028906 -3.2611175806 -0.000254539234008 0.00015812285749 0.00881862746185
Te -0 2.9202934405 -10.2053243501 -3.08532404858e-06 0.000118527865533 0.00359131719255
Te -2.5290480775 -1.4601432603 -10.2053243501 -0.000126241175654 -5.03936261268e-05 0.00359337407525
Te -4.214217762 2.4330797971 -10.538207174 1.02844134953e-06 -1.59408409177e-05 0.00256004762931
Te 2.5290480775 -1.4601432603 -10.2053243501 0.000125469844642 -5.47645018623e-05 0.00359800206132
Sb 0 2.2058781211 8.7264372655 5.14220674763e-07 0.00152543563169 -0.0105878036934
Sb -1.9103465438 -1.1029356005 8.7264372655 -0.00133208865797 -0.000765160364048 -0.0105885750244
Sb -4.214217762 2.4330797971 7.5909034264 -5.91353775978e-06 1.54266202429e-05 -0.0055697812387
Sb 1.9103465438 -1.1029356005 8.7264372655 0.00133131732696 -0.000763103481349 -0.010586003921
Sb 0 2.4215631018 1.5154903399 -1.82548339541e-05 -0.000335271879946 0.00720680275681
Sb -2.0971351329 -1.2107780909 1.5154903399 0.00022882820027 0.000212887359352 0.00721065941187
Sb -4.214217762 2.4330797971 2.2515173136 1.43981788934e-05 -4.96222951147e-05 0.0041322773424
Sb 2.0971351329 -1.2107780909 1.5154903399 -0.000236798620728 0.000195146746073 0.00720988808086
Sb 0 -0 -11.0933615319 -3.59954472334e-06 3.52241162213e-05 0.000258395889069
Sb -2.0513867878 -3.6817874126 -12.3683874215 7.76473218893e-05 -4.96222951147e-05 -0.0026376949512
Sb -4.214217762 0.0643423538 -12.3683874215 2.57110337382e-07 8.94743974088e-05 -0.00261841167589
Sb -2.1628309414 3.6174485188 -12.3683874215 -7.73902115519e-05 -5.14220674763e-05 -0.00263640939951
Sb -0 -0 10.7172670413 -4.88509641025e-06 -7.45619978407e-06 -0.0115550527826
Sb -2.2147217618 -3.5874859075 12.276879015 0.000356354927611 -0.000240141055114 -0.0122147979083
Sb 4.2142178275 -0.1242606562 12.276879015 8.48464113359e-06 0.00041240498116 -0.012234338294
Sb 2.2147217618 -3.5874859075 12.276879015 -0.000354812265587 -0.000248625696248 -0.012218397453
Sb 2.1330983352 1.2315449045 -2.0567236818 -0.000274593840324 -0.000212373138677 0.0119792848393
Sb 3.27e-08 -2.4630863489 -2.0567236818 9.25597214574e-06 0.000355840706936 0.0119276056615
Sb -2.1330982696 1.2315449045 -2.0567236818 0.000275622281673 -0.000198746290796 0.0119926545768
Sb 4.2142177948 -2.4330763371 -1.1869557614 -5.91353775978e-06 2.39112613765e-05 0.0108672826301
Sb 2.0528576501 1.1852179045 -8.8086356842 6.83913497435e-05 2.31399303643e-05 0.00714175384145
Sb 3.27e-08 -2.3704323488 -8.8086356842 2.57110337382e-06 -8.38179699864e-05 0.00712889832458
Sb -2.0528575847 1.1852179045 -8.8086356842 -6.60773567071e-05 2.15972683401e-05 0.00714123962077
Sb 4.2142177948 -2.4330763371 -7.712548217 -3.08532404858e-06 2.64823647503e-05 0.00723971287999
Cr -4.2142177948 -2.4330763371 14.631089015 2.8282137112e-06 -1.079863417e-05 -0.00595801784814
61
Lattice="8.42843558953 0 0 -4.21421779477 7.29923593142 0 0 0 31.0334408416" Properties=species:S:1:pos:R:3:forces:R:3 energy=-133599.747891 ionic_step=27 pbc="T T T"
Te 1.7793604647 1.0273141555 3.2984235921 0.000296448219001 0.000169949933009 -0.0115234282111
Te 3.27e-08 -2.054624851 3.2984235921 3.85665506072e-06 -0.00034169963838 -0.011518028894
Te -1.7793603991 1.0273141555 3.2984235921 -0.000296191108664 0.000175863470769 -0.0115280561972
Te 4.2142177948 -2.4330763371 3.072858038 -3.08532404858e-06 7.97042045883e-06 -0.0101190915483
Te -0 -0 6.8872261452 3.85665506072e-06 6.68486877192e-06 0.00152029342494
Te -2.5359366052 -3.4020323227 7.086057821 0.000381808851012 -0.000231913524318 0.0017676335695
Te -4.214217762 -0.4951678261 7.086057821 -3.59954472334e-06 0.000435802021862 0.00177020467287
Te -1.6782811896 3.8972036087 7.086057821 -0.000385151285398 -0.00022882820027 0.0017738042176
Te 0 -0 -0.3007234386 7.71331012145e-07 8.22753079621e-06 -0.0116162450429
Te -1.7637350417 -3.8478633067 0.0199283622 0.00197460739109 -0.0011472263254 -0.0133031459665
Te -4.214217762 0.3964941418 0.0199283622 -7.71331012145e-07 0.00228442534764 -0.0132833484705
Te 1.7637350417 -3.8478633067 0.0199283622 -0.00197872115649 -0.00114799765641 -0.0132969753184
Te -0 2.4443200427 14.2174716542 1.54266202429e-06 -0.000132926044426 0.0124127728681
Te -2.1168431458 -1.2221565614 14.2174716542 0.000122127410256 6.53060256949e-05 0.0124135441991
Te -4.214217762 2.4330797971 13.7079740446 -3.34243438596e-06 1.15699651822e-05 0.0120047387627
Te 2.1168431458 -1.2221565614 14.2174716542 -0.000123155851606 6.47918050202e-05 0.0124122586474
Te 1.6239331283 0.9375780968 -13.3050818799 -0.000519362881511 -0.000300561984399 0.00108243452038
Te 3.27e-08 -1.8751527336 -13.3050818799 7.71331012145e-06 0.00059212510699 0.00108680539611
Te -1.6239330627 0.9375780968 -13.3050818799 0.000517820219487 -0.000290791791579 0.0010880909478
Te 4.2142177948 -2.4330763371 -13.8969589334 -1.28555168691e-06 -1.05415238326e-05 0.00151026612178
Te 2.5563318509 1.4758990006 10.1532395061 0.000468455034709 0.000282307150445 0.00552324426763
Te 3.27e-08 -2.9517945412 10.1532395061 1.54266202429e-06 -0.000559214983805 0.00553250023978
Te -2.5563317854 1.4758990006 10.1532395061 -0.00046742659336 0.000283849812469 0.00552530115033
Te 4.2142177948 -2.4330763371 10.4266536737 2.31399303643e-06 -1.6197951255e-05 0.00555589728048
Te -0 0 -7.0651848023 1.79977236167e-06 -1.28555168691e-05 0.00265132179908
Te -1.726756388 -3.8692129515 -6.9881125599 4.01092126315e-05 -1.7483502942e-05 0.00276162213382
Te 4.2142178275 0.4391934314 -6.9881125599 -5.14220674763e-07 3.0339019811e-05 0.00275930814078
Te 1.726756388 -3.8692129515 -6.9881125599 -4.34516470175e-05 -1.67121719298e-05 0.00275596570639
Te -0 2.9328125776 -3.2335585824 7.71331012145e-07 -0.000996559667691 -0.00453594057209
Te -2.539889963 -1.4664028287 -3.2335585824 0.000848207003022 0.00049982249587 -0.00454005433748
Te -4.214217762 2.4330797971 -3.6519081512 2.05688269905e-06 -4.37087573549e-06 -0.00248188608674
Te 2.539889963 -1.4664028287 -3.2335585824 -0.00084640723066 0.000500593826882 -0.00453722612377
Te -0 2.9144147274 -10.2116230727 -2.57110337382e-06 -0.000158894188502 0.00299276432712
Te -2.523956965 -1.4572039037 -10.2116230727 0.000140125133873 7.79044322266e-05 0.00301307604378
Te -4.214217762 2.4330797971 -10.5449907327 5.6564274224e-06 4.37087573549e-06 0.0023137359261
Te 2.523956965 -1.4572039037 -10.2116230727 -0.000140125133873 7.58475495276e-05 0.00301333315411
Sb 0 2.2341845203 8.7282610205 2.57110337382e-07 3.21387921727e-05 0.00493009071929
Sb -1.9348605932 -1.1170888001 8.7282610205 -2.72536957625e-05 -1.90261649662e-05 0.00492623406423
Sb -4.214217762 2.4330797971 7.6236208919 -7.71331012145e-07 8.48464113359e-06 0.00357409079994
Sb 1.9348605932 -1.1170888001 8.7282610205 2.67394750877e-05 -1.7483502942e-05 0.00492160607816
Sb 0 2.4199113702 1.4869438038 -2.05688269905e-06 -0.0022250328597 -0.0149085429131
Sb -2.095704692 -1.2099522251 1.4869438038 0.00190647315168 0.001121772402 -0.0149116282371
Sb -4.214217762 2.4330797971 2.2748497695 3.85665506072e-06 -2.4939702726e-05 -0.0147013119811
Sb 2.095704692 -1.2099522251 1.4869438038 -0.00190467337932 0.00111997262963 -0.0149088000234
Sb 0 -0 -11.1020403725 -1.28555168691e-06 1.28555168691e-06 0.000343499410742
Sb -2.0500022754 -3.6825867616 -12.3711680932 -5.73356052361e-05 3.65096679082e-05 -0.000800641590606
Sb -4.214217762 0.0659410517 -12.3711680932 2.8282137112e-06 -6.27349223211e-05 -0.000796013604534
Sb -2.1642154538 3.6166491698 -12.3711680932 5.55358328744e-05 3.16245714979e-05 -0.000803469804318
Sb -0 -0 10.7036004676 -7.71331012145e-07 2.57110337382e-07 0.00687641597327
Sb -2.1935125245 -3.599731072 12.2853324357 0.000612951044318 -0.00035841181031 0.0108544271132
Sb 4.2142178275 -0.0997703271 12.2853324357 0 0.000711681413872 0.0108523702305
Sb 2.1935125245 -3.599731072 12.2853324357 -0.000611665492631 -0.000357126258623 0.0108536557822
Sb 2.1310904263 1.2303856372 -2.0704452048 0.000320616590715 0.000184862332577 -0.00694017933694
Sb 3.27e-08 -2.4607678143 -2.0704452048 -1.28555168691e-06 -0.000364839568745 -0.00694943530909
Sb -2.1310903607 1.2303856372 -2.0704452048 -0.000322930583751 0.000183319670553 -0.00694532154369
Sb 4.2142177948 -2.4330763371 -1.1408641244 -7.71331012145e-07 1.05415238326e-05 -0.0108649686371
Sb 2.0529574705 1.1852755358 -8.8168060123 -0.000202088725182 -0.000132154713414 0.00498356966947
Sb 3.27e-08 -2.3705476115 -8.8168060123 3.59954472334e-06 0.000242455048151 0.00498614077284
Sb -2.0529574051 1.1852755358 -8.8168060123 0.000201060283832 -0.000127526727341 0.00498022723508
Sb 4.2142177948 -2.4330763371 -7.7242137552 5.14220674763e-07 1.02844134953e-05 0.00457836377775
Cr -4.2142177948 -2.4330763371 14.6287667609 -1.28555168691e-06 -1.02844134953e-05 0.0102584453512
61
Lattice="8.42843558953 0 0 -4.21421779477 7.29923593142 0 0 0 31.0334408416" Properties=species:S:1:pos:R:3:forces:R:3 energy=-133599.7796 ionic_step=28 pbc="T T T"
Te 1.7758650964 1.0252961028 3.2990973867 -3.88236609446e-05 -3.34243438596e-06 0.00252456640275
Te 3.27e-08 -2.0505887454 3.2990973867 -1.15699651822e-05 2.36541510391e-05 0.00253022283017
Te -1.7758650308 1.0252961028 3.2990973867 4.13947643184e-05 -1.97974959784e-05 0.00251968130634
Te 4.2142177948 -2.4330763371 3.0743613505 1.79977236167e-05 -1.67121719298e-05 0.00388750830121
Te -0 -0 6.8836432875 -1.10557445074e-05 1.54266202429e-05 0.00819179245932
Te -2.523219672 -3.4093744509 7.0715859598 -0.000957221786072 0.000546102356599 0.00986686630736
Te -4.214217762 -0.4804835697 7.0715859598 2.57110337382e-07 -0.0011114879885 0.0098905204584
Te -1.6909981228 3.8898614805 7.0715859598 0.000964677985856 0.000545588135924 0.00986763763837
Te 0 -0 -0.3092528753 -4.37087573549e-06 7.71331012145e-06 0.00280147423611
Te -1.7569922066 -3.8517562862 0.0253498684 0.00139379513895 -0.00080424113533 0.00275956525112
Te -4.214217762 0.4042801009 0.0253498684 -2.31399303643e-06 0.00162133778753 0.00273642532075
Te 1.7569922066 -3.8517562862 0.0253498684 -0.00140253689042 -0.000801412921619 0.00274748106526
Te -0 2.4410384902 14.2207311752 -2.31399303643e-06 -0.00265852088853 -0.00201188839001
Te -2.1140012393 -1.2205157851 14.2207311752 0.00229368131978 0.00133748797506 -0.00200391796955
Te -4.214217762 2.4330797971 13.7633904549 6.17064809716e-06 -9.25597214574e-06 -0.00152903517641
Te 2.1140012393 -1.2205157851 14.2207311752 -0.00229856641619 0.00133131732696 -0.00200366085922
Te 1.6259699136 0.9387540359 -13.3139846773 -0.000372038658191 -0.000242197937813 -0.00834554444107
Te 3.27e-08 -1.8775046117 -13.3139846773 5.6564274224e-06 0.000456370848852 -0.00834888687546
Te -1.625969848 0.9387540359 -13.3139846773 0.000360725803346 -0.000224457324534 -0.00833808824129
Te 4.2142177948 -2.4330763371 -13.8886690059 -1.079863417e-05 1.43981788934e-05 -0.00527590412307
Te 2.5516813308 1.4732140203 10.1514894039 0.000522705315897 0.00030339019811 0.0102769572955
Te 3.27e-08 -2.9464245806 10.1514894039 7.19908944669e-06 -0.000609094389257 0.0102769572955
Te -2.5516812653 1.4732140203 10.1514894039 -0.000516020447125 0.000304675749797 0.0102790141782
Te 4.2142177948 -2.4330763371 10.4375122527 -1.00273031579e-05 2.57110337382e-06 0.0077377356035
Te -0 0 -7.0540501658 -7.97042045883e-06 1.02844134953e-06 -0.00529158785365
Te -1.7274106084 -3.868835237 -6.9937150368 0.000530418626018 -0.000311874839244 -0.00497817035238
Te 4.2142178275 0.4384380024 -6.9937150368 3.34243438596e-06 0.000634548312658 -0.00499951051039
Te 1.7274106084 -3.868835237 -6.9937150368 -0.000530418626018 -0.000308275294521 -0.00498742632453
Te -0 2.9368646563 -3.2172609507 1.05415238326e-05 -0.000296448219001 -0.00068339927676
Te -2.5433991645 -1.4684288681 -3.2172609507 0.000267651861214 0.000139868023536 -0.000686484600809
Te -4.214217762 2.4330797971 -3.65712472 -1.15699651822e-05 4.88509641025e-06 0.000134725816788
Te 2.5433991645 -1.4684288681 -3.2172609507 -0.000270480074925 0.000144753119946 -0.000674143304615
Te -0 2.9107127335 -10.2155613577 -1.31126272065e-05 -0.000866204726639 -0.0106767638701
Te -2.5207509458 -1.4553529068 -10.2155613577 0.00072170871703 0.000469997696734 -0.0106891051663
Te -4.214217762 2.4330797971 -10.546987215 1.90261649662e-05 -3.11103508232e-05 -0.00997588109041
Te 2.5207509458 -1.4553529068 -10.2155613577 -0.000737649557948 0.000457913510877 -0.0106916762697
Sb 0 2.2670723973 8.7183981443 -5.6564274224e-06 0.00250194069306 0.0129498763629
Sb -1.963342317 -1.1335327387 8.7183981443 -0.00218569497808 -0.00125289867406 0.0129398490597
Sb -4.214217762 2.4330797971 7.6493969328 -3.85665506072e-06 -1.18270755196e-05 0.0110439174319
Sb 1.963342317 -1.1335327387 8.7183981443 0.00216281215805 -0.00124441403293 0.0129632461004
Sb 0 2.4200444308 1.472975083 1.20841858569e-05 -0.00105286683158 0.00378800660064
Sb -2.0958199258 -1.2100187554 1.472975083 0.000921740559513 0.000509335578353 0.00377412264242
Sb -4.214217762 2.4330797971 2.2871857796 -9.7701928205e-06 1.92832753036e-05 0.00216358348907
Sb 2.0958199258 -1.2100187554 1.472975083 -0.000913770139054 0.000529390184669 0.00377180864939
Sb 0 -0 -11.1126285736 1.54266202429e-06 6.17064809716e-06 -0.00977379236523
Sb -2.0497221605 -3.682748486 -12.3705804878 0.000448657538731 -0.000252225240971 -0.00906648182709
Sb -4.214217762 0.0662645007 -12.3705804878 6.9419791093e-06 0.000507792916329 -0.00903845680031
Sb -2.1644955687 3.6164874454 -12.3705804878 -0.000445315104345 -0.000256853227044 -0.00905825429629
Sb -0 -0 10.6890862494 6.68486877192e-06 -5.14220674763e-06 0.00808046368323
Sb -2.1854079208 -3.6044102693 12.3087958897 0.000623749678488 -0.000368696223805 0.00162699421495
Sb 4.2142178275 -0.0904119324 12.3087958897 1.02844134953e-06 0.000708596089824 0.00162622288394
Sb 2.1854079208 -3.6044102693 12.3087958897 -0.000611151271956 -0.0003535267139 0.00161722402213
Sb 2.1290347482 1.2291987904 -2.0831946729 0.000330643893873 0.000193861194386 0.000764131922698
Sb 3.27e-08 -2.4583941206 -2.0831946729 -2.8282137112e-06 -0.000385151285398 0.000760789488312
Sb -2.1290346826 1.2291987904 -2.0831946729 -0.000326273018137 0.000183833891228 0.000759246826288
Sb 4.2142177948 -2.4330763371 -1.1218343277 1.28555168691e-05 -1.77406132793e-05 0.00027690783336
Sb 2.0550528823 1.186485323 -8.8210247931 0.000371781547854 0.00019051876 -0.00935598806698
Sb 3.27e-08 -2.3729671857 -8.8210247931 4.88509641025e-06 -0.000421146732631 -0.0093719289079
Sb -2.0550528169 1.186485323 -8.8210247931 -0.000383608623373 0.000193604084048 -0.00937090046655
Sb 4.2142177948 -2.4330763371 -7.739511053 -2.08259373279e-05 -3.98521022942e-05 -0.00683553542963
Cr -4.2142177948 -2.4330763371 14.621432677 -7.97042045883e-06 6.68486877192e-06 -0.00196149476388
61
Lattice="8.42843558953 0 0 -4.21421779477 7.29923593142 0 0 0 31.0334408416" Properties=species:S:1:pos:R:3:forces:R:3 energy=-133599.794442 ionic_step=29 pbc="T T T"
Te 1.768024929 1.0207695779 3.2902124021 0.00101301472928 0.000569756507638 -0.00565668453273
Te 3.27e-08 -2.0415356958 3.2902124021 1.05415238326e-05 -0.00115493963552 -0.00565385631902
Te -1.7680248634 1.0207695779 3.2902124021 -0.00101635716367 0.000583126245182 -0.00566979715994
Te 4.2142177948 -2.4330763371 3.0610508152 -6.42775843454e-06 1.10557445074e-05 -0.00505041835719
Te -0 -0 6.8892021515 7.45619978407e-06 -5.6564274224e-06 -0.00281047309792
Te -2.5192607638 -3.4116601287 7.0654861609 0.000177149022456 -0.00010310124529 -0.00262123988961
Te -4.214217762 -0.4759122141 7.0654861609 -9.25597214574e-06 0.000203117166531 -0.00261944011724
Te -1.694957031 3.8875758027 7.0654861609 -0.000177663243131 -9.48737144938e-05 -0.00262278255163
Te 0 -0 -0.3162470487 -5.14220674763e-07 -2.57110337382e-06 -0.00220035026731
Te -1.7491146884 -3.8563043755 0.0287709809 0.00114131278764 -0.000657688243022 -0.00276033658213
Te -4.214217762 0.4133762796 0.0287709809 -2.57110337382e-07 0.00131203405166 -0.00274388152054
Te 1.7491146884 -3.8563043755 0.0287709809 -0.00113822746359 -0.000659488015384 -0.00275108060998
Te -0 2.444764704 14.2199234891 1.05415238326e-05 0.00161311025673 -0.000627606333549
Te -2.1172282336 -1.222378892 14.2199234891 -0.00139199536658 -0.000811183114439 -0.000622721237138
Te -4.214217762 2.4330797971 13.7984042021 -2.31399303643e-06 -1.54266202429e-06 -0.00111740152626
Te 2.1172282336 -1.222378892 14.2199234891 0.00139739468367 -0.000804498245667 -0.000624263899163
Te 1.6253112096 0.9383737328 -13.3192355678 -0.00018357678089 -0.000109786114062 -0.00426751737986
Te 3.27e-08 -1.8767440056 -13.3192355678 7.71331012145e-07 0.000213401580027 -0.00426700315919
Te -1.625311144 0.9383737328 -13.3192355678 0.000187690546289 -0.000111071665749 -0.00426957426256
Te 4.2142177948 -2.4330763371 -13.8830622773 2.57110337382e-07 1.79977236167e-06 -0.00577932616366
Te 2.5519730815 1.4733824627 10.1621652908 0.00135394303665 0.000782129646315 -0.00148301242602
Te 3.27e-08 -2.9467614655 10.1621652908 -1.02844134953e-06 -0.00156245952027 -0.00148018421231
Te -2.551973016 1.4733824627 10.1621652908 -0.00135934235374 0.000784700749689 -0.00148146976399
Te 4.2142177948 -2.4330763371 10.4595637681 -2.57110337382e-06 -1.28555168691e-06 -0.000839979472226
Te -0 0 -7.055195474 5.14220674763e-07 -2.57110337382e-06 0.00629020440404
Te -1.7289261763 -3.867960223 -6.9990833422 0.000553558556383 -0.000319845259703 0.00652751724544
Te 4.2142178275 0.4366879745 -6.9990833422 5.14220674763e-07 0.000630948767935 0.00651594728026
Te 1.7289261763 -3.867960223 -6.9990833422 -0.00054790212896 -0.00031521727363 0.0065182612733
Te -0 2.9483858541 -3.2000482808 3.34243438596e-06 -0.000130354941052 0.00478353782699
Te -2.5533768098 -1.474189467 -3.2000482808 0.000119299196545 6.60773567071e-05 0.00478533759935
Te -4.214217762 2.4330797971 -3.6609868662 -2.57110337382e-06 1.28555168691e-06 0.00491440698871
Te 2.5533768098 -1.474189467 -3.2000482808 -0.000118270755196 7.09624531173e-05 0.00479382224048
Te 0 2.9128637061 -10.2211372973 -3.34243438596e-06 6.47918050202e-05 0.0055127027438
Te -2.5226137417 -1.456428393 -10.2211372973 -5.8621156923e-05 -2.87963577867e-05 0.0055127027438
Te -4.214217762 2.4330797971 -10.5478518421 3.08532404858e-06 -3.34243438596e-06 0.00503704861964
Te 2.5226137417 -1.456428393 -10.2211372973 5.63071638866e-05 -3.23959025101e-05 0.00550807475773
Sb 0 2.2808351407 8.7141871445 4.37087573549e-06 0.000811183114439 -0.00270737185263
Sb -1.9752611968 -1.1404141103 8.7141871445 -0.00070011144869 -0.000407262774413 -0.00270917162499
Sb -4.214217762 2.4330797971 7.6595145812 -1.79977236167e-06 -3.08532404858e-06 -0.00231039349171
Sb 1.9752611968 -1.1404141103 8.7141871445 0.000705767876113 -0.000406748553738 -0.00271174272836
Sb 0 2.4233278146 1.457018794 -9.25597214574e-06 -8.76746250471e-05 -0.00573176075125
Sb -2.0986634182 -1.2116604473 1.457018794 6.45346946828e-05 5.6564274224e-05 -0.00572970386855
Sb -4.214217762 2.4330797971 2.3005835941 8.22753079621e-06 -2.00546063158e-05 -0.00676097343179
Sb 2.0986634182 -1.2116604473 1.457018794 -6.53060256949e-05 4.65369710661e-05 -0.00572379033079
Sb 0 -0 -11.1243061965 8.74175147098e-06 -6.9419791093e-06 0.00349310104367
Sb -2.0485701492 -3.6834136004 -12.3734383858 -0.000659488015384 0.000382580182024 -0.000999902102077
Sb -4.214217762 0.0675947294 -12.3734383858 -5.14220674763e-06 -0.000765674584722 -0.00100015921241
Sb -2.16564758 3.615822331 -12.3734383858 0.000660002236059 0.000388236609446 -0.000999130771065
Sb -0 -0 10.6964318447 2.57110337382e-06 -2.05688269905e-06 -0.000125212734305
Sb -2.1739238815 -3.6110405856 12.3129512749 0.000155294643779 -9.41023834817e-05 0.00139328091827
Sb 4.2142178275 -0.0771512999 12.3129512749 -2.57110337382e-07 0.000178948794818 0.00139096692523
Sb 2.1739238815 -3.6110405856 12.3129512749 -0.00015118087838 -9.17883904452e-05 0.00138891004254
Sb 2.1313647434 1.2305440143 -2.0895940067 0.000389007940458 0.000218543786774 0.00362628419843
Sb 3.27e-08 -2.4610845686 -2.0895940067 -1.79977236167e-06 -0.000443001111309 0.00362859819147
Sb -2.1313646778 1.2305440143 -2.0895940067 -0.000387979499109 0.000218286676437 0.00362499864674
Sb 4.2142177948 -2.4330763371 -1.0907466901 -1.02844134953e-06 6.17064809716e-06 6.71057980566e-05
Sb 2.0574635956 1.1878771496 -8.8211600971 -0.000259938551093 -0.000159151298839 0.00735001321473
Sb 3.27e-08 -2.3757508391 -8.8211600971 6.42775843454e-06 0.00030441863946 0.00734949899405
Sb -2.0574635302 1.1878771496 -8.8211600971 0.000259938551093 -0.000151952209393 0.00735592675249
Sb 4.2142177948 -2.4330763371 -7.7502026935 -1.13128548448e-05 6.9419791093e-06 0.00655502805154
Cr -4.2142177948 -2.4330763371 14.618046305 3.59954472334e-06 -3.08532404858e-06 -0.00138222517376
61
Lattice="8.42843558953 0 0 -4.21421779477 7.29923593142 0 0 0 31.0334408416" Properties=species:S:1:pos:R:3:forces:R:3 energy=-133599.808449 ionic_step=30 pbc="T T T"
Te 1.7692468204 1.0214750376 3.2882006551 -8.45893009986e-05 -5.57929432118e-05 0.000880602905532
Te 3.27e-08 -2.0429466151 3.2882006551 8.48464113359e-06 0.000102587024615 0.000883688229581
Te -1.7692467548 1.0214750376 3.2882006551 8.94743974088e-05 -4.83367434277e-05 0.000882402677894
Te 4.2142177948 -2.4330763371 3.0594473702 -6.9419791093e-06 2.31399303643e-06 0.000969820192604
Te -0 -0 6.8930336321 7.71331012145e-06 -4.88509641025e-06 0.00344502141058
Te -2.5129063996 -3.4153288242 7.0460930628 -0.000285906695168 0.000159408409177 0.00362551286742
Te -4.214217762 -0.4685748229 7.0460930628 -1.31126272065e-05 -0.000318045487341 0.00362448442607
Te -1.7013113952 3.8839071072 7.0460930628 0.000273822509311 0.000165579057274 0.0036288553018
Te 0 -0 -0.3124616315 6.68486877192e-06 -2.31399303643e-06 0.000264309426828
Te -1.752844878 -3.8541507485 0.0318302861 0.000233456186343 -0.000136011368475 4.37087573549e-05
Te -4.214217762 0.4090690256 0.0318302861 -6.68486877192e-06 0.00026122410278 4.39658676923e-05
Te 1.752844878 -3.8541507485 0.0318302861 -0.000228571089932 -0.000125984065317 4.26803160054e-05
Te -0 2.4453852061 14.2298741537 -5.14220674763e-06 -0.00244486219816 -0.00348487351287
Te -2.117765604 -1.2226891431 14.2298741537 0.00211473252496 0.00122050277155 -0.00347741731309
Te -4.214217762 2.4330797971 13.8192822785 5.91353775978e-06 1.28555168691e-06 -0.00324756067147
Te 2.117765604 -1.2226891431 14.2298741537 -0.00211010453889 0.00120970413738 -0.00348667328523
Te 1.6239260792 0.937574027 -13.3216765111 -0.000104901017652 -6.32491429959e-05 -0.00238932636529
Te 3.27e-08 -1.875144594 -13.3216765111 1.28555168691e-06 0.000122641630931 -0.00239164035832
Te -1.6239260136 0.937574027 -13.3216765111 0.000107215010688 -6.53060256949e-05 -0.00238958347562
Te 4.2142177948 -2.4330763371 -13.8777152567 7.71331012145e-07 -5.14220674763e-07 -0.000692655248906
Te 2.5519208317 1.4733522963 10.1656987065 -0.000169949933009 -9.87303695545e-05 0.00251633887195
Te 3.27e-08 -2.9467011326 10.1656987065 3.85665506072e-06 0.000199003401133 0.00251993841668
Te -2.5519207662 1.4733522963 10.1656987065 0.00017380658807 -9.89874798919e-05 0.00251633887195
Te 4.2142177948 -2.4330763371 10.4642455688 -5.14220674763e-07 -6.17064809716e-06 0.00117602268318
Te -0 0 -7.0560855996 -1.02844134953e-06 2.57110337382e-07 -0.00192009999957
Te -1.7307359546 -3.8669153465 -7.0038031519 -0.00013061205139 7.58475495276e-05 -0.00183345381587
Te 4.2142178275 0.4345982215 -7.0038031519 -1.54266202429e-06 -0.000149123995681 -0.00183499647789
Te 1.7307359546 -3.8669153465 -7.0038031519 0.000131383382402 7.58475495276e-05 -0.00183345381587
Te -0 2.9454511736 -3.1926335104 -2.57110337382e-06 9.59021558433e-05 0.000818125093548
Te -2.5508353031 -1.4727221267 -3.1926335104 -8.40750803238e-05 -4.80796330904e-05 0.00081992486591
Te -4.214217762 2.4330797971 -3.6602765744 -7.71331012145e-07 1.54266202429e-06 0.00085232076842
Te 2.5508353031 -1.4727221267 -3.1926335104 7.66188805397e-05 -4.57656400539e-05 0.000826609734682
Te 0 2.9158195959 -10.2250420669 -3.08532404858e-06 7.45619978407e-05 -1.49123995681e-05
Te -2.5251736163 -1.457906338 -10.2250420669 -6.7362908394e-05 -3.67667782456e-05 -1.82548339541e-05
Te -4.214217762 2.4330797971 -10.5447703417 1.79977236167e-06 -2.8282137112e-06 0.000254796344345
Te 2.5251736163 -1.457906338 -10.2250420669 6.22207016464e-05 -3.39385645344e-05 -2.03117166531e-05
Sb -0 2.2913743555 8.701201993 -3.59954472334e-06 0.000219572228124 0.00415824548647
Sb -1.9843884203 -1.1456837178 8.701201993 -0.00018563366359 -0.00010310124529 0.00415798837614
Sb -4.214217762 2.4330797971 7.6612228753 1.02844134953e-05 -8.48464113359e-06 0.00375766758083
Sb 1.9843884203 -1.1456837178 8.701201993 0.000185890773927 -0.000109786114062 0.00414564707994
Sb 0 2.427776229 1.4540691295 1.79977236167e-06 8.84459560593e-05 0.000180234346505
Sb -2.1025158563 -1.2138846545 1.4540691295 -7.8161542564e-05 -4.57656400539e-05 0.000178434574143
Sb -4.214217762 2.4330797971 2.3039633808 -2.8282137112e-06 5.14220674763e-07 4.4480088367e-05
Sb 2.1025158563 -1.2138846545 1.4540691295 7.89328735762e-05 -4.57656400539e-05 0.000179977236167
Sb 0 -0 -11.1361607159 5.14220674763e-06 -2.57110337382e-06 0.000405720112388
Sb -2.0482461278 -3.6836006743 -12.3738354535 -0.000224200214197 0.000130869161727 -0.000571556279999
Sb -4.214217762 0.0679688772 -12.3738354535 -1.79977236167e-06 -0.000263795206154 -0.000572070500674
Sb -2.1659716014 3.6156352571 -12.3738354535 0.000225999986558 0.000133697375438 -0.000572327611012
Sb -0 -0 10.7009530697 -2.05688269905e-06 1.02844134953e-06 0.00133491687169
Sb -2.1727859419 -3.6116975756 12.3290999517 0.000897057967125 -0.000520134212523 -0.00159459831244
Sb 4.2142178275 -0.0758373198 12.3290999517 2.57110337382e-07 0.00104541063179 -0.0015922843194
Sb 2.1727859419 -3.6116975756 12.3290999517 -0.000899629070498 -0.000519877102186 -0.00159151298839
Sb 2.1340495389 1.2320940825 -2.0936800375 0.000133697375438 7.2762225479e-05 0.00104489641112
Sb 3.27e-08 -2.4641847048 -2.0936800375 5.39931708501e-06 -0.000153237761079 0.00104566774213
Sb -2.1340494733 1.2320940825 -2.0936800375 -0.000133183154764 8.07326459378e-05 0.00104721040416
Sb 4.2142177948 -2.4330763371 -1.0817674591 -8.74175147098e-06 3.34243438596e-06 0.000510878240377
Sb 2.0599430349 1.1893086552 -8.8180014068 -1.54266202429e-05 -1.10557445074e-05 -0.00162647999428
Sb 3.27e-08 -2.3786138502 -8.8180014068 4.62798607287e-06 1.7483502942e-05 -0.00162442311158
Sb -2.0599429695 1.1893086552 -8.8180014068 1.67121719298e-05 -6.42775843454e-06 -0.00162210911854
Sb 4.2142177948 -2.4330763371 -7.7643116501 -2.8282137112e-06 -1.54266202429e-06 -0.00217541056459
Cr -4.2142177948 -2.4330763371 14.6144675052 -8.22753079621e-06 -1.28555168691e-06 -0.00260427060734
61
Lattice="8.42843558953 0 0 -4.21421779477 7.29923593142 0 0 0 31.0334408416" Properties=species:S:1:pos:R:3:forces:R:3 energy=-133599.818182 ionic_step=31 pbc="T T T"
Te 1.7655299925 1.019329125 3.2847792797 0.00102149937042 0.000584411796868 -0.00320899412086
Te 3.27e-08 -2.0386547899 3.2847792797 3.34243438596e-06 -0.00117627979352 -0.0032092512312
Te -1.7655299269 1.019329125 3.2847792797 -0.00102252781177 0.000586468679567 -0.00321079389322
Te 4.2142177948 -2.4330763371 3.0541804257 -3.34243438596e-06 6.42775843454e-06 -0.00342033881819
Te -0 -0 6.9008993927 6.42775843454e-06 -2.05688269905e-06 0.00286112383438
Te -2.5099571622 -3.417031568 7.0353514472 0.00100530141916 -0.000582612024507 0.00227619781684
Te -4.214217762 -0.4651693353 7.0353514472 -5.39931708501e-06 0.00116291005598 0.00227465515482
Te -1.7042606326 3.8822043634 7.0353514472 -0.00100632986051 -0.000577469817759 0.00227234116178
Te 0 -0 -0.3124747275 -2.8282137112e-06 3.85665506072e-06 -0.00128837990062
Te -1.7507012395 -3.8553883794 0.03337818 0.000880860015869 -0.000509078468016 -0.0019368121715
Te -4.214217762 0.4115442873 0.03337818 3.08532404858e-06 0.00101687138434 -0.00193346973711
Te 1.7507012395 -3.8553883794 0.03337818 -0.000882659788231 -0.000510106909365 -0.00193732639217
Te -0 2.4463343782 14.2346452962 2.8282137112e-06 -0.00288580642677 9.48737144938e-05
Te -2.1185876107 -1.2231637291 14.2346452962 0.00250194069306 0.00144058922035 9.25597214574e-05
Te -4.214217762 2.4330797971 13.840477782 -3.08532404858e-06 4.62798607287e-06 0.000321645032064
Te 2.1185876107 -1.2231637291 14.2346452962 -0.00250194069306 0.00144290321339 9.17883904452e-05
Te 1.6234438211 0.9372955951 -13.3245125922 -0.000329101231848 -0.000191804311687 -0.00388956518391
Te 3.27e-08 -1.8745877301 -13.3245125922 -1.02844134953e-06 0.000379751968313 -0.00389213628728
Te -1.6234437555 0.9372955951 -13.3245125922 0.000332186555897 -0.000194375415061 -0.00388725119087
Te 4.2142177948 -2.4330763371 -13.879781759 -0 7.71331012145e-06 -0.00143287591023
Te 2.5513965738 1.4730496157 10.1725257653 -0.000270480074925 -0.00015709441614 0.00476194055865
Te 3.27e-08 -2.9460957715 10.1725257653 -1.54266202429e-06 0.000317788377004 0.00476605432404
Te -2.5513965083 1.4730496157 10.1725257653 0.000267908971552 -0.000157608636815 0.00476348322067
Te 4.2142177948 -2.4330763371 10.4736790943 -0 -1.79977236167e-06 0.0042320361533
Te -0 0 -7.0598617861 -3.08532404858e-06 7.71331012145e-07 0.000637890747044
Te -1.7322424763 -3.8660455554 -7.0076775219 0.000471797469095 -0.000273051178299 0.000981390157786
Te 4.2142178275 0.4328586393 -7.0076775219 5.6564274224e-06 0.000550730342671 0.00098293281981
Te 1.7322424763 -3.8660455554 -7.0076775219 -0.000469226365721 -0.000278707605722 0.000984989702509
Te -0 2.9511729178 -3.1854255305 -2.57110337382e-07 0.000108500562375 0.00194272570926
Te -2.5557904767 -1.4755829989 -3.1854255305 -9.35881628069e-05 -5.73356052361e-05 0.00194169726791
Te -4.214217762 2.4330797971 -3.6648896614 2.57110337382e-06 1.02844134953e-06 0.00245077573592
Te 2.5557904767 -1.4755829989 -3.1854255305 9.41023834817e-05 -5.78498259109e-05 0.00194066882656
Te 0 2.9180453761 -10.2281425243 -1.79977236167e-06 -0.000391579043832 -0.00231862102251
Te -2.5271011975 -1.4590192281 -10.2281425243 0.000343242300404 0.000192061422024 -0.00231527858812
Te -4.214217762 2.4330797971 -10.5436844063 -7.71331012145e-07 7.45619978407e-06 -0.00228956755438
Te 2.5271011975 -1.4590192281 -10.2281425243 -0.000342470969392 0.00018949031865 -0.00231013638137
Sb -0 2.2911454785 8.6954435448 2.8282137112e-06 -0.00115005453911 0.00485835693516
Sb -1.9841902071 -1.1455692792 8.6954435448 0.00100221609511 0.000576955597084 0.00486221359022
Sb -4.214217762 2.4330797971 7.6632383121 7.71331012145e-07 -2.57110337382e-06 0.00344476430024
Sb 1.9841902071 -1.1455692792 8.6954435448 -0.00100093054343 0.000578241148771 0.00485527161111
Sb 0 2.4308982639 1.4494394021 -2.57110337382e-07 0.000491337854736 -0.00394870056151
Sb -2.1052196166 -1.2154456719 1.4494394021 -0.000428345822078 -0.000243997710175 -0.00394484390645
Sb -4.214217762 2.4330797971 2.3129636611 2.57110337382e-07 1.28555168691e-06 -0.00448734671832
Sb 2.1052196166 -1.2154456719 1.4494394021 0.000427574491066 -0.000246054592874 -0.00394021592037
Sb 0 -0 -11.1449280462 -3.59954472334e-06 3.85665506072e-06 -0.00316220003946
Sb -2.0479934952 -3.6837465319 -12.3755920268 4.01092126315e-05 -1.87690546289e-05 -0.00389342183897
Sb -4.214217762 0.0682605923 -12.3755920268 2.57110337382e-07 3.77952195951e-05 -0.00389907826639
Sb -2.166224234 3.6154893995 -12.3755920268 -4.03663229689e-05 -1.92832753036e-05 -0.00389445028032
Sb -0 -0 10.7065062579 2.31399303643e-06 -7.19908944669e-06 0.00400500772539
Sb -2.1674544511 -3.6147757147 12.335443934 0.00154394757598 -0.000887544884641 0.00283078481457
Sb 4.2142178275 -0.0696810416 12.335443934 -1.02844134953e-06 0.00177920353468 0.00283078481457
Sb 2.1674544511 -3.6147757147 12.335443934 -0.00154369046564 -0.000887030663967 0.00282898504221
Sb 2.1368498655 1.2337108526 -2.0986787876 0.00109734691994 0.000640976071092 0.00155191799644
Sb 3.27e-08 -2.467418245 -2.0986787876 -3.34243438596e-06 -0.00127321039071 0.00155011822407
Sb -2.1368497999 1.2337108526 -2.0986787876 -0.00109837536129 0.000639176298731 0.00154986111374
Sb 4.2142177948 -2.4330763371 -1.0648427887 1.02844134953e-06 -2.05688269905e-06 5.83640465856e-05
Sb 2.0601741676 1.1894420998 -8.8163718718 2.77679164372e-05 8.48464113359e-06 -0.000653831587961
Sb 3.27e-08 -2.3788807395 -8.8163718718 3.34243438596e-06 -2.23685993522e-05 -0.000674657525289
Sb -2.0601741022 1.1894420998 -8.8163718718 -2.69965854251e-05 1.25984065317e-05 -0.000647918050202
Sb 4.2142177948 -2.4330763371 -7.772255068 -2.8282137112e-06 1.28555168691e-06 0.00016892149166
Cr -4.2142177948 -2.4330763371 14.6122091872 1.54266202429e-06 2.31399303643e-06 0.000444543773333
61
Lattice="8.42843558953 0 0 -4.21421779477 7.29923593142 0 0 0 31.0334408416" Properties=species:S:1:pos:R:3:forces:R:3 energy=-133599.82872 ionic_step=32 pbc="T T T"
Te 1.763897287 1.0183864816 3.284906793 7.89328735762e-05 2.51968130634e-05 0.00426546049716
Te 3.27e-08 -2.0367695031 3.284906793 9.25597214574e-06 -8.33037493116e-05 0.00426417494547
Te -1.7638972214 1.0183864816 3.284906793 -7.89328735762e-05 3.65096679082e-05 0.00428037289673
Te 4.2142177948 -2.4330763371 3.0551848748 -9.25597214574e-06 1.72263926046e-05 0.00457167890898
Te -0 -0 6.9067041286 -1.97974959784e-05 1.79977236167e-06 -0.00329306920118
Te -2.5054366563 -3.4196414846 7.0185207414 0.000772616563832 -0.000440172897597 -0.00438784501775
Te -4.214217762 -0.4599495023 7.0185207414 1.77406132793e-05 0.00089654374645 -0.00439555832788
Te -1.7087811385 3.8795944468 7.0185207414 -0.000778015880917 -0.000463055717624 -0.0043929872245
Te 0 -0 -0.309030396 7.19908944669e-06 -4.88509641025e-06 0.0019499247987
Te -1.750562871 -3.8554682666 0.0336834331 0.000823010189959 -0.000472825910445 0.00328741277376
Te -4.214217762 0.4117040616 0.0336834331 -4.62798607287e-06 0.000952593799999 0.00328432744971
Te 1.750562871 -3.8554682666 0.0336834331 -0.000817610872874 -0.000466141041673 0.00328792699444
Te -0 2.4437998088 14.2457910891 -6.68486877192e-06 0.000837151258515 -0.0024217222678
Te -2.1163926103 -1.2218964444 14.2457910891 -0.0007325073512 -0.000409576767449 -0.00242635025387
Te -4.214217762 2.4330797971 13.8621617919 1.28555168691e-06 -7.71331012145e-06 -0.00328612722207
Te 2.1163926103 -1.2218964444 14.2457910891 0.000727879365127 -0.000410862319136 -0.00243097823994
Te 1.6242416578 0.9377562266 -13.3278741774 -0.000541731480863 -0.000315474383967 0.00105980881069
Te 3.27e-08 -1.875508993 -13.3278741774 -1.54266202429e-06 0.000626835002536 0.00105723770731
Te -1.6242415922 0.9377562266 -13.3278741774 0.000545073915249 -0.00032113081139 0.00106392257609
Te 4.2142177948 -2.4330763371 -13.8875949854 2.57110337382e-07 7.71331012145e-06 -0.000242712158488
Te 2.5492038162 1.471783626 10.177337085 -0.000575670045397 -0.000311874839244 -0.013441471328
Te 3.27e-08 -2.9435637919 10.177337085 -2.08259373279e-05 0.000661030677408 -0.0134473848657
Te -2.5492037507 1.471783626 10.177337085 0.000585183127881 -0.000344270741754 -0.013446099314
Te 4.2142177948 -2.4330763371 10.4778885124 1.7483502942e-05 -4.88509641025e-06 -0.011876183594
Te -0 0 -7.0639793346 4.37087573549e-06 -4.88509641025e-06 0.00698003143924
Te -1.7347352036 -3.8646063779 -7.0111607421 0.000474368572469 -0.000270737185263 0.00725436816922
Te 4.2142178275 0.4299802843 -7.0111607421 -2.31399303643e-06 0.000548159239298 0.00726208147934
Te 1.7347352036 -3.8646063779 -7.0111607421 -0.000477711006855 -0.000267394750877 0.00725951037597
Te -0 2.9549067874 -3.1824942145 0 0.000197460739109 0.00114799765641
Te -2.5590241011 -1.4774499337 -3.1824942145 -0.000170464153684 -9.61592661807e-05 0.00115211142181
Te -4.214217762 2.4330797971 -3.6728050369 -1.02844134953e-06 -6.42775843454e-06 0.00121278946143
Te 2.5590241011 -1.4774499337 -3.1824942145 0.000168664381322 -9.5645045506e-05 0.00115905340092
Te 0 2.9186906831 -10.2302263361 2.57110337382e-06 -0.000426546049716 0.00437241839751
Te -2.5276600495 -1.4593418815 -10.2302263361 0.000369467554817 0.000204916938893 0.00436367664604
Te -4.214217762 2.4330797971 -10.5417457387 -2.57110337382e-06 6.9419791093e-06 0.00444363796097
Te 2.5276600495 -1.4593418815 -10.2302263361 -0.000365868010094 0.00020723093193 0.00436881885279
Sb -0 2.2872737793 8.6876686634 -1.51695099055e-05 -0.00183679625025 -0.0107006751315
Sb -1.9808372187 -1.1436334296 8.6876686634 0.00158302834726 0.000929710979972 -0.0106968184764
Sb -4.214217762 2.4330797971 7.6620869289 6.68486877192e-06 -1.79977236167e-06 -0.00714818159988
Sb 1.9808372188 -1.1436334296 8.6876686634 -0.00157891458186 0.000912484587367 -0.0107225295102
Sb 0 2.4330906773 1.4511413634 1.02844134953e-06 -0.000681599504399 0.00524068000685
Sb -2.1071183014 -1.2165418787 1.4511413634 0.00059109666564 0.000329872562861 0.00525610662709
Sb -4.214217762 2.4330797971 2.3220039628 3.08532404858e-06 7.71331012145e-07 0.00502522154412
Sb 2.1071183014 -1.2165418787 1.4511413634 -0.000592639327665 0.00033090100421 0.00526047750283
Sb 0 -0 -11.1514421676 -1.28555168691e-05 3.85665506072e-06 0.00311360618569
Sb -2.0477519235 -3.6838860035 -12.3765334201 -0.000677999959675 0.000390550602483 0.0015832854576
Sb -4.214217762 0.0685395355 -12.3765334201 2.57110337382e-07 -0.000788557404749 0.00156837305803
Sb -2.1664658057 3.6153499279 -12.3765334201 0.000671829311578 0.000387722388771 0.00157608636815
Sb -0 -0 10.7090739977 -2.95676887989e-05 1.82548339541e-05 -0.0119175783583
Sb -2.1656044526 -3.6158438124 12.3461827819 -0.000821981748609 0.000473597241457 -0.00854686183524
Sb 4.2142178275 -0.0675448464 12.3461827819 3.34243438596e-06 -0.000959792889446 -0.00853991985613
Sb 2.1656044526 -3.6158438124 12.3461827819 0.000830209279405 0.000472054579433 -0.00853709164242
Sb 2.1390652315 1.2349898953 -2.1036434579 -5.29647295006e-05 -4.16518746558e-05 0.000462284386612
Sb 3.27e-08 -2.4699763306 -2.1036434579 5.14220674763e-06 7.53333288528e-05 0.00046742659336
Sb -2.1390651659 1.2349898953 -2.1036434579 5.19362881511e-05 -3.5738336896e-05 0.000458170621214
Sb 4.2142177948 -2.4330763371 -1.0548252455 -4.37087573549e-06 -6.68486877192e-06 8.74175147098e-05
Sb 2.0586488664 1.1885614663 -8.8153186959 -0.000132668934089 -5.70784948987e-05 0.00707464804339
Sb 3.27e-08 -2.3771194724 -8.8153186959 -6.17064809716e-06 0.000170207043347 0.00709470264971
Sb -2.058648801 1.1885614663 -8.8153186959 0.000130097830715 -6.53060256949e-05 0.00706076408517
Sb 4.2142177948 -2.4330763371 -7.7810253441 3.85665506072e-06 -1.33697375438e-05 0.00793776744598
Cr -4.2142177948 -2.4330763371 14.6086551849 -7.97042045883e-06 1.05415238326e-05 -0.000793185390822
61
Lattice="8.42843558953 0 0 -4.21421779477 7.29923593142 0 0 0 31.0334408416" Properties=species:S:1:pos:R:3:forces:R:3 energy=-133599.834485 ionic_step=33 pbc="T T T"
Te 1.7627200555 1.0177068064 3.2865502978 4.01092126315e-05 2.54539234008e-05 -0.00126086909452
Te 3.27e-08 -2.0354101526 3.2865502978 -2.57110337382e-07 -4.70511917408e-05 -0.00126086909452
Te -1.7627199899 1.0177068064 3.2865502978 -3.59954472334e-05 2.08259373279e-05 -0.00125367000507
Te 4.2142177948 -2.4330763371 3.0583734787 1.79977236167e-06 -1.79977236167e-06 -0.00123978604685
Te -0 -0 6.9062611712 -4.37087573549e-06 2.05688269905e-06 0.00101404317063
Te -2.5032796498 -3.4208868334 7.0096898995 -0.000729422027152 0.000422175173981 0.00157891458186
Te -4.214217762 -0.4574588045 7.0096898995 6.68486877192e-06 -0.000838951030876 0.00157351526478
Te -1.710938145 3.878349098 7.0096898995 0.000730964689176 0.000416004525883 0.00157042994073
Te 0 -0 -0.3070918887 7.97042045883e-06 -3.85665506072e-06 -0.00155063244475
Te -1.7491526937 -3.8562824331 0.0327314349 -0.00138119673241 0.000796013604534 -0.00111534464356
Te -4.214217762 0.4133323948 0.0327314349 -8.99886180836e-06 -0.00159665519514 -0.00111663019525
Te 1.7491526937 -3.8562824331 0.0327314349 0.00137913984972 0.000806040907691 -0.00111842996761
Te -0 2.440636256 14.2541115693 4.88509641025e-06 -0.000371524437516 0.006457069013
Te -2.1136528944 -1.220314668 14.2541115693 0.000323701914763 0.000180234346505 0.00645141258558
Te -4.214217762 2.4330797971 13.8747409514 -5.91353775978e-06 3.59954472334e-06 0.00668255477889
Te 2.1136528944 -1.220314668 14.2541115693 -0.000323959025101 0.000185890773927 0.00644858437187
Te 1.6259623325 0.938749659 -13.3305882964 1.85119442915e-05 4.19089849932e-05 -0.00115648229754
Te 3.27e-08 -1.8774958579 -13.3305882964 -2.31399303643e-05 -3.77952195951e-05 -0.00115879629058
Te -1.6259622669 0.938749659 -13.3305882964 -1.54266202429e-05 1.54266202429e-05 -0.0011582820699
Te 4.2142177948 -2.4330763371 -13.8958885844 1.79977236167e-05 -1.51695099055e-05 0.000312646170256
Te 2.5473514479 1.4707141601 10.1799347229 0.000541474370526 0.000326530128475 0.0058703432231
Te 3.27e-08 -2.9414248603 10.1799347229 -1.31126272065e-05 -0.000631977209284 0.0058703432231
Te -2.5473513824 1.4707141601 10.1799347229 -0.000541474370526 0.000311103508232 0.00586751500939
Te 4.2142177948 -2.4330763371 10.480016541 1.23412961943e-05 -6.42775843454e-06 0.00504810436415
Te -0 0 -7.0663325936 -2.31399303643e-06 2.57110337382e-06 -0.00168484404086
Te -1.7366306636 -3.8635120331 -7.0124104546 0.000714509627584 -0.000415233194871 -0.00186147884264
Te 4.2142178275 0.4277915946 -7.0124104546 -1.02844134953e-06 0.00083663703784 -0.00183679625025
Te 1.7366306636 -3.8635120331 -7.0124104546 -0.000721451606693 -0.00041831851892 -0.00184476667071
Te -0 2.9587353269 -3.1827575722 5.6564274224e-06 0.000947194482914 -0.00348590195422
Te -2.562339712 -1.4793642034 -3.1827575722 -0.000817867983211 -0.000479510779217 -0.00348641617489
Te -4.214217762 2.4330797971 -3.6807604568 -7.71331012145e-06 4.62798607287e-06 -0.00435853443929
Te 2.562339712 -1.4793642034 -3.1827575722 0.000812468666126 -0.000469740586396 -0.00347998841646
Te 0 2.9171816886 -10.2308199239 2.13401580027e-05 -0.000446600656032 -0.00629971748652
Te -2.5263532226 -1.4585873843 -10.2308199239 0.000396207029905 0.000198489180459 -0.00629997459686
Te -4.214217762 2.4330797971 -10.5410636543 -1.67121719298e-05 1.20841858569e-05 -0.00593179259373
Te 2.5263532226 -1.4585873843 -10.2308199239 -0.000384122844048 0.000215715573063 -0.0062920041764
Sb -0 2.2840137053 8.6842629984 3.08532404858e-06 0.00177843220367 0.0040559155722
Sb -1.9780139132 -1.1420033927 8.6842629984 -0.00153957670024 -0.000891915760377 0.00405308735848
Sb -4.214217762 2.4330797971 7.6597382836 2.57110337382e-07 -2.8282137112e-06 0.00252790883714
Sb 1.9780139132 -1.1420033927 8.6842629984 0.00153700559687 -0.000886259332954 0.00404743093106
Sb 0 2.4328019686 1.4544482788 7.45619978407e-06 0.00058132647282 -0.000700882779702
Sb -2.1068682725 -1.2163975243 1.4544482788 -0.000500079606207 -0.000296191108664 -0.000699854338353
Sb -4.214217762 2.4330797971 2.3283017164 -7.19908944669e-06 3.85665506072e-06 7.01911221052e-05
Sb 2.1068682725 -1.2163975243 1.4544482788 0.00049982249587 -0.000288220688205 -0.0007049965451
Sb 0 -0 -11.1519334762 -1.33697375438e-05 1.51695099055e-05 -0.00718032039206
Sb -2.0475809693 -3.683984704 -12.3770611578 0.000940252503805 -0.00054893057031 -0.00468377901608
Sb -4.214217762 0.0687369365 -12.3770611578 9.51308248312e-06 0.00110146068534 -0.00469123521587
Sb -2.1666367599 3.6152512274 -12.3770611578 -0.000941538055492 -0.000562814528528 -0.00468917833317
Sb -0 -0 10.7092989034 -7.71331012145e-06 4.88509641025e-06 0.00659796547789
Sb -2.1654532764 -3.615931094 12.3515546513 0.000165064836599 -9.38452731443e-05 0.00706127830585
Sb 4.2142178275 -0.067370283 12.3515546513 7.45619978407e-06 0.000192318532361 0.00705973564382
Sb 2.1654532764 -3.615931094 12.3515546513 -0.000164036395249 -0.000100787252254 0.00705922142315
Sb 2.1393058617 1.2351288233 -2.1058941233 -0.000924311662887 -0.000534789501754 -0.00383145824766
Sb 3.27e-08 -2.4702541865 -2.1058941233 3.08532404858e-06 0.00106855056216 -0.00383120113732
Sb -2.1393057961 1.2351288233 -2.1058941233 0.000922511890525 -0.000530675736356 -0.00383017269597
Sb 4.2142177948 -2.4330763371 -1.0512761589 -1.54266202429e-06 -1.28555168691e-06 -0.00273231155535
Sb 2.0563838203 1.1872537408 -8.8164065453 0.00134365862316 0.00080912623174 -0.00380189055886
Sb 3.27e-08 -2.3745040213 -8.8164065453 -2.00546063158e-05 -0.00157171549241 -0.00379983367616
Sb -2.0563837549 1.1872537408 -8.8164065453 -0.00134288729214 0.000785472080701 -0.00380446166224
Sb 4.2142177948 -2.4330763371 -7.7848295476 1.64550615924e-05 -1.6197951255e-05 -0.00134725816788
Cr -4.2142177948 -2.4330763371 14.6056618288 1.67121719298e-05 -1.02844134953e-05 0.00584437507902
61
Lattice="8.42843558953 0 0 -4.21421779477 7.29923593142 0 0 0 31.0334408416" Properties=species:S:1:pos:R:3:forces:R:3 energy=-133599.838094 ionic_step=34 pbc="T T T"
Te 1.7617599473 1.0171524874 3.2885122118 -0.000408805436437 -0.000239369724102 -0.00260092817295
Te 3.27e-08 -2.0343015147 3.2885122118 2.8282137112e-06 0.000473854351794 -0.00260144239363
Te -1.7617598817 1.0171524874 3.2885122118 0.000408548326099 -0.000236027289716 -0.00259835706958
Te 4.2142177948 -2.4330763371 3.0619293111 -1.54266202429e-06 5.14220674763e-07 -0.00277242076799
Te -0 -0 6.902608661 -3.34243438596e-06 2.57110337382e-06 -0.00166067566915
Te -2.5022661149 -3.4214719984 7.0040279521 0.000356354927611 -0.000206716711255 -0.00191058691708
Te -4.214217762 -0.4562884747 7.0040279521 4.62798607287e-06 0.000414461863859 -0.00191084402742
Te -1.7119516799 3.877763933 7.0040279521 -0.000355583596599 -0.000211344697328 -0.00191007269641
Te 0 -0 -0.3061196658 1.54266202429e-06 -1.02844134953e-06 -0.00418087119616
Te -1.74699687 -3.8575270991 0.0319311831 -0.000516277557462 0.000297733770688 -0.00438913056944
Te -4.214217762 0.4158217268 0.0319311831 -1.54266202429e-06 -0.000599324196437 -0.00438707368674
Te 1.74699687 -3.8575270991 0.0319311831 0.000517820219487 0.000300819094737 -0.00438707368674
Te -0 2.4378432503 14.2613613666 7.71331012145e-07 0.00400037973932 0.00645886878536
Te -2.1112340817 -1.2189181651 14.2613613666 -0.00346379046521 -0.00200006131449 0.00645758323368
Te -4.214217762 2.4330797971 13.8840713367 5.14220674763e-07 -7.71331012145e-07 0.00603643650105
Te 2.1112340817 -1.2189181651 14.2613613666 0.00346327624453 -0.0019987757628 0.00645861167503
Te 1.6278002364 0.9398107738 -13.3332900492 -0.00042911715309 -0.0002434834895 0.0052039132286
Te 3.27e-08 -1.8796180874 -13.3332900492 -2.8282137112e-06 0.000492880516761 0.00520365611827
Te -1.6278001708 0.9398107738 -13.3332900492 0.000431688256464 -0.000248368585911 0.00520751277333
Te 4.2142177948 -2.4330763371 -13.9020876776 2.57110337382e-06 -1.54266202429e-06 0.0011878497587
Te 2.5457846496 1.4698095683 10.1822619525 -0.000347356065803 -0.00020028895282 0.00087391803676
Te 3.27e-08 -2.9396156766 10.1822619525 -5.14220674763e-07 0.000400835015978 0.000874175147098
Te -2.5457845841 1.4698095683 10.1822619525 0.000349927169176 -0.000202345835519 0.000872375374736
Te 4.2142177948 -2.4330763371 10.4832410288 5.14220674763e-07 -0 0.00218055277133
Te -0 0 -7.0676285598 -7.71331012145e-07 7.71331012145e-07 -0.00168561537187
Te -1.7380358069 -3.8627007729 -7.0129601242 -0.00020131739417 0.000115956762159 -0.00143647545495
Te 4.2142178275 0.4261690742 -7.0129601242 -7.71331012145e-07 -0.000229085310607 -0.0014333901309
Te 1.7380358069 -3.8627007729 -7.0129601242 0.000199003401133 0.00011492832081 -0.00143441857225
Te 0 2.9622526991 -3.1830608666 1.28555168691e-06 0.000214944242051 -0.0045539382957
Te -2.5653858442 -1.4811228895 -3.1830608666 -0.000185119442915 -0.000108757672712 -0.00455342407503
Te -4.214217762 2.4330797971 -3.68783057 -1.28555168691e-06 1.28555168691e-06 -0.00409679611584
Te 2.5653858442 -1.4811228895 -3.1830608666 0.00018357678089 -0.000106700790013 -0.00455265274402
Te 0 2.9145582437 -10.2316491281 4.11376539811e-06 -0.000341185417705 0.00271559938342
Te -2.5240812537 -1.4572756619 -10.2316491281 0.000297219550013 0.000166350388286 0.0027161136041
Te -4.214217762 2.4330797971 -10.5409537567 -2.8282137112e-06 1.79977236167e-06 0.0032835561187
Te 2.5240812537 -1.4572756619 -10.2316491281 -0.000292077343266 0.00016789305031 0.00271559938342
Sb -0 2.2842086641 8.6812011115 -2.05688269905e-06 -0.000587497120917 -0.000405205891713
Sb -1.9781827524 -1.1421008721 8.6812011115 0.000507535805991 0.000296191108664 -0.000404434560701
Sb -4.214217762 2.4330797971 7.6567827507 2.05688269905e-06 -1.79977236167e-06 -0.00141025020054
Sb 1.9781827524 -1.1421008721 8.6812011115 -0.000508307137003 0.00029362000529 -0.000404177450364
Sb 0 2.4316672013 1.4569788216 -0 -0.000178177463805 -0.00332957886909
Sb -2.1058855356 -1.2158301406 1.4569788216 0.000153751981754 8.92172870714e-05 -0.00332983597943
Sb -4.214217762 2.4330797971 2.3324373372 5.14220674763e-07 -2.57110337382e-07 -0.00255002032615
Sb 2.1058855356 -1.2158301406 1.4569788216 -0.000153494871417 8.87030663967e-05 -0.00332880753808
Sb 0 -0 -11.1507061881 -4.88509641025e-06 3.85665506072e-06 0.00330001118029
Sb -2.0476596363 -3.6839392855 -12.3777695141 -0.000380266188987 0.000218800897112 0.00412070737722
Sb -4.214217762 0.0686460996 -12.3777695141 2.57110337382e-06 -0.000437087573549 0.00411685072215
Sb -2.1665580929 3.6152966459 -12.3777695141 0.000380523299325 0.000215972683401 0.00411736494283
Sb -0 -0 10.7088997322 -3.59954472334e-06 2.05688269905e-06 0.00164242083519
Sb -2.1655224232 -3.6158911721 12.3560332052 -0.00131331960335 0.000758475495276 0.00499025453824
Sb 4.2142178275 -0.0674501269 12.3560332052 2.57110337382e-07 -0.00151772232156 0.00498845476588
Sb 2.1655224232 -3.6158911721 12.3560332052 0.00131409093436 0.000758475495276 0.00498819765554
Sb 2.1386605972 1.2347562795 -2.1066818915 -0.000291048901916 -0.000169435712334 -0.00538029092005
Sb 3.27e-08 -2.4695090989 -2.1066818915 1.02844134953e-06 0.000337071652307 -0.00538106225106
Sb -2.1386605316 1.2347562795 -2.1066818915 0.000291306012253 -0.000168150160648 -0.00537951958904
Sb 4.2142177948 -2.4330763371 -1.0496401382 -1.54266202429e-06 7.71331012145e-07 -0.00503833417133
Sb 2.0542799805 1.1860390877 -8.8185562921 -0.000352241162213 -0.000195146746073 0.000818125093548
Sb 3.27e-08 -2.3720747152 -8.8185562921 -6.17064809716e-06 0.000402120567665 0.00081889642456
Sb -2.0542799151 1.1860390877 -8.8185562921 0.0003535267139 -0.000203117166531 0.000812211555789
Sb 4.2142177948 -2.4330763371 -7.7881978877 6.9419791093e-06 -5.14220674763e-06 -0.000209030704291
Cr -4.2142177948 -2.4330763371 14.6034283231 1.28555168691e-06 -1.28555168691e-06 0.00520956965603
61
Lattice="8.42843558953 0 0 -4.21421779477 7.29923593142 0 0 0 31.0334408416" Properties=species:S:1:pos:R:3:forces:R:3 energy=-133599.840361 ionic_step=35 pbc="T T T"
Te 1.7610688371 1.0167534745 3.2905653343 0.000127783837679 7.91899839135e-05 -0.000451999973117
Te 3.27e-08 -2.0335034889 3.2905653343 -2.8282137112e-06 -0.000152723540405 -0.000452771304129
Te -1.7610687715 1.0167534745 3.2905653343 -0.000133697375438 7.94470942509e-05 -0.000459456172901
Te 4.2142177948 -2.4330763371 3.0648181644 7.71331012145e-07 -4.88509641025e-06 0.00103641176999
Te -0 -0 6.8984184266 -2.31399303643e-06 2.8282137112e-06 -0.00212835937285
Te -2.5025201641 -3.4213253229 7.0011809586 -0.00034169963838 0.000194375415061 -0.00171826838472
Te -4.214217762 -0.4565818255 7.0011809586 7.71331012145e-06 -0.00039569280923 -0.00172212503978
Te -1.7116976307 3.8779106085 7.0011809586 0.000347356065803 0.000188976097975 -0.0017208394881
Te 0 -0 -0.3056678892 5.14220674763e-07 -7.71331012145e-07 -0.000594696210364
Te -1.7450577022 -3.8586466787 0.0319239615 0.0017594060387 -0.00101404317063 -0.00118476443465
Te -4.214217762 0.4180608859 0.0319239615 4.62798607287e-06 0.00203811364442 -0.00118013644858
Te 1.7450577022 -3.8586466787 0.0319239615 -0.00176172003174 -0.00102072803941 -0.00118425021398
Te -0 2.4364820614 14.2666965175 1.97974959784e-05 -0.0030971511241 0.00166093277949
Te -2.110055258 -1.2182375707 14.2666965175 0.0026968303288 0.00152980650742 0.00166144700016
Te -4.214217762 2.4330797971 13.889816973 -2.23685993522e-05 1.69692822672e-05 0.00225280077614
Te 2.110055258 -1.2182375707 14.2666965175 -0.00269837299082 0.00155423198947 0.00168124449614
Te 1.6289654423 0.940483506 -13.3353785606 0.00179000216885 0.0010268986875 0.00193166996475
Te 3.27e-08 -1.880963552 -13.3353785606 3.85665506072e-06 -0.00206588156086 0.00193141285441
Te -1.6289653767 0.940483506 -13.3353785606 -0.0017676335695 0.00101867115671 0.00192575642699
Te 4.2142177948 -2.4330763371 -13.9050160836 5.6564274224e-06 -3.59954472334e-06 0.0048311032394
Te 2.5451189742 1.4694252402 10.1845661159 0.0002434834895 0.000158379967827 -0.00224277347298
Te 3.27e-08 -2.9388470204 10.1845661159 -1.25984065317e-05 -0.000290534681241 -0.002244316135
Te -2.5451189087 1.4694252402 10.1845661159 -0.000243997710175 0.000142953347584 -0.00224200214197
Te 4.2142177948 -2.4330763371 10.4868805166 1.64550615924e-05 -1.15699651822e-05 -0.00336994519206
Te -0 0 -7.0683942799 -7.19908944669e-06 4.37087573549e-06 0.00174346519778
Te -1.7385533103 -3.862401992 -7.0133348152 0.00167815917209 -0.000971362854628 0.00150769501841
Te 4.2142178275 0.4255715125 -7.0133348152 4.62798607287e-06 0.00194323992993 0.00149921037727
Te 1.7385533103 -3.862401992 -7.0133348152 -0.00167995894445 -0.000976505061375 0.00149921037727
Te 0 2.9647462968 -3.1831666286 -2.8282137112e-06 -0.000203888497544 -0.00269554477711
Te -2.5675453622 -1.4823696884 -3.1831666286 0.000175349250094 0.00010412968664 -0.00269785877015
Te -4.214217762 2.4330797971 -3.6927469233 2.05688269905e-06 -3.08532404858e-06 -0.00246800212853
Te 2.5675453622 -1.4823696884 -3.1831666286 -0.000169949933009 9.97588109041e-05 -0.00269811588048
Te 0 2.9122481935 -10.2328918481 1.15699651822e-05 0.000193346973711 0.00104283952842
Te -2.5220806925 -1.4561206367 -10.2328918481 -0.000160951071201 -0.000104901017652 0.00104026842505
Te -4.214217762 2.4330797971 -10.5410661882 -1.28555168691e-05 7.45619978407e-06 0.00121844588885
Te 2.5220806925 -1.4561206367 -10.2328918481 0.00016197951255 -9.230261112e-05 0.00102715579784
Sb -0 2.2863174675 8.6777151567 2.8282137112e-06 0.000588525562267 -0.00375406803611
Sb -1.9800090288 -1.1431552737 8.6777151567 -0.000507278695654 -0.000297733770688 -0.00375252537408
Sb -4.214217762 2.4330797971 7.6532448846 -4.88509641025e-06 4.88509641025e-06 -0.00282975637322
Sb 1.9800090288 -1.1431552737 8.6777151567 0.000502136488906 -0.000291820232928 -0.0037574104705
Sb 0 2.4307832283 1.4582564934 -4.62798607287e-06 -0.00158945610569 -0.000563842969878
Sb -2.1051199929 -1.2153881542 1.4582564934 0.0013783685187 0.000798070487233 -0.000565128521565
Sb -4.214217762 2.4330797971 2.3342322341 9.25597214574e-06 -4.62798607287e-06 -0.000783158087664
Sb 2.1051199929 -1.2153881542 1.4582564934 -0.00137862562904 0.000793185390822 -0.000561271866504
Sb 0 -0 -11.1499553567 2.08259373279e-05 -1.46552892308e-05 0.00139456646996
Sb -2.0482218855 -3.6836146707 -12.3788221184 0.00137759718769 -0.000793185390822 0.00164961992464
Sb -4.214217762 0.0679968699 -12.3788221184 -2.64823647503e-05 0.00157042994073 0.00166041855881
Sb -2.1659958437 3.6156212607 -12.3788221184 -0.00137605452567 -0.000760532377975 0.00165913300712
Sb -0 -0 10.7092758838 -9.7701928205e-06 6.68486877192e-06 -0.000687770152496
Sb -2.1653686911 -3.6159799294 12.3599370251 0.00193218418542 -0.00111663019525 0.00200803173495
Sb 4.2142178275 -0.0672726123 12.3599370251 1.56837305803e-05 0.00223763126623 0.00198077803919
Sb 2.1653686911 -3.6159799294 12.3599370251 -0.0019285846407 -0.00113179970515 0.0019836062529
Sb 2.1379791928 1.2343628703 -2.1069774909 0.000999387881402 0.000579783810796 -0.00173960854272
Sb 3.27e-08 -2.4687222805 -2.1069774909 -5.14220674763e-07 -0.00115596807687 -0.001736008998
Sb -2.1379791272 1.2343628703 -2.1069774909 -0.000993474343643 0.00057644137641 -0.00174295097711
Sb 4.2142177948 -2.4330763371 -1.0487151729 6.9419791093e-06 -1.18270755196e-05 -0.00226488496199
Sb 2.0530305767 1.1853177437 -8.8205212775 0.00223814548691 0.00129532187973 0.00224534457635
Sb 3.27e-08 -2.3706320273 -8.8205212775 -2.57110337382e-06 -0.00258447311136 0.00224251636264
Sb -2.0530305113 1.1853177437 -8.8205212775 -0.00224045947994 0.00129275077635 0.00226231385862
Sb 4.2142177948 -2.4330763371 -7.7913771203 3.34243438596e-06 -2.8282137112e-06 0.00329769718726
Cr -4.2142177948 -2.4330763371 14.6022593126 2.57110337382e-05 -1.85119442915e-05 0.00251376776858
61
Lattice="8.42843558953 0 0 -4.21421779477 7.29923593142 0 0 0 31.0334408416" Properties=species:S:1:pos:R:3:forces:R:3 energy=-133599.842129 ionic_step=36 pbc="T T T"
Te 1.7606611118 1.0165180741 3.2927658762 -3.85665506072e-05 -2.8282137112e-05 0.00154446179665
Te 3.27e-08 -2.0330326881 3.2927658762 4.37087573549e-06 4.60227503913e-05 0.00154908978272
Te -1.7606610462 1.0165180741 3.2927658762 3.80523299325e-05 -2.18543786774e-05 0.00154394757598
Te 4.2142177948 -2.4330763371 3.067144265 -4.11376539811e-06 1.02844134953e-06 0.000800641590606
Te -0 -0 6.8943745121 1.79977236167e-06 -8.99886180836e-06 0.000810668893764
Te -2.5037007754 -3.4206436964 6.9995333676 0.000295419777651 -0.000167378829635 0.000622464126801
Te -4.214217762 -0.4579450787 6.9995333676 -3.85665506072e-06 0.000337585872982 0.000623749678488
Te -1.7105170194 3.878592235 6.9995333676 -0.000300819094737 -0.000163522174575 0.000627606333549
Te 0 -0 -0.3051617064 2.57110337382e-06 -0 -0.00246774501819
Te -1.7436124918 -3.8594810717 0.0326686549 -0.000517563109149 0.000297990881025 -0.00174937873554
Te -4.214217762 0.4197296719 0.0326686549 -2.05688269905e-06 -0.000601638189473 -0.00175066428723
Te 1.7436124918 -3.8594810717 0.0326686549 0.000521162653873 0.000302104646423 -0.00174963584588
Te -0 2.4362608729 14.2714199394 1.28555168691e-06 -0.00122924452302 -0.00279761758105
Te -2.1098637033 -1.2181269765 14.2714199394 0.00106212280372 0.000612179713306 -0.00280018868442
Te -4.214217762 2.4330797971 13.8927633691 -1.02844134953e-06 1.28555168691e-06 -0.00259655729722
Te 2.1098637033 -1.2181269765 14.2714199394 -0.00106443679676 0.000614750816679 -0.00280173134645
Te 1.6294442877 0.9407599677 -13.3370265391 3.54812265587e-05 1.97974959784e-05 0.00262663920669
Te 3.27e-08 -1.8815164753 -13.3370265391 4.37087573549e-06 -3.62525575708e-05 0.00262046855859
Te -1.6294442221 0.9407599677 -13.3370265391 -3.00819094737e-05 2.13401580027e-05 0.0026335811858
Te 4.2142177948 -2.4330763371 -13.9056176867 -5.6564274224e-06 1.79977236167e-06 0.00295805443158
Te 2.5450216054 1.4693690243 10.1874732278 -0.000192061422024 -0.000116985203509 0.000474625682806
Te 3.27e-08 -2.9387345886 10.1874732278 1.02844134953e-05 0.000232941965668 0.000471797469095
Te -2.5450215399 1.4693690243 10.1874732278 0.000196689408097 -0.000107729231363 0.000475397013819
Te 4.2142177948 -2.4330763371 10.4915468325 -1.00273031579e-05 1.79977236167e-06 0.000399292353954
Te -0 0 -7.069297785 -1.79977236167e-06 9.7701928205e-06 -0.00019643229776
Te -1.7384253668 -3.8624758602 -7.0138548506 -0.00055870076313 0.00031418883228 0.000211601807665
Te 4.2142178275 0.4257192489 -7.0138548506 -2.57110337382e-07 -0.00063043454726 0.000209030704291
Te 1.7384253668 -3.8624758602 -7.0138548506 0.000555101218407 0.000309817956545 0.000211601807665
Te 0 2.9663354411 -3.1831266129 -1.54266202429e-06 0.000451999973117 -0.00243869155006
Te -2.5689216009 -1.4831642605 -3.1831266129 -0.000392864595519 -0.000224714434872 -0.00243869155006
Te -4.214217762 2.4330797971 -3.6959454969 -1.02844134953e-06 -5.14220674763e-07 -0.0019499247987
Te 2.5689216009 -1.4831642605 -3.1831266129 0.000391064823157 -0.000224971545209 -0.00243509200534
Te 0 2.9104169007 -10.2348330295 5.6564274224e-06 -0.000210059145641 0.00263795206154
Te -2.5204947471 -1.4552049903 -10.2348330295 0.00017380658807 0.000100273031579 0.00263718073052
Te -4.214217762 2.4330797971 -10.5412968888 -4.11376539811e-06 -7.97042045883e-06 0.00207873707773
Te 2.5204947471 -1.4552049903 -10.2348330295 -0.000170721264021 0.000104643907314 0.00262895319973
Sb -0 2.2888938472 8.6733785628 -6.17064809716e-06 -0.000697026124642 0.000910684815006
Sb -1.9822402381 -1.1444434636 8.6733785628 0.000617321920053 0.000348384507152 0.000917626794115
Sb -4.214217762 2.4330797971 7.6480099416 4.88509641025e-06 1.10557445074e-05 0.000795756494196
Sb 1.9822402381 -1.1444434636 8.6733785628 -0.000616036368366 0.000338871424669 0.000917369683778
Sb 0 2.4304106075 1.4588915663 -3.59954472334e-06 0.000908885042644 0.000668486877192
Sb -2.104797294 -1.2152018438 1.4588915663 -0.000788043184075 -0.00045174286278 0.000669772428879
Sb -4.214217762 2.4330797971 2.3342035974 3.34243438596e-06 0 0.00127501016308
Sb 2.104797294 -1.2152018438 1.4588915663 0.000790357177111 -0.000456885069527 0.000664373111794
Sb 0 -0 -11.1502917927 -5.14220674763e-07 1.36268478812e-05 0.00315808627406
Sb -2.0491947413 -3.6830529918 -12.3804035966 0.000211858918002 -0.000134725816788 0.00324833200248
Sb -4.214217762 0.0668735122 -12.3804035966 -2.8282137112e-06 0.000252482351309 0.00323624781662
Sb -2.1650229879 3.6161829396 -12.3804035966 -0.000209030704291 -0.000131897603077 0.0032408758027
Sb -0 -0 10.7105406367 3.59954472334e-06 -1.43981788934e-05 -0.000360468693009
Sb -2.1650405975 -3.6161693544 12.3639512502 0.000327044349149 -0.00018460522224 -0.00236978597965
Sb 4.2142178275 -0.0668937623 12.3639512502 -8.22753079621e-06 0.000371267327179 -0.0023584731248
Sb 2.1650405975 -3.6161693544 12.3639512502 -0.000329358342186 -0.000173549477733 -0.00237415685538
Sb 2.1375602616 1.2341210001 -2.1069653919 -0.000170721264021 -0.000103358355627 -0.00351778363606
Sb 3.27e-08 -2.4682385402 -2.1069653919 4.88509641025e-06 0.000198746290796 -0.00351701230504
Sb -2.137560196 1.2341210001 -2.1069653919 0.000171749705371 -9.84732592172e-05 -0.00351418409133
Sb 4.2142177948 -2.4330763371 -1.0479681416 -5.14220674763e-06 1.28555168691e-06 -0.00291563122591
Sb 2.0525748083 1.1850546056 -8.822151378 -0.000851292327071 -0.000476682565506 0.00121381790278
Sb 3.27e-08 -2.370105751 -8.822151378 -8.99886180836e-06 0.000978304833737 0.00121561767514
Sb -2.0525747429 1.1850546056 -8.822151378 0.000853092099432 -0.000487224089338 0.00121047546839
Sb 4.2142177948 -2.4330763371 -7.7951632586 1.13128548448e-05 -1.00273031579e-05 0.000552530115033
Cr -4.2142177948 -2.4330763371 14.6022503153 -9.25597214574e-06 5.6564274224e-06 -0.00232813410499
61
Lattice="8.42843558953 0 0 -4.21421779477 7.29923593142 0 0 0 31.0334408416" Properties=species:S:1:pos:R:3:forces:R:3 energy=-133599.843174 ionic_step=37 pbc="T T T"
Te 1.7606075711 1.0164871623 3.2944448929 -0.000267651861214 -0.000153237761079 -0.00104026842505
Te 3.27e-08 -2.0329708646 3.2944448929 -7.71331012145e-07 0.000308018184183 -0.0010392399837
Te -1.7606075055 1.0164871623 3.2944448929 0.000267651861214 -0.000154780423104 -0.00103538332864
Te 4.2142177948 -2.4330763371 3.06824078 7.71331012145e-07 -7.71331012145e-07 -0.00126909662532
Te -0 -0 6.8919023638 -1.28555168691e-06 -2.57110337382e-07 0.00338228648826
Te -2.5049606174 -3.4199163259 6.9992037635 0.000333472107584 -0.000191547201349 0.00360931491616
Te -4.214217762 -0.4593998196 6.9992037635 2.57110337382e-07 0.000373581320216 0.0036034013784
Te -1.7092571774 3.8793196055 6.9992037635 -0.000326530128475 -0.000187690546289 0.0036054582611
Te 0 -0 -0.304759969 1.02844134953e-06 -5.14220674763e-07 -0.00147041401949
Te -1.7432175926 -3.859709067 0.0337740958 -6.11922602968e-05 3.49670058839e-05 -0.00205096916129
Te -4.214217762 0.4201856624 0.0337740958 -1.28555168691e-06 -7.01911221052e-05 -0.00204994071994
Te 1.7432175926 -3.859709067 0.0337740958 6.04209292847e-05 3.59954472334e-05 -0.00205045494062
Te -0 2.4368841944 14.2742512078 5.14220674763e-07 -0.000447629097381 -0.00339385645344
Te -2.1104035153 -1.2184386372 14.2742512078 0.000387465278434 0.000224457324534 -0.00339385645344
Te -4.214217762 2.4330797971 13.8928166987 5.14220674763e-07 -2.57110337382e-07 -0.00334037750326
Te 2.1104035153 -1.2184386372 14.2742512078 -0.000386179726747 0.000223943103859 -0.0033915424604
Te 1.6291550573 0.9405929804 -13.3377972963 -0.000118270755196 -7.04482324426e-05 0.00132926044426
Te 3.27e-08 -1.8811825006 -13.3377972963 3.85665506072e-06 0.000138068251174 0.00132694645123
Te -1.6291549917 0.9405929804 -13.3377972963 0.000119299196545 -6.78771290688e-05 0.00133131732696
Te 4.2142177948 -2.4330763371 -13.9044650546 -2.31399303643e-06 5.14220674763e-07 0.00144213188237
Te 2.5452951175 1.4695269366 10.1900190198 -2.57110337382e-05 -4.88509641025e-06 0.000936910069419
Te 3.27e-08 -2.9390504133 10.1900190198 -4.88509641025e-06 2.41683717139e-05 0.000936138738407
Te -2.545295052 1.4695269366 10.1900190198 2.67394750877e-05 -1.02844134953e-05 0.000936910069419
Te 4.2142177948 -2.4330763371 10.4956580166 1.28555168691e-06 -2.8282137112e-06 0.000437858904561
Te -0 0 -7.0701161972 -2.57110337382e-07 5.14220674763e-07 1.4141068556e-05
Te -1.737895435 -3.8627818167 -7.0145210709 0.000164293505587 -9.59021558433e-05 -4.03663229689e-05
Te 4.2142178275 0.4263311618 -7.0145210709 2.05688269905e-06 0.000189233208313 -4.06234333063e-05
Te 1.737895435 -3.8627818167 -7.0145210709 -0.000163265064237 -9.69305971929e-05 -4.01092126315e-05
Te 0 2.9667276929 -3.1830723642 7.71331012145e-07 -0.000246825923886 0.00105209550057
Te -2.5692613007 -1.4833603864 -3.1830723642 0.000215201352388 0.000122127410256 0.00105158127989
Te -4.214217762 2.4330797971 -3.6967113766 -1.28555168691e-06 1.79977236167e-06 0.00103281222526
Te 2.5692613007 -1.4833603864 -3.1830723642 -0.000213401580027 0.000122384520594 0.00105183839023
Te 0 2.9097894323 -10.2367014171 -2.31399303643e-06 -0.000575927155735 7.71331012145e-05
Te -2.5199513438 -1.4548912562 -10.2367014171 0.000496480061484 0.000290277570904 7.68759908771e-05
Te -4.214217762 2.4330797971 -10.5417234991 2.57110337382e-06 -3.08532404858e-06 0.000489280972037
Te 2.5199513438 -1.4548912562 -10.2367014171 -0.000497765613171 0.00028873490888 7.14766737921e-05
Sb -0 2.2899915852 8.6702562626 3.34243438596e-06 -0.000194632525398 0.00354375178013
Sb -1.9831909066 -1.1449923326 8.6702562626 0.000172006815708 9.20455007826e-05 0.00354066645608
Sb -4.214217762 2.4330797971 7.6428418839 -5.6564274224e-06 4.11376539811e-06 0.00377283709074
Sb 1.9831909066 -1.1449923326 8.6702562626 -0.000170978374359 9.5645045506e-05 0.00353860957338
Sb 0 2.4306751537 1.459084191 1.79977236167e-06 -0.000495708730472 -0.00273359710704
Sb -2.1050263976 -1.2153341169 1.459084191 0.000430402704777 0.000246311703212 -0.00273308288637
Sb -4.214217762 2.4330797971 2.3331593805 -2.57110337382e-06 1.28555168691e-06 -0.0020833650638
Sb 2.1050263976 -1.2153341169 1.459084191 -0.000430916925452 0.000248368585911 -0.00273385421738
Sb 0 -0 -11.1517123398 3.59954472334e-06 -7.71331012145e-07 0.000612179713306
Sb -2.0500580314 -3.6825545708 -12.3819147534 0.000292334453603 -0.000169692822672 0.00125649821878
Sb -4.214217762 0.0658766702 -12.3819147534 -3.85665506072e-06 0.00033681454197 0.00126498285992
Sb -2.1641596978 3.6166813606 -12.3819147534 -0.00029259156394 -0.000165321946936 0.00126318308756
Sb -0 -0 10.7118194238 -1.28555168691e-06 1.79977236167e-06 -0.00052630486062
Sb -2.1647035831 -3.6163639299 12.3665373047 0.000158894188502 -9.30739421321e-05 -0.00318302597678
Sb 4.2142178275 -0.0665046114 12.3665373047 -0 0.000181519898191 -0.00317659821835
Sb 2.1647035831 -3.6163639299 12.3665373047 -0.00015709441614 -9.17883904452e-05 -0.00318019776307
Sb 2.1376043579 1.2341464592 -2.1070501718 -0.000315988604642 -0.000180491456842 0.000442744000971
Sb 3.27e-08 -2.4682894582 -2.1070501718 -1.02844134953e-06 0.00036329690672 0.000443001111309
Sb -2.1376042923 1.2341464592 -2.1070501718 0.000315988604642 -0.000181777008529 0.000441715559622
Sb 4.2142177948 -2.4330763371 -1.0473819717 7.71331012145e-07 -1.54266202429e-06 -0.000643032953791
Sb 2.0530499011 1.1853289007 -8.8229584706 3.11103508232e-05 1.77406132793e-05 -0.000590582444966
Sb 3.27e-08 -2.3706543412 -8.8229584706 5.14220674763e-07 -3.54812265587e-05 -0.000589811113953
Sb -2.0530498357 1.1853289007 -8.8229584706 -3.23959025101e-05 1.87690546289e-05 -0.000589039782941
Sb 4.2142177948 -2.4330763371 -7.7981725113 -5.14220674763e-07 2.57110337382e-07 -0.000177663243131
Cr -4.2142177948 -2.4330763371 14.6031926437 -1.54266202429e-06 1.28555168691e-06 -0.00304187240156
61
Lattice="8.42843558953 0 0 -4.21421779477 7.29923593142 0 0 0 31.0334408416" Properties=species:S:1:pos:R:3:forces:R:3 energy=-133599.843918 ionic_step=38 pbc="T T T"
Te 1.7607002683 1.0165406811 3.2960876985 -0.000244769041187 -0.000140125133873 -0.000903999946234
Te 3.27e-08 -2.0330779021 3.2960876985 -1.02844134953e-06 0.000282307150445 -0.000903999946234
Te -1.7607002027 1.0165406811 3.2960876985 0.000245026151525 -0.000140639354548 -0.00090142884286
Te 4.2142177948 -2.4330763371 3.0689569221 5.14220674763e-07 -2.57110337382e-07 -0.0010096722949
Te -0 -0 6.8901107714 -3.08532404858e-06 2.8282137112e-06 0.00203168588599
Te -2.5058331665 -3.4194125592 6.9996585303 5.75927155735e-05 -3.34243438596e-05 0.00230936505036
Te -4.214217762 -0.460407353 6.9996585303 2.57110337382e-06 6.42775843454e-05 0.00230936505036
Te -1.7083846283 3.8798233722 6.9996585303 -5.37360605128e-05 -3.54812265587e-05 0.00230987927104
Te 0 -0 -0.3046146247 1.02844134953e-06 -7.71331012145e-07 -0.00115931051125
Te -1.7433805602 -3.8596149775 0.0349249729 -8.66461836976e-05 5.01365157894e-05 -0.00158302834726
Te -4.214217762 0.4199974836 0.0349249729 -1.02844134953e-06 -9.97588109041e-05 -0.0015812285749
Te 1.7433805602 -3.8596149775 0.0349249729 8.61319630228e-05 5.06507364642e-05 -0.00158148568523
Te -0 2.4375985409 14.276029626 1.02844134953e-06 -0.00100067343309 -0.0012999498658
Te -2.1110221572 -1.2187958105 14.276029626 0.000866976057651 0.000499308275195 -0.00129815009344
Te -4.214217762 2.4330797971 13.8922869575 0 2.57110337382e-07 -0.00126549708059
Te 2.1110221572 -1.2187958105 14.276029626 -0.000866461836976 0.000500336716545 -0.00129815009344
Te 1.6285719816 0.9402563413 -13.3382406065 -0.000284364033144 -0.000168407270985 0.00168612959255
Te 3.27e-08 -1.8805092225 -13.3382406065 2.31399303643e-06 0.000330129673198 0.00168792936491
Te -1.628571916 0.9402563413 -13.3382406065 0.000285135364156 -0.000165836167611 0.0016871580339
Te 4.2142177948 -2.4330763371 -13.902992407 -1.02844134953e-06 1.54266202429e-06 0.00258704421473
Te 2.5456257811 1.4697178455 10.1920480303 0.000162493733225 9.15312801079e-05 0.000175606360432
Te 3.27e-08 -2.939432231 10.1920480303 1.02844134953e-06 -0.000185376553252 0.000175863470769
Te -2.5456257156 1.4697178455 10.1920480303 -0.000160693960864 9.28168317948e-05 0.000176120581106
Te 4.2142177948 -2.4330763371 10.4991884297 -2.8282137112e-06 1.28555168691e-06 -0.000214172911039
Te -0 0 -7.0706884116 -2.8282137112e-06 2.05688269905e-06 -0.000454056855816
Te -1.7372506748 -3.8631540693 -7.0154071128 -0.000166607498623 9.69305971929e-05 -0.000608323058245
Te 4.2142178275 0.427075667 -7.0154071128 1.54266202429e-06 -0.000192575642699 -0.000609351499594
Te 1.7372506748 -3.8631540693 -7.0154071128 0.000166864608961 9.48737144938e-05 -0.000608580168582
Te 0 2.9666749647 -3.1831936273 7.71331012145e-07 -0.000320873701052 0.00118733553803
Te -2.5692156368 -1.4833340223 -3.1831936273 0.00027793627471 0.000158894188502 0.00118759264837
Te -4.214217762 2.4330797971 -3.6964264453 -5.14220674763e-07 1.02844134953e-06 0.00126344019789
Te 2.5692156368 -1.4833340223 -3.1831936273 -0.00027690783336 0.000159408409177 0.00118939242073
Te 0 2.9098494979 -10.2383518632 -2.57110337382e-07 -0.0004340022495 -0.000953365131011
Te -2.5200033621 -1.454921289 -10.2383518632 0.000375638202915 0.000218543786774 -0.000953622241348
Te -4.214217762 2.4330797971 -10.5425791111 1.28555168691e-06 -7.71331012145e-07 -0.000545073915249
Te 2.5200033621 -1.454921289 -10.2383518632 -0.000375638202915 0.00021700112475 -0.000958764448096
Sb -0 2.2895544107 8.668610929 -1.02844134953e-06 0.000330386783535 0.0018357678089
Sb -1.9828123026 -1.1447737454 8.668610929 -0.000284621143481 -0.000165064836599 0.00183859602262
Sb -4.214217762 2.4330797971 7.6382468439 -5.14220674763e-07 1.28555168691e-06 0.00223017506645
Sb 1.9828123026 -1.1447737454 8.668610929 0.000285649584831 -0.000165064836599 0.00184425245004
Sb 0 2.4311606401 1.4594366921 7.71331012145e-07 -0.000450457311093 -0.0022525436658
Sb -2.105446841 -1.2155768601 1.4594366921 0.000389779271471 0.000223943103859 -0.00225280077614
Sb -4.214217762 2.4330797971 2.33236508 -1.02844134953e-06 5.14220674763e-07 -0.00171903971573
Sb 2.105446841 -1.2155768601 1.4594366921 -0.000390036381808 0.000225485765884 -0.00225357210715
Sb 0 -0 -11.1537145483 -0 -7.71331012145e-07 -0.000446343545695
Sb -2.0506897159 -3.6821898674 -12.383285892 0.000149895326693 -8.45893009986e-05 0.000786757632388
Sb -4.214217762 0.0651472634 -12.383285892 -3.34243438596e-06 0.000172521036383 0.000788557404749
Sb -2.1635280133 3.617046064 -12.383285892 -0.00015220931973 -8.25324182995e-05 0.000788043184075
Sb -0 -0 10.7122079352 -1.02844134953e-06 5.14220674763e-07 -0.000467683703697
Sb -2.1644095655 -3.616533681 12.3681365554 0.000154523312766 -8.94743974088e-05 -0.00207847996739
Sb 4.2142178275 -0.066165109 12.3681365554 -1.54266202429e-06 0.000177406132793 -0.00208105107077
Sb 2.1644095655 -3.616533681 12.3681365554 -0.000154009092092 -8.76746250471e-05 -0.00208053685009
Sb 2.1378473355 1.2342867424 -2.107687523 -0.000400320795303 -0.000229342420944 0.000763874812361
Sb 3.27e-08 -2.4685700246 -2.107687523 -1.54266202429e-06 0.000460998834925 0.000764389033036
Sb -2.1378472699 1.2342867424 -2.107687523 0.000400063684966 -0.000230627972631 0.000762846371011
Sb 4.2142177948 -2.4330763371 -1.0468579326 2.57110337382e-07 -7.71331012145e-07 -0.000222143331498
Sb 2.0540228591 1.1858906385 -8.8235039317 -7.63617702023e-05 -4.16518746558e-05 -0.00146732869544
Sb 3.27e-08 -2.3717778169 -8.8235039317 -1.54266202429e-06 8.71604043724e-05 -0.00146732869544
Sb -2.0540227937 1.1858906385 -8.8235039317 7.43048875033e-05 -4.34516470175e-05 -0.00146655736442
Sb 4.2142177948 -2.4330763371 -7.8004111888 5.14220674763e-07 -5.14220674763e-07 -0.000843836127287
Cr -4.2142177948 -2.4330763371 14.6043881479 -2.05688269905e-06 1.54266202429e-06 -0.00121381790278
61
Lattice="8.42843558953 0 0 -4.21421779477 7.29923593142 0 0 0 31.0334408416" Properties=species:S:1:pos:R:3:forces:R:3 energy=-133599.844602 ionic_step=39 pbc="T T T"
Te 1.7608945823 1.0166528684 3.2981807933 7.07053427799e-05 4.11376539811e-05 -0.00106160858305
Te 3.27e-08 -2.0333022768 3.2981807933 7.71331012145e-07 -8.30466389743e-05 -0.00106109436237
Te -1.7608945167 1.0166528684 3.2981807933 -6.91626807557e-05 4.06234333063e-05 -0.00106032303136
Te 4.2142177948 -2.4330763371 3.0699756202 -2.57110337382e-07 -7.71331012145e-07 -0.000969820192604
Te -0 -0 6.8880133986 5.14220674763e-07 -2.05688269905e-06 0.00174243675644
Te -2.5062083648 -3.4191959383 7.0004424443 -0.000176120581106 0.000102844134953 0.00213324446926
Te -4.214217762 -0.4608405949 7.0004424443 -5.14220674763e-07 -0.000208516483617 0.00213607268297
Te -1.70800943 3.8800399931 7.0004424443 0.000178177463805 0.000104386796977 0.00213581557263
Te 0 -0 -0.3047280387 -2.57110337382e-07 2.57110337382e-07 0.000366125120431
Te -1.7437789067 -3.859384992 0.0360778787 8.84459560593e-05 -5.09078468016e-05 0.000169435712334
Te -4.214217762 0.4195375125 0.0360778787 -1.02844134953e-06 0.000102844134953 0.000171749705371
Te 1.7437789067 -3.859384992 0.0360778787 -8.99886180836e-05 -5.01365157894e-05 0.000170464153684
Te -0 2.4380073759 14.2778169989 1.02844134953e-06 -0.00237441396572 -0.00180157213403
Te -2.1113762185 -1.2190002279 14.2778169989 0.00205919669209 0.00118450732432 -0.00180208635471
Te -4.214217762 2.4330797971 13.8925268089 7.71331012145e-07 1.54266202429e-06 -0.00172726724653
Te 2.1113762185 -1.2190002279 14.2778169989 -0.00205868247141 0.00118604998634 -0.00180157213403
Te 1.6279539693 0.9398995316 -13.3388961478 -0.000239112613765 -0.000139610913198 0.00151977920426
Te 3.27e-08 -1.879795603 -13.3388961478 2.31399303643e-06 0.00027587939201 0.00151437988718
Te -1.6279539037 0.9398995316 -13.3388961478 0.000238855503428 -0.000136011368475 0.00152337874899
Te 4.2142177948 -2.4330763371 -13.9017105827 -1.54266202429e-06 -7.71331012145e-07 0.00382863003395
Te 2.545848243 1.4698462839 10.1938659018 0.00036921044448 0.000210316255978 -0.000127012506667
Te 3.27e-08 -2.9396891079 10.1938659018 3.85665506072e-06 -0.000425003387692 -0.00012572695498
Te -2.5458481775 1.4698462839 10.1938659018 -0.000367410672118 0.000213658690364 -0.000125984065317
Te 4.2142177948 -2.4330763371 10.5030185843 -3.08532404858e-06 2.05688269905e-06 -0.000948222924263
Te -0 0 -7.0710809721 2.57110337382e-06 -7.19908944669e-06 -0.000674657525289
Te -1.7366423651 -3.8635052772 -7.0166835287 -0.000251196799622 0.000149895326693 -0.000796784935546
Te 4.2142178275 0.4277780829 -7.0166835287 -2.05688269905e-06 -0.000292334453603 -0.000792928280485
Te 1.7366423651 -3.8635052772 -7.0166835287 0.000248368585911 0.000151695099055 -0.000797042045883
Te 0 2.9665654042 -3.1834768731 5.14220674763e-07 -0.000375381092577 0.00191855733754
Te -2.5691207546 -1.483279242 -3.1834768731 0.00032498746645 0.000186919215276 0.00191624334451
Te -4.214217762 2.4330797971 -3.6958485826 -1.28555168691e-06 7.71331012145e-07 0.00177586110029
Te 2.5691207546 -1.483279242 -3.1834768731 -0.00032498746645 0.000187433435951 0.00191598623417
Te 0 2.9100904461 -10.2400909971 1.02844134953e-06 -0.000382580182024 -0.00186045040129
Te -2.5202120293 -1.455041763 -10.2400909971 0.000331672335222 0.000191290091012 -0.00185376553252
Te -4.214217762 2.4330797971 -10.5441677196 2.57110337382e-06 -2.31399303643e-06 -0.00171312617797
Te 2.5202120293 -1.455041763 -10.2400909971 -0.000330386783535 0.000190261649662 -0.00185376553252
Sb -0 2.2880522491 8.6680206385 -1.79977236167e-06 0.000745105757732 0.00166067566915
Sb -1.9815113931 -1.1440226645 8.6680206385 -0.00064611827784 -0.000372552878866 0.00166144700016
Sb -4.214217762 2.4330797971 7.6337672029 -1.02844134953e-06 2.57110337382e-06 0.0020427416305
Sb 1.9815113931 -1.1440226645 8.6680206385 0.00064611827784 -0.000374609761565 0.00166273255185
Sb 0 2.4315849799 1.4603473043 1.28555168691e-06 -0.000264566537166 -0.00128555168691
Sb -2.1058143298 -1.21578903 1.4603473043 0.000229085310607 0.000131383382402 -0.00128606590758
Sb -4.214217762 2.4330797971 2.3322772805 -1.54266202429e-06 1.28555168691e-06 -0.00138711027017
Sb 2.1058143298 -1.21578903 1.4603473043 -0.00022882820027 0.000132154713414 -0.0012847803559
Sb 0 -0 -11.1561038325 -1.02844134953e-06 2.57110337382e-06 -0.00134160174046
Sb -2.051094098 -3.6819563972 -12.3847225298 0.000273822509311 -0.000159665519514 0.000237055731066
Sb -4.214217762 0.064680323 -12.3847225298 -2.57110337382e-06 0.000319073928691 0.000237569951741
Sb -2.1631236312 3.6172795342 -12.3847225298 -0.000276393612685 -0.000159665519514 0.000236798620728
Sb -0 -0 10.7111898801 -7.71331012145e-07 -1.28555168691e-06 -0.000825324182995
Sb -2.1641834108 -3.6166642516 12.3695584806 0.000518591550499 -0.000297219550013 -0.00304444350494
Sb 4.2142178275 -0.0659039679 12.3695584806 -2.57110337382e-07 0.000598295755087 -0.00304855727033
Sb 2.1641834108 -3.6166642516 12.3695584806 -0.000519105771174 -0.000296962439676 -0.00304778593932
Sb 2.1380803471 1.2344212717 -2.1089661713 -0.000283849812469 -0.000160951071201 0.00218800897112
Sb 3.27e-08 -2.4688390834 -2.1089661713 -1.28555168691e-06 0.000325758797463 0.0021892945228
Sb -2.1380802815 1.2344212717 -2.1089661713 0.000284106922807 -0.000162750843563 0.00218749475044
Sb 4.2142177948 -2.4330763371 -1.0464102852 1.28555168691e-06 -2.05688269905e-06 0.00148764041209
Sb 2.0552812743 1.1866171852 -8.8243514089 -0.000194889635735 -0.000114156989797 -0.00185942195994
Sb 3.27e-08 -2.3732309102 -8.8243514089 2.57110337382e-07 0.000225999986558 -0.00185350842218
Sb -2.0552812089 1.1866171852 -8.8243514089 0.000194375415061 -0.000115185431147 -0.001863278615
Sb 4.2142177948 -2.4330763371 -7.802585139 1.79977236167e-06 -1.54266202429e-06 -0.00106726501047
Cr -4.2142177948 -2.4330763371 14.6057518779 -7.71331012145e-07 -0 -0.00140510799379
61
Lattice="8.42843558953 0 0 -4.21421779477 7.29923593142 0 0 0 31.0334408416" Properties=species:S:1:pos:R:3:forces:R:3 energy=-133599.845203 ionic_step=40 pbc="T T T"
Te 1.7611032542 1.0167733452 3.3004784617 -0.000268680302564 -0.000151695099055 0.000414461863859
Te 3.27e-08 -2.0335432303 3.3004784617 -2.8282137112e-06 0.000306218411822 0.000415490305209
Te -1.7611031886 1.0167733452 3.3004784617 0.000267908971552 -0.000154266202429 0.000411890760485
Te 4.2142177948 -2.4330763371 3.0712912684 1.28555168691e-06 -1.28555168691e-06 -0.00043503069085
Te -0 -0 6.8856004503 -7.71331012145e-07 2.05688269905e-06 -0.000219315117787
Te -2.5061339228 -3.4192389174 7.0018563956 0.0003260159078 -0.00018949031865 -0.000595467541376
Te -4.214217762 -0.4607546367 7.0018563956 5.14220674763e-07 0.00037409554089 -0.000598295755087
Te -1.708083872 3.879997014 7.0018563956 -0.000321387921727 -0.000187433435951 -0.000598552865424
Te 0 -0 -0.3051605406 -2.57110337382e-07 1.02844134953e-06 -0.00278244807114
Te -1.7441499171 -3.8591707889 0.0369504995 -0.000675171745964 0.000389522161133 -0.00320847990019
Te -4.214217762 0.4191091063 0.0369504995 -0 -0.000779815653278 -0.00320590879681
Te 1.7441499171 -3.8591707889 0.0369504995 0.000675428856302 0.000388750830121 -0.00320590879681
Te -0 2.4379659639 14.2793246234 2.8282137112e-06 0.00196200898456 0.00142541971044
Te -2.1113403547 -1.2189795219 14.2793246234 -0.00169692822672 -0.00098293281981 0.00142619104146
Te -4.214217762 2.4330797971 13.8938209416 -2.31399303643e-06 1.28555168691e-06 0.00110917399546
Te 2.1113403547 -1.2189795219 14.2793246234 0.00169718533706 -0.000979847495761 0.0014292763655
Te 1.627548668 0.9396655307 -13.3398750484 -0.000593410658677 -0.000346070514116 -0.000676200187314
Te 3.27e-08 -1.8793276012 -13.3398750484 3.34243438596e-06 0.000686227490472 -0.000676971518326
Te -1.6275486024 0.9396655307 -13.3398750484 0.000599581306774 -0.000345813403778 -0.000677999959675
Te 4.2142177948 -2.4330763371 -13.9009997546 -2.57110337382e-06 1.54266202429e-06 -0.00231142193306
Te 2.5460296434 1.4699510155 10.1951664779 0.000296448219001 0.000172521036383 -0.00159202720907
Te 3.27e-08 -2.9398985711 10.1951664779 -2.05688269905e-06 -0.000342985190067 -0.00159254142974
Te -2.5460295779 1.4699510155 10.1951664779 -0.000298247991363 0.000171235484696 -0.00158457100928
Te 4.2142177948 -2.4330763371 10.5066708186 1.28555168691e-06 -5.14220674763e-07 9.05028387583e-05
Te -0 0 -7.0713421249 -1.28555168691e-06 1.28555168691e-06 0.00182496917473
Te -1.7362613652 -3.8637252477 -7.0181607254 1.05415238326e-05 -6.17064809716e-06 0.00155114666542
Te 4.2142178275 0.4282180239 -7.0181607254 -2.05688269905e-06 9.25597214574e-06 0.00154806134137
Te 1.7362613652 -3.8637252477 -7.0181607254 -9.25597214574e-06 -2.57110337382e-06 0.00154883267239
Te 0 2.9666626574 -3.1838789747 7.71331012145e-07 0.00026713764054 0.00116136739395
Te -2.5692049784 -1.4833278687 -3.1838789747 -0.000230627972631 -0.000133183154764 0.00115982473193
Te -4.214217762 2.4330797971 -3.6953142474 -5.14220674763e-07 1.54266202429e-06 0.00137399764297
Te 2.5692049784 -1.4833278687 -3.1838789747 0.000231142193306 -0.000133183154764 0.00116059606294
Te 0 2.9102673102 -10.2416898507 -2.57110337382e-07 0.000231656413981 0.000624006788825
Te -2.520365198 -1.4551301951 -10.2416898507 -0.000201831614845 -0.000115185431147 0.000623749678488
Te -4.214217762 2.4330797971 -10.5465310389 -3.59954472334e-06 1.79977236167e-06 0.00123310117808
Te 2.520365198 -1.4551301951 -10.2416898507 0.000197203628772 -0.000113128548448 0.000623235457813
Sb -0 2.2858595227 8.668769353 5.39931708501e-06 -0.000285135364156 -0.00229805219552
Sb -1.9796124372 -1.1429263013 8.668769353 0.000247083034224 0.000135754258138 -0.00229239576809
Sb -4.214217762 2.4330797971 7.6303119639 -5.6564274224e-06 1.54266202429e-06 -0.000733021571875
Sb 1.9796124372 -1.1429263013 8.668769353 -0.000251453909959 0.000143210457922 -0.00228673934067
Sb 0 2.4316430467 1.461792156 1.54266202429e-06 0.000479767889554 -0.00261172680712
Sb -2.1058646171 -1.2158180633 1.461792156 -0.000414718974197 -0.000241940827476 -0.00260941281409
Sb -4.214217762 2.4330797971 2.3331779358 -1.02844134953e-06 -1.02844134953e-06 -0.0011451694427
Sb 2.1058646171 -1.2158180633 1.461792156 0.000416004525883 -0.000241169496464 -0.00260915570375
Sb 0 -0 -11.1581206153 5.39931708501e-06 -2.8282137112e-06 0.000173292367395
Sb -2.0511188772 -3.6819420909 -12.386059807 -0.000597781534412 0.000344784962429 -0.000104386796977
Sb -4.214217762 0.0646517105 -12.386059807 -6.17064809716e-06 -0.000696769014304 -0.000100530141916
Sb -2.163098852 3.6172938405 -12.386059807 0.000599838417111 0.000353269603562 -0.000101558583266
Sb 0 -0 10.7089183203 -6.17064809716e-06 5.39931708501e-06 -0.000579526700458
Sb -2.1640428091 -3.6167454281 12.3704151931 -0.00110660289209 0.000638147857381 0.000920197897489
Sb 4.2142178275 -0.065741615 12.3704151931 1.54266202429e-06 -0.00128323769387 0.00091711257344
Sb 2.1640428091 -3.6167454281 12.3704151931 0.00111328776086 0.00064020474008 0.000917883904452
Sb 2.1381135881 1.2344404634 -2.1106343935 -0.000123155851606 -7.25051151416e-05 -0.000753590398866
Sb 3.27e-08 -2.4688774668 -2.1106343935 7.71331012145e-07 0.000142953347584 -0.00075410461954
Sb -2.1381135225 1.2344404634 -2.1106343935 0.000123412961943 -7.14766737921e-05 -0.000756161502239
Sb 4.2142177948 -2.4330763371 -1.0462079552 1.02844134953e-06 -5.14220674763e-07 -0.00202937189295
Sb 2.0564431357 1.1872879865 -8.8256769591 0.000260452771768 0.000143724678596 0.000953365131011
Sb 3.27e-08 -2.3745725129 -8.8256769591 5.39931708501e-06 -0.000297990881025 0.000952850910336
Sb -2.0564430703 1.1872879865 -8.8256769591 -0.000256596116707 0.000147581333657 0.000960564220458
Sb 4.2142177948 -2.4330763371 -7.8042816183 -4.11376539811e-06 2.57110337382e-06 0.00126935373565
Cr -4.2142177948 -2.4330763371 14.6070878449 -1.28555168691e-06 2.57110337382e-07 0.00048413876529
61
Lattice="8.42843558953 0 0 -4.21421779477 7.29923593142 0 0 0 31.0334408416" Properties=species:S:1:pos:R:3:forces:R:3 energy=-133599.845615 ionic_step=41 pbc="T T T"
Te 1.7613425262 1.016911489 3.3023868176 -0.000163779284912 -9.64163765181e-05 0.0008955153051
Te 3.27e-08 -2.033819518 3.3023868176 1.02844134953e-06 0.000190775870337 0.000896029525775
Te -1.7613424606 1.016911489 3.3023868176 0.000165064836599 -9.61592661807e-05 0.000896800856787
Te 4.2142177948 -2.4330763371 3.0726724915 -1.28555168691e-06 2.05688269905e-06 0.000330129673198
Te -0 -0 6.8836122104 2.57110337382e-07 -7.71331012145e-07 0.00129146522467
Te -2.5057869249 -3.4194392568 7.003260718 0.000931510752334 -0.000537360605128 0.000853606320107
Te -4.214217762 -0.4603539578 7.003260718 -1.28555168691e-06 0.00107292143789 0.000854634761457
Te -1.7084308699 3.8797966746 7.003260718 -0.000930482310984 -0.000535303722429 0.000854634761457
Te 0 -0 -0.3055434772 2.57110337382e-07 0 0.000920712118164
Te -1.7443971535 -3.8590280469 0.037335674 -0.000365096679082 0.000210316255978 0.00069034125587
Te -4.214217762 0.4188236223 0.037335674 -1.28555168691e-06 -0.000422175173981 0.000688798593845
Te 1.7443971535 -3.8590280469 0.037335674 0.000364839568745 0.000211858918002 0.000688541483508
Te -0 2.4375513741 14.2805004987 7.71331012145e-07 0.00173369500496 -0.00150306703233
Te -2.1109813095 -1.218772227 14.2805004987 -0.0015007530393 -0.000867490278326 -0.00150332414267
Te -4.214217762 2.4330797971 13.8959890134 1.28555168691e-06 -5.14220674763e-07 -0.00160513983627
Te 2.1109813095 -1.218772227 14.2805004987 0.0014986961566 -0.000865433395627 -0.00150563813571
Te 1.627502324 0.9396387739 -13.3410918806 -0.000314703052955 -0.000187176325614 -0.000960049999783
Te 3.27e-08 -1.8792740877 -13.3410918806 3.59954472334e-06 0.000366125120431 -0.000959278668771
Te -1.6275022584 0.9396387739 -13.3410918806 0.000317017045992 -0.000183833891228 -0.000960049999783
Te 4.2142177948 -2.4330763371 -13.9008700027 -2.8282137112e-06 2.31399303643e-06 -0.00287886444766
Te 2.546223687 1.4700630468 10.1957225473 0.000102329914278 6.11922602968e-05 -0.000427574491066
Te 3.27e-08 -2.9401226335 10.1957225473 -1.79977236167e-06 -0.00011878497587 -0.000427317380728
Te -2.5462236215 1.4700630468 10.1957225473 -0.000106186569339 6.14493706342e-05 -0.000425003387692
Te 4.2142177948 -2.4330763371 10.509348531 -2.57110337382e-07 2.57110337382e-07 0.00125444133608
Te -0 0 -7.0716955571 1.28555168691e-06 -7.71331012145e-07 -0.000808869121403
Te -1.7362873215 -3.8637102618 -7.0195124687 -8.61319630228e-05 5.01365157894e-05 -0.00118373599331
Te 4.2142178275 0.4281880522 -7.0195124687 -4.11376539811e-06 -0.000106186569339 -0.00118604998634
Te 1.7362873215 -3.8637102618 -7.0195124687 8.94743974088e-05 5.60500535492e-05 -0.001185792876
Te 0 2.9668618383 -3.1841555639 -4.11376539811e-06 9.82161488798e-05 0.00209930590472
Te -2.569377474 -1.4834274591 -3.1841555639 -8.63890733602e-05 -4.49943090418e-05 0.00210007723573
Te -4.214217762 2.4330797971 -3.695015923 1.79977236167e-06 -1.79977236167e-06 0.00197255050839
Te 2.569377474 -1.4834274591 -3.1841555639 8.33037493116e-05 -4.80796330904e-05 0.00210136278742
Te 0 2.9101905612 -10.2429562298 -2.57110337382e-06 0.00010901478305 -0.00077184523282
Te -2.5202987315 -1.4550918206 -10.2429562298 -9.51308248312e-05 -5.19362881511e-05 -0.000771588122482
Te -4.214217762 2.4330797971 -10.5490392694 -7.71331012145e-07 2.57110337382e-07 -0.000225485765884
Te 2.5202987315 -1.4550918206 -10.2429562298 9.07599490957e-05 -5.21933984885e-05 -0.000769274129446
Sb -0 2.2841040624 8.6700228548 2.31399303643e-06 -0.000859005637192 0.000162493733225
Sb -1.9780921647 -1.1420485712 8.6700228548 0.000745362868069 0.000427060270391 0.000162236622888
Sb -4.214217762 2.4330797971 7.6287911423 -6.42775843454e-06 4.11376539811e-06 0.00135779969171
Sb 1.9780921647 -1.1420485712 8.6700228548 -0.000747162640431 0.000431431146126 0.000166864608961
Sb 0 2.4312689537 1.46340687 -2.57110337382e-07 0.000250682578947 -0.000142439126909
Sb -2.1055406432 -1.2156310168 1.46340687 -0.000218286676437 -0.000124184292955 -0.000142182016572
Sb -4.214217762 2.4330797971 2.3346413613 -2.31399303643e-06 7.71331012145e-07 0.00027690783336
Sb 2.1055406432 -1.2156310168 1.46340687 0.000216229793738 -0.000123670072281 -0.00014141068556
Sb 0 -0 -11.159184447 4.62798607287e-06 -3.59954472334e-06 -0.000103872576302
Sb -2.0507781923 -3.6821387855 -12.3870645519 -0.000192832753036 0.000112614327773 0.000129840720378
Sb -4.214217762 0.0650450996 -12.3870645519 -3.59954472334e-06 -0.000222143331498 0.000131640492739
Sb -2.1634395369 3.6170971459 -12.3870645519 0.00019051876 0.000114156989797 0.000131897603077
Sb 0 -0 10.7064213033 -1.54266202429e-06 7.71331012145e-07 -0.000443001111309
Sb -2.1640334509 -3.616750831 12.3709994257 -0.00114182700831 0.000659745125721 -0.00104566774213
Sb 4.2142178275 -0.065730809 12.3709994257 -7.71331012145e-07 -0.00132257557549 -0.00104386796977
Sb 2.1640334509 -3.616750831 12.3709994257 0.00114439811169 0.000662316229095 -0.00104412508011
Sb 2.1378982845 1.2343161578 -2.1119966905 -0.000112614327773 -7.12195634547e-05 0.0019602092122
Sb 3.27e-08 -2.4686288555 -2.1119966905 3.85665506072e-06 0.000132926044426 0.00195969499152
Sb -2.1378982189 1.2343161578 -2.1119966905 0.00011492832081 -6.83913497435e-05 0.00195686677781
Sb 4.2142177948 -2.4330763371 -1.0464066758 -2.57110337382e-06 2.05688269905e-06 0.00126601130127
Sb 2.0570353437 1.1876298981 -8.8272248341 0.000334243438596 0.000183062560216 -0.00199491910774
Sb 3.27e-08 -2.3752563361 -8.8272248341 7.71331012145e-06 -0.000380780409662 -0.00199491910774
Sb -2.0570352783 1.1876298981 -8.8272248341 -0.000331672335222 0.000190775870337 -0.00199826154213
Sb 4.2142177948 -2.4330763371 -7.8055340864 -8.48464113359e-06 5.6564274224e-06 -0.00180260057538
Cr -4.2142177948 -2.4330763371 14.6081676774 0 2.57110337382e-07 -0.002117046518
