81
Properties=species:S:1:pos:R:3:forces:R:3 energy=-265.54545478909785 mlff_rel_energy_eV=0.0 mlff_fmax_eV_A=2.226295586144658 calculator_label=/data/pclancy3/yi/flare-data/1-Cr-Sb2Te3/3.fine-tuning/2-layer/MACE-omat/MACE-matpes-pbe-omat-ft.model neb_image=0 neb_protocol=mlff_pre_neb pbc="F F F"
Te      12.86856328       7.42044060      15.00509914      -1.00645360      -0.77877552       0.86280882
Te       2.17570653       3.71938128      15.00880266      -0.61769491       0.03483171       0.44726027
Te       0.03978372       7.42353160      15.00880273      -0.98395344      -0.86535470       1.08337030
Te      15.00363625       3.71890320      15.00338770      -1.22256595      -0.52837597       0.98158768
Te       0.04250945       2.48065964      22.28089373       0.77994527       0.57617751      -0.04709959
Te       2.17938276       6.18939014      22.29774676       0.19579799      -0.85716250      -0.17920085
Te       4.32757615       2.49541972      22.29541139       0.09190683      -0.94316919       0.01679563
Te      -2.10088715       6.19777937      22.28089882       0.61110239      -0.33240526       0.46158924
Te       2.14536549       1.23709938      25.13804722      -0.42039826      -1.14589575       0.12489216
Te       4.32607272       4.97799667      25.10183280       0.00295698      -0.23007710      -0.21326901
Te       6.47544300       1.25053035      25.10182796      -0.00232986      -0.87550573       0.14056332
Te      -0.07342990       4.89031438      25.01314141      -0.86783067      -0.50463424      -0.37923779
Te       2.17938258       1.25670208      18.63424776      -0.07052389      -0.40320858      -0.14232196
Te       4.31759469       4.95718874      18.64657199       0.10542130      -0.50381484      -0.26142874
Te       6.45319474       1.25359939      18.64657287      -0.05436664      -1.18495105       0.60011594
Te       0.03901240       4.95518747      18.64602683      -1.12431914      -0.33776952      -0.89400963
Te      -0.23291173      -0.13430831      32.62232890       1.01339031       0.79488972      -0.74496594
Te       2.29345048       3.75423664      32.49367937       0.33487587      -0.87201654      -0.13996377
Te       4.39809997       0.10428502      32.49369490       0.05005827       0.68008087      -0.52870460
Te      -2.05494772       3.74773001      32.45099361       1.07329029       0.31372871      -0.77654344
Te       0.12318807       2.49679530      28.85908857      -0.78538538      -0.34743065      -0.76825001
Te       2.16094897       6.17872299      28.74922707       0.24804089      -0.67017283       0.26757033
Te       4.32857022       2.49598109      28.43632077      -0.00424092      -0.79587856      -0.83105350
Te      -2.04649423       6.25950727      28.85909115       0.37360276      -1.56953825      -0.69807118
Sb       0.04106618       2.48909232      16.69708925       1.00747211       1.09421233       0.62530075
Sb       2.18381947       6.19195420      16.70138757       0.08552714       0.34437271      -0.79026118
Sb       4.31890424       2.49042520      16.70511992      -0.19513720       0.47410013       0.57441850
Sb      -2.09431965       6.19231718      16.69709220       2.02699422       0.25988273      -0.47680769
Sb       0.02392602       0.01380410      26.93379255       0.78132639       1.04474755      -0.05796291
Sb       2.12965251       3.75264102      26.74046673      -0.13331200       1.46569693       0.19994929
Sb       4.31465580      -0.03664694      26.74045329      -0.12718836       0.81121830      -0.34096626
Sb       6.55733603       3.78117819      26.74726464      -0.03065947       1.47244121      -0.22221760
Sb      12.87967106       7.42683885      20.57756060      -1.10164315      -1.25923991       0.37781951
Sb       2.18287749       3.72480460      20.59382135      -1.00929330       0.38888186       1.33233144
Sb       4.31723756       0.02336607      20.59382145       0.05201587       1.32338710      -0.19908275
Sb      15.01135482       3.72334469      20.58213873      -0.81259741      -0.67204318      -0.74217287
Sb       2.20982194       1.27421432      30.87381572      -1.25135849      -0.90879448       1.19185242
Sb       4.30728585       5.13774986      30.67923873      -0.01593140       1.62946692      -0.88955382
Sb       6.60438199       1.15403995      30.67915274       0.76707361      -0.81024602       0.68055355
Sb       0.05677472       4.96542143      30.74268394      -1.48233307       0.01097209      -0.08981091
Te       4.31105776       7.41859062      15.00760953       0.03664095      -0.50628780       0.55529617
Te      10.72369440       3.71472781      15.00510247      -0.18388254       0.35101711       0.42988243
Te       8.58689541       7.42039990      15.00510330       0.01916893      -0.57912905       0.75493292
Te       6.44985213       3.71919892      15.00635595       0.10578543       0.38711353       0.20752221
Te       8.60690465       2.49858553      22.29366309       0.04327046      -0.88518018       0.26567688
Te      10.75956861       6.20431416      22.29154511       1.09374885       0.40850837      -0.66898333
Te      12.88179789       2.49537077      22.29047688       0.70503775      -0.37975119       0.12404343
Te       6.47397899       6.19753595      22.29366391      -0.00025334      -1.04996968      -0.18660125
Te      10.74399815       1.26265072      25.14747002      -0.14916250      -0.96959911       0.30058356
Te      12.90745827       4.96299857      25.21152471      -0.98032021      -0.66811261       0.30319656
Te      15.03033853       1.28145431      25.21153166      -1.42599653      -0.69048688       0.96632807
Te       8.68690342       5.00915189      25.08528280      -0.11908555      -0.37622608       0.16611767
Te      10.72805189       1.25345347      18.64661201      -0.06062419      -1.03945934       0.78570948
Te      12.86867103       4.95238549      18.63270567       0.81912215       0.03265375       0.77056652
Te      15.00172462       1.25321487      18.63270885      -0.42844508       0.26979259       1.31232894
Te       8.59603645       4.95675535      18.64131190      -0.00009262      -0.64536517       0.04693694
Te       8.71160667       0.09094047      32.56095510      -0.25615792       0.48592884      -0.60762266
Te      10.72049749       3.69724794      32.44138343       0.74557088      -0.07974200      -0.29895721
Te      12.83931673       0.02274290      32.44139002       0.99355218       0.74702721      -0.99582115
Te       6.45572632       3.72285662      32.53345560      -0.27488979      -0.64013831      -0.18188662
Te       8.57679401       2.49955253      28.77783128       0.02714179      -0.28556787       0.08667565
Te      10.74509720       6.19596916      28.81336305       0.69142502      -0.84678537       0.88272988
Te      12.87203974       2.48974572      28.79531481       1.16158206      -0.36327973       0.57535484
Te       6.45973423       6.17100605      28.77781427       0.05442373      -0.61082161       0.19034287
Sb       8.59400418       2.48998892      16.69835083       0.06514987       0.88390477       0.02101838
Sb      10.73484951       6.19006757      16.69747199       0.41975111       0.96972943      -1.95954736
Sb      12.87293802       2.49027158      16.69824957       1.44841782       0.84995437      -1.04965344
Sb       6.46007385       6.19068997      16.69835300      -0.02453058       0.46330346      -1.23236703
Sb       8.60965363       0.03191678      26.79416062       0.00551537       0.78844242      -0.41340800
Sb      10.77447972       3.72796937      26.86527966       0.65380599       1.84198574      -0.89033610
Sb      12.89294306       0.05405765      26.86528718       1.01906163       1.34658510      -1.10147711
Sb      -2.06420132       3.74239700      26.91724023       1.25204621       1.56178233       0.80665842
Sb       8.59612790       0.02411594      20.59958103       0.03458672       1.21837786      -0.19544399
Sb      10.73844136       3.72691081      20.59355254      -0.07252727       0.60392814      -0.39229307
Sb      12.87399069       0.02340475      20.59355336       0.23861869       1.18701476      -0.65593989
Sb       6.46156999       3.72594995      20.59471012      -0.05169421       1.36723507       0.41358169
Sb      10.74186598       1.26142934      30.78363902      -0.02168993      -0.40351766       0.66912185
Sb      12.85007036       4.99515635      30.81935969      -1.58644936      -0.20973591      -0.84782959
Sb      15.02942498       1.21568708      30.81935666      -1.93999925      -0.23374854       0.36017928
Sb       8.50848203       4.90627584      30.78969775      -0.03608670       0.70877873      -1.01886003
Cr       4.48550358       2.58631216      30.87161334      -0.30281803      -0.33278753       2.14642007
81
Properties=species:S:1:pos:R:3:forces:R:3 energy=-280.8454116033575 mlff_rel_energy_eV=-15.299956814259644 mlff_fmax_eV_A=0.1074959239699964 calculator_label=/data/pclancy3/yi/flare-data/1-Cr-Sb2Te3/3.fine-tuning/2-layer/MACE-omat/MACE-matpes-pbe-omat-ft.model neb_image=1 neb_protocol=mlff_pre_neb pbc="F F F"
Te      13.07595304       6.90896727      15.12745286       0.01376042      -0.02718937       0.01135602
Te       2.24447070       3.83134957      15.59782503       0.00678649       0.00709402       0.02585208
Te       0.20379321       7.29913231      15.17180227       0.00931555      -0.00558048       0.00672087
Te      14.53070784       4.53891982      15.04774153      -0.02833427       0.04623455       0.00100524
Te       0.11430837       2.45026859      22.79798735       0.00230835       0.00172733       0.02647553
Te       2.44438038       6.07875374      22.73167406       0.01699669      -0.00754200       0.02137363
Te       4.36920775       2.31111837      22.64000612       0.00130409      -0.01266321       0.01587949
Te      -2.14790581       6.48279072      23.75276994      -0.00517855       0.00557881       0.06274923
Te       2.05394337       0.97817744      25.13316946      -0.00690669      -0.01238531      -0.00354853
Te       4.09349137       5.14328174      24.90400103      -0.01205200       0.00750875      -0.01311843
Te       6.60398359       1.04189827      25.19795485       0.01337874      -0.00803126       0.00378963
Te      -0.30877854       4.68801218      24.53732786      -0.01354841      -0.01014767      -0.02779503
Te       2.21945695       1.11175096      19.06262717       0.00376620      -0.00833450       0.01572635
Te       4.42227874       4.94935390      19.12852915       0.00615712      -0.00294939       0.02346782
Te       6.52050399       0.70637170      19.01851570       0.00350490      -0.03114025       0.01838371
Te       0.03680196       5.33561197      19.20801638      -0.00493644       0.01388162       0.02396741
Te      -0.22121144      -0.48431628      32.58823435       0.00381960      -0.01456818       0.00053301
Te       1.75615841       3.35893893      32.10624591      -0.02063819      -0.02027529      -0.01632055
Te       4.30332545       0.51423474      32.06038170      -0.00238419       0.01829995      -0.02168697
Te      -2.74029225       4.13738607      31.89312261      -0.02466385       0.01651232      -0.01776793
Te      -0.26582371       2.31578065      28.52771672      -0.01898430      -0.00953466      -0.01703058
Te       2.11221299       6.35381345      28.54913256       0.00078954       0.00938754      -0.00944223
Te       4.16509006       2.56160992      28.47248145      -0.00794596       0.00173734       0.00060457
Te      -1.80525030       6.13997547      27.98814882       0.01309562      -0.00502704      -0.03633938
Sb      -0.08218431       3.31607212      17.22426447      -0.00667803       0.04322672       0.01719390
Sb       2.49730321       6.48802877      16.74229965       0.01612549       0.01537501       0.00063161
Sb       4.25511415       2.63703887      17.45653851      -0.00232893       0.00754026       0.03635371
Sb      -1.50448040       5.81346247      16.77210793       0.03171832      -0.02493845      -0.00473550
Sb       0.80545967      -0.24268771      27.40216947       0.04267458      -0.01291382       0.02299349
Sb       2.13969050       4.05165217      26.79543331       0.00250868       0.01830731       0.00345297
Sb       3.66844785      -0.05512349      27.28496851      -0.03776066      -0.00127538       0.02627987
Sb       6.47419537       3.83886207      26.45267402      -0.00341266       0.00448300      -0.01728548
Sb      12.05712599       7.26404229      19.94447743      -0.02955685      -0.00398043      -0.02066098
Sb       2.14356413       3.73112451      21.12011746      -0.00300784       0.00070418       0.02607896
Sb       4.25277635       0.14956420      20.78751088      -0.00570944       0.00589216       0.00581670
Sb      15.06442587       3.48815674      20.72394041      -0.00345410      -0.01364510       0.00733234
Sb       1.41413758       0.74524115      30.98416977      -0.04152409      -0.02545950       0.00728939
Sb       4.17098289       5.66321811      30.30875364      -0.00476981       0.02625692      -0.01852244
Sb       6.77562281       1.02952160      30.49476363       0.00673232      -0.00365462      -0.00738524
Sb      -0.68769172       4.72294712      30.38409909      -0.03248299      -0.01718194      -0.01184068
Te       4.51730701       7.28773584      14.93962177       0.01027602      -0.00230008      -0.00183635
Te      10.66925858       3.70446343      15.38639013      -0.00320797      -0.01551713       0.01138699
Te       8.76115589       7.41966654      15.20250671       0.00423982       0.02033254       0.02235127
Te       6.51555237       3.78791812      15.40319591       0.00712859       0.00998656       0.01572185
Te       8.87588213       2.26054872      22.55279937       0.01465151      -0.01295981       0.01185171
Te      10.92403857       6.12913750      22.28662592       0.01035869      -0.00328558      -0.00055584
Te      13.10015597       2.26063905      22.50185144       0.00567986      -0.01333166       0.00990414
Te       6.70052039       5.99577695      22.53880028       0.01362931      -0.01300808       0.01262633
Te      10.97376685       0.94855362      25.44294539       0.01244611      -0.02564580       0.04679007
Te      12.62496534       5.27773613      24.49438511      -0.01925582       0.02102310      -0.03556093
Te      14.98312946       0.96463791      25.51935638      -0.01832298      -0.00171962       0.04006152
Te       8.48388762       5.13474222      24.78641171      -0.01117495       0.00925497      -0.01657378
Te      10.93555389       0.86173857      18.84793762       0.01034586      -0.02029074       0.00846401
Te      13.28170041       4.84020689      18.86691712       0.02084609      -0.00237211       0.01242796
Te      15.23859274       1.17191935      19.09754158       0.01391863      -0.00786260       0.02953071
Te       8.70503017       4.84305676      18.99856948       0.00466508      -0.00846208       0.01471744
Te       8.98495298      -0.08509775      31.89315681       0.01253685      -0.01105814      -0.03600822
Te      10.79042042       3.62020993      31.89407073       0.00527529      -0.00623322      -0.03098667
Te      13.09049688       0.10708964      31.62008692       0.01429727       0.01142693      -0.05028089
Te       6.61300360       3.42495567      32.05327182       0.00926099      -0.01460682      -0.02014216
Te       8.58570005       2.78509595      28.45331452      -0.00068251       0.01975762      -0.01613960
Te      10.64651767       6.32652145      28.43891814      -0.00776845       0.01061561      -0.01597399
Te      13.36374495       3.24923259      28.29289284       0.03876829       0.05001645      -0.03855030
Te       6.30636831       6.24768570      28.52881193      -0.00673198       0.00534356      -0.01087964
Sb       8.55041632       2.66552707      17.11261209      -0.00666714       0.00772111       0.01832117
Sb      10.82032107       6.31374270      16.81940885      -0.00022289      -0.00511384      -0.00282866
Sb      13.04861900       2.72791639      16.62838785       0.01106231       0.01438382      -0.00072285
Sb       6.56746258       6.32970569      16.70413939       0.00454486       0.01106126       0.00060308
Sb       8.65949099       0.19784100      26.87517063      -0.00577678       0.00669325       0.01942301
Sb      10.82722822       4.09350096      26.39046367       0.00245337       0.02593521      -0.01891172
Sb      13.19609546      -0.35349143      26.99014268       0.01649347      -0.03906425       0.00771513
Sb      -2.06126339       3.75495659      26.66581871       0.00184299       0.00737424      -0.00862378
Sb       8.79680423       0.07496477      20.70134464       0.01096762       0.00289761       0.00338180
Sb      10.86528039       3.53046113      20.69721806       0.00441343      -0.00977003       0.00169425
Sb      13.09360551       0.04311240      20.61894804       0.00878248       0.00085869       0.00049848
Sb       6.54504148       3.68991692      20.96352982       0.00431842      -0.00421182       0.02031239
Sb      10.84538208       1.26685460      30.25703940       0.00168278      -0.00212036      -0.02865753
Sb      12.54864430       5.15508657      30.24089567      -0.01729793       0.00686049      -0.03281934
Sb      14.54682865       0.87517282      29.39197239      -0.03610127      -0.02790854      -0.09733029
Sb       8.42196217       5.15581514      30.27993006      -0.00645066       0.01419556      -0.02363096
Cr       4.14230147       3.02551324      31.10371290      -0.01370907       0.01977378       0.01140262
81
Properties=species:S:1:pos:R:3:forces:R:3 energy=-281.99567176275775 mlff_rel_energy_eV=-16.450216973659906 mlff_fmax_eV_A=0.07527989660748466 calculator_label=/data/pclancy3/yi/flare-data/1-Cr-Sb2Te3/3.fine-tuning/2-layer/MACE-omat/MACE-matpes-pbe-omat-ft.model neb_image=2 neb_protocol=mlff_pre_neb pbc="F F F"
Te      12.85246046       6.27836753      14.40981348       0.00231902      -0.00912395      -0.00415468
Te       2.16661331       3.57232040      16.10562735       0.00122089      -0.00226848      -0.00027744
Te       0.21986941       7.01007037      15.27940887       0.00065740      -0.00243362      -0.00343424
Te      14.61971161       4.29108015      15.14859501       0.00357206      -0.00894983       0.00539871
Te       0.14194940       2.62895613      22.87464426      -0.00035184      -0.00258156       0.00360242
Te       2.41239540       6.45810717      22.80898744      -0.00168329       0.00177464      -0.00010289
Te       4.51277357       2.75504270      22.97948571      -0.00005163      -0.00038143       0.00232811
Te      -0.89430308       7.53668215      26.14912371       0.03631108       0.02290173       0.06183914
Te       2.10066013       1.03358883      24.94300426      -0.00128687      -0.00131570       0.00081955
Te       3.96250202       5.67762524      25.03141823      -0.00182159       0.00139558      -0.00103819
Te       6.69416552       0.98109271      25.16017943       0.00116217      -0.00034047       0.00142972
Te      -0.36825336       4.95546174      24.52158371      -0.00182540       0.00047443       0.00023372
Te       2.26966471       1.14112562      19.71517176      -0.00183388      -0.00001040       0.00305060
Te       4.55311483       5.01416948      19.31714488      -0.00166372       0.00034685       0.00259492
Te       6.58324723       0.68061787      19.55988092      -0.00050002      -0.00096680       0.00223443
Te       0.13572897       5.62385862      19.53196425       0.00352422       0.00178106      -0.00018161
Te      -0.39168851      -0.98277357      31.99430279       0.00032544      -0.01109972      -0.00347110
Te       1.46334207       3.00217475      31.91260432      -0.00507523      -0.00653366      -0.00009643
Te       4.12544460       0.45305507      31.74481294      -0.00167976      -0.00002410      -0.00473938
Te      -2.81811651       4.38242441      31.38393902       0.00118720       0.01800868      -0.01157040
Te      -0.40594847       2.16808534      28.16866698      -0.00333049      -0.00498472      -0.00177462
Te       1.76031306       6.33260808      28.45334988      -0.00645671      -0.00098107      -0.00307878
Te       4.03735385       2.60194756      28.30348011      -0.00209942       0.00149942      -0.00110817
Te      -2.37837012       6.03487202      27.85331753      -0.01285689      -0.00381215      -0.00237736
Sb      -0.11748945       3.35289235      17.85209587       0.00195028      -0.00029678       0.00148541
Sb       2.53752470       6.34966481      16.86701237       0.00158093      -0.00021662      -0.00451900
Sb       4.28339969       2.52721568      17.92646718      -0.00070043      -0.00003824       0.00289221
Sb      -1.48433561       5.79804150      17.09877959       0.00192644      -0.00057919       0.00003047
Sb       0.92208707      -0.39561578      27.14640967       0.00393634      -0.00534517       0.00217990
Sb       1.97918911       4.10100082      26.52485642      -0.00401446      -0.00278066      -0.00519796
Sb       3.76913172      -0.02067834      27.07566454       0.00302694       0.00073772      -0.00067477
Sb       6.28771635       3.86282727      26.33051793      -0.00194509       0.00077093       0.00035434
Sb      13.33451295       7.02192940      20.96278035       0.03423109      -0.01254320       0.02891972
Sb       2.26269811       3.96171620      21.34229375      -0.00091147      -0.00091523       0.00312122
Sb       4.36277162       0.35022222      21.46839389      -0.00026992      -0.00083863       0.00134897
Sb      14.91790323       4.61821104      20.83591482      -0.00788665       0.02112012       0.00764567
Sb       1.27112683       0.41293226      30.56691814      -0.00115820      -0.00763434      -0.00296765
Sb       3.88183152       5.64687904      30.16995210      -0.00601751       0.00057098      -0.00227795
Sb       6.66114797       0.94098648      30.21229310      -0.00041236      -0.00021596      -0.00605762
Sb      -0.49331715       4.45050892      30.14888082       0.00945314      -0.00387266      -0.00299302
Te       4.40748265       6.86144501      14.82025299       0.00031534      -0.00165053      -0.00679611
Te      10.52174279       3.18306689      15.32051745      -0.00191567      -0.00613356      -0.00198409
Te       8.55030741       6.90556284      14.65032453      -0.00150835      -0.00166277      -0.00652873
Te       6.37616411       3.37705827      15.65673329      -0.00370109      -0.00201954       0.00026524
Te       9.03812404       2.50920302      22.77376192      -0.00132384       0.00186233       0.00187602
Te      11.12079878       6.26108912      22.53348940       0.00224638       0.00007311       0.00548718
Te      13.49982136       2.69807635      22.46527708      -0.00053429       0.00572527       0.00163161
Te       6.97459796       6.26726685      22.47689063      -0.00050120       0.00257582      -0.00025740
Te      11.00735044       0.69359273      25.53476501       0.00115000       0.00051869       0.00162782
Te      12.68803536       5.50181002      24.75319076       0.00092029       0.00768696       0.00565791
Te      14.94399432       0.76214924      25.62281937       0.00028662       0.00356002       0.00462734
Te       8.30911326       5.51080482      24.90606406      -0.00245669       0.00353404       0.00016487
Te      11.10629592       0.96026068      19.18054309      -0.00222260       0.00088058       0.00363361
Te      13.04100601       4.97857654      18.70078290      -0.00574381      -0.00275129      -0.00292184
Te      15.45341037       1.62875031      18.65250241      -0.00217266       0.00056319      -0.00628627
Te       8.77138633       4.81439144      18.97376564      -0.00220019       0.00209970      -0.00114007
Te       8.91990316      -0.17344998      31.52282983       0.00076866      -0.00161286      -0.00950632
Te      10.65918267       3.56725088      31.57841008      -0.00163381       0.00012290      -0.00538564
Te      13.03962189       0.18927397      31.28653265       0.00190800       0.00319027      -0.00766041
Te       6.45743305       3.30310819      31.82168442      -0.00197612      -0.00171548      -0.00380824
Te       8.40164235       2.83244745      28.24722835      -0.00132050       0.00296259      -0.00165516
Te      10.43693533       6.28566686      28.18753843      -0.00348201       0.00296417      -0.00219137
Te      13.31332072       3.31119140      27.93149228       0.00269276       0.00680942      -0.00545978
Te       6.02720846       6.21823161      28.38161204      -0.00499545       0.00088185      -0.00088884
Sb       8.58362895       2.45578212      17.31477771      -0.00137629       0.00058989      -0.00011062
Sb      10.66216311       5.86897246      16.23342803      -0.00224199      -0.00665857      -0.00824033
Sb      13.18628621       2.55660144      16.92206283       0.00299675      -0.00904569       0.00737261
Sb       6.56231121       6.08918925      16.52622638      -0.00075915       0.00032566      -0.00448061
Sb       8.63799364       0.05413652      26.92415068       0.00120579       0.00020979       0.00188598
Sb      10.68742247       4.08934881      26.24241690      -0.00080206       0.00316099       0.00086078
Sb      13.11548961      -0.81179846      26.87578843      -0.00142249      -0.00694000      -0.00625436
Sb      -2.18326874       3.63345283      26.36006135      -0.00196200      -0.00687315      -0.00286992
Sb       8.99625598       0.19801495      21.11517797      -0.00099977       0.00066229       0.00401485
Sb      10.97547711       3.67622542      20.73886068      -0.00226380       0.00189215      -0.00104199
Sb      13.74544863       0.55292480      20.55040464       0.00406955       0.00674024       0.00124311
Sb       6.71901330       3.80450978      21.09837673      -0.00089706       0.00093543       0.00129803
Sb      10.79555537       1.21721088      29.92829085       0.00207447       0.00063608      -0.00632717
Sb      12.40518655       5.13754068      29.95791369      -0.00250612       0.00302422      -0.00288033
Sb      14.46659375       0.80750075      28.89428331      -0.00097615       0.00004002      -0.01397510
Sb       8.22350363       5.10459041      30.11186809      -0.00379201       0.00149665      -0.00138344
Cr       3.93674814       3.01474987      30.94943123      -0.00349929       0.00104130      -0.00102884
81
Properties=species:S:1:pos:R:3:forces:R:3 energy=-282.0548075883447 mlff_rel_energy_eV=-16.50935279924687 mlff_fmax_eV_A=0.10182072468373213 calculator_label=/data/pclancy3/yi/flare-data/1-Cr-Sb2Te3/3.fine-tuning/2-layer/MACE-omat/MACE-matpes-pbe-omat-ft.model neb_image=3 neb_protocol=mlff_pre_neb pbc="F F F"
Te      12.96126510       6.60711378      14.85879282       0.00651104       0.01002749       0.01938667
Te       2.24164824       3.66109718      16.04897737       0.00408191       0.00023359      -0.00132712
Te       0.33274598       7.13254940      15.28293032       0.00486982      -0.00012470      -0.00631060
Te      14.54447692       4.33923051      15.08019782      -0.00517377      -0.00266542      -0.00383885
Te       0.09600089       2.75775352      22.89911101      -0.00165413       0.01065428       0.00094294
Te       2.57648330       6.43935678      22.79446530       0.00375849       0.00648472       0.00662728
Te       4.47099943       2.67560834      22.98900764      -0.00136887       0.00394966       0.00432434
Te      -3.63870028       6.59341062      25.41943146      -0.09116689      -0.04208346      -0.01688311
Te       2.06242572       0.98641322      24.97473075      -0.00128261       0.00107116       0.00004089
Te       3.99437955       5.62377738      25.08021688       0.00051211       0.00644359       0.00720774
Te       6.74243265       0.92316504      25.12961932       0.00297039      -0.00256535      -0.00279359
Te      -0.17124735       4.96066345      24.54467746       0.00236731       0.00586705       0.00291407
Te       2.24184875       1.17998815      19.66956760      -0.00429072       0.00931140       0.00401897
Te       4.57656475       4.98356926      19.34183707       0.00137620       0.00190035       0.00224041
Te       6.58105433       0.67875699      19.53235720      -0.00129122       0.00058094       0.00464121
Te       0.18671078       5.63026327      19.50785676       0.00402900       0.00441394      -0.00349189
Te      -1.33344937       0.56171909      31.91670470      -0.02215150       0.03702224      -0.00587251
Te       1.84599505       3.14421211      32.06465809       0.01278130       0.00133753       0.00348571
Te       4.42809273       0.33697901      31.75961316       0.01315603      -0.00776011      -0.00213350
Te      -2.54151883       3.01839128      31.61374540       0.00568610      -0.03223225       0.00331455
Te      -0.17537405       2.32681758      28.30648057       0.00796051       0.00397254       0.00318048
Te       1.80639263       6.11997230      28.60520903       0.00250151      -0.00566804       0.00626409
Te       4.16123352       2.48833823      28.25664627       0.00351750      -0.00303331      -0.00332518
Te      -2.16987901       5.94664534      28.34272209       0.00526398      -0.00432143       0.00841572
Sb      -0.07347387       3.41610394      17.75555372       0.00331079       0.00350601      -0.00168062
Sb       2.62164218       6.41984371      16.88635419       0.00400579       0.00129476      -0.00510113
Sb       4.29202916       2.53133304      17.88412381      -0.00043671       0.00137232       0.00356823
Sb      -1.40249740       5.89560865      17.05682649       0.00452694       0.00349179      -0.00413535
Sb       0.86100566      -0.33585616      27.21340779      -0.00326905       0.00162758      -0.00093420
Sb       1.97033620       3.97281171      26.55015572      -0.00070914      -0.00056938       0.00057289
Sb       3.71700244      -0.12431393      27.07223592      -0.00307910      -0.00271457      -0.00156290
Sb       6.36839691       3.83466023      26.25937149       0.00325686      -0.00047846      -0.00497365
Sb      12.11132720       7.31949217      19.87711908      -0.03802503       0.00460881      -0.04042642
Sb       2.29108845       3.96654826      21.31186122       0.00125124       0.00833877       0.00293074
Sb       4.32614200       0.31588001      21.41205247      -0.00467294       0.00496036       0.00401895
Sb      15.16452866       3.81851928      20.89246518       0.00593891      -0.02366658       0.00594808
Sb       1.11195977       0.85894217      30.56380063      -0.00199106       0.01092073      -0.00134306
Sb       4.05096278       5.50895016      30.20140396       0.00621919      -0.00767789       0.00136377
Sb       6.75193792       0.96677838      30.21460397       0.00490376      -0.00094808      -0.00440759
Sb      -0.47226881       4.54623727      30.23941074      -0.00026573       0.00336908       0.00066045
Te       4.57532501       6.96261540      14.92616839       0.00683718      -0.00178552      -0.00275767
Te      10.67476092       3.38750921      15.55548603       0.00309416       0.00004499       0.00810493
Te       8.77345534       7.08360602      15.04886282       0.00796580       0.00672070       0.01617806
Te       6.51369031       3.47876000      15.70537226       0.00293803      -0.00032260       0.00298227
Te       9.06897309       2.45239313      22.77952046       0.00123811       0.00169025       0.00283242
Te      10.93847038       6.29841077      22.23806083      -0.00821407       0.00584836      -0.01424965
Te      13.30834123       2.41085968      22.64458612      -0.00872672      -0.00532907       0.00948811
Te       6.81034412       6.24101742      22.49909891      -0.00523692       0.00211658       0.00045372
Te      11.04380701       0.63454228      25.49321042       0.00190268      -0.00159971      -0.00263296
Te      12.68717221       5.53713668      24.40082032      -0.00273224       0.01090922      -0.01503465
Te      15.05537117       0.62442222      25.59301905       0.00484811      -0.00365504      -0.00188235
Te       8.34586962       5.51131122      24.81252560       0.00105883       0.00394917      -0.00288010
Te      11.12610334       0.84164303      19.16244108      -0.00090324      -0.00408168       0.00430516
Te      13.38146375       4.91401992      18.89393736       0.01133985      -0.00534505       0.00635905
Te      15.51599209       1.51643219      19.26699106      -0.00052685      -0.01068943       0.02368123
Te       8.81329477       4.78491049      19.11362644      -0.00030943      -0.00308748       0.00390546
Te       9.05263082      -0.11186524      31.53280556       0.00528963      -0.00189860      -0.00487643
Te      10.78382932       3.66647111      31.45452717       0.00345156       0.00058043      -0.00473999
Te      13.15904288       0.30200437      31.23813281       0.00424387       0.00285603      -0.00305888
Te       6.64053078       3.38326811      31.78729923       0.00741728      -0.00081252      -0.00321230
Te       8.54034793       2.86729325      28.12376825       0.00577649       0.00158509      -0.00780392
Te      10.55632731       6.32269494      28.00234618       0.00542228       0.00183603      -0.00551401
Te      13.40916882       3.32894649      27.78282377       0.00304968       0.00094800      -0.00476640
Te       6.06460279       6.18393281      28.29725846       0.00101679      -0.00302050      -0.00321960
Sb       8.60280443       2.46695803      17.42117200      -0.00122644      -0.00327408       0.00528817
Sb      10.83911883       6.10167617      16.71877522       0.00572505       0.00255613       0.01595376
Sb      13.13649136       2.60660523      16.80975249      -0.00211830      -0.00036286      -0.00053876
Sb       6.64893303       6.15271911      16.71954619       0.00163869      -0.00051163       0.00439290
Sb       8.67653230       0.05075390      26.92896388       0.00214781      -0.00097555      -0.00119518
Sb      10.80414658       4.14236671      26.06228083       0.00563550       0.00639574      -0.00879506
Sb      13.14295976      -0.84692827      26.86280161       0.00174166      -0.00034216      -0.00187379
Sb      -2.50438804       4.24088335      26.13080135      -0.00859244       0.00883984      -0.00592331
Sb       8.98491764       0.14195963      21.09212272      -0.00118041      -0.00037657       0.00480630
Sb      11.01368464       3.58544287      20.82627873       0.00063433      -0.00120490       0.00351064
Sb      13.47215854       0.19848482      20.79124852      -0.01143071      -0.01049268       0.01538501
Sb       6.68860620       3.75781202      21.15312744      -0.00106457       0.00045065       0.00332012
Sb      10.88209063       1.25294678      29.88451787       0.00393126      -0.00011992      -0.00423972
Sb      12.52346240       5.18881306      29.78076512       0.00400970       0.00041095      -0.00464058
Sb      14.54528285       0.84655703      28.79168203       0.00336666       0.00191268      -0.00433376
Sb       8.33411679       5.13143586      29.98411724       0.00432087      -0.00139451      -0.00522523
Cr       4.16837365       2.83824796      30.87935629       0.00829227      -0.00922043      -0.00307991
81
Properties=species:S:1:pos:R:3:forces:R:3 energy=-282.7139884902691 mlff_rel_energy_eV=-17.16853370117127 mlff_fmax_eV_A=0.07943060336893885 calculator_label=/data/pclancy3/yi/flare-data/1-Cr-Sb2Te3/3.fine-tuning/2-layer/MACE-omat/MACE-matpes-pbe-omat-ft.model neb_image=4 neb_protocol=mlff_pre_neb pbc="F F F"
Te      13.00104186       6.62493523      15.37916792       0.00066183      -0.00658082       0.01087354
Te       2.44731834       3.58527879      16.09986566       0.00506711      -0.00893875       0.00783894
Te       0.44086304       7.03149960      15.27477653       0.00281060      -0.01126837      -0.00221040
Te      14.40234638       4.23728275      15.28138234      -0.00404230      -0.00965726       0.00799985
Te       0.06826776       2.70886214      23.38314954       0.00329070       0.00565190       0.01664441
Te       2.27698081       6.42500259      22.69564842      -0.00682920       0.00836918      -0.00039777
Te       4.32830565       2.68583150      23.21354973      -0.00027993       0.01122948       0.01222384
Te      -1.21900235       7.80308457      26.29353929       0.06355697       0.03783322       0.02895479
Te       2.05834501       0.50285593      25.10239120       0.00285440      -0.01455144      -0.00393773
Te       3.80343324       5.88041027      24.96528225      -0.00654589       0.01881714       0.00128233
Te       6.71591116       0.53861745      24.80500270       0.00131787      -0.01471336      -0.01566327
Te      -0.57182575       5.33420396      24.64471161      -0.01084972       0.01828466       0.00465581
Te       2.34645367       1.04541949      19.73228966       0.00393119       0.00027500       0.01514908
Te       4.44799217       4.90617761      19.56364946      -0.00140111       0.00061753       0.00690119
Te       6.60470837       0.66359131      20.01489778       0.00107902       0.00122797       0.02526160
Te       0.12443888       5.42511221      19.46294102      -0.00095285      -0.00389919       0.00109496
Te      -0.19902124       0.32054871      31.70755685       0.03443045      -0.01321360      -0.01146238
Te       1.95623057       3.82180682      31.83942587       0.00649794       0.01071107      -0.00736440
Te       4.19669556       0.22264718      31.32875131      -0.00519185      -0.00989202      -0.02039995
Te      -1.88927910       2.47882435      31.74782010       0.01888312      -0.02337713      -0.00116725
Te      -0.48928525       2.45181254      27.92531278      -0.00708225       0.00391675      -0.01664482
Te       1.59159463       6.16837662      28.24707203      -0.00674422       0.00156673      -0.00618667
Te       4.18655346       2.58838621      27.73429637       0.00062777       0.00365464      -0.01847638
Te      -2.59598080       6.22252340      28.05326384      -0.01149437       0.00518181      -0.00074203
Sb       0.04190657       3.24327889      17.64864180       0.00264354      -0.00698380       0.00442916
Sb       2.65937476       6.36373676      16.97681085       0.00118635      -0.00637836       0.00171400
Sb       4.37545339       2.47011619      18.08239348       0.00263132      -0.00357941       0.01390406
Sb      -1.33430684       5.68792567      16.93667546       0.00199212      -0.00932430      -0.00139418
Sb       1.61638428      -0.99954776      27.51255172       0.02033948      -0.01830775       0.00064206
Sb       1.80917997       4.04592070      26.24783836      -0.00456026       0.00803712      -0.00993116
Sb       4.36449167      -0.17066857      26.73221734       0.01815086      -0.00269119      -0.01450640
Sb       6.35599531       4.17610511      25.94654535      -0.00169658       0.01759943      -0.00952015
Sb      12.05626125       7.52254070      19.58802542      -0.00384100       0.00664050      -0.01347846
Sb       2.04656677       3.77320149      21.54128874      -0.00315106       0.00206236       0.00935495
Sb       4.26563640       0.26154666      21.72448489      -0.00015564       0.00462914       0.02403081
Sb      15.23148268       3.39155902      20.89770071       0.00304578      -0.00610375       0.00288536
Sb       1.75174343       0.94167250      29.71235548       0.01925292      -0.00028175      -0.02928694
Sb       3.78676576       5.44764456      29.91529476      -0.00707383      -0.00583297      -0.00636543
Sb       6.63912908       0.95109576      29.78163339      -0.00366973      -0.00402749      -0.02081248
Sb      -0.35074008       4.37681215      30.11867198       0.00449855      -0.01009132      -0.00441439
Te       4.68777951       7.06590428      15.15962009       0.00272094      -0.00662568       0.00340618
Te      10.66188612       3.18571853      15.77315707      -0.00048257      -0.01308111       0.00940387
Te       8.83108991       7.42115384      15.67260645       0.00124013       0.00187770       0.01155681
Te       6.61546920       3.60624888      15.84425568       0.00275370      -0.00431261       0.00740680
Te       8.97033886       2.83293356      23.16826589      -0.00263575       0.01938540       0.01604578
Te      10.69410209       6.71217626      21.92606289      -0.01280634       0.01975016      -0.01454631
Te      13.33888010       2.47648708      22.93720304       0.00322947       0.01046042       0.01357109
Te       6.62508572       6.42955504      22.49135161      -0.00345053       0.01259327      -0.00233423
Te      11.03708177       0.59875286      25.21493295       0.00063916      -0.00366382      -0.01469069
Te      12.46451314       5.94680347      24.05135113      -0.01104554       0.02175162      -0.01728054
Te      15.18269521       0.41375746      25.54432690       0.00135062      -0.01562043      -0.01167113
Te       8.28139474       6.13102757      24.80457784      -0.00413562       0.02765119       0.00096406
Te      10.91446597       0.88951924      19.71439067      -0.00369409       0.00401622       0.02580120
Te      13.32106132       4.75088059      19.13910377      -0.00259078      -0.00354290       0.00793399
Te      15.27568628       0.86993859      19.64010889      -0.00448862      -0.01443547       0.01836673
Te       8.76256764       4.66402350      19.33532565       0.00009537      -0.00461344       0.00612662
Te       8.83613118      -0.10646925      31.23604022      -0.00919215      -0.00373880      -0.01472118
Te      10.52133089       3.63821480      31.22991411      -0.00834861      -0.00563839      -0.00781531
Te      12.96801417       0.31211421      31.04358416      -0.00684305      -0.00579771      -0.01378046
Te       6.29701905       3.33655099      31.34980611      -0.00885133      -0.00383023      -0.01464093
Te       8.45109897       2.86183528      27.72015683      -0.00219529       0.00128311      -0.01717607
Te      10.46626930       6.41745458      27.87629728       0.00030223       0.00579783       0.00034997
Te      13.15316808       3.29639076      27.58414870      -0.01540135      -0.00590606      -0.00879012
Te       5.95247130       6.24195732      27.91879093      -0.00337889       0.00419132      -0.00682408
Sb       8.57213671       2.39457738      17.57303815      -0.00052131      -0.00676696       0.00946315
Sb      10.81852460       6.07974751      17.18612781      -0.00110592      -0.00484575       0.00989272
Sb      13.06804416       2.54016207      17.10833460      -0.00228524      -0.00524939       0.01401406
Sb       6.65382894       6.20014365      17.05425325       0.00074699      -0.00400543       0.00706920
Sb       8.70806347      -0.06237000      26.69244103       0.00258353      -0.00328865      -0.01145307
Sb      10.67771743       4.45085996      25.72829176      -0.00608718       0.01992647      -0.01225595
Sb      13.06672920      -0.88470760      26.69010147      -0.00440263      -0.00565933      -0.01047845
Sb      -2.41834490       3.96786694      26.35842417       0.00281845      -0.00153023       0.00624996
Sb       8.85180926       0.31771046      21.85138408      -0.00549891       0.00927271       0.03703259
Sb      11.03243082       3.69889159      21.08879827       0.00172227       0.00521656       0.01112421
Sb      13.14765717       0.06767540      21.39130349      -0.00629064       0.00231556       0.02760565
Sb       6.54318722       3.78321941      21.39670676      -0.00175919       0.00601076       0.00915067
Sb      10.73281267       1.24581563      29.63340160      -0.00665094      -0.00265046      -0.01226642
Sb      12.37249581       5.12744552      29.63112763      -0.00372836      -0.00706405      -0.00474954
Sb      14.40863329       0.88929592      28.60784481      -0.00615983      -0.00203571      -0.01260193
Sb       8.15199590       5.05418080      29.66496090      -0.00464469      -0.00564835      -0.00962007
Cr       3.84695500       2.72652099      30.35534675      -0.00471562      -0.00856096      -0.01631692
81
Properties=species:S:1:pos:R:3:forces:R:3 energy=-282.6590661662495 mlff_rel_energy_eV=-17.113611377151642 mlff_fmax_eV_A=0.09987219461041663 calculator_label=/data/pclancy3/yi/flare-data/1-Cr-Sb2Te3/3.fine-tuning/2-layer/MACE-omat/MACE-matpes-pbe-omat-ft.model neb_image=5 neb_protocol=mlff_pre_neb pbc="F F F"
Te      13.21166397       6.78022113      15.63638242      -0.00183549      -0.00957154      -0.00134725
Te       2.58319787       3.76046783      15.90554815       0.00655979      -0.00752539       0.00736999
Te       0.55595985       7.21129479      15.25603447       0.00273682      -0.00913138       0.00378146
Te      14.53640749       4.36228429      15.46987601       0.00475917      -0.00671737       0.00832616
Te       0.24038539       2.51505742      23.38791445       0.01262383       0.00234824       0.03358750
Te       2.13654497       6.33758293      22.60022027      -0.00026813       0.00214096      -0.00082511
Te       4.42043898       2.59104895      23.10255537       0.00582260       0.00201076       0.01476491
Te      -1.65847431       7.31417909      26.39341190      -0.01935112       0.01545614      -0.00402848
Te       2.56137793       0.50895769      25.55395200       0.02655344      -0.02090488       0.03305863
Te       3.61205557       6.04659430      24.95704589      -0.00996153       0.02163160       0.00651689
Te       6.70416511       0.55031243      25.09075932       0.01134609      -0.01232654       0.00089525
Te      -0.60231073       5.05460670      24.64720521      -0.00437913       0.02072627       0.00547349
Te       2.40129662       1.06267178      19.46788091       0.00447811      -0.00373849       0.01413450
Te       4.48440409       4.88110566      19.48717490      -0.00066932      -0.00382914       0.00987718
Te       6.63841314       0.63116709      19.75338775       0.00481625       0.00000959       0.01824162
Te       0.17148637       5.32975214      19.33798406       0.00329251      -0.00796420       0.00549123
Te       0.26857375       0.07007206      32.09247634       0.01724308      -0.01432531      -0.01453672
Te       3.19095984       3.34305233      32.13353409       0.04992084      -0.02091283       0.00497836
Te       4.42677065      -0.23306563      31.23966627      -0.00173806      -0.03621053      -0.07576060
Te      -1.61819154       2.01759935      31.86391822       0.00626311      -0.02576312      -0.01393180
Te      -0.54653576       2.19276060      27.57132842      -0.02657778       0.00530629      -0.04303816
Te       1.43899392       5.94571843      28.41183840      -0.00849471      -0.00590218       0.00131792
Te       4.12849906       2.85621630      28.12050818       0.00038929       0.01107349      -0.00992020
Te      -2.64743547       4.95076401      29.66677418      -0.00094237      -0.01836423       0.07851087
Sb       0.14938613       3.28056887      17.37470123       0.00563469      -0.00822008       0.00595629
Sb       2.74116876       6.47733060      16.98352907       0.00287740      -0.00599702       0.00461501
Sb       4.44902832       2.53522739      17.86385581       0.00434373      -0.00484213       0.01135271
Sb      -1.23311418       5.75435816      16.80507551       0.00394804      -0.00952840       0.00550931
Sb       0.94250352      -0.21147384      27.77271535      -0.00756802       0.01091501       0.02756730
Sb       1.74250264       4.08620423      26.25271865      -0.00976946       0.00609226      -0.00725557
Sb       4.79476053      -0.77267264      26.71588269       0.04105203      -0.03782553      -0.00587248
Sb       6.08255103       4.37221039      25.93430380      -0.00443709       0.02304790      -0.01164119
Sb      12.08677098       7.65524818      19.61536880       0.00167390       0.01287288      -0.01240145
Sb       2.07541554       3.66905555      21.50279190       0.00108614      -0.00690977       0.01681775
Sb       4.30409441       0.25344265      21.43500953       0.00397525       0.00015096       0.01618267
Sb      15.24612556       3.08505319      20.90295119       0.00160158       0.00514637       0.00275016
Sb       2.14027681       1.23944707      30.24301458      -0.00784180       0.00431707      -0.03618327
Sb       4.08973086       5.15727270      29.89129122       0.00307078      -0.00409393      -0.00425696
Sb       6.19037902       0.81732481      29.13833878      -0.01202070      -0.01181836      -0.01350891
Sb      -0.08644538       3.75484519      30.00584907       0.00606418      -0.03129167      -0.02173069
Te       4.86618388       7.30834177      15.34366878       0.00585428      -0.00705750       0.00789223
Te      10.79734998       3.28599961      15.72756243      -0.00014295      -0.00876114       0.01029531
Te       8.94919435       7.60815678      15.88975610      -0.00044486      -0.00334099       0.00468559
Te       6.73195998       3.81224149      15.79352663       0.00513345      -0.00479959       0.01664038
Te       8.88637418       2.59005291      23.14044976       0.00081750       0.00804932       0.01278146
Te      10.40786005       7.09154331      21.74306200      -0.00536884       0.04037380      -0.01328514
Te      13.35868003       2.03260356      22.90664683       0.00978791       0.00374654       0.01132654
Te       6.50741803       6.38416581      22.27686524      -0.00430929       0.00799579      -0.00309614
Te      10.98094387       0.40543073      25.23280403       0.00872876      -0.00992614      -0.02016967
Te      12.15887251       5.53749367      23.39594181      -0.01682599       0.00635673      -0.03052288
Te      15.18228757       0.15358644      25.75407368       0.01504399      -0.00888429      -0.00149244
Te       8.12980841       6.13805941      24.61261469      -0.00238179       0.02798376      -0.00266371
Te      10.91017532       0.83050608      19.58800739       0.00196066      -0.01474144       0.01440166
Te      13.33938093       4.71564422      19.37483458      -0.00468535      -0.00175840       0.00459114
Te      15.25092274       0.62835321      19.50528510       0.00425614       0.00089881       0.01092090
Te       8.91659040       4.61716217      19.34917010       0.00776963       0.00372775       0.01553866
Te       8.04074176       0.85144914      31.52865516      -0.03696627       0.01616900      -0.02622432
Te      10.61277438       4.16420507      31.19154288      -0.00663369       0.00486587      -0.01094288
Te      12.40172311       0.13221694      30.99574695      -0.03329700      -0.02530591      -0.02178156
Te       6.55179895       4.71745973      31.67883307       0.00855326       0.02327594      -0.01223445
Te       8.24677555       3.07443378      27.65566580      -0.00410295       0.00910195      -0.02378283
Te      10.76854659       6.50976568      27.44882247       0.02080030       0.01125058      -0.01210751
Te      12.61754751       2.92662621      27.56991355      -0.03049992      -0.01893924      -0.00575437
Te       5.96029804       6.53215093      27.79352170      -0.00317879       0.01315807      -0.00707911
Sb       8.66531657       2.47693058      17.45818010       0.00533015      -0.00043985       0.02032264
Sb      10.92639567       6.16162225      17.29545542      -0.00010968      -0.00311404       0.00337126
Sb      13.10907881       2.64678586      17.22044547       0.00210057      -0.00384151       0.00908055
Sb       6.78982431       6.28702782      17.22569595       0.00379143      -0.00208828       0.01200300
Sb       8.80556890       0.03085433      27.01315975       0.02249507       0.00729184       0.00293407
Sb      10.40228747       4.36310953      25.52406096      -0.01231679       0.01414003      -0.01190068
Sb      12.96971499      -1.13725173      26.69748066       0.00765702      -0.01306191      -0.02057531
Sb      -2.72050948       4.84083198      26.81554795      -0.03671069       0.09087740       0.01918538
Sb       8.83977253       0.19027371      21.60762749       0.00299311       0.00250070       0.02209677
Sb      11.18021141       3.51025501      21.29966659       0.00764503      -0.00545924       0.01331539
Sb      13.09893692      -0.26478205      21.15177855       0.00792910      -0.00063080       0.01566206
Sb       6.61516274       3.73311846      21.24191543       0.00264258       0.00239282       0.00752367
Sb      10.34777241       1.62925136      29.79779052      -0.01882800       0.00713039      -0.01881298
Sb      12.51155380       5.16905485      29.31138594       0.00360726      -0.01039331      -0.01048481
Sb      14.07327391       0.68878361      28.67971403      -0.01447451      -0.01053248      -0.00883081
Sb       8.28738474       5.43755556      29.42749563       0.00398042       0.00667067      -0.01928967
Cr       5.61714618       2.23074779      31.57035697      -0.04387820       0.02558649      -0.01437571
81
Properties=species:S:1:pos:R:3:forces:R:3 energy=-281.66377141531484 mlff_rel_energy_eV=-16.118316626216995 mlff_fmax_eV_A=0.019371763793867538 calculator_label=/data/pclancy3/yi/flare-data/1-Cr-Sb2Te3/3.fine-tuning/2-layer/MACE-omat/MACE-matpes-pbe-omat-ft.model neb_image=6 neb_protocol=mlff_pre_neb pbc="F F F"
Te      13.25994667       6.83012439      15.66519242      -0.00020048      -0.00534164      -0.00037311
Te       2.50971584       3.91503321      15.78088933       0.00111382      -0.00157632       0.00245815
Te       0.55224642       7.38295136      15.14690889       0.00229066      -0.00166766      -0.00213492
Te      14.54712810       4.39915563      15.36315925      -0.00027480      -0.00667737       0.00353402
Te      -0.05538021       2.50120058      22.77160200      -0.00066596       0.00232459      -0.00362964
Te       2.04673891       6.32587389      22.65286987      -0.00194388       0.00372996       0.00312516
Te       4.27447613       2.59851033      22.84931892      -0.00016013       0.00665399       0.00425786
Te      -1.27725103       7.03490662      26.58909870      -0.00112514      -0.00396841       0.00463069
Te       2.02575056       0.87624235      24.89468842      -0.00140933      -0.00041874      -0.00368137
Te       3.73783177       5.66723138      24.84318844      -0.00177463       0.00687070       0.00303211
Te       6.46455232       0.75773181      24.97291990      -0.00130019      -0.00127550      -0.00291186
Te      -0.58844393       4.65932891      24.61914156      -0.00137481      -0.00149896      -0.00010917
Te       2.28526372       1.18563914      19.23838855       0.00077504       0.00235462       0.00590052
Te       4.48010697       4.99937089      19.34819593       0.00128400       0.00204368       0.00078082
Te       6.52753786       0.66321794      19.49347238      -0.00036552       0.00185891       0.00758628
Te       0.08974117       5.50001562      19.20365415       0.00038183       0.00302610       0.00023078
Te       0.04830916       0.25781287      32.34320085       0.00535495      -0.00407155      -0.00156643
Te       2.13863546       3.77836352      31.99899375       0.00264166      -0.00240615      -0.00120300
Te       4.50779366       0.52915370      32.70953531       0.00391283      -0.00177448      -0.00246141
Te      -1.68316069       2.37667667      32.14328174       0.00362968      -0.00525516      -0.00035422
Te       0.01165213       2.03464338      28.40860196       0.00367014      -0.00176055      -0.00217615
Te       1.56960046       6.03196769      28.41952749      -0.00020771      -0.00231141       0.00049905
Te       4.14170324       2.64765501      28.24145130       0.00244689      -0.00006741      -0.00562792
Te      -2.65900090       5.22591031      28.07307211      -0.00150264      -0.00749442       0.00146953
Sb       0.06918172       3.44872138      17.24050799       0.00073990       0.00070994       0.00267735
Sb       2.71246190       6.60547819      16.89570554       0.00174234      -0.00025312      -0.00076892
Sb       4.38078031       2.66156071      17.71101504       0.00092131      -0.00019610       0.00371397
Sb      -1.28190166       5.93941988      16.64492307       0.00157662       0.00026231      -0.00111778
Sb       1.08650528      -0.48265512      27.19493724       0.00026740      -0.00168679      -0.00407361
Sb       1.90849087       3.96121532      26.39256403       0.00039820      -0.00008557      -0.00118344
Sb       3.99051789      -0.02508837      26.82415160       0.00118500      -0.00000973      -0.00564691
Sb       6.16561032       4.04138116      26.09810936       0.00178102       0.00595456      -0.00307871
Sb      12.12052111       7.46575341      19.74820321      -0.01005937       0.00741802      -0.01480024
Sb       2.01070931       3.83658783      21.21441958       0.00076951       0.00457506       0.00074936
Sb       4.17676203       0.28605522      21.17727705      -0.00011822       0.00401911       0.00844073
Sb      15.14546405       3.04446147      20.92559780      -0.00153059      -0.00169586       0.00719223
Sb       2.35111459       1.15093768      30.93665160       0.00411678      -0.00199677      -0.00181608
Sb       3.99703625       5.24062362      29.94645614       0.00195502      -0.00256935      -0.00171951
Sb       6.46852526       1.10443270      29.29365148       0.00645461       0.00168234      -0.00793343
Sb      -0.23561117       4.29968411      30.44082374       0.00156887      -0.00335865      -0.00016763
Te       4.82569695       7.41993596      15.22076878       0.00281764      -0.00261951      -0.00066209
Te      10.80561571       3.37826524      15.62865047       0.00115391      -0.00599393       0.00444132
Te       8.99767299       7.67556212      15.83148232       0.00222870      -0.00095736       0.00135929
Te       6.70289612       3.90064345      15.63624278       0.00248070      -0.00249865       0.00279774
Te       8.82246380       2.48419050      22.92891531      -0.00085399       0.00689366       0.00539734
Te      10.59384125       6.54269514      21.92981958      -0.00450114       0.01097273      -0.00848902
Te      13.17814950       2.03391268      22.83158754      -0.00353745      -0.00099968       0.00776039
Te       6.58815300       6.27530821      22.33620360      -0.00158383       0.00657318      -0.00145734
Te      10.78642035       0.51481383      25.50483990      -0.00837515      -0.00190298       0.00348878
Te      12.39961159       5.55804506      23.93412944      -0.00343025       0.00568034      -0.01128015
Te      14.89240441       0.15594677      25.73510413      -0.00356279      -0.01450782      -0.00118758
Te       8.15217506       5.75596275      24.66699869      -0.00147584       0.01360412       0.00016041
Te      10.87010276       0.85584406      19.36835520       0.00019180       0.00263236       0.00787041
Te      13.35345510       4.65507696      19.23935782       0.00073321       0.00021832       0.00350716
Te      15.17562100       0.61403253      19.48316089       0.00124745       0.00136278       0.01197118
Te       8.81914833       4.62169233      19.20306643       0.00115740      -0.00074448       0.00226322
Te       8.82571573       0.50974889      32.00988763       0.00258111       0.00040921       0.00368625
Te      10.75108790       4.06969355      31.27771474      -0.00091354      -0.00031214      -0.00489456
Te      13.02868006       0.63304959      31.32204086      -0.00051097       0.00057490      -0.00351745
Te       6.40126428       4.23130076      31.84447215       0.00349104      -0.00214150      -0.00515139
Te       8.34143484       2.94727071      27.99617433       0.00284520       0.00535132      -0.00538418
Te      10.41850421       6.38056908      27.61135948       0.00430999       0.00388693      -0.00347126
Te      13.15589881       3.29453695      27.52318646      -0.00555447      -0.00307669      -0.00623547
Te       5.97542485       6.32705110      27.93929016      -0.00179336       0.00257102      -0.00261793
Sb       8.61994509       2.50275806      17.26676055       0.00056353      -0.00292836       0.00492867
Sb      10.94223387       6.18597953      17.26278540       0.00064412      -0.00143702       0.00256625
Sb      13.13073755       2.61663405      17.04723769      -0.00134569      -0.00322743       0.00605072
Sb       6.76028235       6.38305796      17.06407989       0.00175143      -0.00136285       0.00124565
Sb       8.34135824      -0.14276432      26.84421798      -0.00824139      -0.01201713      -0.00089009
Sb      10.60293161       4.21005858      25.69129594      -0.00293427       0.00811827      -0.00814748
Sb      12.75764042      -0.93782571      27.05553756      -0.00864340      -0.00371262       0.00043932
Sb      -2.00466004       2.95780916      26.49948967       0.00159848      -0.00479347      -0.00128270
Sb       8.74467657       0.14358708      21.29493647      -0.00070963       0.00466447       0.00901030
Sb      10.97405520       3.53740184      21.01587960       0.00118796       0.00372355       0.00503930
Sb      12.96901347      -0.23136509      21.08356224      -0.00173717      -0.00139284       0.00836149
Sb       6.53534862       3.70479495      21.13262304       0.00009208       0.00410864       0.00326139
Sb      10.69024716       1.46868987      30.07359219      -0.00241528      -0.00286662      -0.00106758
Sb      12.45130484       5.35104133      29.38181038       0.00212262      -0.00301835      -0.00443372
Sb      14.29769648       0.91712662      28.72086971      -0.00339660      -0.00145295      -0.00618965
Sb       8.19596584       5.31538859      29.73393814       0.00263486       0.00087697      -0.00506744
Cr       6.57397191       1.68995560      31.80886978       0.00271830      -0.00232465      -0.00592267
81
Properties=species:S:1:pos:R:3:forces:R:3 energy=-281.66402267654996 mlff_rel_energy_eV=-16.118567887452116 mlff_fmax_eV_A=0.039451354998887966 calculator_label=/data/pclancy3/yi/flare-data/1-Cr-Sb2Te3/3.fine-tuning/2-layer/MACE-omat/MACE-matpes-pbe-omat-ft.model neb_image=7 neb_protocol=mlff_pre_neb pbc="F F F"
Te      13.00221025       6.48669875      14.59546310      -0.00246762      -0.00432121      -0.00691384
Te       2.23553305       3.79035242      15.81949845      -0.00111753      -0.00049935       0.00534391
Te       0.25829792       7.24991702      15.18339657       0.00302678      -0.00152511      -0.00112508
Te      14.66171526       4.35238859      15.14734103       0.00008480       0.00010982       0.00144616
Te       0.07508833       2.57920333      22.76325990       0.00411701       0.00404581      -0.00027040
Te       2.33532640       6.34762130      22.67986398      -0.00226271       0.00751524       0.00941462
Te       4.43488091       2.57521075      22.75707823       0.00326222       0.01031193       0.00364026
Te      -0.89776671       7.23226042      26.57759988      -0.03020282      -0.01808555      -0.01780764
Te       2.10354016       0.94157403      24.88943946       0.00303788       0.00671916      -0.00021404
Te       3.98329474       5.51091829      24.85101672      -0.00215741       0.01468998       0.00929631
Te       6.59585603       0.91702309      25.07470908       0.00382836       0.00361212      -0.00074377
Te      -0.36326662       4.75224362      24.57445461      -0.00304844       0.00160271       0.00308159
Te       2.20986520       1.17354422      19.34951705      -0.00103811       0.00851777       0.00876345
Te       4.50124172       5.04187639      19.22084721       0.00083923       0.00163408      -0.00108463
Te       6.52663983       0.69078634      19.22699810      -0.00112913      -0.00187334       0.00553400
Te       0.10201264       5.56344197      19.32649893       0.00064961       0.00657923       0.00212319
Te      -0.27524305       0.40559820      32.36396528       0.00208832      -0.00112070      -0.00217484
Te       1.97170868       3.83604198      32.05509441      -0.00057541      -0.00361970       0.00096300
Te       4.20947282       0.46785912      32.85479056      -0.00059450       0.00061580      -0.00077986
Te      -1.90558770       2.58346658      32.00555742      -0.00285892      -0.00567794      -0.00244206
Te      -0.04630845       2.14648217      28.36427549       0.00740117       0.00472578      -0.00334403
Te       1.70272011       6.08930398      28.41166789      -0.00663635      -0.00154273       0.00296588
Te       4.05950652       2.56371992      28.45509743       0.00038390      -0.00202597      -0.00301995
Te      -2.58272641       5.54761667      27.87368425       0.00022093      -0.01457467       0.01825100
Sb      -0.08439174       3.41494335      17.48532029      -0.00192343       0.00405546       0.00530238
Sb       2.54780069       6.51643206      16.77771195       0.00168111      -0.00043555       0.00155493
Sb       4.26172246       2.65068141      17.67696169       0.00046194      -0.00208785       0.00224003
Sb      -1.46694937       5.89163192      16.87735243       0.00071599       0.00505161       0.00112031
Sb       0.99600571      -0.42514514      27.12892641      -0.00381885       0.00214889      -0.00737490
Sb       2.02901278       3.96962127      26.41976323       0.00103889       0.00190340       0.00123557
Sb       3.83527140      -0.07328270      26.95371270      -0.00451582      -0.00224288       0.00000744
Sb       6.23113531       3.82795696      26.31160583      -0.00149721       0.00140011      -0.00269923
Sb      13.48086058       6.80557767      21.14649748      -0.00685252       0.00811530      -0.00630150
Sb       2.18017923       3.88826823      21.19192765       0.00269322       0.00897490       0.00291972
Sb       4.28331755       0.28021076      21.07120054      -0.00164551       0.00693872       0.00896903
Sb      14.90785850       4.32799739      20.84781968       0.00472696      -0.00382089      -0.00220153
Sb       2.11980517       1.18915894      31.03239181       0.00088777       0.00131360      -0.00206964
Sb       4.02432133       5.18914942      30.06464771      -0.00585085      -0.00271461       0.00045103
Sb       6.27294145       0.95159074      29.57732492       0.00156394      -0.00330143      -0.00299039
Sb      -0.28447735       4.41003561      30.37069325      -0.00491428      -0.00055060       0.00226186
Te       4.47323488       7.18960928      14.82948845       0.00363783      -0.00583464       0.00288375
Te      10.53943381       3.40108370      15.19115955       0.00090845      -0.00560531       0.00114214
Te       8.62784633       7.19429876      14.76322295       0.00102009      -0.00692288      -0.00041946
Te       6.37502641       3.64575652      15.48646207       0.00381284      -0.00671416       0.00201041
Te       8.91788081       2.31168416      22.61678896       0.00075579       0.00451387      -0.00090881
Te      11.17783092       6.06320185      22.59235286      -0.00088783       0.00199469      -0.00228798
Te      13.37615994       2.42245193      22.37478662       0.00373320       0.00027315       0.00168748
Te       6.96480804       6.15171872      22.38026872      -0.00121991       0.00357361      -0.00190455
Te      10.89755196       0.72062829      25.60565426      -0.00454883       0.00197608      -0.01311411
Te      12.68183091       5.18386666      24.82278159       0.00125753      -0.00225318      -0.00469507
Te      14.84471658       0.70726467      25.87228993       0.00108893      -0.02464312      -0.01960480
Te       8.32624678       5.21416955      24.75291375      -0.00031677       0.00475718       0.00116247
Te      10.99532544       0.94420983      18.95376594       0.00453047      -0.00309292       0.00437031
Te      13.03714304       4.91615130      18.74898438       0.00488365       0.00265850       0.00100864
Te      15.34659588       1.48195522      18.51577709       0.00354346       0.00186749       0.00621453
Te       8.75294167       4.83922111      18.91637010       0.00430815      -0.00280719      -0.00056906
Te       8.61448003       0.49103053      32.41764725       0.00077344      -0.01251031      -0.01941795
Te      10.68211002       3.83468173      31.74577540       0.00092294       0.01162731      -0.00140103
Te      12.87054891       0.25217417      31.54264915       0.00293134       0.00993153       0.00888896
Te       6.17690233       4.12978964      32.15602520      -0.00431171      -0.00387048      -0.00276285
Te       8.23862010       2.78032612      28.39873219      -0.00189529       0.00266424      -0.00072989
Te      10.32832505       6.30565430      28.17316769       0.00213668      -0.00236149      -0.00116190
Te      13.23510359       3.32485464      28.04476498      -0.00141408      -0.01648245      -0.00136441
Te       6.12708814       6.23486639      28.21403752      -0.00886259       0.00217778      -0.00204238
Sb       8.55167035       2.59707270      17.10546317       0.00248329      -0.00590179       0.00342895
Sb      10.71336710       6.01185554      16.29191886       0.00195112      -0.00337155      -0.00201314
Sb      13.13864042       2.60967328      16.83039252      -0.00111461       0.00049726      -0.00018573
Sb       6.58299034       6.29162847      16.53627636       0.00335228      -0.00664719       0.00172955
Sb       8.47735663       0.03908770      26.91896803       0.00258982       0.00146309      -0.00272165
Sb      10.61938707       3.98352356      26.37213535      -0.00053806       0.00253882      -0.00483230
Sb      12.91887913      -0.83301118      27.01785478      -0.00805070       0.01502818       0.00340544
Sb      -1.96314621       3.18988387      26.41639163       0.00118213       0.00143722       0.00301594
Sb       8.87774591       0.10107163      20.82930352       0.00072163       0.00031842       0.00345849
Sb      10.90759354       3.58026590      20.67140039       0.00429341      -0.00056647       0.00120596
Sb      13.57829224       0.37583207      20.34360815       0.00427769      -0.00181014       0.00361993
Sb       6.65062605       3.73721425      20.95198462       0.00152951       0.00355015      -0.00039807
Sb      10.52846500       1.30022485      30.44325883       0.00797180       0.01234453      -0.00218199
Sb      12.33612453       5.28392050      29.95090861       0.00666541      -0.00267391      -0.00927130
Sb      14.22992232       0.78396647      29.05739610       0.00596292      -0.00500919       0.01461584
Sb       8.12096381       5.22321750      30.14351006      -0.00903270      -0.00131110      -0.00124795
Cr       6.34265791       1.59684715      32.07200361       0.00136469      -0.00536495      -0.00194073
81
Properties=species:S:1:pos:R:3:forces:R:3 energy=-280.362235199759 mlff_rel_energy_eV=-14.816780410661181 mlff_fmax_eV_A=0.08806402807910339 calculator_label=/data/pclancy3/yi/flare-data/1-Cr-Sb2Te3/3.fine-tuning/2-layer/MACE-omat/MACE-matpes-pbe-omat-ft.model neb_image=8 neb_protocol=mlff_pre_neb pbc="F F F"
Te      13.04856109       6.87396006      14.93773961       0.01088130      -0.03072182      -0.00574693
Te       2.21173539       3.82581177      15.50196954       0.00183219       0.00509263       0.02623038
Te       0.13321265       7.27458389      15.05091270       0.00594010      -0.00676196       0.00432492
Te      14.52058521       4.52160317      15.01184197      -0.02440008       0.04149065      -0.00024959
Te       0.09756618       2.53640023      22.75226724       0.00272022       0.00477332       0.02297351
Te       2.43974121       6.13708863      22.74279721       0.01553063      -0.00298206       0.02244988
Te       4.37804801       2.40593068      22.57209363       0.00440640      -0.00534116       0.01468462
Te      -2.03623078       6.58786241      23.78348385      -0.00590683       0.01764385       0.08489072
Te       2.15677778       0.98146807      25.00897767      -0.00066938      -0.01218023      -0.00753658
Te       4.14498965       5.20684422      24.88243936      -0.01272787       0.01262252      -0.01150875
Te       6.54851646       0.97727310      25.12445376      -0.00138708      -0.01599264       0.00194586
Te      -0.29220218       4.72356845      24.58507232      -0.01716606      -0.00938546      -0.02956058
Te       2.17507712       1.17375130      19.04050421       0.00072258      -0.00529699       0.02052235
Te       4.37646303       5.03080398      19.01636169       0.00625590       0.00215762       0.02036189
Te       6.47925760       0.74914252      18.94198211       0.00283497      -0.02708995       0.01506305
Te      -0.02199034       5.32747505      19.08976646      -0.00319408       0.01836866       0.02456593
Te      -0.34570893       0.69483907      32.38305400      -0.02215083       0.03342999      -0.00356589
Te       2.13109306       3.85636897      32.21879087      -0.00350187       0.00578520      -0.01137678
Te       4.29705629       0.24795343      32.66141925       0.00179623       0.01246512      -0.00216366
Te      -1.86240066       2.94270514      32.05108699       0.01254884      -0.04340193      -0.01786976
Te       0.01209490       2.30193814      28.52667968      -0.00413954      -0.01145319      -0.01419316
Te       2.00943820       6.11194769      28.57367960      -0.01073996       0.00160194      -0.00748101
Te       4.19643356       2.53640977      28.61692013      -0.00252248      -0.00108748      -0.00606842
Te      -2.18141919       5.78581965      28.35272802      -0.00766049      -0.02344073      -0.02180204
Sb      -0.11392380       3.29548658      17.12226467      -0.00866496       0.04232905       0.02202583
Sb       2.43176193       6.49069117      16.63134740       0.01390535       0.01468358      -0.00286957
Sb       4.20513010       2.67774996      17.41058816      -0.00543800       0.00906284       0.03700941
Sb      -1.56052761       5.77901980      16.65682679       0.02841883      -0.02198188      -0.00229473
Sb       0.95070119      -0.27235686      27.26894534       0.04728409      -0.01396569       0.01927579
Sb       2.16590813       3.95911579      26.66332643      -0.00207515       0.01348457      -0.00414059
Sb       3.80670373      -0.06498050      27.09864795      -0.02650041      -0.00253007       0.01335300
Sb       6.43832475       3.81487598      26.50489769      -0.00301025       0.00367280      -0.01671633
Sb      12.92830578       7.13866089      20.73470079       0.01670140      -0.02544702       0.01540684
Sb       2.11535519       3.82314274      21.10271926      -0.00112948       0.00463427       0.02574615
Sb       4.22684889       0.22677194      20.74344685      -0.00369291       0.01041703       0.00740339
Sb      14.92502396       3.68078641      20.56278418      -0.00881936       0.00351496       0.00105664
Sb       2.12362768       1.32260933      31.02348674      -0.00352361       0.00252768       0.01329344
Sb       4.20207397       5.09730496      30.38369633      -0.00731016       0.00556042      -0.02225933
Sb       6.40645473       0.85112342      29.70363247      -0.00413251      -0.02180429      -0.02268656
Sb      -0.14838286       4.71777707      30.35015111      -0.01085278      -0.01389228      -0.02181237
Te       4.43370099       7.29183245      14.80553118       0.00601865      -0.00804495      -0.01134764
Te      10.61452017       3.60560599      15.20654374      -0.00631459      -0.00698602       0.00802142
Te       8.63597338       7.34862685      14.88406924       0.00140934      -0.00454235      -0.00945323
Te       6.44770129       3.76335792      15.31507168       0.00021479       0.00147192       0.01509890
Te       8.77715598       2.32500088      22.47003644       0.01119329      -0.01161739       0.01234550
Te      11.00410679       6.10145693      22.44224251       0.01630271      -0.00509952       0.00893060
Te      13.10404270       2.33766688      22.40413808       0.01247576      -0.00914096       0.00797132
Te       6.77195235       6.07570388      22.44343305       0.02238129      -0.00979330       0.01281779
Te      10.84002611       0.96743886      25.18236979      -0.00458315       0.00386335       0.00561687
Te      12.60236969       5.20793890      24.65526010      -0.01589166       0.01318640      -0.02316015
Te      14.98992978       0.66777996      25.28620160      -0.00654866      -0.03124836       0.03705235
Te       8.49652091       5.03125066      24.84755680      -0.00764667       0.00553027      -0.01585166
Te      10.89720190       0.94440907      18.80984578       0.01003656      -0.01554684       0.00907171
Te      13.07586643       4.96482886      18.75392650       0.00719642      -0.00118781       0.00358067
Te      15.24439080       1.31969104      18.98926644       0.01329229       0.00872715       0.01868720
Te       8.68732254       4.92376894      18.86294335       0.00596886      -0.00227533       0.01111819
Te       8.71231656       0.37222289      32.78900432       0.00448598       0.02181145      -0.00163385
Te      10.80166593       3.78964976      32.22184489      -0.00275315       0.00445005      -0.00874848
Te      12.92069578       0.05832184      32.12968602       0.00668083      -0.01046821      -0.05199450
Te       6.35083281       3.97223715      32.35537434      -0.00832220       0.00945135      -0.01633745
Te       8.48607682       2.59073777      28.58831849      -0.01607729       0.00505724      -0.00863409
Te      10.62031039       6.16748960      28.50298008      -0.01028171       0.00145651      -0.00918592
Te      13.10038119       2.80668999      28.63251171       0.01835096       0.03724353      -0.02112417
Te       6.36365316       6.14893774      28.48842338      -0.00622040      -0.00164747      -0.01878436
Sb       8.49360648       2.69092875      17.04565511      -0.00465946       0.01039674       0.01739621
Sb      10.69310848       6.23216231      16.46144487      -0.00212796       0.00168865      -0.01629883
Sb      12.99340793       2.74504324      16.58229933       0.00630562       0.01248992      -0.00810197
Sb       6.50466421       6.33990530      16.53611870       0.00254900       0.00697388      -0.01052385
Sb       8.62631119       0.12562840      26.74231556       0.00256669       0.00961756      -0.00626861
Sb      10.74908853       3.96327524      26.42009336      -0.00010046       0.00835801      -0.01652612
Sb      13.09220223       0.13192326      27.01358887       0.00567551      -0.02506516       0.02888172
Sb      -1.96572983       3.60189138      26.73067453       0.00723999      -0.00589722      -0.00821961
Sb       8.73259599       0.12595070      20.64228308       0.00893359       0.00463620       0.00204500
Sb      10.79672808       3.58858035      20.61984256       0.00260842      -0.00731921       0.00131800
Sb      13.13343330       0.13948632      20.50937400       0.01680149       0.00810546      -0.00457594
Sb       6.51766369       3.82077104      20.86743222       0.00707419       0.00129493       0.01614552
Sb      10.62824753       1.27860153      30.88941286      -0.00290955       0.00713571       0.00082968
Sb      12.47122614       5.11708762      30.36165463      -0.02250878       0.01047278      -0.01630352
Sb      14.51070747       0.72114834      29.98512592      -0.03552905      -0.02607673      -0.07624279
Sb       8.29772956       5.07992598      30.35887704      -0.01484767       0.00717061      -0.02367369
Cr       6.47783607       1.43866986      32.20228066       0.00109727       0.01080530      -0.01461924
81
Properties=species:S:1:pos:R:3:forces:R:3 energy=-265.8070840625047 mlff_rel_energy_eV=-0.2616292734068679 mlff_fmax_eV_A=2.3186116109482895 calculator_label=/data/pclancy3/yi/flare-data/1-Cr-Sb2Te3/3.fine-tuning/2-layer/MACE-omat/MACE-matpes-pbe-omat-ft.model neb_image=9 neb_protocol=mlff_pre_neb pbc="F F F"
Te      12.86894188       7.42048151      15.01386501      -1.00346475      -0.77708328       0.86309444
Te       2.17310869       3.71943213      15.01210244      -0.62033625       0.03068923       0.44665698
Te       0.03538283       7.41943822      15.01059960      -0.97830653      -0.86279686       1.08984191
Te      15.00337048       3.71891867      15.01386509      -1.22263632      -0.52784065       0.98102679
Te       0.04580030       2.49274537      22.30837487       0.81947573       0.52886895      -0.14636292
Te       2.19166530       6.19565018      22.30057816       0.17606182      -0.84397444      -0.19923071
Te       4.32553712       2.49505585      22.30057848       0.11300392      -0.94583345       0.02550626
Te      -2.08380517       6.19743535      22.30724188       0.54694816      -0.28507514       0.34610563
Te       2.15477893       1.23873424      25.13155682      -0.30679939      -1.22766455       0.08631224
Te       4.35454832       4.97732520      25.10697987      -0.02146208      -0.26188869      -0.16741081
Te       6.47656223       1.26825669      25.13776270      -0.09818836      -0.96094645       0.23867337
Te       0.01692173       4.94623484      25.13155377      -0.81907811      -0.52151027      -0.32571189
Te       2.17572916       1.25355801      18.65066230      -0.04871756      -0.39231846      -0.15943539
Te       4.31275825       4.95321895      18.64786015       0.11599056      -0.50146215      -0.26545180
Te       6.45188712       1.25402087      18.64765536      -0.04640867      -1.18235730       0.59393908
Te       0.04025481       4.95693176      18.65066278      -1.12506534      -0.34234155      -0.89058864
Te       0.05321001       0.03656935      32.42235736       1.01612311       0.80702177      -0.91214962
Te       2.18940819       3.72882140      32.44464836       0.09536037      -0.73310024      -0.15109122
Te       4.26963368      -0.00434149      32.69902752       0.24670665       0.51312603      -0.32174449
Te      -2.07626889       3.72954739      32.42235763       1.02598828       0.31004167      -0.71750436
Te       0.06575246       2.50425467      28.79746488      -0.62787136      -0.52459903      -0.64285163
Te       2.19819899       6.08932599      28.74569146       0.23658652      -0.60274581       0.38591401
Te       4.23678472       2.55397736      28.74568461       0.34784789      -0.26701038       0.05797437
Te      -2.06006739       6.21112807      28.79921560       0.22674798      -1.50995086      -0.75338541
Sb       0.03900995       2.48883734      16.70260403       1.00986862       1.09408555       0.62740762
Sb       2.18046972       6.19091753      16.70451607       0.09909297       0.35619441      -0.79860060
Sb       4.31582600       2.48774785      16.70451596      -0.20476058       0.47015518       0.59001858
Sb      -2.09211750       6.19264899      16.70984536       2.01502511       0.25851324      -0.48637171
Sb       0.04956068       0.01579510      26.88046344       0.72579002       1.06509566       0.02431459
Sb       2.18551935       3.72659104      26.76192256      -0.17299724       1.53063244       0.26644018
Sb       4.30842009       0.01803615      26.81558732      -0.14787118       0.91676682      -0.41825003
Sb       6.47377085       3.74522802      26.81771712      -0.02583930       1.57706191      -0.17801986
Sb      12.88142832       7.42840098      20.60477009      -1.10382412      -1.27104379       0.35141045
Sb       2.18242272       3.72479441      20.60314746      -1.03999737       0.36568452       1.36526190
Sb       4.31852043       0.02384792      20.59769651       0.03372174       1.31840271      -0.20306983
Sb      15.01648676       3.72574755      20.60476989      -0.81693058      -0.67088221      -0.75639605
Sb       2.18841563       1.26467662      30.77439984      -1.02503739      -0.80201975       1.91885968
Sb       4.35264604       4.97622309      30.83241305      -0.21558198       0.56715659      -1.06820445
Sb       6.48501024       1.27312065      30.17714927      -0.03418155      -0.69432914      -1.99121868
Sb       0.05623503       4.96234281      30.77440010      -1.34079526       0.03454495      -0.14466940
Te       4.31104832       7.42085715      15.01108451       0.03587260      -0.51865360       0.57078815
Te      10.72878246       3.72022493      15.01148360      -0.18583741       0.33363962       0.44288670
Te       8.59301524       7.42136082      15.01589346       0.00812988      -0.58329020       0.75894618
Te       6.44759419       3.71562385      15.01108430       0.10280709       0.39699323       0.20907085
Te       8.60844735       2.49756075      22.29245474       0.02457888      -0.89554159       0.27098781
Te      10.74389671       6.19604197      22.29871788       1.12495649       0.41869823      -0.58447874
Te      12.87913915       2.49306999      22.29871880       0.71215831      -0.37542027       0.14324021
Te       6.46980541       6.19703951      22.28963671      -0.00688597      -1.03569819      -0.19624722
Te      10.74512510       1.25690105      25.12936608      -0.17973049      -1.01617451       0.34572173
Te      12.90944519       4.97766692      25.13700501      -1.03373699      -0.63549027       0.25345635
Te      14.99415663       1.24708784      25.19104214      -1.41928454      -0.69899940       0.99999801
Te       8.60500409       4.96833427      25.12936567      -0.16038354      -0.39472097       0.18789679
Te      10.72867086       1.25169384      18.64599504      -0.06366006      -1.04160595       0.79053502
Te      12.87657226       4.95870482      18.65112576       0.81596058       0.03950497       0.75677901
Te      15.01080532       1.25668358      18.64971570      -0.45349463       0.27590179       1.30012998
Te       8.59226034       4.95669265      18.64599572       0.01380864      -0.64884314       0.04815446
Te       8.65969456       0.00457664      32.69136370      -0.16438536       0.48577809      -0.25482310
Te      10.77256501       3.74546405      32.44047708       0.80377142      -0.29496964      -0.34842361
Te      12.90571764       0.04282097      32.43252927       0.89977568       0.82982185      -1.15246938
Te       6.47648801       3.79075422      32.69136764       0.08366030      -0.09145501       0.12727852
Te       8.71886990       2.56124376      28.72897496      -0.31223330      -0.30812026       0.39920290
Te      10.74498427       6.19437018      28.80300132       0.58545342      -0.82685851       0.90485825
Te      12.87822880       2.49485824      28.80300360       0.98354871      -0.39738486       0.62212054
Te       6.45292907       6.18731595      28.84506008       0.12890242      -0.76259133       0.32692684
Sb       8.59217756       2.48818688      16.69857372       0.07497851       0.88924063       0.02309724
Sb      10.73805580       6.19104118      16.70738100       0.42319275       0.96400405      -1.94710053
Sb      12.87187852       2.49052916      16.70738151       1.46460252       0.86622402      -1.04217484
Sb       6.45994104       6.19135946      16.70783023      -0.02870279       0.46531254      -1.25098724
Sb       8.61894138       0.02503871      26.81771455       0.02635683       0.80813394      -0.48626113
Sb      10.76637270       3.74190255      26.79597574       0.81800036       1.86265597      -1.06388249
Sb      12.86463294       0.01913615      26.85485321       1.01598037       1.29951586      -1.19911326
Sb      -2.09608393       3.73680823      26.88045878       1.31144120       1.65465179       0.85872377
Sb       8.59500120       0.02303299      20.59457360       0.03805487       1.21958679      -0.19150790
Sb      10.74231858       3.72802322      20.59855143      -0.08024978       0.57574346      -0.40737556
Sb      12.87316647       0.02404940      20.59189724       0.24468230       1.19167322      -0.65022384
Sb       6.46004843       3.72550032      20.59457270      -0.05051581       1.36099220       0.41937605
Sb      10.75580203       1.25808487      30.78231500       0.21232454      -0.28813592       0.87320942
Sb      12.89488388       4.96926503      30.73683726      -1.48982340      -0.13722374      -0.70015300
Sb      15.03445926       1.27032591      30.70271118      -1.85011989      -0.29017021       0.48326362
Sb       8.61138159       4.97697507      30.78231323      -0.31015665       0.66050107      -1.04145234
Cr       6.45368112       1.25506879      32.51086891       0.03201375      -0.39249289       1.83898724
