
     Program PWSCF v.7.3.1 starts on 13Sep2026 at 16:21:13 

     This program is part of the open-source Quantum ESPRESSO suite
     for quantum simulation of materials; please cite
         "P. Giannozzi et al., J. Phys.:Condens. Matter 21 395502 (2009);
         "P. Giannozzi et al., J. Phys.:Condens. Matter 29 465901 (2017);
         "P. Giannozzi et al., J. Chem. Phys. 152 154105 (2020);
          URL http://www.quantum-espresso.org", 
     in publications or presentations arising from this work. More details at
     http://www.quantum-espresso.org/quote

     Parallel version (MPI), running on     4 processors

     MPI processes distributed on     1 nodes
     154624 MiB available memory on the printing compute node when the environment starts
 
     Reading input from scf.in

     Current dimensions of program PWSCF are:
     Max number of different atomic species (ntypx) = 10
     Max number of k-points (npk) =  40000
     Max angular momentum in pseudopotentials (lmaxx) =  4
 
     K-points division:     npool     =       4
     Subspace diagonalization in iterative solution of the eigenvalue problem:
     a serial algorithm will be used

 
     G-vector sticks info
     --------------------
     sticks:   dense  smooth     PW     G-vecs:    dense   smooth      PW
     Sum       10075   10075   2589              3207259  3207259  422537
 
     Using Slab Decomposition
 


     bravais-lattice index     =            0
     lattice parameter (alat)  =      32.3306  a.u.
     unit-cell volume          =   40541.4734 (a.u.)^3
     number of atoms/cell      =           81
     number of atomic types    =            3
     number of electrons       =      1262.00
     number of Kohn-Sham states=          757
     kinetic-energy cutoff     =      70.0000  Ry
     charge density cutoff     =     280.0000  Ry
     scf convergence threshold =      1.0E-06
     mixing beta               =       0.2000
     number of iterations used =            8  local-TF  mixing
     Exchange-correlation= PBE
                           (   1   4   3   4   0   0   0)

     celldm(1)=  32.330568  celldm(2)=   0.000000  celldm(3)=   0.000000
     celldm(4)=   0.000000  celldm(5)=   0.000000  celldm(6)=   0.000000

     crystal axes: (cart. coord. in units of alat)
               a(1) = (   1.000000   0.000000   0.000000 )  
               a(2) = (  -0.249533   0.432744   0.000000 )  
               a(3) = (   0.005235   0.003019   2.772225 )  

     reciprocal axes: (cart. coord. in units 2 pi/alat)
               b(1) = (  1.000000  0.576630 -0.002516 )  
               b(2) = (  0.000000  2.310835 -0.002517 )  
               b(3) = (  0.000000  0.000000  0.360721 )  


     PseudoPot. # 1 for Cr read from file:
     /home/ycao73/ONCVPseudoPack/SG15_v1.2/UPF/PBE/Cr_PBE_FR.SG15v1.2.UPF
     MD5 check sum: 19291ff833b3d067f23df56d5404fde6
     Pseudo is Norm-conserving, Zval = 14.0
     Generated using ONCVPSP code by D. R. Hamann
     Using radial grid of 1490 points,  6 beta functions with: 
                l(1) =   0
                l(2) =   0
                l(3) =   1
                l(4) =   1
                l(5) =   2
                l(6) =   2

     PseudoPot. # 2 for Sb read from file:
     /home/ycao73/ONCVPseudoPack/SG15_v1.2/UPF/PBE/Sb_PBE_FR.SG15v1.2.UPF
     MD5 check sum: 0e999992813bf262e14e71941f404476
     Pseudo is Norm-conserving, Zval = 15.0
     Generated using ONCVPSP code by D. R. Hamann
     Using radial grid of 1468 points,  6 beta functions with: 
                l(1) =   0
                l(2) =   0
                l(3) =   1
                l(4) =   1
                l(5) =   2
                l(6) =   2

     PseudoPot. # 3 for Te read from file:
     /home/ycao73/ONCVPseudoPack/SG15_v1.2/UPF/PBE/Te_PBE_FR.SG15v1.2.UPF
     MD5 check sum: 7c59b7da87cf03000ce4d32f994025eb
     Pseudo is Norm-conserving, Zval = 16.0
     Generated using ONCVPSP code by D. R. Hamann
     Using radial grid of 1324 points,  6 beta functions with: 
                l(1) =   0
                l(2) =   0
                l(3) =   1
                l(4) =   1
                l(5) =   2
                l(6) =   2

     atomic species   valence    mass     pseudopotential
     Cr               14.00    51.99600     Cr( 1.00)
     Sb               15.00   121.76000     Sb( 1.00)
     Te               16.00   127.60000     Te( 1.00)

     No symmetry found


                                    s                        frac. trans.

      isym =  1     identity                                     

 cryst.   s( 1) = (     1          0          0      )
                  (     0          1          0      )
                  (     0          0          1      )

 cart.    s( 1) = (  1.0000000  0.0000000 -0.0000000 )
                  (  0.0000000  1.0000000 -0.0000000 )
                  (  0.0000000  0.0000000  1.0000000 )


   Cartesian axes

     site n.     atom                  positions (alat units)
         1        Te     tau(   1) = (   0.7521967   0.4337416   0.8770789  )
         2        Te     tau(   2) = (   0.1271757   0.2173897   0.8772817  )
         3        Te     tau(   3) = (   0.0023206   0.4339154   0.8772817  )
         4        Te     tau(   4) = (   0.8769873   0.2173835   0.8769756  )
         5        Te     tau(   5) = (   0.0024979   0.1450118   1.3023286  )
         6        Te     tau(   6) = (   0.1273796   0.3617674   1.3033054  )
         7        Te     tau(   7) = (   0.2529635   0.1458669   1.3031622  )
         8        Te     tau(   8) = (  -0.1227760   0.3622640   1.3023288  )
         9        Te     tau(   9) = (   0.1255183   0.0723784   1.4692383  )
        10        Te     tau(  10) = (   0.2527659   0.2909718   1.4672045  )
        11        Te     tau(  11) = (   0.3784499   0.0730087   1.4672042  )
        12        Te     tau(  12) = (  -0.0039919   0.2860134   1.4623362  )
        13        Te     tau(  13) = (   0.1273890   0.0734567   1.0891829  )
        14        Te     tau(  14) = (   0.2523458   0.2897435   1.0898811  )
        15        Te     tau(  15) = (   0.3771767   0.0732597   1.0898811  )
        16        Te     tau(  16) = (   0.0022714   0.2896262   1.0898934  )
        17        Te     tau(  17) = (  -0.0138472  -0.0079851   1.9069124  )
        18        Te     tau(  18) = (   0.1339866   0.2194579   1.8994102  )
        19        Te     tau(  19) = (   0.2570560   0.0060282   1.8994107  )
        20        Te     tau(  20) = (  -0.1201196   0.2190509   1.8966967  )
        21        Te     tau(  21) = (   0.0071454   0.1460079   1.6867738  )
        22        Te     tau(  22) = (   0.1259773   0.3609574   1.6800134  )
        23        Te     tau(  23) = (   0.2530445   0.1459129   1.6625820  )
        24        Te     tau(  24) = (  -0.1195853   0.3657869   1.6867739  )
        25        Sb     tau(  25) = (   0.0024245   0.1454955   0.9759770  )
        26        Sb     tau(  26) = (   0.1276248   0.3619092   0.9762207  )
        27        Sb     tau(  27) = (   0.2524335   0.1455616   0.9764403  )
        28        Sb     tau(  28) = (  -0.1223944   0.3619588   0.9759771  )
        29        Sb     tau(  29) = (   0.0011785   0.0006797   1.5742067  )
        30        Sb     tau(  30) = (   0.1245641   0.2190149   1.5630629  )
        31        Sb     tau(  31) = (   0.2519519  -0.0019038   1.5630624  )
        32        Sb     tau(  32) = (   0.3829752   0.2208361   1.5634756  )
        33        Sb     tau(  33) = (   0.7527769   0.4340756   1.2028004  )
        34        Sb     tau(  34) = (   0.1275830   0.2177161   1.2037164  )
        35        Sb     tau(  35) = (   0.2523404   0.0013598   1.2037164  )
        36        Sb     tau(  36) = (   0.8773794   0.2176091   1.2030214  )
        37        Sb     tau(  37) = (   0.1298532   0.0748760   1.8050556  )
        38        Sb     tau(  38) = (   0.2511387   0.3008976   1.7923693  )
        39        Sb     tau(  39) = (   0.3862287   0.0666211   1.7923661  )
        40        Sb     tau(  40) = (   0.0029720   0.2900297   1.7969333  )
        41        Te     tau(  41) = (   0.2519547   0.4336019   0.8772041  )
        42        Te     tau(  42) = (   0.6268048   0.2171375   0.8770662  )
        43        Te     tau(  43) = (   0.5019165   0.4337207   0.8770663  )
        44        Te     tau(  44) = (   0.3769935   0.2173870   0.8771249  )
        45        Te     tau(  45) = (   0.5030481   0.1460356   1.3030444  )
        46        Te     tau(  46) = (   0.6288577   0.3626196   1.3029650  )
        47        Te     tau(  47) = (   0.7529350   0.1458503   1.3028624  )
        48        Te     tau(  48) = (   0.3783856   0.3622272   1.3030445  )
        49        Te     tau(  49) = (   0.6280366   0.0738301   1.4696908  )
        50        Te     tau(  50) = (   0.7543929   0.2902236   1.4735189  )
        51        Te     tau(  51) = (   0.8786177   0.0747906   1.4735191  )
        52        Te     tau(  52) = (   0.5076224   0.2927116   1.4661373  )
        53        Te     tau(  53) = (   0.6270422   0.0732566   1.0899111  )
        54        Te     tau(  54) = (   0.7521858   0.2894839   1.0891059  )
        55        Te     tau(  55) = (   0.8768719   0.0732513   1.0891060  )
        56        Te     tau(  56) = (   0.5024380   0.2897221   1.0895825  )
        57        Te     tau(  57) = (   0.5091783   0.0053009   1.9029278  )
        58        Te     tau(  58) = (   0.6266113   0.2160330   1.8962769  )
        59        Te     tau(  59) = (   0.7503966   0.0013622   1.8962772  )
        60        Te     tau(  60) = (   0.3768415   0.2173085   1.9020208  )
        61        Te     tau(  61) = (   0.5014483   0.1461702   1.6821029  )
        62        Te     tau(  62) = (   0.6280206   0.3621369   1.6840472  )
        63        Te     tau(  63) = (   0.7523436   0.1455093   1.6828985  )
        64        Te     tau(  64) = (   0.3777006   0.3607758   1.6821023  )
        65        Sb     tau(  65) = (   0.5022920   0.1455236   0.9760242  )
        66        Sb     tau(  66) = (   0.6274629   0.3618157   0.9759574  )
        67        Sb     tau(  67) = (   0.7524313   0.1455603   0.9759802  )
        68        Sb     tau(  68) = (   0.3775634   0.3618300   0.9760243  )
        69        Sb     tau(  69) = (   0.5033901   0.0019549   1.5660312  )
        70        Sb     tau(  70) = (   0.6298039   0.2179293   1.5700038  )
        71        Sb     tau(  71) = (   0.7536368   0.0031749   1.5700042  )
        72        Sb     tau(  72) = (  -0.1204982   0.2188328   1.5735829  )
        73        Sb     tau(  73) = (   0.5024485   0.0014118   1.2040186  )
        74        Sb     tau(  74) = (   0.6276334   0.2178531   1.2036731  )
        75        Sb     tau(  75) = (   0.7524842   0.0013347   1.2036731  )
        76        Sb     tau(  76) = (   0.3776666   0.2177748   1.2037343  )
        77        Sb     tau(  77) = (   0.6280581   0.0738427   1.7992270  )
        78        Sb     tau(  78) = (   0.7510564   0.2921824   1.8013347  )
        79        Sb     tau(  79) = (   0.8786418   0.0709217   1.8013346  )
        80        Sb     tau(  80) = (   0.4971621   0.2866802   1.8000944  )
        81        Cr     tau(  81) = (   0.2633280   0.1518374   1.8052265  )

     --------------------------------------------
     DFT-D3 Dispersion Correction (3-body terms):
     --------------------------------------------
       Reference C6 values for interpolation: 

         atom   Coordination number   C6
         Cr         0.000          1381.48
         Cr         1.827           571.38
         Cr        10.619           306.69
         Sb         0.000           985.88
         Sb         0.975           946.94
         Sb         1.952           896.11
         Sb         2.932           834.76
         Te         0.000           851.07
         Te         0.981           850.20
         Te         1.964           837.16

       Values used:

         atom   Coordination number  R0_AB[au]  C6      C8
         Te         2.767            3.676    837.16  84978.11
         Te         2.768            3.676    837.16  84978.10
         Te         2.768            3.676    837.16  84978.10
         Te         2.765            3.676    837.16  84978.11
         Te         3.157            3.676    837.16  84978.06
         Te         3.135            3.676    837.16  84978.06
         Te         3.113            3.676    837.16  84978.06
         Te         3.157            3.676    837.16  84978.06
         Te         3.114            3.676    837.16  84978.06
         Te         3.133            3.676    837.16  84978.06
         Te         3.133            3.676    837.16  84978.06
         Te         3.189            3.676    837.16  84978.06
         Te         4.542            3.676    837.16  84978.05
         Te         4.531            3.676    837.16  84978.05
         Te         4.531            3.676    837.16  84978.05
         Te         4.532            3.676    837.16  84978.05
         Te         2.511            3.676    837.16  84978.43
         Te         3.310            3.676    837.16  84978.06
         Te         3.310            3.676    837.16  84978.06
         Te         2.734            3.676    837.16  84978.12
         Te         4.398            3.676    837.16  84978.05
         Te         4.642            3.676    837.16  84978.05
         Te         4.728            3.676    837.16  84978.05
         Te         4.398            3.676    837.16  84978.05
         Sb         4.950            3.794    834.76  89580.53
         Sb         4.950            3.794    834.76  89580.53
         Sb         4.964            3.794    834.76  89580.53
         Sb         4.950            3.794    834.76  89580.53
         Sb         4.977            3.794    834.76  89580.53
         Sb         4.989            3.794    834.76  89580.53
         Sb         4.989            3.794    834.76  89580.53
         Sb         4.998            3.794    834.76  89580.53
         Sb         4.959            3.794    834.76  89580.53
         Sb         4.938            3.794    834.76  89580.53
         Sb         4.938            3.794    834.76  89580.53
         Sb         4.949            3.794    834.76  89580.53
         Sb         5.169            3.794    834.76  89580.53
         Sb         5.529            3.794    834.76  89580.53
         Sb         5.529            3.794    834.76  89580.53
         Sb         4.870            3.794    834.76  89580.53
         Te         2.769            3.676    837.16  84978.10
         Te         2.767            3.676    837.16  84978.10
         Te         2.767            3.676    837.16  84978.10
         Te         2.768            3.676    837.16  84978.10
         Te         3.126            3.676    837.16  84978.06
         Te         3.108            3.676    837.16  84978.06
         Te         3.073            3.676    837.16  84978.06
         Te         3.126            3.676    837.16  84978.06
         Te         3.120            3.676    837.16  84978.06
         Te         3.098            3.676    837.16  84978.06
         Te         3.098            3.676    837.16  84978.06
         Te         3.123            3.676    837.16  84978.06
         Te         4.520            3.676    837.16  84978.05
         Te         4.548            3.676    837.16  84978.05
         Te         4.548            3.676    837.16  84978.05
         Te         4.532            3.676    837.16  84978.05
         Te         2.772            3.676    837.16  84978.10
         Te         2.828            3.676    837.16  84978.09
         Te         2.828            3.676    837.16  84978.09
         Te         3.269            3.676    837.16  84978.06
         Te         4.516            3.676    837.16  84978.05
         Te         4.452            3.676    837.16  84978.05
         Te         4.405            3.676    837.16  84978.05
         Te         4.516            3.676    837.16  84978.05
         Sb         4.946            3.794    834.76  89580.53
         Sb         4.959            3.794    834.76  89580.53
         Sb         4.959            3.794    834.76  89580.53
         Sb         4.946            3.794    834.76  89580.53
         Sb         4.886            3.794    834.76  89580.53
         Sb         4.959            3.794    834.76  89580.53
         Sb         4.959            3.794    834.76  89580.53
         Sb         4.914            3.794    834.76  89580.53
         Sb         4.930            3.794    834.76  89580.53
         Sb         4.938            3.794    834.76  89580.53
         Sb         4.938            3.794    834.76  89580.53
         Sb         4.939            3.794    834.76  89580.53
         Sb         4.921            3.794    834.76  89580.53
         Sb         4.804            3.794    834.76  89580.53
         Sb         4.804            3.794    834.76  89580.53
         Sb         4.820            3.794    834.76  89580.53
         Cr         6.160            3.252    567.53  52376.51

         Molecular C6 ( Ry / a.u.^6 ) =   5460479.49


   Crystallographic axes

     site n.     atom                  positions (cryst. coord.)
         1        Te     tau(   1) = (  1.0000979  1.0000980  0.3163808  )
         2        Te     tau(   2) = (  0.2503215  0.5001440  0.3164540  )
         3        Te     tau(   3) = (  0.2503215  1.0004992  0.3164540  )
         4        Te     tau(   4) = (  1.0001303  0.5001305  0.3163436  )
         5        Te     tau(   5) = (  0.0828389  0.3318209  0.4697774  )
         6        Te     tau(   6) = (  0.3327058  0.8327049  0.4701297  )
         7        Te     tau(   7) = (  0.3337954  0.3337948  0.4700781  )
         8        Te     tau(   8) = (  0.0828391  0.8338550  0.4697775  )
         9        Te     tau(   9) = (  0.1635567  0.1635571  0.5299852  )
        10        Te     tau(  10) = (  0.4168568  0.6686955  0.5292516  )
        11        Te     tau(  11) = (  0.4168569  0.1650188  0.5292515  )
        12        Te     tau(  12) = (  0.1572522  0.6572498  0.5274955  )
        13        Te     tau(  13) = (  0.1670056  0.1670054  0.3928912  )
        14        Te     tau(  14) = (  0.4166780  0.6668067  0.3931431  )
        15        Te     tau(  15) = (  0.4166779  0.1665484  0.3931431  )
        16        Te     tau(  16) = (  0.1665359  0.6665356  0.3931475  )
        17        Te     tau(  17) = ( -0.0232501 -0.0232512  0.6878635  )
        18        Te     tau(  18) = (  0.2557530  0.5023511  0.6851573  )
        19        Te     tau(  19) = (  0.2557525  0.0091502  0.6851575  )
        20        Te     tau(  20) = (  0.0014189  0.5014173  0.6841785  )
        21        Te     tau(  21) = (  0.0870934  0.3331554  0.6084549  )
        22        Te     tau(  22) = (  0.3298886  0.8298852  0.6060163  )
        23        Te     tau(  23) = (  0.3329986  0.3329968  0.5997284  )
        24        Te     tau(  24) = (  0.0870938  0.8410284  0.6084549  )
        25        Sb     tau(  25) = (  0.0838657  0.3337600  0.3520555  )
        26        Sb     tau(  26) = (  0.3338558  0.8338557  0.3521434  )
        27        Sb     tau(  27) = (  0.3339116  0.3339117  0.3522226  )
        28        Sb     tau(  28) = (  0.0838658  0.8339709  0.3520555  )
        29        Sb     tau(  29) = ( -0.0023908 -0.0023908  0.5678496  )
        30        Sb     tau(  30) = (  0.2469214  0.5021737  0.5638297  )
        31        Sb     tau(  31) = (  0.2469209 -0.0083329  0.5638296  )
        32        Sb     tau(  32) = (  0.5063816  0.5063814  0.5639786  )
        33        Sb     tau(  33) = (  1.0000511  1.0000502  0.4338755  )
        34        Sb     tau(  34) = (  0.2500956  0.5000768  0.4342059  )
        35        Sb     tau(  35) = (  0.2500955  0.0001130  0.4342059  )
        36        Sb     tau(  36) = (  0.9998321  0.4998312  0.4339552  )
        37        Sb     tau(  37) = (  0.1684868  0.1684837  0.6511216  )
        38        Sb     tau(  38) = (  0.4201350  0.6908141  0.6465454  )
        39        Sb     tau(  39) = (  0.4201342  0.1494398  0.6465442  )
        40        Sb     tau(  40) = (  0.1656900  0.6656887  0.6481917  )
        41        Te     tau(  41) = (  0.4997750  0.9997749  0.3164260  )
        42        Te     tau(  42) = (  0.7498057  0.4995617  0.3163763  )
        43        Te     tau(  43) = (  0.7498058  1.0000498  0.3163763  )
        44        Te     tau(  44) = (  0.5001381  0.5001382  0.3163974  )
        45        Te     tau(  45) = (  0.5839776  0.3341850  0.4700356  )
        46        Te     tau(  46) = (  0.8346762  0.8346751  0.4700069  )
        47        Te     tau(  47) = (  0.8337582  0.3337573  0.4699699  )
        48        Te     tau(  48) = (  0.5839776  0.8337682  0.4700356  )
        49        Te     tau(  49) = (  0.6669110  0.1669107  0.5301485  )
        50        Te     tau(  50) = (  0.9180366  0.6669507  0.5315293  )
        51        Te     tau(  51) = (  0.9180363  0.1691207  0.5315294  )
        52        Te     tau(  52) = (  0.6727193  0.6727187  0.5288666  )
        53        Te     tau(  53) = (  0.6665416  0.1665412  0.3931539  )
        54        Te     tau(  54) = (  0.9163702  0.6662088  0.3928634  )
        55        Te     tau(  55) = (  0.9163702  0.1665309  0.3928635  )
        56        Te     tau(  56) = (  0.6667586  0.6667580  0.3930354  )
        57        Te     tau(  57) = (  0.5074465  0.0074607  0.6864262  )
        58        Te     tau(  58) = (  0.7464107  0.4944446  0.6840271  )
        59        Te     tau(  59) = (  0.7464104 -0.0016242  0.6840272  )
        60        Te     tau(  60) = (  0.4973619  0.4973776  0.6860990  )
        61        Te     tau(  61) = (  0.5815016  0.3335422  0.6067700  )
        62        Te     tau(  62) = (  0.8326019  0.8326007  0.6074713  )
        63        Te     tau(  63) = (  0.8320138  0.3320129  0.6070570  )
        64        Te     tau(  64) = (  0.5815019  0.8294604  0.6067697  )
        65        Sb     tau(  65) = (  0.5837492  0.3338248  0.3520725  )
        66        Sb     tau(  66) = (  0.8336408  0.8336404  0.3520484  )
        67        Sb     tau(  67) = (  0.8339098  0.3339098  0.3520566  )
        68        Sb     tau(  68) = (  0.5837493  0.8336733  0.3520725  )
        69        Sb     tau(  69) = (  0.5005768  0.0005765  0.5649005  )
        70        Sb     tau(  70) = (  0.7515178  0.4996478  0.5663335  )
        71        Sb     tau(  71) = (  0.7515169  0.0033857  0.5663336  )
        72        Sb     tau(  72) = (  0.0017276  0.5017265  0.5676245  )
        73        Sb     tau(  73) = (  0.5002329  0.0002324  0.4343149  )
        74        Sb     tau(  74) = (  0.7502251  0.5003936  0.4341903  )
        75        Sb     tau(  75) = (  0.7502250  0.0000551  0.4341903  )
        76        Sb     tau(  76) = (  0.5002130  0.5002123  0.4342123  )
        77        Sb     tau(  77) = (  0.6661105  0.1661104  0.6490191  )
        78        Sb     tau(  78) = (  0.9150046  0.6706521  0.6497794  )
        79        Sb     tau(  79) = (  0.9150046  0.1593553  0.6497794  )
        80        Sb     tau(  80) = (  0.6579408  0.6579407  0.6493320  )
        81        Cr     tau(  81) = (  0.3463394  0.3463282  0.6511833  )

     number of k points=     4  Marzari-Vanderbilt smearing, width (Ry)=  0.0100
                       cart. coord. in units 2pi/alat
        k(    1) = (   0.2500000   0.7218662   0.0889221), wk =   0.5000000
        k(    2) = (   0.2500000   0.7218662  -0.0914385), wk =   0.5000000
        k(    3) = (   0.2500000  -0.4335514   0.0901803), wk =   0.5000000
        k(    4) = (   0.2500000  -0.4335514  -0.0901802), wk =   0.5000000

                       cryst. coord.
        k(    1) = (   0.2500000   0.2500000   0.2500000), wk =   0.5000000
        k(    2) = (   0.2500000   0.2500000  -0.2500000), wk =   0.5000000
        k(    3) = (   0.2500000  -0.2500000   0.2500000), wk =   0.5000000
        k(    4) = (   0.2500000  -0.2500000  -0.2500000), wk =   0.5000000

     Dense  grid:  3207259 G-vectors     FFT dimensions: ( 180,  90, 480)

     Dynamical RAM for                 wfc:    4631.39 MB

     Dynamical RAM for     wfc (w. buffer):    4631.39 MB

     Dynamical RAM for           str. fact:     146.82 MB

     Dynamical RAM for           local pot:       0.00 MB

     Dynamical RAM for          nlocal pot:    8920.17 MB

     Dynamical RAM for                qrad:       4.03 MB

     Dynamical RAM for          rho,v,vnew:     324.80 MB

     Dynamical RAM for               rhoin:     108.27 MB

     Dynamical RAM for            rho*nmix:     783.02 MB

     Dynamical RAM for           G-vectors:     207.99 MB

     Dynamical RAM for          h,s,v(r/c):     104.93 MB

     Dynamical RAM for          <psi|beta>:      16.84 MB

     Dynamical RAM for                 psi:    9262.78 MB

     Dynamical RAM for                hpsi:    9262.78 MB

     Dynamical RAM for      wfcinit/wfcrot:    9275.91 MB

     Estimated static dynamical RAM per process >      14.49 GB

     Estimated max dynamical RAM per process >      33.46 GB

     Estimated total dynamical RAM >     131.56 GB

     Initial potential from superposition of free atoms

     starting charge    1261.9703, renormalised to    1262.0000

     negative rho (up, down):  2.732E-05 0.000E+00
     Starting wfcs are  730 randomized atomic wfcs +   27 random wfcs

     total cpu time spent up to now is      337.2 secs

     Self-consistent Calculation

     iteration #  1     ecut=    70.00 Ry     beta= 0.20
     Davidson diagonalization with overlap

---- Real-time Memory Report at c_bands before calling an iterative solver
         24088 MiB given to the printing process from OS
             0 MiB allocation reported by mallinfo(arena+hblkhd)
         95326 MiB available memory on the node where the printing process lives
------------------
     ethr =  1.00E-02,  avg # of iterations =  7.0

     total cpu time spent up to now is     1542.2 secs

     total energy              =  -13036.68645564 Ry
     estimated scf accuracy    <      13.52176385 Ry

     iteration #  2     ecut=    70.00 Ry     beta= 0.20
     Davidson diagonalization with overlap

---- Real-time Memory Report at c_bands before calling an iterative solver
         33573 MiB given to the printing process from OS
             0 MiB allocation reported by mallinfo(arena+hblkhd)
        102858 MiB available memory on the node where the printing process lives
------------------
     ethr =  1.07E-03,  avg # of iterations =  2.0

     negative rho (up, down):  5.502E-04 0.000E+00

     total cpu time spent up to now is     2581.3 secs

     total energy              =  -13037.32098575 Ry
     estimated scf accuracy    <       1.22763909 Ry

     iteration #  3     ecut=    70.00 Ry     beta= 0.20
     Davidson diagonalization with overlap

---- Real-time Memory Report at c_bands before calling an iterative solver
         33682 MiB given to the printing process from OS
             0 MiB allocation reported by mallinfo(arena+hblkhd)
        102749 MiB available memory on the node where the printing process lives
------------------
     ethr =  9.73E-05,  avg # of iterations = 17.2

     negative rho (up, down):  1.444E-03 0.000E+00

     total cpu time spent up to now is     4428.9 secs

     total energy              =  -13037.74124655 Ry
     estimated scf accuracy    <       0.52543941 Ry

     iteration #  4     ecut=    70.00 Ry     beta= 0.20
     Davidson diagonalization with overlap

---- Real-time Memory Report at c_bands before calling an iterative solver
         33782 MiB given to the printing process from OS
             0 MiB allocation reported by mallinfo(arena+hblkhd)
        102642 MiB available memory on the node where the printing process lives
------------------
     ethr =  4.16E-05,  avg # of iterations =  5.0

     negative rho (up, down):  1.303E-03 0.000E+00

     total cpu time spent up to now is     5471.3 secs

     total energy              =  -13037.70636501 Ry
     estimated scf accuracy    <       0.19548241 Ry

     iteration #  5     ecut=    70.00 Ry     beta= 0.20
     Davidson diagonalization with overlap

---- Real-time Memory Report at c_bands before calling an iterative solver
         33880 MiB given to the printing process from OS
             0 MiB allocation reported by mallinfo(arena+hblkhd)
        102544 MiB available memory on the node where the printing process lives
------------------
     ethr =  1.55E-05,  avg # of iterations = 12.5

     negative rho (up, down):  1.828E-08 0.000E+00

     total cpu time spent up to now is     6991.0 secs

     total energy              =  -13037.74672644 Ry
     estimated scf accuracy    <       0.01951915 Ry

     iteration #  6     ecut=    70.00 Ry     beta= 0.20
     Davidson diagonalization with overlap

---- Real-time Memory Report at c_bands before calling an iterative solver
         33979 MiB given to the printing process from OS
             0 MiB allocation reported by mallinfo(arena+hblkhd)
        102443 MiB available memory on the node where the printing process lives
------------------
     ethr =  1.55E-06,  avg # of iterations =  7.5

     negative rho (up, down):  2.105E-08 0.000E+00

     total cpu time spent up to now is     8570.7 secs

     total energy              =  -13037.75042163 Ry
     estimated scf accuracy    <       0.01451728 Ry

     iteration #  7     ecut=    70.00 Ry     beta= 0.20
     Davidson diagonalization with overlap

---- Real-time Memory Report at c_bands before calling an iterative solver
         34077 MiB given to the printing process from OS
             0 MiB allocation reported by mallinfo(arena+hblkhd)
        102347 MiB available memory on the node where the printing process lives
------------------
     ethr =  1.15E-06,  avg # of iterations =  1.5

     negative rho (up, down):  2.140E-08 0.000E+00

     total cpu time spent up to now is     9580.2 secs

     total energy              =  -13037.75056336 Ry
     estimated scf accuracy    <       0.00587291 Ry

     iteration #  8     ecut=    70.00 Ry     beta= 0.20
     Davidson diagonalization with overlap

---- Real-time Memory Report at c_bands before calling an iterative solver
         34175 MiB given to the printing process from OS
             0 MiB allocation reported by mallinfo(arena+hblkhd)
        102248 MiB available memory on the node where the printing process lives
------------------
     ethr =  4.65E-07,  avg # of iterations =  2.0

     negative rho (up, down):  1.747E-08 0.000E+00

     total cpu time spent up to now is    10591.0 secs

     total energy              =  -13037.75048813 Ry
     estimated scf accuracy    <       0.00386855 Ry

     iteration #  9     ecut=    70.00 Ry     beta= 0.20
     Davidson diagonalization with overlap

---- Real-time Memory Report at c_bands before calling an iterative solver
         34273 MiB given to the printing process from OS
             0 MiB allocation reported by mallinfo(arena+hblkhd)
        102148 MiB available memory on the node where the printing process lives
------------------
     ethr =  3.07E-07,  avg # of iterations =  2.0

     total cpu time spent up to now is    11601.2 secs

     total energy              =  -13037.75042664 Ry
     estimated scf accuracy    <       0.00255811 Ry

     iteration # 10     ecut=    70.00 Ry     beta= 0.20
     Davidson diagonalization with overlap

---- Real-time Memory Report at c_bands before calling an iterative solver
         34371 MiB given to the printing process from OS
             0 MiB allocation reported by mallinfo(arena+hblkhd)
        102052 MiB available memory on the node where the printing process lives
------------------
     ethr =  2.03E-07,  avg # of iterations =  3.2

     total cpu time spent up to now is    12634.5 secs

     total energy              =  -13037.75037584 Ry
     estimated scf accuracy    <       0.00162322 Ry

     iteration # 11     ecut=    70.00 Ry     beta= 0.20
     Davidson diagonalization with overlap

---- Real-time Memory Report at c_bands before calling an iterative solver
         34470 MiB given to the printing process from OS
             0 MiB allocation reported by mallinfo(arena+hblkhd)
        102050 MiB available memory on the node where the printing process lives
------------------
     ethr =  1.29E-07,  avg # of iterations = 12.5

     total cpu time spent up to now is    13795.3 secs

     total energy              =  -13037.75039759 Ry
     estimated scf accuracy    <       0.00100215 Ry

     iteration # 12     ecut=    70.00 Ry     beta= 0.20
     Davidson diagonalization with overlap

---- Real-time Memory Report at c_bands before calling an iterative solver
         34470 MiB given to the printing process from OS
             0 MiB allocation reported by mallinfo(arena+hblkhd)
        102036 MiB available memory on the node where the printing process lives
------------------
     ethr =  7.94E-08,  avg # of iterations =  2.0

     negative rho (up, down):  5.778E-04 0.000E+00

     total cpu time spent up to now is    14803.4 secs

     total energy              =  -13037.75038056 Ry
     estimated scf accuracy    <       0.00052014 Ry

     iteration # 13     ecut=    70.00 Ry     beta= 0.20
     Davidson diagonalization with overlap

---- Real-time Memory Report at c_bands before calling an iterative solver
         34470 MiB given to the printing process from OS
             0 MiB allocation reported by mallinfo(arena+hblkhd)
        102039 MiB available memory on the node where the printing process lives
------------------
     ethr =  4.12E-08,  avg # of iterations =  9.2

     negative rho (up, down):  2.876E-04 0.000E+00

     total cpu time spent up to now is    15880.0 secs

     total energy              =  -13037.75039234 Ry
     estimated scf accuracy    <       0.00019850 Ry

     iteration # 14     ecut=    70.00 Ry     beta= 0.20
     Davidson diagonalization with overlap

---- Real-time Memory Report at c_bands before calling an iterative solver
         34470 MiB given to the printing process from OS
             0 MiB allocation reported by mallinfo(arena+hblkhd)
        102040 MiB available memory on the node where the printing process lives
------------------
     ethr =  1.57E-08,  avg # of iterations =  3.5

     negative rho (up, down):  3.475E-04 0.000E+00

     total cpu time spent up to now is    16919.7 secs

     total energy              =  -13037.75040906 Ry
     estimated scf accuracy    <       0.00007297 Ry

     iteration # 15     ecut=    70.00 Ry     beta= 0.20
     Davidson diagonalization with overlap

---- Real-time Memory Report at c_bands before calling an iterative solver
         34472 MiB given to the printing process from OS
             0 MiB allocation reported by mallinfo(arena+hblkhd)
        102034 MiB available memory on the node where the printing process lives
------------------
     ethr =  5.78E-09,  avg # of iterations =  6.0

     negative rho (up, down):  1.247E-05 0.000E+00

     total cpu time spent up to now is    18037.6 secs

     total energy              =  -13037.75042466 Ry
     estimated scf accuracy    <       0.00003363 Ry

     iteration # 16     ecut=    70.00 Ry     beta= 0.20
     Davidson diagonalization with overlap

---- Real-time Memory Report at c_bands before calling an iterative solver
         34472 MiB given to the printing process from OS
             0 MiB allocation reported by mallinfo(arena+hblkhd)
        102039 MiB available memory on the node where the printing process lives
------------------
     ethr =  2.67E-09,  avg # of iterations =  2.2

     negative rho (up, down):  7.809E-07 0.000E+00

     total cpu time spent up to now is    19054.4 secs

     total energy              =  -13037.75043647 Ry
     estimated scf accuracy    <       0.00001557 Ry

     iteration # 17     ecut=    70.00 Ry     beta= 0.20
     Davidson diagonalization with overlap

---- Real-time Memory Report at c_bands before calling an iterative solver
         34472 MiB given to the printing process from OS
             0 MiB allocation reported by mallinfo(arena+hblkhd)
        102036 MiB available memory on the node where the printing process lives
------------------
     ethr =  1.23E-09,  avg # of iterations =  6.2

     negative rho (up, down):  2.377E-07 0.000E+00

     total cpu time spent up to now is    20088.3 secs

     total energy              =  -13037.75044609 Ry
     estimated scf accuracy    <       0.00001050 Ry

     iteration # 18     ecut=    70.00 Ry     beta= 0.20
     Davidson diagonalization with overlap

---- Real-time Memory Report at c_bands before calling an iterative solver
         34472 MiB given to the printing process from OS
             0 MiB allocation reported by mallinfo(arena+hblkhd)
        102036 MiB available memory on the node where the printing process lives
------------------
     ethr =  8.32E-10,  avg # of iterations =  2.2

     total cpu time spent up to now is    21120.6 secs

     total energy              =  -13037.75045132 Ry
     estimated scf accuracy    <       0.00000718 Ry

     iteration # 19     ecut=    70.00 Ry     beta= 0.20
     Davidson diagonalization with overlap

---- Real-time Memory Report at c_bands before calling an iterative solver
         34472 MiB given to the printing process from OS
             0 MiB allocation reported by mallinfo(arena+hblkhd)
        102035 MiB available memory on the node where the printing process lives
------------------
     ethr =  5.69E-10,  avg # of iterations =  9.0

     total cpu time spent up to now is    22202.3 secs

     total energy              =  -13037.75045869 Ry
     estimated scf accuracy    <       0.00000519 Ry

     iteration # 20     ecut=    70.00 Ry     beta= 0.20
     Davidson diagonalization with overlap

---- Real-time Memory Report at c_bands before calling an iterative solver
         34472 MiB given to the printing process from OS
             0 MiB allocation reported by mallinfo(arena+hblkhd)
        102034 MiB available memory on the node where the printing process lives
------------------
     c_bands:  2 eigenvalues not converged
     ethr =  4.12E-10,  avg # of iterations = 16.8

     negative rho (up, down):  9.811E-05 0.000E+00

     total cpu time spent up to now is    23389.4 secs

     total energy              =  -13037.75046017 Ry
     estimated scf accuracy    <       0.00000193 Ry

     iteration # 21     ecut=    70.00 Ry     beta= 0.20
     Davidson diagonalization with overlap

---- Real-time Memory Report at c_bands before calling an iterative solver
         34472 MiB given to the printing process from OS
             0 MiB allocation reported by mallinfo(arena+hblkhd)
        102033 MiB available memory on the node where the printing process lives
------------------
     c_bands:  2 eigenvalues not converged
     ethr =  1.53E-10,  avg # of iterations = 11.8

     negative rho (up, down):  3.782E-05 0.000E+00

     total cpu time spent up to now is    24566.6 secs

     total energy              =  -13037.75046041 Ry
     estimated scf accuracy    <       0.00000108 Ry

     iteration # 22     ecut=    70.00 Ry     beta= 0.20
     Davidson diagonalization with overlap

---- Real-time Memory Report at c_bands before calling an iterative solver
         34472 MiB given to the printing process from OS
             0 MiB allocation reported by mallinfo(arena+hblkhd)
        102037 MiB available memory on the node where the printing process lives
------------------
     c_bands:  1 eigenvalues not converged
     ethr =  8.60E-11,  avg # of iterations = 15.0

     total cpu time spent up to now is    25749.0 secs

     End of self-consistent calculation

          k = 0.2500 0.7219 0.0889 (400999 PWs)   bands (ev):

   -69.1000 -40.6057 -40.4586 -40.3908 -35.0513 -35.0445 -35.0424 -35.0321
   -35.0248 -34.9925 -34.9838 -34.9732 -34.9334 -34.9316 -34.9229 -34.9215
   -34.9213 -34.9179 -34.9178 -34.9155 -34.9154 -34.9147 -34.9136 -34.9134
   -34.9113 -34.9111 -34.9109 -34.9100 -34.9098 -34.9045 -34.9044 -34.9034
   -34.9026 -34.8953 -34.8951 -34.8876 -34.8852 -34.8845 -34.8843 -34.8840
   -34.8811 -34.8801 -34.8799 -34.8795 -34.8791 -34.8782 -34.8781 -34.8779
   -34.8779 -34.8777 -34.8776 -34.8771 -34.8768 -34.8766 -34.8756 -34.8753
   -34.8752 -34.8740 -34.8734 -34.8731 -34.8725 -34.8710 -34.8707 -34.8706
   -34.8706 -34.8705 -34.8678 -34.8661 -34.8655 -34.8649 -34.8647 -34.8645
   -34.8637 -34.8636 -34.8630 -34.8623 -34.8621 -34.8621 -34.8620 -34.8615
   -34.8599 -34.8588 -34.8524 -34.8516 -34.8389 -34.8359 -34.8357 -34.8339
   -34.8337 -34.8333 -34.8332 -34.8313 -34.8259 -34.8257 -34.8192 -34.8185
   -34.8164 -34.8149 -34.8149 -34.8114 -34.8074 -34.8051 -34.8048 -34.8046
   -34.8044 -34.8037 -34.8033 -34.7994 -34.7968 -34.7961 -34.7948 -34.7944
   -34.7923 -34.7921 -34.7920 -34.7918 -34.7913 -34.7911 -34.7910 -34.7909
   -34.7908 -34.7900 -34.7898 -34.7896 -34.7895 -34.7894 -34.7893 -34.7891
   -34.7888 -34.7888 -34.7887 -34.7886 -34.7885 -34.7872 -34.7860 -34.7859
   -34.7856 -34.7856 -34.7855 -34.7853 -34.7852 -34.7843 -34.7842 -34.7838
   -34.7836 -34.7833 -34.7831 -34.7829 -34.7828 -34.7827 -34.7825 -34.7823
   -34.7823 -34.7818 -34.7817 -34.7812 -34.7810 -34.7808 -34.7806 -34.7798
   -34.7795 -34.7795 -34.7788 -34.7775 -34.7774 -34.7773 -34.7773 -34.7769
   -34.7737 -34.7729 -34.7723 -34.7712 -34.7701 -34.7697 -34.7693 -34.7693
   -34.7692 -34.7648 -34.7640 -34.7635 -34.7633 -34.7633 -34.7621 -34.7618
   -34.7618 -34.7614 -34.7611 -34.7607 -34.7580 -34.7578 -34.7574 -34.7569
   -34.7567 -34.7564 -34.7563 -34.7554 -34.7551 -34.7551 -34.7550 -34.7546
   -34.7535 -34.7523 -34.7520 -34.7519 -34.7512 -34.7512 -34.7511 -34.7508
   -34.7505 -34.7503 -34.7502 -34.7501 -34.7501 -34.7499 -34.7494 -34.7493
   -34.7489 -34.7489 -34.7486 -34.7481 -34.7478 -34.7466 -34.7451 -34.7438
   -34.7386 -34.7352 -34.7335 -34.7329 -34.7262 -34.7108 -34.7039 -34.7016
   -34.6724 -34.6711 -34.6490 -34.6366 -34.6004 -34.5821 -34.5754 -34.5536
   -34.5490 -34.4788 -34.4608 -34.4381 -27.6504 -27.6485 -27.6439 -27.6436
   -27.6434 -27.6413 -27.6412 -27.6407 -27.6404 -27.6399 -27.6395 -27.6388
   -27.6386 -27.6386 -27.6373 -27.6367 -27.6362 -27.6357 -27.6349 -27.6341
   -27.6339 -27.6334 -27.6327 -27.6327 -27.6326 -27.6320 -27.6316 -27.6315
   -27.6307 -27.6301 -27.6298 -27.6297 -27.6296 -27.6293 -27.6292 -27.6289
   -27.6287 -27.6284 -27.6283 -27.6271 -27.6268 -27.6267 -27.6264 -27.6258
   -27.6252 -27.6251 -27.6250 -27.6248 -27.6243 -27.6242 -27.6240 -27.6236
   -27.6233 -27.6226 -27.6225 -27.6218 -27.6209 -27.6209 -27.6208 -27.6204
   -27.6199 -27.6199 -27.6191 -27.6190 -27.6187 -27.6186 -27.6173 -27.6171
   -27.6170 -27.6164 -27.6150 -27.6146 -27.6142 -27.6135 -27.6133 -27.6129
   -27.6129 -27.6127 -27.6127 -27.6124 -27.6119 -27.6111 -27.6107 -27.6104
   -27.6103 -27.6099 -27.6096 -27.6093 -27.6093 -27.6092 -27.6087 -27.6086
   -27.6085 -27.6078 -27.6073 -27.6073 -27.6068 -27.6067 -27.6061 -27.6057
   -27.6056 -27.6053 -27.6050 -27.6041 -27.6040 -27.6037 -27.6033 -27.6024
   -27.5987 -27.5979 -27.5974 -27.5969 -27.5957 -27.5953 -27.5946 -27.5941
   -27.5933 -27.5923 -27.5920 -27.5918 -27.5912 -27.5906 -27.5905 -27.5899
   -27.5894 -27.5885 -27.5856 -27.5836 -27.5833 -27.5820 -27.5810 -27.5809
   -27.5806 -27.5780 -27.5777 -27.5751 -27.5751 -27.5740 -27.5725 -27.5719
   -27.5678 -27.5674 -27.5669 -27.5667 -27.5636 -27.4907 -27.4901 -27.4893
   -27.4887 -27.3970 -27.3941 -27.3907 -27.3867 -27.3857 -27.3810 -27.3786
   -27.3733 -27.2521 -27.2460 -27.2213 -10.9219 -10.8965 -10.8405 -10.8075
   -10.3670 -10.3369 -10.2050 -10.1848 -10.1154 -10.1026 -10.0518 -10.0219
    -9.8902  -9.8657  -9.8240  -9.7892  -9.6828  -9.6537  -9.5515  -9.5187
    -9.4768  -9.4653  -9.3774  -9.3613  -9.3438  -9.3328  -9.2934  -9.2720
    -9.2536  -9.2219  -9.1750  -9.1563  -9.1363  -9.1177  -9.0556  -9.0453
    -9.0292  -9.0142  -9.0020  -8.9819  -8.9814  -8.9746  -8.9580  -8.9427
    -8.9361  -8.9147  -8.8701  -8.8243  -7.5813  -7.5702  -7.5484  -7.5214
    -7.2767  -7.2485  -7.2427  -7.2356  -7.2221  -7.2062  -7.1965  -7.1412
    -7.0845  -7.0679  -7.0030  -6.9827  -6.8654  -6.7671  -6.7627  -6.7142
    -6.6870  -6.6612  -6.5425  -6.4994  -6.4859  -6.4506  -6.4470  -6.4267
    -5.5368  -5.4606  -5.3063  -5.2768  -3.3941  -3.3591  -3.2637  -3.2358
    -3.2106  -3.1958  -3.1537  -3.1405  -3.0825  -3.0271  -2.9894  -2.9620
    -2.5910  -2.5499  -2.4822  -2.4550  -2.3850  -2.3693  -2.3472  -2.3280
    -2.2948  -2.2509  -2.1943  -2.1868  -2.1816  -2.1381  -2.0380  -2.0171
    -1.9730  -1.9463  -1.9374  -1.9109  -1.8338  -1.8118  -1.7464  -1.6961
    -1.6796  -1.6588  -1.6397  -1.6371  -1.6162  -1.6156  -1.5478  -1.5238
    -1.5120  -1.5001  -1.4937  -1.4847  -1.4630  -1.4586  -1.4289  -1.3986
    -1.3138  -1.2921  -1.2463  -1.2393  -1.2217  -1.2169  -1.2023  -1.1597
    -1.1152  -1.0784  -1.0688  -1.0429  -1.0273  -1.0143  -1.0022  -0.9361
    -0.8853  -0.8785  -0.8150  -0.8082  -0.7790  -0.7672  -0.7166  -0.6791
    -0.6659  -0.6301  -0.6077  -0.5689  -0.5000  -0.4491  -0.4289  -0.4198
    -0.3958  -0.3641  -0.2857  -0.2448  -0.2122  -0.1864  -0.1821  -0.1532
    -0.1454  -0.1150  -0.0778  -0.0486  -0.0437  -0.0325  -0.0096   0.0071
     0.1699   0.2474   0.2673   0.2952   0.3635   0.3834   0.4017   0.4188
     0.4195   0.4533   0.4926   0.5053   0.5102   0.5258   0.5690   0.5916
     0.6953   0.7163   0.7455   0.7571   0.7867   0.8229   0.8596   0.9115
     0.9544   0.9732   1.0091   1.0798   1.1274   1.1580   1.1583   1.2213
     1.2702   1.2903   1.3264   1.3433   1.3993   1.4043   1.4330   1.4481
     1.5275   1.5717   1.6315   1.6554   1.8703   1.9556   2.1383   2.2494
     2.3816   2.6144   2.6397   2.7785   2.8306   2.8510   2.8720   2.8968
     2.9229   2.9547   2.9685   2.9836   2.9976   3.0207   3.0619   3.0987
     3.1286   3.1505   3.1658   3.2071   3.2207   3.2588   3.2974   3.3352
     3.3487   3.3684   3.3836   3.4120   3.4457   3.4595   3.4646   3.4992
     3.5398   3.5632   3.5693   3.5879   3.5963   3.6415   3.6589   3.7829
     3.8447   3.8852   3.9123   3.9349   3.9383   4.0036   4.0212   4.0457
     4.0918   4.0998   4.1343   4.1890   4.2343   4.3073   4.3591   4.4302
     4.4771   4.5574   4.6205   4.6481   4.6775   4.6900   4.7135   4.7573
     4.7777   4.8011   4.8172   4.8646   4.8848   4.9031   4.9276   4.9645
     4.9847   5.0318   5.0807   5.1853   5.1985   5.2262   5.2513   5.3090
     5.3412   5.3606   5.3772   5.3826   5.3913   5.4512   5.4852   5.5561
     5.5640   5.5991   5.6097   5.6490   5.6657   5.6986   5.7258   5.7572
     5.7776   5.7867   5.8341   5.9077   5.9202   6.0056   6.0555   6.1489
     6.1644   6.1928   6.2048   6.2308   6.2586   6.2833   6.3348   6.3866
     6.4011   6.4990   6.5159   6.5883   6.6450   6.7206   6.7526   6.7671
     6.7957   6.8133   6.8253   6.8978   6.9445

     occupation numbers 
     1.0000   1.0000   1.0000   1.0000   1.0000   1.0000   1.0000   1.0000
     1.0000   1.0000   1.0000   1.0000   1.0000   1.0000   1.0000   1.0000
     1.0000   1.0000   1.0000   1.0000   1.0000   1.0000   1.0000   1.0000
     1.0000   1.0000   1.0000   1.0000   1.0000   1.0000   1.0000   1.0000
     1.0000   1.0000   1.0000   1.0000   1.0000   1.0000   1.0000   1.0000
     1.0000   1.0000   1.0000   1.0000   1.0000   1.0000   1.0000   1.0000
     1.0000   1.0000   1.0000   1.0000   1.0000   1.0000   1.0000   1.0000
     1.0000   1.0000   1.0000   1.0000   1.0000   1.0000   1.0000   1.0000
     1.0000   1.0000   1.0000   1.0000   1.0000   1.0000   1.0000   1.0000
     1.0000   1.0000   1.0000   1.0000   1.0000   1.0000   1.0000   1.0000
     1.0000   1.0000   1.0000   1.0000   1.0000   1.0000   1.0000   1.0000
     1.0000   1.0000   1.0000   1.0000   1.0000   1.0000   1.0000   1.0000
     1.0000   1.0000   1.0000   1.0000   1.0000   1.0000   1.0000   1.0000
     1.0000   1.0000   1.0000   1.0000   1.0000   1.0000   1.0000   1.0000
     1.0000   1.0000   1.0000   1.0000   1.0000   1.0000   1.0000   1.0000
     1.0000   1.0000   1.0000   1.0000   1.0000   1.0000   1.0000   1.0000
     1.0000   1.0000   1.0000   1.0000   1.0000   1.0000   1.0000   1.0000
     1.0000   1.0000   1.0000   1.0000   1.0000   1.0000   1.0000   1.0000
     1.0000   1.0000   1.0000   1.0000   1.0000   1.0000   1.0000   1.0000
     1.0000   1.0000   1.0000   1.0000   1.0000   1.0000   1.0000   1.0000
     1.0000   1.0000   1.0000   1.0000   1.0000   1.0000   1.0000   1.0000
     1.0000   1.0000   1.0000   1.0000   1.0000   1.0000   1.0000   1.0000
     1.0000   1.0000   1.0000   1.0000   1.0000   1.0000   1.0000   1.0000
     1.0000   1.0000   1.0000   1.0000   1.0000   1.0000   1.0000   1.0000
     1.0000   1.0000   1.0000   1.0000   1.0000   1.0000   1.0000   1.0000
     1.0000   1.0000   1.0000   1.0000   1.0000   1.0000   1.0000   1.0000
     1.0000   1.0000   1.0000   1.0000   1.0000   1.0000   1.0000   1.0000
     1.0000   1.0000   1.0000   1.0000   1.0000   1.0000   1.0000   1.0000
     1.0000   1.0000   1.0000   1.0000   1.0000   1.0000   1.0000   1.0000
     1.0000   1.0000   1.0000   1.0000   1.0000   1.0000   1.0000   1.0000
     1.0000   1.0000   1.0000   1.0000   1.0000   1.0000   1.0000   1.0000
     1.0000   1.0000   1.0000   1.0000   1.0000   1.0000   1.0000   1.0000
     1.0000   1.0000   1.0000   1.0000   1.0000   1.0000   1.0000   1.0000
     1.0000   1.0000   1.0000   1.0000   1.0000   1.0000   1.0000   1.0000
     1.0000   1.0000   1.0000   1.0000   1.0000   1.0000   1.0000   1.0000
     1.0000   1.0000   1.0000   1.0000   1.0000   1.0000   1.0000   1.0000
     1.0000   1.0000   1.0000   1.0000   1.0000   1.0000   1.0000   1.0000
     1.0000   1.0000   1.0000   1.0000   1.0000   1.0000   1.0000   1.0000
     1.0000   1.0000   1.0000   1.0000   1.0000   1.0000   1.0000   1.0000
     1.0000   1.0000   1.0000   1.0000   1.0000   1.0000   1.0000   1.0000
     1.0000   1.0000   1.0000   1.0000   1.0000   1.0000   1.0000   1.0000
     1.0000   1.0000   1.0000   1.0000   1.0000   1.0000   1.0000   1.0000
     1.0000   1.0000   1.0000   1.0000   1.0000   1.0000   1.0000   1.0000
     1.0000   1.0000   1.0000   1.0000   1.0000   1.0000   1.0000   1.0000
     1.0000   1.0000   1.0000   1.0000   1.0000   1.0000   1.0000   1.0000
     1.0000   1.0000   1.0000   1.0000   1.0000   1.0000   1.0000   1.0000
     1.0000   1.0000   1.0000   1.0000   1.0000   1.0000   1.0000   1.0000
     1.0000   1.0000   1.0000   1.0000   1.0000   1.0000   1.0000   1.0000
     1.0000   1.0000   1.0000   1.0000   1.0000   1.0000   1.0000   1.0000
     1.0000   1.0000   1.0000   1.0000   1.0000   1.0000   1.0000   1.0000
     1.0000   1.0000   1.0000   1.0000   1.0000   1.0000   1.0000   1.0000
     1.0000   1.0000   1.0000   1.0000   1.0000   1.0000   1.0000   1.0000
     1.0000   1.0000   1.0000   1.0000   1.0000   1.0000   1.0000   1.0000
     1.0000   1.0000   1.0000   1.0000   1.0000   1.0000   1.0000   1.0000
     1.0000   1.0000   1.0000   1.0000   1.0000   1.0000   1.0000   1.0000
     1.0000   1.0000   1.0000   1.0000   1.0000   1.0000   1.0000   1.0000
     1.0000   1.0000   1.0000   1.0000   1.0000   1.0000   1.0000   1.0000
     1.0000   1.0000   1.0000   1.0000   1.0000   1.0000   1.0000   1.0000
     1.0000   1.0000   1.0000   1.0000   1.0000   1.0000   1.0000   1.0000
     1.0000   1.0000   1.0000   1.0000   1.0000   1.0000   1.0000   1.0000
     1.0000   1.0000   1.0000   1.0000   1.0000   1.0000   1.0000   1.0000
     1.0000   1.0000   1.0000   1.0000   1.0000   1.0000   1.0000   1.0000
     1.0000   1.0000   1.0000   1.0000   1.0000   1.0000   1.0000   1.0000
     1.0000   1.0000   1.0000   1.0000   1.0000   1.0000   1.0000   1.0000
     1.0000   1.0000   1.0000   1.0000   1.0000   1.0000   1.0000   1.0000
     1.0000   1.0000   1.0000   1.0000   1.0000   1.0000   1.0000   1.0000
     1.0000   1.0000   1.0000   1.0000   1.0000   1.0000   1.0000   1.0000
     1.0000   1.0000   1.0000   1.0000   1.0000   1.0000   1.0000   1.0000
     1.0000   1.0000   1.0000   1.0000   1.0000   1.0000   1.0000   1.0000
     1.0000   1.0000   1.0000   1.0000   1.0000   1.0000   1.0000   1.0000
     1.0000   1.0000   1.0000   1.0000   1.0000   1.0000   1.0000   1.0000
     1.0000   1.0000   1.0000   1.0000   1.0000   1.0000   1.0000   1.0000
     1.0000   1.0000   1.0000   1.0000   1.0000   1.0000   1.0000   1.0000
     1.0000   1.0000   1.0000   1.0000   1.0000   1.0000   1.0000   1.0000
     1.0000   1.0000   1.0000   1.0000   1.0000   1.0000   1.0000   1.0000
     1.0000   1.0000   1.0000   1.0000   1.0000   1.0000   1.0000   1.0000
     1.0000   1.0000   1.0000   1.0000   1.0000   1.0000   1.0000   1.0000
     1.0000   1.0000   1.0000   1.0000   1.0000   1.0000   1.0000   1.0000
     1.0000   1.0000   1.0000   1.0000   1.0157   1.0648   0.6967   0.1698
     0.0065   0.0000   0.0000   0.0000   0.0000   0.0000   0.0000   0.0000
     0.0000   0.0000   0.0000   0.0000   0.0000   0.0000   0.0000   0.0000
     0.0000   0.0000   0.0000   0.0000   0.0000   0.0000   0.0000   0.0000
     0.0000   0.0000   0.0000   0.0000   0.0000   0.0000   0.0000   0.0000
     0.0000   0.0000   0.0000   0.0000   0.0000   0.0000   0.0000   0.0000
     0.0000   0.0000   0.0000   0.0000   0.0000   0.0000   0.0000   0.0000
     0.0000   0.0000   0.0000   0.0000   0.0000   0.0000   0.0000   0.0000
     0.0000   0.0000   0.0000   0.0000   0.0000   0.0000   0.0000   0.0000
     0.0000   0.0000   0.0000   0.0000   0.0000   0.0000   0.0000   0.0000
     0.0000   0.0000   0.0000   0.0000   0.0000   0.0000   0.0000   0.0000
     0.0000   0.0000   0.0000   0.0000   0.0000   0.0000   0.0000   0.0000
     0.0000   0.0000   0.0000   0.0000   0.0000   0.0000   0.0000   0.0000
     0.0000   0.0000   0.0000   0.0000   0.0000   0.0000   0.0000   0.0000
     0.0000   0.0000   0.0000   0.0000   0.0000   0.0000   0.0000   0.0000
     0.0000   0.0000   0.0000   0.0000   0.0000   0.0000   0.0000   0.0000
     0.0000   0.0000   0.0000   0.0000   0.0000

          k = 0.2500 0.7219-0.0914 (401000 PWs)   bands (ev):

   -69.1000 -40.6057 -40.4586 -40.3908 -35.0513 -35.0445 -35.0424 -35.0321
   -35.0248 -34.9925 -34.9838 -34.9732 -34.9334 -34.9316 -34.9229 -34.9215
   -34.9213 -34.9179 -34.9178 -34.9155 -34.9154 -34.9147 -34.9136 -34.9134
   -34.9113 -34.9111 -34.9109 -34.9100 -34.9098 -34.9045 -34.9044 -34.9034
   -34.9026 -34.8953 -34.8951 -34.8876 -34.8852 -34.8845 -34.8843 -34.8840
   -34.8811 -34.8801 -34.8799 -34.8795 -34.8791 -34.8782 -34.8781 -34.8779
   -34.8779 -34.8777 -34.8776 -34.8771 -34.8768 -34.8766 -34.8756 -34.8753
   -34.8752 -34.8740 -34.8734 -34.8731 -34.8725 -34.8710 -34.8707 -34.8706
   -34.8706 -34.8705 -34.8678 -34.8661 -34.8655 -34.8649 -34.8647 -34.8645
   -34.8637 -34.8636 -34.8630 -34.8623 -34.8621 -34.8621 -34.8620 -34.8615
   -34.8599 -34.8588 -34.8524 -34.8516 -34.8389 -34.8359 -34.8357 -34.8339
   -34.8337 -34.8333 -34.8332 -34.8313 -34.8259 -34.8257 -34.8192 -34.8185
   -34.8164 -34.8149 -34.8149 -34.8114 -34.8074 -34.8051 -34.8048 -34.8046
   -34.8044 -34.8037 -34.8033 -34.7994 -34.7968 -34.7961 -34.7948 -34.7944
   -34.7923 -34.7921 -34.7920 -34.7918 -34.7913 -34.7911 -34.7910 -34.7909
   -34.7908 -34.7900 -34.7898 -34.7896 -34.7895 -34.7894 -34.7893 -34.7891
   -34.7888 -34.7888 -34.7887 -34.7886 -34.7885 -34.7872 -34.7860 -34.7859
   -34.7856 -34.7856 -34.7855 -34.7853 -34.7852 -34.7843 -34.7842 -34.7838
   -34.7836 -34.7833 -34.7831 -34.7829 -34.7828 -34.7827 -34.7825 -34.7823
   -34.7823 -34.7818 -34.7817 -34.7812 -34.7810 -34.7808 -34.7806 -34.7798
   -34.7795 -34.7795 -34.7788 -34.7775 -34.7774 -34.7773 -34.7773 -34.7769
   -34.7737 -34.7729 -34.7723 -34.7712 -34.7701 -34.7697 -34.7693 -34.7693
   -34.7692 -34.7648 -34.7640 -34.7635 -34.7633 -34.7633 -34.7621 -34.7618
   -34.7618 -34.7614 -34.7611 -34.7607 -34.7580 -34.7578 -34.7574 -34.7569
   -34.7567 -34.7564 -34.7563 -34.7554 -34.7551 -34.7551 -34.7550 -34.7546
   -34.7535 -34.7523 -34.7520 -34.7519 -34.7512 -34.7512 -34.7511 -34.7508
   -34.7505 -34.7503 -34.7502 -34.7501 -34.7501 -34.7499 -34.7494 -34.7493
   -34.7489 -34.7489 -34.7486 -34.7481 -34.7478 -34.7466 -34.7451 -34.7438
   -34.7386 -34.7352 -34.7335 -34.7329 -34.7262 -34.7108 -34.7039 -34.7016
   -34.6724 -34.6711 -34.6490 -34.6366 -34.6004 -34.5821 -34.5754 -34.5536
   -34.5490 -34.4788 -34.4608 -34.4381 -27.6504 -27.6485 -27.6439 -27.6436
   -27.6434 -27.6413 -27.6412 -27.6407 -27.6404 -27.6399 -27.6395 -27.6388
   -27.6386 -27.6386 -27.6373 -27.6367 -27.6362 -27.6357 -27.6349 -27.6341
   -27.6339 -27.6334 -27.6327 -27.6327 -27.6326 -27.6320 -27.6316 -27.6315
   -27.6307 -27.6301 -27.6298 -27.6297 -27.6296 -27.6293 -27.6292 -27.6289
   -27.6287 -27.6284 -27.6283 -27.6271 -27.6268 -27.6267 -27.6264 -27.6258
   -27.6252 -27.6251 -27.6250 -27.6248 -27.6243 -27.6242 -27.6240 -27.6236
   -27.6233 -27.6226 -27.6225 -27.6218 -27.6209 -27.6209 -27.6208 -27.6204
   -27.6199 -27.6199 -27.6191 -27.6190 -27.6187 -27.6186 -27.6173 -27.6171
   -27.6170 -27.6164 -27.6150 -27.6146 -27.6142 -27.6135 -27.6133 -27.6129
   -27.6129 -27.6127 -27.6127 -27.6124 -27.6119 -27.6111 -27.6107 -27.6104
   -27.6103 -27.6099 -27.6096 -27.6093 -27.6093 -27.6092 -27.6087 -27.6086
   -27.6085 -27.6078 -27.6073 -27.6073 -27.6068 -27.6067 -27.6061 -27.6057
   -27.6056 -27.6053 -27.6050 -27.6041 -27.6040 -27.6037 -27.6033 -27.6024
   -27.5987 -27.5979 -27.5974 -27.5969 -27.5957 -27.5953 -27.5946 -27.5941
   -27.5933 -27.5923 -27.5920 -27.5918 -27.5912 -27.5906 -27.5905 -27.5899
   -27.5894 -27.5885 -27.5856 -27.5836 -27.5833 -27.5820 -27.5810 -27.5809
   -27.5806 -27.5780 -27.5777 -27.5751 -27.5751 -27.5740 -27.5725 -27.5719
   -27.5678 -27.5674 -27.5669 -27.5667 -27.5636 -27.4907 -27.4901 -27.4893
   -27.4887 -27.3970 -27.3941 -27.3907 -27.3867 -27.3857 -27.3810 -27.3786
   -27.3733 -27.2521 -27.2460 -27.2213 -10.9219 -10.8965 -10.8405 -10.8075
   -10.3670 -10.3369 -10.2050 -10.1848 -10.1154 -10.1026 -10.0518 -10.0219
    -9.8902  -9.8657  -9.8240  -9.7892  -9.6828  -9.6537  -9.5515  -9.5187
    -9.4768  -9.4653  -9.3774  -9.3613  -9.3438  -9.3328  -9.2934  -9.2720
    -9.2536  -9.2219  -9.1750  -9.1563  -9.1363  -9.1177  -9.0556  -9.0453
    -9.0292  -9.0142  -9.0020  -8.9819  -8.9814  -8.9746  -8.9580  -8.9427
    -8.9361  -8.9147  -8.8701  -8.8243  -7.5813  -7.5702  -7.5484  -7.5214
    -7.2767  -7.2485  -7.2427  -7.2356  -7.2221  -7.2062  -7.1965  -7.1412
    -7.0845  -7.0679  -7.0030  -6.9827  -6.8654  -6.7671  -6.7627  -6.7142
    -6.6870  -6.6612  -6.5425  -6.4994  -6.4859  -6.4506  -6.4470  -6.4267
    -5.5368  -5.4606  -5.3063  -5.2768  -3.3941  -3.3591  -3.2637  -3.2358
    -3.2106  -3.1958  -3.1537  -3.1405  -3.0825  -3.0271  -2.9894  -2.9620
    -2.5910  -2.5499  -2.4822  -2.4550  -2.3850  -2.3693  -2.3472  -2.3280
    -2.2948  -2.2509  -2.1943  -2.1868  -2.1816  -2.1381  -2.0380  -2.0171
    -1.9730  -1.9463  -1.9374  -1.9109  -1.8338  -1.8118  -1.7464  -1.6961
    -1.6796  -1.6588  -1.6397  -1.6371  -1.6162  -1.6156  -1.5478  -1.5238
    -1.5120  -1.5001  -1.4937  -1.4847  -1.4630  -1.4586  -1.4289  -1.3986
    -1.3138  -1.2921  -1.2463  -1.2393  -1.2217  -1.2169  -1.2023  -1.1597
    -1.1152  -1.0784  -1.0688  -1.0429  -1.0273  -1.0143  -1.0022  -0.9361
    -0.8853  -0.8785  -0.8150  -0.8082  -0.7790  -0.7672  -0.7166  -0.6791
    -0.6659  -0.6301  -0.6077  -0.5689  -0.5000  -0.4491  -0.4289  -0.4198
    -0.3958  -0.3641  -0.2857  -0.2448  -0.2122  -0.1864  -0.1821  -0.1532
    -0.1454  -0.1150  -0.0778  -0.0486  -0.0437  -0.0325  -0.0096   0.0071
     0.1699   0.2474   0.2673   0.2952   0.3635   0.3834   0.4017   0.4188
     0.4195   0.4533   0.4926   0.5053   0.5102   0.5258   0.5690   0.5916
     0.6953   0.7163   0.7455   0.7571   0.7867   0.8229   0.8596   0.9115
     0.9544   0.9732   1.0091   1.0798   1.1274   1.1580   1.1583   1.2213
     1.2702   1.2903   1.3264   1.3433   1.3993   1.4043   1.4330   1.4481
     1.5275   1.5717   1.6315   1.6554   1.8703   1.9556   2.1383   2.2494
     2.3816   2.6144   2.6397   2.7785   2.8306   2.8510   2.8720   2.8968
     2.9229   2.9547   2.9685   2.9836   2.9976   3.0207   3.0619   3.0987
     3.1286   3.1505   3.1658   3.2071   3.2207   3.2588   3.2974   3.3352
     3.3487   3.3684   3.3836   3.4120   3.4457   3.4595   3.4646   3.4992
     3.5398   3.5632   3.5693   3.5879   3.5963   3.6415   3.6589   3.7829
     3.8447   3.8852   3.9123   3.9349   3.9383   4.0036   4.0212   4.0457
     4.0918   4.0998   4.1343   4.1890   4.2343   4.3073   4.3591   4.4302
     4.4771   4.5574   4.6205   4.6481   4.6775   4.6900   4.7135   4.7573
     4.7777   4.8011   4.8172   4.8646   4.8848   4.9031   4.9276   4.9645
     4.9847   5.0318   5.0807   5.1853   5.1985   5.2262   5.2513   5.3090
     5.3412   5.3606   5.3772   5.3826   5.3913   5.4512   5.4852   5.5561
     5.5640   5.5991   5.6097   5.6490   5.6657   5.6986   5.7258   5.7572
     5.7776   5.7867   5.8341   5.9077   5.9202   6.0056   6.0555   6.1489
     6.1644   6.1928   6.2048   6.2308   6.2586   6.2833   6.3348   6.3866
     6.4011   6.4991   6.5159   6.5883   6.6451   6.7207   6.7527   6.7671
     6.7957   6.8132   6.8253   6.8978   6.9445

     occupation numbers 
     1.0000   1.0000   1.0000   1.0000   1.0000   1.0000   1.0000   1.0000
     1.0000   1.0000   1.0000   1.0000   1.0000   1.0000   1.0000   1.0000
     1.0000   1.0000   1.0000   1.0000   1.0000   1.0000   1.0000   1.0000
     1.0000   1.0000   1.0000   1.0000   1.0000   1.0000   1.0000   1.0000
     1.0000   1.0000   1.0000   1.0000   1.0000   1.0000   1.0000   1.0000
     1.0000   1.0000   1.0000   1.0000   1.0000   1.0000   1.0000   1.0000
     1.0000   1.0000   1.0000   1.0000   1.0000   1.0000   1.0000   1.0000
     1.0000   1.0000   1.0000   1.0000   1.0000   1.0000   1.0000   1.0000
     1.0000   1.0000   1.0000   1.0000   1.0000   1.0000   1.0000   1.0000
     1.0000   1.0000   1.0000   1.0000   1.0000   1.0000   1.0000   1.0000
     1.0000   1.0000   1.0000   1.0000   1.0000   1.0000   1.0000   1.0000
     1.0000   1.0000   1.0000   1.0000   1.0000   1.0000   1.0000   1.0000
     1.0000   1.0000   1.0000   1.0000   1.0000   1.0000   1.0000   1.0000
     1.0000   1.0000   1.0000   1.0000   1.0000   1.0000   1.0000   1.0000
     1.0000   1.0000   1.0000   1.0000   1.0000   1.0000   1.0000   1.0000
     1.0000   1.0000   1.0000   1.0000   1.0000   1.0000   1.0000   1.0000
     1.0000   1.0000   1.0000   1.0000   1.0000   1.0000   1.0000   1.0000
     1.0000   1.0000   1.0000   1.0000   1.0000   1.0000   1.0000   1.0000
     1.0000   1.0000   1.0000   1.0000   1.0000   1.0000   1.0000   1.0000
     1.0000   1.0000   1.0000   1.0000   1.0000   1.0000   1.0000   1.0000
     1.0000   1.0000   1.0000   1.0000   1.0000   1.0000   1.0000   1.0000
     1.0000   1.0000   1.0000   1.0000   1.0000   1.0000   1.0000   1.0000
     1.0000   1.0000   1.0000   1.0000   1.0000   1.0000   1.0000   1.0000
     1.0000   1.0000   1.0000   1.0000   1.0000   1.0000   1.0000   1.0000
     1.0000   1.0000   1.0000   1.0000   1.0000   1.0000   1.0000   1.0000
     1.0000   1.0000   1.0000   1.0000   1.0000   1.0000   1.0000   1.0000
     1.0000   1.0000   1.0000   1.0000   1.0000   1.0000   1.0000   1.0000
     1.0000   1.0000   1.0000   1.0000   1.0000   1.0000   1.0000   1.0000
     1.0000   1.0000   1.0000   1.0000   1.0000   1.0000   1.0000   1.0000
     1.0000   1.0000   1.0000   1.0000   1.0000   1.0000   1.0000   1.0000
     1.0000   1.0000   1.0000   1.0000   1.0000   1.0000   1.0000   1.0000
     1.0000   1.0000   1.0000   1.0000   1.0000   1.0000   1.0000   1.0000
     1.0000   1.0000   1.0000   1.0000   1.0000   1.0000   1.0000   1.0000
     1.0000   1.0000   1.0000   1.0000   1.0000   1.0000   1.0000   1.0000
     1.0000   1.0000   1.0000   1.0000   1.0000   1.0000   1.0000   1.0000
     1.0000   1.0000   1.0000   1.0000   1.0000   1.0000   1.0000   1.0000
     1.0000   1.0000   1.0000   1.0000   1.0000   1.0000   1.0000   1.0000
     1.0000   1.0000   1.0000   1.0000   1.0000   1.0000   1.0000   1.0000
     1.0000   1.0000   1.0000   1.0000   1.0000   1.0000   1.0000   1.0000
     1.0000   1.0000   1.0000   1.0000   1.0000   1.0000   1.0000   1.0000
     1.0000   1.0000   1.0000   1.0000   1.0000   1.0000   1.0000   1.0000
     1.0000   1.0000   1.0000   1.0000   1.0000   1.0000   1.0000   1.0000
     1.0000   1.0000   1.0000   1.0000   1.0000   1.0000   1.0000   1.0000
     1.0000   1.0000   1.0000   1.0000   1.0000   1.0000   1.0000   1.0000
     1.0000   1.0000   1.0000   1.0000   1.0000   1.0000   1.0000   1.0000
     1.0000   1.0000   1.0000   1.0000   1.0000   1.0000   1.0000   1.0000
     1.0000   1.0000   1.0000   1.0000   1.0000   1.0000   1.0000   1.0000
     1.0000   1.0000   1.0000   1.0000   1.0000   1.0000   1.0000   1.0000
     1.0000   1.0000   1.0000   1.0000   1.0000   1.0000   1.0000   1.0000
     1.0000   1.0000   1.0000   1.0000   1.0000   1.0000   1.0000   1.0000
     1.0000   1.0000   1.0000   1.0000   1.0000   1.0000   1.0000   1.0000
     1.0000   1.0000   1.0000   1.0000   1.0000   1.0000   1.0000   1.0000
     1.0000   1.0000   1.0000   1.0000   1.0000   1.0000   1.0000   1.0000
     1.0000   1.0000   1.0000   1.0000   1.0000   1.0000   1.0000   1.0000
     1.0000   1.0000   1.0000   1.0000   1.0000   1.0000   1.0000   1.0000
     1.0000   1.0000   1.0000   1.0000   1.0000   1.0000   1.0000   1.0000
     1.0000   1.0000   1.0000   1.0000   1.0000   1.0000   1.0000   1.0000
     1.0000   1.0000   1.0000   1.0000   1.0000   1.0000   1.0000   1.0000
     1.0000   1.0000   1.0000   1.0000   1.0000   1.0000   1.0000   1.0000
     1.0000   1.0000   1.0000   1.0000   1.0000   1.0000   1.0000   1.0000
     1.0000   1.0000   1.0000   1.0000   1.0000   1.0000   1.0000   1.0000
     1.0000   1.0000   1.0000   1.0000   1.0000   1.0000   1.0000   1.0000
     1.0000   1.0000   1.0000   1.0000   1.0000   1.0000   1.0000   1.0000
     1.0000   1.0000   1.0000   1.0000   1.0000   1.0000   1.0000   1.0000
     1.0000   1.0000   1.0000   1.0000   1.0000   1.0000   1.0000   1.0000
     1.0000   1.0000   1.0000   1.0000   1.0000   1.0000   1.0000   1.0000
     1.0000   1.0000   1.0000   1.0000   1.0000   1.0000   1.0000   1.0000
     1.0000   1.0000   1.0000   1.0000   1.0000   1.0000   1.0000   1.0000
     1.0000   1.0000   1.0000   1.0000   1.0000   1.0000   1.0000   1.0000
     1.0000   1.0000   1.0000   1.0000   1.0000   1.0000   1.0000   1.0000
     1.0000   1.0000   1.0000   1.0000   1.0000   1.0000   1.0000   1.0000
     1.0000   1.0000   1.0000   1.0000   1.0000   1.0000   1.0000   1.0000
     1.0000   1.0000   1.0000   1.0000   1.0000   1.0000   1.0000   1.0000
     1.0000   1.0000   1.0000   1.0000   1.0000   1.0000   1.0000   1.0000
     1.0000   1.0000   1.0000   1.0000   1.0000   1.0000   1.0000   1.0000
     1.0000   1.0000   1.0000   1.0000   1.0000   1.0000   1.0000   1.0000
     1.0000   1.0000   1.0000   1.0000   1.0000   1.0000   1.0000   1.0000
     1.0000   1.0000   1.0000   1.0000   1.0000   1.0000   1.0000   1.0000
     1.0000   1.0000   1.0000   1.0000   1.0157   1.0648   0.6967   0.1698
     0.0065   0.0000   0.0000   0.0000   0.0000   0.0000   0.0000   0.0000
     0.0000   0.0000   0.0000   0.0000   0.0000   0.0000   0.0000   0.0000
     0.0000   0.0000   0.0000   0.0000   0.0000   0.0000   0.0000   0.0000
     0.0000   0.0000   0.0000   0.0000   0.0000   0.0000   0.0000   0.0000
     0.0000   0.0000   0.0000   0.0000   0.0000   0.0000   0.0000   0.0000
     0.0000   0.0000   0.0000   0.0000   0.0000   0.0000   0.0000   0.0000
     0.0000   0.0000   0.0000   0.0000   0.0000   0.0000   0.0000   0.0000
     0.0000   0.0000   0.0000   0.0000   0.0000   0.0000   0.0000   0.0000
     0.0000   0.0000   0.0000   0.0000   0.0000   0.0000   0.0000   0.0000
     0.0000   0.0000   0.0000   0.0000   0.0000   0.0000   0.0000   0.0000
     0.0000   0.0000   0.0000   0.0000   0.0000   0.0000   0.0000   0.0000
     0.0000   0.0000   0.0000   0.0000   0.0000   0.0000   0.0000   0.0000
     0.0000   0.0000   0.0000   0.0000   0.0000   0.0000   0.0000   0.0000
     0.0000   0.0000   0.0000   0.0000   0.0000   0.0000   0.0000   0.0000
     0.0000   0.0000   0.0000   0.0000   0.0000   0.0000   0.0000   0.0000
     0.0000   0.0000   0.0000   0.0000   0.0000

          k = 0.2500-0.4336 0.0902 (401031 PWs)   bands (ev):

   -69.1000 -40.6057 -40.4586 -40.3908 -35.0513 -35.0445 -35.0424 -35.0321
   -35.0248 -34.9925 -34.9838 -34.9732 -34.9334 -34.9316 -34.9229 -34.9215
   -34.9213 -34.9179 -34.9178 -34.9155 -34.9154 -34.9147 -34.9136 -34.9134
   -34.9113 -34.9111 -34.9109 -34.9100 -34.9098 -34.9045 -34.9044 -34.9034
   -34.9026 -34.8953 -34.8951 -34.8876 -34.8852 -34.8845 -34.8843 -34.8840
   -34.8811 -34.8801 -34.8799 -34.8795 -34.8791 -34.8782 -34.8781 -34.8779
   -34.8779 -34.8777 -34.8776 -34.8771 -34.8768 -34.8766 -34.8756 -34.8753
   -34.8752 -34.8740 -34.8734 -34.8731 -34.8725 -34.8710 -34.8707 -34.8706
   -34.8706 -34.8705 -34.8678 -34.8661 -34.8655 -34.8649 -34.8647 -34.8645
   -34.8637 -34.8636 -34.8630 -34.8623 -34.8621 -34.8621 -34.8620 -34.8615
   -34.8599 -34.8588 -34.8524 -34.8516 -34.8389 -34.8359 -34.8357 -34.8339
   -34.8337 -34.8333 -34.8332 -34.8313 -34.8259 -34.8257 -34.8192 -34.8185
   -34.8164 -34.8149 -34.8149 -34.8114 -34.8074 -34.8051 -34.8048 -34.8046
   -34.8044 -34.8037 -34.8033 -34.7994 -34.7968 -34.7961 -34.7948 -34.7944
   -34.7923 -34.7921 -34.7920 -34.7918 -34.7913 -34.7911 -34.7910 -34.7909
   -34.7908 -34.7900 -34.7898 -34.7896 -34.7895 -34.7894 -34.7893 -34.7891
   -34.7888 -34.7888 -34.7887 -34.7886 -34.7885 -34.7872 -34.7860 -34.7859
   -34.7856 -34.7856 -34.7855 -34.7853 -34.7852 -34.7843 -34.7842 -34.7838
   -34.7836 -34.7833 -34.7831 -34.7829 -34.7828 -34.7827 -34.7825 -34.7823
   -34.7823 -34.7818 -34.7817 -34.7812 -34.7810 -34.7808 -34.7806 -34.7798
   -34.7795 -34.7795 -34.7788 -34.7775 -34.7774 -34.7773 -34.7773 -34.7769
   -34.7737 -34.7729 -34.7723 -34.7712 -34.7701 -34.7697 -34.7693 -34.7693
   -34.7692 -34.7648 -34.7640 -34.7635 -34.7633 -34.7633 -34.7621 -34.7618
   -34.7618 -34.7614 -34.7611 -34.7607 -34.7580 -34.7578 -34.7574 -34.7569
   -34.7567 -34.7564 -34.7563 -34.7554 -34.7551 -34.7551 -34.7550 -34.7546
   -34.7535 -34.7523 -34.7520 -34.7519 -34.7512 -34.7511 -34.7511 -34.7508
   -34.7506 -34.7502 -34.7502 -34.7501 -34.7501 -34.7499 -34.7494 -34.7493
   -34.7489 -34.7489 -34.7486 -34.7481 -34.7478 -34.7466 -34.7451 -34.7438
   -34.7386 -34.7352 -34.7335 -34.7329 -34.7262 -34.7108 -34.7039 -34.7016
   -34.6724 -34.6711 -34.6490 -34.6366 -34.6004 -34.5821 -34.5754 -34.5536
   -34.5490 -34.4788 -34.4608 -34.4381 -27.6504 -27.6485 -27.6439 -27.6436
   -27.6434 -27.6413 -27.6412 -27.6408 -27.6404 -27.6398 -27.6396 -27.6386
   -27.6385 -27.6383 -27.6375 -27.6368 -27.6363 -27.6358 -27.6349 -27.6340
   -27.6339 -27.6334 -27.6327 -27.6327 -27.6326 -27.6320 -27.6315 -27.6315
   -27.6307 -27.6301 -27.6298 -27.6297 -27.6296 -27.6293 -27.6292 -27.6288
   -27.6287 -27.6284 -27.6283 -27.6271 -27.6268 -27.6267 -27.6264 -27.6258
   -27.6251 -27.6251 -27.6250 -27.6248 -27.6243 -27.6242 -27.6240 -27.6236
   -27.6233 -27.6226 -27.6225 -27.6218 -27.6209 -27.6209 -27.6208 -27.6204
   -27.6199 -27.6199 -27.6191 -27.6190 -27.6187 -27.6185 -27.6173 -27.6170
   -27.6168 -27.6165 -27.6152 -27.6146 -27.6142 -27.6137 -27.6134 -27.6129
   -27.6128 -27.6127 -27.6125 -27.6124 -27.6120 -27.6111 -27.6107 -27.6104
   -27.6103 -27.6099 -27.6096 -27.6093 -27.6093 -27.6092 -27.6088 -27.6086
   -27.6085 -27.6078 -27.6073 -27.6073 -27.6068 -27.6067 -27.6061 -27.6057
   -27.6057 -27.6053 -27.6050 -27.6041 -27.6040 -27.6037 -27.6033 -27.6024
   -27.5987 -27.5979 -27.5974 -27.5969 -27.5957 -27.5953 -27.5946 -27.5941
   -27.5933 -27.5923 -27.5920 -27.5918 -27.5912 -27.5906 -27.5905 -27.5899
   -27.5894 -27.5885 -27.5856 -27.5836 -27.5833 -27.5820 -27.5810 -27.5809
   -27.5806 -27.5780 -27.5777 -27.5751 -27.5751 -27.5740 -27.5725 -27.5719
   -27.5678 -27.5674 -27.5669 -27.5667 -27.5636 -27.4907 -27.4901 -27.4893
   -27.4887 -27.3970 -27.3941 -27.3907 -27.3867 -27.3857 -27.3810 -27.3786
   -27.3733 -27.2521 -27.2460 -27.2213 -11.0476 -10.9672 -10.5184 -10.4934
   -10.4747 -10.4375 -10.3962 -10.3073 -10.2378 -10.1657  -9.9957  -9.9748
    -9.8520  -9.8108  -9.7904  -9.7599  -9.7523  -9.7192  -9.6761  -9.6060
    -9.4595  -9.4103  -9.3972  -9.3259  -9.2867  -9.2585  -9.2419  -9.2329
    -9.2228  -9.1603  -9.1463  -9.1258  -9.1094  -9.0707  -9.0643  -9.0576
    -9.0263  -9.0250  -9.0014  -8.9939  -8.9848  -8.9746  -8.9581  -8.9409
    -8.9241  -8.9054  -8.8623  -8.7866  -7.6201  -7.6136  -7.6064  -7.5916
    -7.5712  -7.5010  -7.3637  -7.3561  -7.2910  -7.2822  -7.1125  -7.0755
    -6.9334  -6.8573  -6.8339  -6.8142  -6.8015  -6.7812  -6.7486  -6.7396
    -6.7154  -6.6800  -6.6418  -6.4341  -6.4235  -6.3763  -6.0803  -6.0702
    -5.9957  -5.9916  -5.2960  -5.0256  -3.4923  -3.4364  -3.4057  -3.3255
    -3.2660  -3.2361  -3.1411  -3.0845  -2.8565  -2.7205  -2.6665  -2.5773
    -2.5634  -2.4958  -2.4932  -2.4849  -2.4650  -2.3853  -2.3612  -2.3084
    -2.3070  -2.2925  -2.2619  -2.2318  -2.2177  -2.1408  -2.1107  -2.0906
    -2.0768  -2.0255  -2.0118  -1.9798  -1.9746  -1.9567  -1.9002  -1.8823
    -1.7793  -1.7458  -1.7326  -1.7173  -1.6820  -1.6373  -1.5989  -1.5546
    -1.5446  -1.5232  -1.5044  -1.4490  -1.4387  -1.3283  -1.2988  -1.2509
    -1.2086  -1.1613  -1.1578  -1.1521  -1.1447  -1.1358  -1.1078  -1.0931
    -1.0710  -1.0475  -1.0307  -1.0109  -0.9903  -0.9582  -0.9424  -0.9390
    -0.9150  -0.9048  -0.8960  -0.8712  -0.8383  -0.7921  -0.7255  -0.7082
    -0.6782  -0.6481  -0.6379  -0.6276  -0.5970  -0.5711  -0.4487  -0.4121
    -0.3997  -0.3707  -0.3269  -0.2870  -0.2666  -0.2300  -0.2102  -0.1182
    -0.1053  -0.0787  -0.0699  -0.0570  -0.0398   0.0611   0.0996   0.1639
     0.2170   0.2475   0.2594   0.3135   0.3255   0.3425   0.3863   0.4353
     0.4488   0.4839   0.5168   0.5353   0.5675   0.5944   0.6299   0.6535
     0.6709   0.6842   0.7504   0.8306   0.8887   0.9121   0.9421   0.9708
     1.0163   1.0245   1.0725   1.0931   1.1156   1.1337   1.1426   1.1931
     1.2120   1.2304   1.2533   1.2782   1.3304   1.3643   1.3775   1.4444
     1.5031   1.5125   1.5488   1.6366   1.7977   1.9740   2.1031   2.2817
     2.3829   2.5670   2.6686   2.7356   2.7852   2.8359   2.8806   2.9128
     2.9435   2.9543   2.9766   3.0038   3.0432   3.0765   3.0912   3.1052
     3.1251   3.1390   3.1661   3.1754   3.1796   3.2139   3.2313   3.2731
     3.2905   3.3297   3.3551   3.3758   3.4093   3.4244   3.4405   3.4652
     3.4848   3.5387   3.5817   3.6585   3.6743   3.7249   3.7807   3.7994
     3.8255   3.8629   3.8840   3.9125   3.9513   3.9726   3.9806   4.0072
     4.0362   4.0569   4.1041   4.1375   4.2196   4.2732   4.2942   4.3660
     4.4327   4.4432   4.4827   4.5338   4.6844   4.6945   4.7829   4.7939
     4.8118   4.8599   4.9407   4.9630   4.9887   5.0369   5.0542   5.0955
     5.1349   5.1728   5.1860   5.2099   5.2297   5.2360   5.2778   5.2937
     5.3052   5.3319   5.3388   5.3587   5.3917   5.4058   5.4826   5.5162
     5.5397   5.5519   5.6171   5.6234   5.6894   5.7181   5.7297   5.7768
     5.7814   5.8863   5.9465   5.9660   6.0017   6.0703   6.1079   6.1536
     6.2260   6.2280   6.2560   6.3328   6.3458   6.3785   6.4142   6.4482
     6.4894   6.5396   6.5680   6.6277   6.6633   6.6793   6.7105   6.7562
     6.7948   6.8066   6.8355   6.8989   6.9374

     occupation numbers 
     1.0000   1.0000   1.0000   1.0000   1.0000   1.0000   1.0000   1.0000
     1.0000   1.0000   1.0000   1.0000   1.0000   1.0000   1.0000   1.0000
     1.0000   1.0000   1.0000   1.0000   1.0000   1.0000   1.0000   1.0000
     1.0000   1.0000   1.0000   1.0000   1.0000   1.0000   1.0000   1.0000
     1.0000   1.0000   1.0000   1.0000   1.0000   1.0000   1.0000   1.0000
     1.0000   1.0000   1.0000   1.0000   1.0000   1.0000   1.0000   1.0000
     1.0000   1.0000   1.0000   1.0000   1.0000   1.0000   1.0000   1.0000
     1.0000   1.0000   1.0000   1.0000   1.0000   1.0000   1.0000   1.0000
     1.0000   1.0000   1.0000   1.0000   1.0000   1.0000   1.0000   1.0000
     1.0000   1.0000   1.0000   1.0000   1.0000   1.0000   1.0000   1.0000
     1.0000   1.0000   1.0000   1.0000   1.0000   1.0000   1.0000   1.0000
     1.0000   1.0000   1.0000   1.0000   1.0000   1.0000   1.0000   1.0000
     1.0000   1.0000   1.0000   1.0000   1.0000   1.0000   1.0000   1.0000
     1.0000   1.0000   1.0000   1.0000   1.0000   1.0000   1.0000   1.0000
     1.0000   1.0000   1.0000   1.0000   1.0000   1.0000   1.0000   1.0000
     1.0000   1.0000   1.0000   1.0000   1.0000   1.0000   1.0000   1.0000
     1.0000   1.0000   1.0000   1.0000   1.0000   1.0000   1.0000   1.0000
     1.0000   1.0000   1.0000   1.0000   1.0000   1.0000   1.0000   1.0000
     1.0000   1.0000   1.0000   1.0000   1.0000   1.0000   1.0000   1.0000
     1.0000   1.0000   1.0000   1.0000   1.0000   1.0000   1.0000   1.0000
     1.0000   1.0000   1.0000   1.0000   1.0000   1.0000   1.0000   1.0000
     1.0000   1.0000   1.0000   1.0000   1.0000   1.0000   1.0000   1.0000
     1.0000   1.0000   1.0000   1.0000   1.0000   1.0000   1.0000   1.0000
     1.0000   1.0000   1.0000   1.0000   1.0000   1.0000   1.0000   1.0000
     1.0000   1.0000   1.0000   1.0000   1.0000   1.0000   1.0000   1.0000
     1.0000   1.0000   1.0000   1.0000   1.0000   1.0000   1.0000   1.0000
     1.0000   1.0000   1.0000   1.0000   1.0000   1.0000   1.0000   1.0000
     1.0000   1.0000   1.0000   1.0000   1.0000   1.0000   1.0000   1.0000
     1.0000   1.0000   1.0000   1.0000   1.0000   1.0000   1.0000   1.0000
     1.0000   1.0000   1.0000   1.0000   1.0000   1.0000   1.0000   1.0000
     1.0000   1.0000   1.0000   1.0000   1.0000   1.0000   1.0000   1.0000
     1.0000   1.0000   1.0000   1.0000   1.0000   1.0000   1.0000   1.0000
     1.0000   1.0000   1.0000   1.0000   1.0000   1.0000   1.0000   1.0000
     1.0000   1.0000   1.0000   1.0000   1.0000   1.0000   1.0000   1.0000
     1.0000   1.0000   1.0000   1.0000   1.0000   1.0000   1.0000   1.0000
     1.0000   1.0000   1.0000   1.0000   1.0000   1.0000   1.0000   1.0000
     1.0000   1.0000   1.0000   1.0000   1.0000   1.0000   1.0000   1.0000
     1.0000   1.0000   1.0000   1.0000   1.0000   1.0000   1.0000   1.0000
     1.0000   1.0000   1.0000   1.0000   1.0000   1.0000   1.0000   1.0000
     1.0000   1.0000   1.0000   1.0000   1.0000   1.0000   1.0000   1.0000
     1.0000   1.0000   1.0000   1.0000   1.0000   1.0000   1.0000   1.0000
     1.0000   1.0000   1.0000   1.0000   1.0000   1.0000   1.0000   1.0000
     1.0000   1.0000   1.0000   1.0000   1.0000   1.0000   1.0000   1.0000
     1.0000   1.0000   1.0000   1.0000   1.0000   1.0000   1.0000   1.0000
     1.0000   1.0000   1.0000   1.0000   1.0000   1.0000   1.0000   1.0000
     1.0000   1.0000   1.0000   1.0000   1.0000   1.0000   1.0000   1.0000
     1.0000   1.0000   1.0000   1.0000   1.0000   1.0000   1.0000   1.0000
     1.0000   1.0000   1.0000   1.0000   1.0000   1.0000   1.0000   1.0000
     1.0000   1.0000   1.0000   1.0000   1.0000   1.0000   1.0000   1.0000
     1.0000   1.0000   1.0000   1.0000   1.0000   1.0000   1.0000   1.0000
     1.0000   1.0000   1.0000   1.0000   1.0000   1.0000   1.0000   1.0000
     1.0000   1.0000   1.0000   1.0000   1.0000   1.0000   1.0000   1.0000
     1.0000   1.0000   1.0000   1.0000   1.0000   1.0000   1.0000   1.0000
     1.0000   1.0000   1.0000   1.0000   1.0000   1.0000   1.0000   1.0000
     1.0000   1.0000   1.0000   1.0000   1.0000   1.0000   1.0000   1.0000
     1.0000   1.0000   1.0000   1.0000   1.0000   1.0000   1.0000   1.0000
     1.0000   1.0000   1.0000   1.0000   1.0000   1.0000   1.0000   1.0000
     1.0000   1.0000   1.0000   1.0000   1.0000   1.0000   1.0000   1.0000
     1.0000   1.0000   1.0000   1.0000   1.0000   1.0000   1.0000   1.0000
     1.0000   1.0000   1.0000   1.0000   1.0000   1.0000   1.0000   1.0000
     1.0000   1.0000   1.0000   1.0000   1.0000   1.0000   1.0000   1.0000
     1.0000   1.0000   1.0000   1.0000   1.0000   1.0000   1.0000   1.0000
     1.0000   1.0000   1.0000   1.0000   1.0000   1.0000   1.0000   1.0000
     1.0000   1.0000   1.0000   1.0000   1.0000   1.0000   1.0000   1.0000
     1.0000   1.0000   1.0000   1.0000   1.0000   1.0000   1.0000   1.0000
     1.0000   1.0000   1.0000   1.0000   1.0000   1.0000   1.0000   1.0000
     1.0000   1.0000   1.0000   1.0000   1.0000   1.0000   1.0000   1.0000
     1.0000   1.0000   1.0000   1.0000   1.0000   1.0000   1.0000   1.0000
     1.0000   1.0000   1.0000   1.0000   1.0000   1.0000   1.0000   1.0000
     1.0000   1.0000   1.0000   1.0000   1.0000   1.0000   1.0000   1.0000
     1.0000   1.0000   1.0000   1.0000   1.0000   1.0000   1.0000   1.0000
     1.0000   1.0000   1.0000   1.0000   1.0000   1.0000   1.0000   1.0000
     1.0000   1.0000   1.0000   1.0000   1.0000   1.0000   1.0000   1.0000
     1.0000   1.0000   1.0000   1.0000   1.0000   1.0000   1.0000   1.0000
     1.0000   1.0000   1.0000   1.0000   1.0000   1.0000   1.0000   1.0000
     1.0000   1.0000   1.0000   1.0000   1.0000   1.0000   1.0000   1.0000
     1.0000   1.0000   1.0000   1.0000   1.0000   1.0000   1.0000   1.0000
     1.0000   1.0000   1.0000   1.0000   1.0000   1.0000   1.0000   1.0000
     1.0000   1.0000   1.0000   1.0000   1.0022   1.0757   0.8720   0.0903
     0.0063   0.0000   0.0000   0.0000   0.0000   0.0000   0.0000   0.0000
     0.0000   0.0000   0.0000   0.0000   0.0000   0.0000   0.0000   0.0000
     0.0000   0.0000   0.0000   0.0000   0.0000   0.0000   0.0000   0.0000
     0.0000   0.0000   0.0000   0.0000   0.0000   0.0000   0.0000   0.0000
     0.0000   0.0000   0.0000   0.0000   0.0000   0.0000   0.0000   0.0000
     0.0000   0.0000   0.0000   0.0000   0.0000   0.0000   0.0000   0.0000
     0.0000   0.0000   0.0000   0.0000   0.0000   0.0000   0.0000   0.0000
     0.0000   0.0000   0.0000   0.0000   0.0000   0.0000   0.0000   0.0000
     0.0000   0.0000   0.0000   0.0000   0.0000   0.0000   0.0000   0.0000
     0.0000   0.0000   0.0000   0.0000   0.0000   0.0000   0.0000   0.0000
     0.0000   0.0000   0.0000   0.0000   0.0000   0.0000   0.0000   0.0000
     0.0000   0.0000   0.0000   0.0000   0.0000   0.0000   0.0000   0.0000
     0.0000   0.0000   0.0000   0.0000   0.0000   0.0000   0.0000   0.0000
     0.0000   0.0000   0.0000   0.0000   0.0000   0.0000   0.0000   0.0000
     0.0000   0.0000   0.0000   0.0000   0.0000   0.0000   0.0000   0.0000
     0.0000   0.0000   0.0000   0.0000   0.0000

          k = 0.2500-0.4336-0.0902 (401031 PWs)   bands (ev):

   -69.1000 -40.6057 -40.4586 -40.3908 -35.0513 -35.0445 -35.0424 -35.0321
   -35.0248 -34.9925 -34.9838 -34.9732 -34.9334 -34.9316 -34.9229 -34.9215
   -34.9213 -34.9179 -34.9178 -34.9155 -34.9154 -34.9147 -34.9136 -34.9134
   -34.9113 -34.9111 -34.9109 -34.9100 -34.9098 -34.9045 -34.9044 -34.9034
   -34.9026 -34.8953 -34.8951 -34.8876 -34.8852 -34.8845 -34.8843 -34.8840
   -34.8811 -34.8801 -34.8799 -34.8795 -34.8791 -34.8782 -34.8781 -34.8779
   -34.8779 -34.8777 -34.8776 -34.8771 -34.8768 -34.8766 -34.8756 -34.8753
   -34.8752 -34.8740 -34.8734 -34.8731 -34.8725 -34.8710 -34.8707 -34.8706
   -34.8706 -34.8705 -34.8678 -34.8661 -34.8655 -34.8649 -34.8647 -34.8645
   -34.8637 -34.8636 -34.8630 -34.8623 -34.8621 -34.8621 -34.8620 -34.8615
   -34.8599 -34.8588 -34.8524 -34.8516 -34.8389 -34.8359 -34.8357 -34.8339
   -34.8337 -34.8333 -34.8332 -34.8313 -34.8259 -34.8257 -34.8192 -34.8185
   -34.8164 -34.8149 -34.8149 -34.8114 -34.8074 -34.8051 -34.8048 -34.8046
   -34.8044 -34.8037 -34.8033 -34.7994 -34.7968 -34.7961 -34.7948 -34.7944
   -34.7923 -34.7921 -34.7920 -34.7918 -34.7913 -34.7911 -34.7910 -34.7909
   -34.7908 -34.7900 -34.7898 -34.7896 -34.7895 -34.7894 -34.7893 -34.7891
   -34.7888 -34.7888 -34.7887 -34.7886 -34.7885 -34.7872 -34.7860 -34.7859
   -34.7856 -34.7856 -34.7855 -34.7853 -34.7852 -34.7843 -34.7842 -34.7838
   -34.7836 -34.7833 -34.7831 -34.7829 -34.7828 -34.7827 -34.7825 -34.7823
   -34.7823 -34.7818 -34.7817 -34.7812 -34.7810 -34.7808 -34.7806 -34.7798
   -34.7795 -34.7795 -34.7788 -34.7775 -34.7774 -34.7773 -34.7773 -34.7769
   -34.7737 -34.7729 -34.7723 -34.7712 -34.7701 -34.7697 -34.7693 -34.7693
   -34.7692 -34.7648 -34.7640 -34.7635 -34.7633 -34.7633 -34.7621 -34.7618
   -34.7618 -34.7614 -34.7611 -34.7607 -34.7580 -34.7578 -34.7574 -34.7569
   -34.7567 -34.7564 -34.7563 -34.7554 -34.7551 -34.7551 -34.7550 -34.7546
   -34.7535 -34.7523 -34.7520 -34.7519 -34.7512 -34.7511 -34.7511 -34.7508
   -34.7506 -34.7502 -34.7502 -34.7501 -34.7501 -34.7499 -34.7494 -34.7493
   -34.7489 -34.7489 -34.7486 -34.7481 -34.7478 -34.7466 -34.7451 -34.7438
   -34.7386 -34.7352 -34.7335 -34.7329 -34.7262 -34.7108 -34.7039 -34.7016
   -34.6724 -34.6711 -34.6490 -34.6366 -34.6004 -34.5821 -34.5754 -34.5536
   -34.5490 -34.4788 -34.4608 -34.4381 -27.6504 -27.6485 -27.6439 -27.6436
   -27.6434 -27.6413 -27.6412 -27.6408 -27.6404 -27.6398 -27.6396 -27.6386
   -27.6385 -27.6383 -27.6375 -27.6368 -27.6363 -27.6358 -27.6349 -27.6340
   -27.6339 -27.6334 -27.6327 -27.6327 -27.6326 -27.6320 -27.6315 -27.6315
   -27.6307 -27.6301 -27.6298 -27.6297 -27.6296 -27.6293 -27.6292 -27.6288
   -27.6287 -27.6284 -27.6283 -27.6271 -27.6268 -27.6267 -27.6264 -27.6258
   -27.6251 -27.6251 -27.6250 -27.6248 -27.6243 -27.6242 -27.6240 -27.6236
   -27.6233 -27.6226 -27.6225 -27.6218 -27.6209 -27.6209 -27.6208 -27.6204
   -27.6199 -27.6199 -27.6191 -27.6190 -27.6187 -27.6185 -27.6173 -27.6170
   -27.6168 -27.6165 -27.6152 -27.6146 -27.6142 -27.6137 -27.6134 -27.6129
   -27.6128 -27.6127 -27.6125 -27.6124 -27.6120 -27.6111 -27.6107 -27.6104
   -27.6103 -27.6099 -27.6096 -27.6093 -27.6093 -27.6092 -27.6088 -27.6086
   -27.6085 -27.6078 -27.6073 -27.6073 -27.6068 -27.6067 -27.6061 -27.6057
   -27.6057 -27.6053 -27.6050 -27.6041 -27.6040 -27.6037 -27.6033 -27.6024
   -27.5987 -27.5979 -27.5974 -27.5969 -27.5957 -27.5953 -27.5946 -27.5941
   -27.5933 -27.5923 -27.5920 -27.5918 -27.5912 -27.5906 -27.5905 -27.5899
   -27.5894 -27.5885 -27.5856 -27.5836 -27.5833 -27.5820 -27.5810 -27.5809
   -27.5806 -27.5780 -27.5777 -27.5751 -27.5751 -27.5740 -27.5725 -27.5719
   -27.5678 -27.5674 -27.5669 -27.5667 -27.5636 -27.4907 -27.4901 -27.4893
   -27.4887 -27.3970 -27.3941 -27.3907 -27.3867 -27.3857 -27.3810 -27.3786
   -27.3733 -27.2521 -27.2460 -27.2213 -11.0476 -10.9672 -10.5184 -10.4934
   -10.4747 -10.4375 -10.3962 -10.3073 -10.2378 -10.1657  -9.9957  -9.9748
    -9.8520  -9.8108  -9.7904  -9.7599  -9.7523  -9.7192  -9.6761  -9.6060
    -9.4595  -9.4103  -9.3972  -9.3259  -9.2867  -9.2585  -9.2419  -9.2329
    -9.2228  -9.1603  -9.1463  -9.1258  -9.1094  -9.0707  -9.0643  -9.0576
    -9.0263  -9.0250  -9.0014  -8.9939  -8.9848  -8.9746  -8.9581  -8.9409
    -8.9241  -8.9054  -8.8623  -8.7866  -7.6201  -7.6136  -7.6064  -7.5916
    -7.5712  -7.5010  -7.3637  -7.3561  -7.2910  -7.2822  -7.1125  -7.0755
    -6.9334  -6.8573  -6.8339  -6.8142  -6.8015  -6.7812  -6.7486  -6.7396
    -6.7154  -6.6800  -6.6418  -6.4341  -6.4235  -6.3763  -6.0803  -6.0702
    -5.9957  -5.9916  -5.2960  -5.0256  -3.4923  -3.4364  -3.4057  -3.3255
    -3.2660  -3.2361  -3.1411  -3.0845  -2.8565  -2.7205  -2.6665  -2.5773
    -2.5634  -2.4958  -2.4932  -2.4849  -2.4650  -2.3853  -2.3612  -2.3084
    -2.3070  -2.2925  -2.2619  -2.2318  -2.2177  -2.1408  -2.1107  -2.0906
    -2.0768  -2.0255  -2.0118  -1.9798  -1.9746  -1.9567  -1.9002  -1.8823
    -1.7793  -1.7458  -1.7326  -1.7173  -1.6820  -1.6373  -1.5989  -1.5546
    -1.5446  -1.5232  -1.5044  -1.4490  -1.4387  -1.3283  -1.2988  -1.2509
    -1.2086  -1.1613  -1.1578  -1.1521  -1.1447  -1.1358  -1.1078  -1.0931
    -1.0710  -1.0475  -1.0307  -1.0109  -0.9903  -0.9582  -0.9424  -0.9390
    -0.9150  -0.9048  -0.8960  -0.8712  -0.8383  -0.7921  -0.7255  -0.7082
    -0.6782  -0.6481  -0.6379  -0.6276  -0.5970  -0.5711  -0.4487  -0.4121
    -0.3997  -0.3707  -0.3269  -0.2870  -0.2666  -0.2300  -0.2102  -0.1182
    -0.1053  -0.0787  -0.0699  -0.0570  -0.0398   0.0611   0.0996   0.1639
     0.2170   0.2475   0.2594   0.3135   0.3255   0.3425   0.3863   0.4353
     0.4488   0.4839   0.5168   0.5353   0.5675   0.5944   0.6299   0.6535
     0.6709   0.6842   0.7504   0.8306   0.8887   0.9121   0.9421   0.9708
     1.0163   1.0245   1.0725   1.0931   1.1156   1.1337   1.1426   1.1931
     1.2120   1.2304   1.2533   1.2782   1.3304   1.3643   1.3775   1.4444
     1.5031   1.5125   1.5488   1.6366   1.7977   1.9740   2.1031   2.2817
     2.3829   2.5670   2.6686   2.7356   2.7852   2.8359   2.8806   2.9128
     2.9435   2.9543   2.9766   3.0038   3.0432   3.0765   3.0912   3.1052
     3.1251   3.1390   3.1661   3.1754   3.1796   3.2139   3.2313   3.2731
     3.2905   3.3297   3.3551   3.3758   3.4093   3.4244   3.4405   3.4652
     3.4848   3.5387   3.5817   3.6585   3.6743   3.7249   3.7807   3.7994
     3.8255   3.8629   3.8840   3.9125   3.9513   3.9726   3.9806   4.0072
     4.0362   4.0569   4.1041   4.1375   4.2196   4.2732   4.2942   4.3660
     4.4327   4.4432   4.4827   4.5338   4.6844   4.6945   4.7829   4.7939
     4.8118   4.8599   4.9407   4.9630   4.9887   5.0369   5.0542   5.0955
     5.1349   5.1728   5.1860   5.2099   5.2297   5.2360   5.2778   5.2937
     5.3052   5.3319   5.3388   5.3587   5.3917   5.4058   5.4826   5.5162
     5.5397   5.5519   5.6171   5.6234   5.6894   5.7181   5.7297   5.7768
     5.7814   5.8863   5.9465   5.9660   6.0017   6.0703   6.1079   6.1536
     6.2260   6.2280   6.2560   6.3328   6.3458   6.3785   6.4142   6.4482
     6.4894   6.5396   6.5680   6.6277   6.6632   6.6793   6.7105   6.7562
     6.7950   6.8067   6.8357   6.8989   6.9375

     occupation numbers 
     1.0000   1.0000   1.0000   1.0000   1.0000   1.0000   1.0000   1.0000
     1.0000   1.0000   1.0000   1.0000   1.0000   1.0000   1.0000   1.0000
     1.0000   1.0000   1.0000   1.0000   1.0000   1.0000   1.0000   1.0000
     1.0000   1.0000   1.0000   1.0000   1.0000   1.0000   1.0000   1.0000
     1.0000   1.0000   1.0000   1.0000   1.0000   1.0000   1.0000   1.0000
     1.0000   1.0000   1.0000   1.0000   1.0000   1.0000   1.0000   1.0000
     1.0000   1.0000   1.0000   1.0000   1.0000   1.0000   1.0000   1.0000
     1.0000   1.0000   1.0000   1.0000   1.0000   1.0000   1.0000   1.0000
     1.0000   1.0000   1.0000   1.0000   1.0000   1.0000   1.0000   1.0000
     1.0000   1.0000   1.0000   1.0000   1.0000   1.0000   1.0000   1.0000
     1.0000   1.0000   1.0000   1.0000   1.0000   1.0000   1.0000   1.0000
     1.0000   1.0000   1.0000   1.0000   1.0000   1.0000   1.0000   1.0000
     1.0000   1.0000   1.0000   1.0000   1.0000   1.0000   1.0000   1.0000
     1.0000   1.0000   1.0000   1.0000   1.0000   1.0000   1.0000   1.0000
     1.0000   1.0000   1.0000   1.0000   1.0000   1.0000   1.0000   1.0000
     1.0000   1.0000   1.0000   1.0000   1.0000   1.0000   1.0000   1.0000
     1.0000   1.0000   1.0000   1.0000   1.0000   1.0000   1.0000   1.0000
     1.0000   1.0000   1.0000   1.0000   1.0000   1.0000   1.0000   1.0000
     1.0000   1.0000   1.0000   1.0000   1.0000   1.0000   1.0000   1.0000
     1.0000   1.0000   1.0000   1.0000   1.0000   1.0000   1.0000   1.0000
     1.0000   1.0000   1.0000   1.0000   1.0000   1.0000   1.0000   1.0000
     1.0000   1.0000   1.0000   1.0000   1.0000   1.0000   1.0000   1.0000
     1.0000   1.0000   1.0000   1.0000   1.0000   1.0000   1.0000   1.0000
     1.0000   1.0000   1.0000   1.0000   1.0000   1.0000   1.0000   1.0000
     1.0000   1.0000   1.0000   1.0000   1.0000   1.0000   1.0000   1.0000
     1.0000   1.0000   1.0000   1.0000   1.0000   1.0000   1.0000   1.0000
     1.0000   1.0000   1.0000   1.0000   1.0000   1.0000   1.0000   1.0000
     1.0000   1.0000   1.0000   1.0000   1.0000   1.0000   1.0000   1.0000
     1.0000   1.0000   1.0000   1.0000   1.0000   1.0000   1.0000   1.0000
     1.0000   1.0000   1.0000   1.0000   1.0000   1.0000   1.0000   1.0000
     1.0000   1.0000   1.0000   1.0000   1.0000   1.0000   1.0000   1.0000
     1.0000   1.0000   1.0000   1.0000   1.0000   1.0000   1.0000   1.0000
     1.0000   1.0000   1.0000   1.0000   1.0000   1.0000   1.0000   1.0000
     1.0000   1.0000   1.0000   1.0000   1.0000   1.0000   1.0000   1.0000
     1.0000   1.0000   1.0000   1.0000   1.0000   1.0000   1.0000   1.0000
     1.0000   1.0000   1.0000   1.0000   1.0000   1.0000   1.0000   1.0000
     1.0000   1.0000   1.0000   1.0000   1.0000   1.0000   1.0000   1.0000
     1.0000   1.0000   1.0000   1.0000   1.0000   1.0000   1.0000   1.0000
     1.0000   1.0000   1.0000   1.0000   1.0000   1.0000   1.0000   1.0000
     1.0000   1.0000   1.0000   1.0000   1.0000   1.0000   1.0000   1.0000
     1.0000   1.0000   1.0000   1.0000   1.0000   1.0000   1.0000   1.0000
     1.0000   1.0000   1.0000   1.0000   1.0000   1.0000   1.0000   1.0000
     1.0000   1.0000   1.0000   1.0000   1.0000   1.0000   1.0000   1.0000
     1.0000   1.0000   1.0000   1.0000   1.0000   1.0000   1.0000   1.0000
     1.0000   1.0000   1.0000   1.0000   1.0000   1.0000   1.0000   1.0000
     1.0000   1.0000   1.0000   1.0000   1.0000   1.0000   1.0000   1.0000
     1.0000   1.0000   1.0000   1.0000   1.0000   1.0000   1.0000   1.0000
     1.0000   1.0000   1.0000   1.0000   1.0000   1.0000   1.0000   1.0000
     1.0000   1.0000   1.0000   1.0000   1.0000   1.0000   1.0000   1.0000
     1.0000   1.0000   1.0000   1.0000   1.0000   1.0000   1.0000   1.0000
     1.0000   1.0000   1.0000   1.0000   1.0000   1.0000   1.0000   1.0000
     1.0000   1.0000   1.0000   1.0000   1.0000   1.0000   1.0000   1.0000
     1.0000   1.0000   1.0000   1.0000   1.0000   1.0000   1.0000   1.0000
     1.0000   1.0000   1.0000   1.0000   1.0000   1.0000   1.0000   1.0000
     1.0000   1.0000   1.0000   1.0000   1.0000   1.0000   1.0000   1.0000
     1.0000   1.0000   1.0000   1.0000   1.0000   1.0000   1.0000   1.0000
     1.0000   1.0000   1.0000   1.0000   1.0000   1.0000   1.0000   1.0000
     1.0000   1.0000   1.0000   1.0000   1.0000   1.0000   1.0000   1.0000
     1.0000   1.0000   1.0000   1.0000   1.0000   1.0000   1.0000   1.0000
     1.0000   1.0000   1.0000   1.0000   1.0000   1.0000   1.0000   1.0000
     1.0000   1.0000   1.0000   1.0000   1.0000   1.0000   1.0000   1.0000
     1.0000   1.0000   1.0000   1.0000   1.0000   1.0000   1.0000   1.0000
     1.0000   1.0000   1.0000   1.0000   1.0000   1.0000   1.0000   1.0000
     1.0000   1.0000   1.0000   1.0000   1.0000   1.0000   1.0000   1.0000
     1.0000   1.0000   1.0000   1.0000   1.0000   1.0000   1.0000   1.0000
     1.0000   1.0000   1.0000   1.0000   1.0000   1.0000   1.0000   1.0000
     1.0000   1.0000   1.0000   1.0000   1.0000   1.0000   1.0000   1.0000
     1.0000   1.0000   1.0000   1.0000   1.0000   1.0000   1.0000   1.0000
     1.0000   1.0000   1.0000   1.0000   1.0000   1.0000   1.0000   1.0000
     1.0000   1.0000   1.0000   1.0000   1.0000   1.0000   1.0000   1.0000
     1.0000   1.0000   1.0000   1.0000   1.0000   1.0000   1.0000   1.0000
     1.0000   1.0000   1.0000   1.0000   1.0000   1.0000   1.0000   1.0000
     1.0000   1.0000   1.0000   1.0000   1.0000   1.0000   1.0000   1.0000
     1.0000   1.0000   1.0000   1.0000   1.0000   1.0000   1.0000   1.0000
     1.0000   1.0000   1.0000   1.0000   1.0000   1.0000   1.0000   1.0000
     1.0000   1.0000   1.0000   1.0000   1.0000   1.0000   1.0000   1.0000
     1.0000   1.0000   1.0000   1.0000   1.0000   1.0000   1.0000   1.0000
     1.0000   1.0000   1.0000   1.0000   1.0000   1.0000   1.0000   1.0000
     1.0000   1.0000   1.0000   1.0000   1.0022   1.0757   0.8720   0.0903
     0.0063   0.0000   0.0000   0.0000   0.0000   0.0000   0.0000   0.0000
     0.0000   0.0000   0.0000   0.0000   0.0000   0.0000   0.0000   0.0000
     0.0000   0.0000   0.0000   0.0000   0.0000   0.0000   0.0000   0.0000
     0.0000   0.0000   0.0000   0.0000   0.0000   0.0000   0.0000   0.0000
     0.0000   0.0000   0.0000   0.0000   0.0000   0.0000   0.0000   0.0000
     0.0000   0.0000   0.0000   0.0000   0.0000   0.0000   0.0000   0.0000
     0.0000   0.0000   0.0000   0.0000   0.0000   0.0000   0.0000   0.0000
     0.0000   0.0000   0.0000   0.0000   0.0000   0.0000   0.0000   0.0000
     0.0000   0.0000   0.0000   0.0000   0.0000   0.0000   0.0000   0.0000
     0.0000   0.0000   0.0000   0.0000   0.0000   0.0000   0.0000   0.0000
     0.0000   0.0000   0.0000   0.0000   0.0000   0.0000   0.0000   0.0000
     0.0000   0.0000   0.0000   0.0000   0.0000   0.0000   0.0000   0.0000
     0.0000   0.0000   0.0000   0.0000   0.0000   0.0000   0.0000   0.0000
     0.0000   0.0000   0.0000   0.0000   0.0000   0.0000   0.0000   0.0000
     0.0000   0.0000   0.0000   0.0000   0.0000   0.0000   0.0000   0.0000
     0.0000   0.0000   0.0000   0.0000   0.0000

     the Fermi energy is     2.1930 ev

!    total energy              =  -13037.75046059 Ry
     estimated scf accuracy    <       0.00000043 Ry
     smearing contrib. (-TS)   =      -0.00013627 Ry
     internal energy E=F+TS    =  -13037.75032432 Ry

     The total energy is F=E-TS. E is the sum of the following terms:
     one-electron contribution = -227582.10369637 Ry
     hartree contribution      =  113699.45895614 Ry
     xc contribution           =   -1411.53572114 Ry
     ewald contribution        =  102257.76383593 Ry
     DFT-D3 Dispersion         =      -1.33369888 Ry

     convergence has been achieved in  22 iterations

     Writing all to output data dir ./out/sb2te3.save/ :
     XML data file, charge density, pseudopotentials, collected wavefunctions
 
     init_run     :    329.80s CPU    337.07s WALL (       1 calls)
     electrons    :  24639.11s CPU  25488.21s WALL (       1 calls)

     Called by init_run:
     wfcinit      :    324.35s CPU    330.97s WALL (       1 calls)
     wfcinit:atom :      1.55s CPU      2.36s WALL (       1 calls)
     wfcinit:wfcr :    319.62s CPU    323.78s WALL (       1 calls)
     potinit      :      2.44s CPU      2.89s WALL (       1 calls)
     hinit0       :      1.99s CPU      2.13s WALL (       1 calls)

     Called by electrons:
     c_bands      :  22029.60s CPU  22699.55s WALL (      22 calls)
     sum_band     :   1920.51s CPU   1948.82s WALL (      22 calls)
     v_of_rho     :     50.77s CPU     58.63s WALL (      23 calls)
     v_h          :      3.81s CPU      5.02s WALL (      23 calls)
     v_xc         :     46.95s CPU     53.62s WALL (      23 calls)
     mix_rho      :    637.21s CPU    704.10s WALL (      22 calls)
     energy_dftd3 :      0.33s CPU      0.33s WALL (       1 calls)

     Called by c_bands:
     init_us_2    :    139.68s CPU    142.99s WALL (      45 calls)
     cegterg      :  21094.92s CPU  21761.44s WALL (      22 calls)

     Called by sum_band:
     sum_band:wei :      0.02s CPU      0.03s WALL (      22 calls)
     sum_band:loo :   1905.90s CPU   1933.17s WALL (      22 calls)
     sum_band:buf :      0.00s CPU      0.00s WALL (      22 calls)
     sum_band:ini :     68.48s CPU     69.33s WALL (      22 calls)

     Called by *egterg:
     cdiaghg      :    226.48s CPU    228.70s WALL (     201 calls)
     cegterg:over :   2848.45s CPU   2951.45s WALL (     179 calls)
     cegterg:upda :   1650.07s CPU   1759.05s WALL (     179 calls)
     cegterg:last :   2936.76s CPU   3091.18s WALL (      45 calls)
     h_psi        :  12569.51s CPU  12815.51s WALL (     202 calls)
     g_psi        :     20.08s CPU     22.86s WALL (     179 calls)

     Called by h_psi:
     h_psi:calbec :   2387.81s CPU   2423.26s WALL (     202 calls)
     vloc_psi     :   7606.20s CPU   7687.93s WALL (     202 calls)
     add_vuspsi   :   2539.10s CPU   2581.01s WALL (     202 calls)

     General routines
     calbec       :   2387.81s CPU   2423.26s WALL (     202 calls)
     fft          :     16.68s CPU     16.77s WALL (     229 calls)
     ffts         :    182.82s CPU    183.50s WALL (    2605 calls)
     fftw         :   7267.62s CPU   7302.09s WALL (   91458 calls)
 
     Parallel routines
 
     PWSCF        :      6h56m CPU      7h10m WALL

 
   This run was terminated on:  23:31:43  13Sep2026            

=------------------------------------------------------------------------------=
   JOB DONE.
=------------------------------------------------------------------------------=
