61
Lattice="8.42843558953 0 0 -4.21421779477 7.29923593142 0 0 0 31.0334408416" Properties=species:S:1:pos:R:3:forces:R:3 energy=-133596.881873 ionic_step=0 pbc="T T T"
Te 2.1009886352 1.213006353 3.5204453746 0.00197897826683 0.00114259833932 -0.0200741467014
Te 4.2142178275 4.8732266856 3.5204453746 -0 -0.00228545378899 -0.0200738895911
Te 6.3274470199 1.213006353 3.5204453746 -0.00197897826683 0.00114259833932 -0.0200741467014
Te 0 4.8661595943 3.5136864596 0 -2.57110337382e-07 -0.019076301482
Te 0 0 6.805589125 0 2.57110337382e-07 0.00968380374714
Te 2.1231496267 3.6403585771 6.7735386378 -0.00441381316183 0.00254796344345 0.0174778465145
Te 4.2142178275 0.0185222372 6.7735386378 -0 -0.00509644110758 0.0174778465145
Te -2.1231496267 3.6403585771 6.7735386378 0.00441381316183 0.00254796344345 0.0174778465145
Te 0 0 0.0130412418 0 2.57110337382e-07 -0.00110506023007
Te 2.1083225239 3.6489190173 0.0015592574 -0.000518848660836 0.000299276432712 0.00242043671611
Te 4.2142178275 0.0014013568 0.0015592574 -0 -0.000598809975762 0.00242043671611
Te -2.1083225239 3.6489190173 0.0015592574 0.000518848660836 0.000299276432712 0.00242043671611
Te -0 2.288781578 14.2238239444 0 0.017828030794 -0.0393309396403
Te 2.2320748478 6.1548486024 14.2238239444 -0.0154394757598 -0.00891401539702 -0.0393306825299
Te 4.2142178275 2.4330797971 13.8003403598 -0 2.57110337382e-07 -0.0208585903408
Te -2.2320748478 6.1548486024 14.2238239444 0.0154394757598 -0.00891401539702 -0.0393306825299
Te 2.107990198 1.2170487067 17.1752664535 0.00713326920032 0.00411865049452 0.00822238858946
Te 4.2142178275 4.8651419782 17.1752664535 -0 -0.0082370438787 0.0082226456998
Te 6.3204454571 1.2170487067 17.1752664535 -0.00713326920032 0.00411865049452 0.00822238858946
Te 0 4.8661595943 16.9386111463 0 -2.57110337382e-07 0.0441980383269
Te 2.0766942386 1.198979967 10.2814975425 -0.00338100093657 -0.00195172457106 0.0361759386903
Te 4.2142178275 4.9012794575 10.2814975425 -0 0.0039039633628 0.0361761958006
Te 6.3517414164 1.198979967 10.2814975425 0.00338100093657 -0.00195172457106 0.0361759386903
Te 0 4.8661595943 10.2682323057 0 -2.57110337382e-07 0.0434493330245
Te 0 0 24.2448284792 0 2.57110337382e-07 -0.021274851977
Te 2.1168728857 3.6439824621 24.1944199314 -0.00410450942596 0.00236952886931 -0.0137482039605
Te 4.2142178275 0.0112744671 24.1944199314 -0 -0.00473931484896 -0.0137482039605
Te -2.1168728857 3.6439824621 24.1944199314 0.00410450942596 0.00236952886931 -0.0137482039605
Te -0 2.4368732782 27.5258625396 0 -0.000254539234008 0.0178979648058
Te 2.1038236635 6.0808027524 27.5258625396 0.000220600669473 0.000127269617004 0.0178979648058
Te 4.2142178275 2.4330797971 27.5413888469 -0 2.57110337382e-07 0.0149177988852
Te -2.1038236635 6.0808027524 27.5258625396 -0.000220600669473 0.000127269617004 0.0178979648058
Te -0 2.4299003279 20.6881112989 0 0.00625215207411 -0.0130982290276
Te 2.1098624126 6.0842892275 20.6881112989 -0.00541422948458 -0.00312620459222 -0.0130982290276
Te 4.2142178275 2.4330797971 20.726322093 -0 2.57110337382e-07 -0.00829026571853
Te -2.1098624126 6.0842892275 20.6881112989 0.00541422948458 -0.00312620459222 -0.0130982290276
Sb -0 2.4323012241 8.4353661333 0 0.01284857489 -0.00789328735762
Sb 2.1077831831 6.0830887794 8.4353661333 -0.0111269640709 -0.00642415888982 -0.00789328735762
Sb 4.2142178275 2.4330797971 8.1967102233 -0 2.57110337382e-07 -0.00735181298709
Sb -2.1077831831 6.0830887794 8.4353661333 0.0111269640709 -0.00642415888982 -0.00789328735762
Sb -0 2.4267179867 1.9047387457 0 0.00048799542035 0.0107932348529
Sb 2.1126184027 6.0858803981 1.9047387457 -0.000422432284318 -0.000243997710175 0.0107932348529
Sb 4.2142178275 2.4330797971 1.9208949577 -0 2.57110337382e-07 0.0113773895395
Sb -2.1126184027 6.0858803981 1.9047387457 0.000422432284318 -0.000243997710175 0.0107932348529
Sb 0 -0 18.819238631 0 0 -0.0253551930312
Sb 2.1038863511 3.6514802476 18.7247462127 -0.00444466640232 0.00256596116707 -0.0252819165851
Sb 4.2142178275 -0.0037211038 18.7247462127 -0 -0.00513217944447 -0.0252821736954
Sb 6.324549304 3.6514802476 18.7247462127 0.00444466640232 0.00256596116707 -0.0252819165851
Sb 0 0 11.8804036881 0 0 0.00759246826288
Sb 1.9784916769 3.7238769002 12.4831743882 0.0479654761006 -0.0276928402187 -0.0117147183021
Sb 4.2142178275 -0.1485144087 12.4831743882 -0 0.0553854233271 -0.0117147183021
Sb -1.9784916769 3.7238769002 12.4831743882 -0.0479654761006 -0.0276928402187 -0.0117147183021
Sb 2.1090938616 1.2176859088 29.1205362572 0.000188204766963 0.000108757672712 -0.0103888002922
Sb 4.2142178275 4.863867574 29.1205362572 -0 -0.000217258235087 -0.0103888002922
Sb 6.3193417935 1.2176859088 29.1205362572 -0.000188204766963 0.000108757672712 -0.0103888002922
Sb 0 4.8661595943 29.1238428671 0 -0 -0.0102286205521
Sb 2.1006390126 1.2128044998 22.5783687353 0.00302104646423 0.0017442365288 0.00808586300031
Sb 4.2142178275 4.873630392 22.5783687353 0 -0.00348847305759 0.00808586300031
Sb 6.3277966424 1.2128044998 22.5783687353 -0.00302104646423 0.0017442365288 0.00808586300031
Sb 0 4.8661595943 22.632936009 0 -0 0.00626732158401
Cr 0 4.8661595943 14.3511646265 -0 2.57110337382e-07 0.09742373482
61
Lattice="8.42843558953 0 0 -4.21421779477 7.29923593142 0 0 0 31.0334408416" Properties=species:S:1:pos:R:3:forces:R:3 energy=-133596.900434 ionic_step=1 pbc="T T T"
Te 2.1008580958 1.212930986 3.5169304007 0.00203759942375 0.00117653690386 -0.0194712229602
Te 4.2142178275 4.8733774196 3.5169304007 -0 -0.00235307380772 -0.0194709658499
Te 6.3275775593 1.212930986 3.5169304007 -0.00203759942375 0.00117653690386 -0.0194712229602
Te 0 4.8661595943 3.5098400678 0 -2.57110337382e-07 -0.0183725904886
Te -0 -0 6.8073564588 0 2.57110337382e-07 0.0092659994489
Te 2.1229394601 3.6404799169 6.7772954657 -0.00441818403757 0.00255053454683 0.0167674506523
Te 4.2142178275 0.0182795576 6.7772954657 -0 -0.00510132620399 0.0167674506523
Te -2.1229394601 3.6404799169 6.7772954657 0.00441818403757 0.00255053454683 0.0167674506523
Te 0 0 0.0130577206 0 2.57110337382e-07 -0.00115931051125
Te 2.1083920174 3.6488788952 0.0018701657 -0.000537360605128 0.000309817956545 0.00233481897376
Te 4.2142178275 0.001481601 0.0018701657 -0 -0.000620150133764 0.00233481897376
Te -2.1083920174 3.6488788952 0.0018701657 0.000537360605128 0.000309817956545 0.00233481897376
Te 0 2.2893729185 14.2228978171 0 0.0178735393238 -0.0395268577174
Te 2.2315627322 6.1545529322 14.2228978171 -0.0154788136414 -0.00893664110671 -0.0395268577174
Te 4.2142178275 2.4330797971 13.7956871777 -0 2.57110337382e-07 -0.0197589294278
Te -2.2315627322 6.1545529322 14.2228978171 0.0154788136414 -0.00893664110671 -0.0395268577174
Te 2.107308795 1.2166552983 17.17846363 0.00756290057408 0.00436676197009 0.00784700749689
Te 4.2142178275 4.865928795 17.17846363 -0 -0.0087330097195 0.00784700749689
Te 6.3211268601 1.2166552983 17.17846363 -0.00756290057408 0.00436676197009 0.00784700749689
Te 0 4.8661595943 16.9399064509 0 -2.57110337382e-07 0.0441224478877
Te 2.0774781568 1.1994325626 10.2806929168 -0.00379443435908 -0.00219058007449 0.0363631150159
Te 4.2142178275 4.9003742663 10.2806929168 -0 0.00438141725932 0.0363633721262
Te 6.3509574982 1.1994325626 10.2806929168 0.00379443435908 -0.00219058007449 0.0363631150159
Te 0 4.8661595943 10.2689654083 0 -2.57110337382e-07 0.0439476128583
Te 0 0 24.2416816099 0 2.57110337382e-07 -0.0207809430189
Te 2.117207692 3.6437891615 24.1910253096 -0.00421198154699 0.00243149246062 -0.0130568342633
Te 4.2142178275 0.0116610683 24.1910253096 -0 -0.00486324203157 -0.0130568342633
Te -2.117207692 3.6437891615 24.1910253096 0.00421198154699 0.00243149246062 -0.0130568342633
Te 0 2.4369877297 27.5291322701 0 -0.000253253682321 0.0172523607486
Te 2.1037245456 6.0807455266 27.5291322701 0.000219572228124 0.000126498285992 0.0172523607486
Te 4.2142178275 2.4330797971 27.5448406499 -0 2.57110337382e-07 0.0142382562635
Te -2.1037245456 6.0807455266 27.5291322701 -0.000219572228124 0.000126498285992 0.0172523607486
Te 0 2.4304127996 20.6875249729 0 0.00617167653851 -0.0130779173109
Te 2.1094185993 6.0840329916 20.6875249729 -0.00534455258315 -0.00308583826925 -0.0130779173109
Te 4.2142178275 2.4330797971 20.7259125828 -0 2.57110337382e-07 -0.00830594944911
Te -2.1094185993 6.0840329916 20.6875249729 0.00534455258315 -0.00308583826925 -0.0130779173109
Sb 0 2.4322657194 8.4370584901 0 0.012933935522 -0.0079048573228
Sb 2.1078139311 6.0831065318 8.4370584901 -0.011201011848 -0.00646683920582 -0.0079048573228
Sb 4.2142178275 2.4330797971 8.1993689349 -0 2.57110337382e-07 -0.00693735112323
Sb -2.1078139311 6.0831065318 8.4370584901 0.011201011848 -0.00646683920582 -0.0079048573228
Sb 0 2.4268416347 1.9019533375 0 0.000471283248421 0.0109945522471
Sb 2.1125113205 6.0858185741 1.9019533375 -0.000408034105425 -0.000235770179379 0.0109948093575
Sb 4.2142178275 2.4330797971 1.9186413113 -0 2.57110337382e-07 0.011537055059
Sb -2.1125113205 6.0858185741 1.9019533375 0.000408034105425 -0.000235770179379 0.0109948093575
Sb 0 0 18.8224042752 0 0 -0.0255590815288
Sb 2.1036482632 3.6516177078 18.7262309829 -0.00443978130591 0.00256313295336 -0.0254320690221
Sb 4.2142178275 -0.0039960241 18.7262309829 -0 -0.00512652301705 -0.0254323261324
Sb 6.3247873919 3.6516177078 18.7262309829 0.00443978130591 0.00256313295336 -0.0254320690221
Sb -0 -0 11.8760032993 0 0 0.00734564233899
Sb 1.9775938456 3.7243952636 12.4830628788 0.047928452212 -0.0276715000607 -0.0116645817863
Sb 4.2142178275 -0.1495511354 12.4830628788 -0 0.0553427430111 -0.011664324676
Sb -1.9775938456 3.7243952636 12.4830628788 -0.047928452212 -0.0276715000607 -0.0116645817863
Sb 2.1089205679 1.2175858576 29.1229305889 0.000219572228124 0.000127012506667 -0.0105880608037
Sb 4.2142178275 4.8640676764 29.1229305889 -0 -0.000253767902996 -0.0105880608037
Sb 6.3195150872 1.2175858576 29.1229305889 -0.000219572228124 0.000127012506667 -0.0105880608037
Sb 0 4.8661595943 29.1263754625 0 -0 -0.0104618196281
Sb 2.1005272549 1.2127399765 22.5757477006 0.00308223872453 0.00177946064502 0.00825941247805
Sb 4.2142178275 4.8737594387 22.5757477006 0 -0.00355892129004 0.00825966958838
Sb 6.3279084001 1.2127399765 22.5757477006 -0.00308223872453 0.00177946064502 0.00825941247805
Sb 0 4.8661595943 22.6306314792 0 -0 0.00634445468523
Cr 0 4.8661595943 14.3524737463 -0 2.57110337382e-07 0.0972437575838
61
Lattice="8.42843558953 0 0 -4.21421779477 7.29923593142 0 0 0 31.0334408416" Properties=species:S:1:pos:R:3:forces:R:3 energy=-133596.920089 ionic_step=2 pbc="T T T"
Te 2.1007183587 1.2128503087 3.5130859123 0.00210316255978 0.00121458923379 -0.0187957941039
Te 4.2142178275 4.8735387742 3.5130859123 -0 -0.00242892135724 -0.0187957941039
Te 6.3277172964 1.2128503087 3.5130859123 -0.00210316255978 0.00121458923379 -0.0187957941039
Te 0 4.8661595943 3.5056315957 0 -2.57110337382e-07 -0.0175835188632
Te -0 -0 6.8092970864 0 2.57110337382e-07 0.00880217240026
Te 2.122713247 3.6406105212 6.7814479108 -0.00442332624431 0.00255336276054 0.0159657806204
Te 4.2142178275 0.0180183491 6.7814479108 -0 -0.00510723974175 0.0159657806204
Te -2.122713247 3.6406105212 6.7814479108 0.00442332624431 0.00255336276054 0.0159657806204
Te 0 0 0.0130604206 0 2.57110337382e-07 -0.00121510345447
Te 2.108471113 3.6488332293 0.0021998162 -0.000558443652793 0.000322159252739 0.00224328769365
Te 4.2142178275 0.0015729328 0.0021998162 -0 -0.000644575615816 0.00224328769365
Te -2.108471113 3.6488332293 0.0021998162 0.000558443652793 0.000322159252739 0.00224328769365
Te -0 2.2900324227 14.2218938125 0 0.0179959238444 -0.039733831539
Te 2.230991585 6.1542231801 14.2218938125 -0.0155847431004 -0.00899809047734 -0.039733831539
Te 4.2142178275 2.4330797971 13.7905686775 -0 2.57110337382e-07 -0.0185240284773
Te -2.230991585 6.1542231801 14.2218938125 0.0155847431004 -0.00899809047734 -0.039733831539
Te 2.1065526424 1.2162187332 17.1819577216 0.0080382975879 0.00464109870008 0.00742534654358
Te 4.2142178275 4.8668019252 17.1819577216 -0 -0.00928194028981 0.00742560365392
Te 6.3218830127 1.2162187332 17.1819577216 -0.0080382975879 0.00464109870008 0.00742534654358
Te 0 4.8661595943 16.9413400343 0 -2.57110337382e-07 0.0439571259408
Te 2.0783621148 1.1999429162 10.2798210018 -0.00425697585603 -0.00245746060469 0.0365690603961
Te 4.2142178275 4.8993535591 10.2798210018 -0 0.00491543543006 0.0365693175065
Te 6.3500735402 1.1999429162 10.2798210018 0.00425697585603 -0.00245746060469 0.0365690603961
Te 0 4.8661595943 10.2697656972 0 -2.57110337382e-07 0.0445160838143
Te 0 0 24.2382225015 0 2.57110337382e-07 -0.0202248133591
Te 2.1175824649 3.6435727862 24.1873268709 -0.00433102363319 0.0025001409207 -0.0122901312372
Te 4.2142178275 0.012093819 24.1873268709 -0 -0.00500079606207 -0.0122898741268
Te -2.1175824649 3.6435727862 24.1873268709 0.00433102363319 0.0025001409207 -0.0122901312372
Te -0 2.4371147486 27.5327098335 0 -0.000252996571984 0.0165311662523
Te 2.1036145441 6.0806820172 27.5327098335 0.000219315117787 0.000126241175654 0.0165311662523
Te 4.2142178275 2.4330797971 27.5486164574 -0 2.57110337382e-07 0.0134828660923
Te -2.1036145441 6.0806820172 27.5327098335 -0.000219315117787 0.000126241175654 0.0165311662523
Te -0 2.4309871861 20.6868781707 0 0.0060801452584 -0.0130527204979
Te 2.1089211662 6.0837457984 20.6868781707 -0.0052651054889 -0.0030400726292 -0.0130527204979
Te 4.2142178275 2.4330797971 20.7254204555 -0 2.57110337382e-07 -0.00831520542126
Te -2.1089211662 6.0837457984 20.6868781707 0.0052651054889 -0.0030400726292 -0.0130527204979
Sb -0 2.4322198805 8.4389383071 0 0.0130277807951 -0.00791719861899
Sb 2.1078536287 6.0831294512 8.4389383071 -0.0112822587146 -0.00651389039756 -0.00791719861899
Sb 4.2142178275 2.4330797971 8.2023049482 -0 2.57110337382e-07 -0.00648586537079
Sb -2.1078536287 6.0831294512 8.4389383071 0.0112822587146 -0.00651389039756 -0.00791719861899
Sb -0 2.4269774186 1.8989013385 0 0.000452771304129 0.0112172097993
Sb 2.1123937282 6.0857506822 1.8989013385 -0.000392093264507 -0.000226257096896 0.0112174669096
Sb 4.2142178275 2.4330797971 1.9161694051 -0 2.57110337382e-07 0.0117136898608
Sb -2.1123937282 6.0857506822 1.8989013385 0.000392093264507 -0.000226257096896 0.0112174669096
Sb 0 0 18.8258730052 0 0 -0.0257843101843
Sb 2.1033968283 3.6517628738 18.7278493973 -0.00443618176118 0.00256107607066 -0.0256009905138
Sb 4.2142178275 -0.0042863563 18.7278493973 -0 -0.00512240925165 -0.0256009905138
Sb 6.3250388268 3.6517628738 18.7278493973 0.00443618176118 0.00256107607066 -0.0256009905138
Sb -0 -0 11.8711241196 0 0 0.00706127830585
Sb 1.9766058963 3.7249656566 12.4829100874 0.0476767411917 -0.0275262327201 -0.0114100425523
Sb 4.2142178275 -0.1506919215 12.4829100874 -0 0.0550522083298 -0.011409785442
Sb -1.9766058963 3.7249656566 12.4829100874 -0.0476767411917 -0.0275262327201 -0.0114100425523
Sb 2.1087367058 1.2174797047 29.1255433412 0.000253767902996 0.000146552892308 -0.0108089185835
Sb 4.2142178275 4.8642799822 29.1255433412 -0 -0.000293105784615 -0.0108089185835
Sb 6.3196989493 1.2174797047 29.1255433412 -0.000253767902996 0.000146552892308 -0.0108089185835
Sb 0 4.8661595943 29.1291495812 0 -0 -0.0107199584068
Sb 2.1004105667 1.2126726064 22.5728704533 0.00314831608124 0.00181777008529 0.00845198812075
Sb 4.2142178275 4.8738941787 22.5728704533 0 -0.00363554017058 0.00845198812075
Sb 6.3280250883 1.2126726064 22.5728704533 -0.00314831608124 0.00181777008529 0.00845198812075
Sb 0 4.8661595943 22.6281120816 0 -0 0.00643135797926
Cr 0 4.8661595943 14.3539394258 -0 2.57110337382e-07 0.0965037940328
61
Lattice="8.42843558953 0 0 -4.21421779477 7.29923593142 0 0 0 31.0334408416" Properties=species:S:1:pos:R:3:forces:R:3 energy=-133596.948218 ionic_step=3 pbc="T T T"
Te 2.1005127342 1.2127315913 3.5073053908 0.00220652091541 0.00127423883206 -0.0177521832445
Te 4.2142178275 4.873776209 3.5073053908 -0 -0.00254822055379 -0.0177521832445
Te 6.3279229209 1.2127315913 3.5073053908 -0.00220652091541 0.00127398172173 -0.0177521832445
Te 0 4.8661595943 3.4993042407 0 -2.57110337382e-07 -0.0163622447606
Te -0 -0 6.8121643374 0 2.57110337382e-07 0.00810514627562
Te 2.1223549618 3.6408173773 6.7877454799 -0.00442384046499 0.00255387698121 0.0147216236978
Te 4.2142178275 0.0176046368 6.7877454799 -0 -0.00510801107276 0.0147216236978
Te -2.1223549618 3.6408173773 6.7877454799 0.00442384046499 0.00255387698121 0.0147216236978
Te 0 0 0.0130188049 0 2.57110337382e-07 -0.00128812279028
Te 2.108596616 3.6487607701 0.0026792994 -0.000592639327665 0.00034169963838 0.0021108758699
Te 4.2142178275 0.0017178513 0.0026792994 -0 -0.000683913497435 0.0021108758699
Te -2.108596616 3.6487607701 0.0026792994 0.000592639327665 0.00034169963838 0.0021108758699
Te -0 2.2910131041 14.2204700714 0 0.018165616667 -0.0400282228753
Te 2.2301422904 6.1537328393 14.2204700714 -0.0157318102134 -0.00908293688868 -0.0400282228753
Te 4.2142178275 2.4330797971 13.7828909271 -0 2.57110337382e-07 -0.0166229546427
Te -2.2301422904 6.1537328393 14.2204700714 0.0157318102134 -0.00908293688868 -0.0400282228753
Te 2.1053682151 1.2155349034 17.1870970495 0.00876617695303 0.00506147410169 0.00677794271405
Te 4.2142178275 4.8681695847 17.1870970495 -0 -0.0101224339827 0.00677819982439
Te 6.32306744 1.2155349034 17.1870970495 -0.00876617695303 0.00506147410169 0.00677794271405
Te 0 4.8661595943 16.9435194613 0 -2.57110337382e-07 0.0437041293688
Te 2.0797364978 1.200736417 10.2785796422 -0.00497148548361 -0.00287012269619 0.0368714221529
Te 4.2142178275 4.8977665575 10.2785796422 -0 0.00574024539238 0.0368714221529
Te 6.3486991572 1.200736417 10.2785796422 0.00497148548361 -0.00287012269619 0.0368714221529
Te 0 4.8661595943 10.2709955472 0 -2.57110337382e-07 0.0453779176652
Te 0 0 24.2329602526 0 2.57110337382e-07 -0.0193583515221
Te 2.1181775924 3.643229189 24.1818108056 -0.00451665729678 0.00260735593139 -0.0111197649814
Te 4.2142178275 0.0127810133 24.1818108056 -0 -0.00521496897311 -0.0111197649814
Te -2.1181775924 3.643229189 24.1818108056 0.00451665729678 0.00260735593139 -0.0111197649814
Te -0 2.4373109712 27.5381002216 0 -0.000255824785695 0.0154155644984
Te 2.1034446104 6.0805839059 27.5381002216 0.00022188622116 0.000127783837679 0.0154155644984
Te 4.2142178275 2.4330797971 27.5543238953 -0 2.57110337382e-07 0.012323555581
Te -2.1034446104 6.0805839059 27.5381002216 -0.00022188622116 0.000127783837679 0.0154155644984
Te -0 2.4319122018 20.6858783519 0 0.00592382217327 -0.0130138968369
Te 2.1081200795 6.0832832906 20.6858783519 -0.00512986545144 -0.00296191108664 -0.0130138968369
Te 4.2142178275 2.4330797971 20.7245353865 -0 2.57110337382e-07 -0.00832034762801
Te -2.1081200795 6.0832832906 20.6858783519 0.00512986545144 -0.00296191108664 -0.0130138968369
Sb -0 2.4321146411 8.4417489546 0 0.0131697057014 -0.00793339657025
Sb 2.1079447686 6.0831820709 8.4417489546 -0.0114051574559 -0.00658485285068 -0.00793339657025
Sb 4.2142178275 2.4330797971 8.2066993621 -0 2.57110337382e-07 -0.0058173784936
Sb -2.1079447686 6.0831820709 8.4417489546 0.0114051574559 -0.00658485285068 -0.00793339657025
Sb -0 2.4271858951 1.8943017302 0 0.000423717836005 0.0115601949894
Sb 2.1122131823 6.0856464439 1.8943017302 -0.000366896451444 -0.000211858918002 0.0115601949894
Sb 4.2142178275 2.4330797971 1.9124349885 -0 2.57110337382e-07 0.0119862268184
Sb -2.1122131823 6.0856464439 1.8943017302 0.000366896451444 -0.000211858918002 0.0115601949894
Sb 0 0 18.8310316051 0 0 -0.026124724271
Sb 2.103025466 3.6519772801 18.7302163325 -0.0044328393268 0.0025592762983 -0.0258601577338
Sb 4.2142178275 -0.0047151687 18.7302163325 -0 -0.00511855259659 -0.0258601577338
Sb 6.3254101891 3.6519772801 18.7302163325 0.0044328393268 0.0025592762983 -0.0258601577338
Sb -0 -0 11.8637524974 0 0 0.00660722145003
Sb 1.9750748351 3.7258496157 12.4827167386 0.0473319562293 -0.0273272293189 -0.0110560016177
Sb 4.2142178275 -0.1524598396 12.4827167386 -0 0.0546539444172 -0.0110560016177
Sb -1.9750748351 3.7258496157 12.4827167386 -0.0473319562293 -0.0273272293189 -0.0110560016177
Sb 2.1084660152 1.2173234213 29.129485122 0.00030441863946 0.000175863470769 -0.0111475328979
Sb 4.2142178275 4.8645925489 29.129485122 -0 -0.000351469831201 -0.0111475328979
Sb 6.3199696399 1.2173234213 29.129485122 -0.00030441863946 0.000175863470769 -0.0111475328979
Sb 0 4.8661595943 29.1333642733 0 -0 -0.0111153941057
Sb 2.1002577385 1.212584371 22.5685411495 0.00324447534742 0.00187330591816 0.00874098013996
Sb 4.2142178275 4.8740706496 22.5685411495 0 -0.00374635472599 0.00874098013996
Sb 6.3281779165 1.212584371 22.5685411495 -0.00324447534742 0.00187330591816 0.00874098013996
Sb 0 4.8661595943 22.6243379462 0 -0 0.00656197003065
Cr 0 4.8661595943 14.3562348723 -0 2.57110337382e-07 0.0954810091107
61
Lattice="8.42843558953 0 0 -4.21421779477 7.29923593142 0 0 0 31.0334408416" Properties=species:S:1:pos:R:3:forces:R:3 energy=-133596.987127 ionic_step=4 pbc="T T T"
Te 2.1002156716 1.212560082 3.4987160514 0.00236927175897 0.00136808410521 -0.0161329023397
Te 4.2142178275 4.8741192275 3.4987160514 -0 -0.00273616821042 -0.0161329023397
Te 6.3282199835 1.212560082 3.4987160514 -0.00236927175897 0.00136808410521 -0.0161329023397
Te 0 4.8661595943 3.489904469 0 -2.57110337382e-07 -0.0144639991397
Te -0 -0 6.8163987572 0 2.57110337382e-07 0.00705047967168
Te 2.1218138657 3.6411297795 6.7972715672 -0.00442075514094 0.00255207720885 0.0127716988991
Te 4.2142178275 0.0169798325 6.7972715672 -0 -0.0051041544177 0.0127716988991
Te -2.1218138657 3.6411297795 6.7972715672 0.00442075514094 0.00255207720885 0.0127716988991
Te 0 0 0.0129001144 0 2.57110337382e-07 -0.00139019559422
Te 2.1087990287 3.648643907 0.0033807861 -0.000650746263913 0.000375381092577 0.00191444357214
Te 4.2142178275 0.0019515774 0.0033807861 -0 -0.000751276405829 0.00191444357214
Te -2.1087990287 3.648643907 0.0033807861 0.000650746263913 0.000375381092577 0.00191444357214
Te -0 2.2925199109 14.2184270515 0 0.0184798054993 -0.0404406278564
Te 2.228837358 6.1529794359 14.2184270515 -0.0160038329503 -0.00924003130482 -0.0404406278564
Te 4.2142178275 2.4330797971 13.7713743015 -0 2.57110337382e-07 -0.0136828979348
Te -2.228837358 6.1529794359 14.2184270515 0.0160038329503 -0.00924003130482 -0.0404406278564
Te 2.1035435762 1.2144814472 17.1946508989 0.00987252273478 0.00570013617975 0.00578112593603
Te 4.2142178275 4.8702764972 17.1946508989 -0 -0.0114000152492 0.00578138304636
Te 6.3248920789 1.2144814472 17.1946508989 -0.00987252273478 0.00570013617975 0.00578112593603
Te 0 4.8661595943 16.9468605097 0 -2.57110337382e-07 0.0432343887824
Te 2.0818739564 1.2019704799 10.276800826 -0.00607294616895 -0.00350595656054 0.0373136519332
Te 4.2142178275 4.8952984317 10.276800826 -0 0.00701217023141 0.0373139090435
Te 6.3465616986 1.2019704799 10.276800826 0.00607294616895 -0.00350595656054 0.0373136519332
Te 0 4.8661595943 10.2728538658 0 -2.57110337382e-07 0.0466920085995
Te 0 0 24.2249567763 0 2.57110337382e-07 -0.0179969522857
Te 2.1191290713 3.6426798521 24.1736131509 -0.00480616353667 0.00277447765069 -0.00933284813662
Te 4.2142178275 0.0138796871 24.1736131509 -0 -0.00554946952205 -0.00933284813662
Te -2.1191290713 3.6426798521 24.1736131509 0.00480616353667 0.00277447765069 -0.00933284813662
Te 0 2.437614769 27.5460604082 0 -0.000267908971552 0.013698324555
Te 2.1031815139 6.080432007 27.5460604082 0.000232427744993 0.000133954485776 0.0136980674447
Te 4.2142178275 2.4330797971 27.562854895 -0 2.57110337382e-07 0.0105479515911
Te -2.1031815139 6.080432007 27.5460604082 -0.000232427744993 0.000133954485776 0.0136980674447
Te -0 2.4333851988 20.6843532954 0 0.00566491206353 -0.012953733018
Te 2.1068444273 6.082546792 20.6843532954 -0.00490566523724 -0.00283258458693 -0.012953733018
Te 4.2142178275 2.4330797971 20.7229866645 -0 2.57110337382e-07 -0.00831032032485
Te -2.1068444273 6.082546792 20.6843532954 0.00490566523724 -0.00283258458693 -0.012953733018
Sb -0 2.4319094895 8.446046007 0 0.013380536178 -0.00795422250758
Sb 2.108122435 6.0832846467 8.446046007 -0.0115877057955 -0.00669026808901 -0.00795422250758
Sb 4.2142178275 2.4330797971 8.2133351168 -0 2.57110337382e-07 -0.00483007479805
Sb -2.108122435 6.0832846467 8.446046007 0.0115877057955 -0.00669026808901 -0.00795422250758
Sb -0 2.4274962751 1.8874729907 0 0.000379237747638 0.0120803292019
Sb 2.1119443855 6.0854912539 1.8874729907 -0.000328329900836 -0.00018949031865 0.0120803292019
Sb 4.2142178275 2.4330797971 1.9068911011 -0 2.57110337382e-07 0.0123999173512
Sb -2.1119443855 6.0854912539 1.8874729907 0.000328329900836 -0.00018949031865 0.0120803292019
Sb 0 0 18.8386953027 0 0 -0.0266335456287
Sb 2.1024965226 3.6522826658 18.7337063553 -0.00443258221646 0.00255901918796 -0.0262579074258
Sb 4.2142178275 -0.0053259403 18.7337063553 -0 -0.00511803837592 -0.0262581645361
Sb 6.3259391325 3.6522826658 18.7337063553 0.00443258221646 0.00255901918796 -0.0262579074258
Sb -0 -0 11.8525567002 0 0 0.00586777211972
Sb 1.9727083959 3.7272158806 12.4823725445 0.0466220745877 -0.0269173954412 -0.0103355784524
Sb 4.2142178275 -0.1551923695 12.4823725445 -0 0.0538342766616 -0.0103353213421
Sb -1.9727083959 3.7272158806 12.4823725445 -0.0466220745877 -0.0269173954412 -0.0103355784524
Sb 2.1080774618 1.2170990898 29.1353437895 0.000379237747638 0.000219058007449 -0.0116578969176
Sb 4.2142178275 4.8650412119 29.1353437895 -0 -0.000437858904561 -0.0116578969176
Sb 6.3203581933 1.2170990898 29.1353437895 -0.000379237747638 0.000219058007449 -0.0116578969176
Sb 0 4.8661595943 29.1396760851 0 -0 -0.0117106045367
Sb 2.1000643704 1.2124727298 22.5620668545 0.00338228648826 0.00195275301241 0.00918012459621
Sb 4.2142178275 4.874293932 22.5620668545 0 -0.00390550602483 0.00918012459621
Sb 6.3283712846 1.2124727298 22.5620668545 -0.00338228648826 0.00195275301241 0.00918012459621
Sb 0 4.8661595943 22.6187275356 0 -0 0.00676611563853
Cr 0 4.8661595943 14.3597774912 -0 2.57110337382e-07 0.0934387817009
61
Lattice="8.42843558953 0 0 -4.21421779477 7.29923593142 0 0 0 31.0334408416" Properties=species:S:1:pos:R:3:forces:R:3 energy=-133597.038476 ionic_step=5 pbc="T T T"
Te 2.0997753493 1.2123058617 3.4859631556 0.00263820917187 0.00152337874899 -0.0135833962342
Te 4.2142178275 4.8746276681 3.4859631556 -0 -0.00304675749797 -0.0135833962342
Te 6.3286603058 1.2123058617 3.4859631556 -0.00263820917187 0.00152337874899 -0.0135833962342
Te 0 4.8661595943 3.4759600203 0 -2.57110337382e-07 -0.011471491923
Te -0 -0 6.8226298803 0 2.57110337382e-07 0.00543145587719
Te 2.1210031495 3.6415978469 6.811685421 -0.00441124205846 0.00254642078143 0.00966760579589
Te 4.2142178275 0.0160436977 6.811685421 -0 -0.00509309867319 0.00966760579589
Te -2.1210031495 3.6415978469 6.811685421 0.00441124205846 0.00254642078143 0.00966760579589
Te 0 0 0.0126215316 0 2.57110337382e-07 -0.00152106475595
Te 2.1091249405 3.6484557416 0.0043685804 -0.000748962412793 0.000431945366801 0.00163959262148
Te 4.2142178275 0.0023279081 0.0043685804 -0 -0.000864404954277 0.00163959262148
Te -2.1091249405 3.6484557416 0.0043685804 0.000748962412793 0.000431945366801 0.00163959262148
Te -0 2.2948201072 14.2155568327 0 0.0189186928452 -0.041008841702
Te 2.2268453305 6.1518293378 14.2155568327 -0.016383842029 -0.00945934642261 -0.0410085845917
Te 4.2142178275 2.4330797971 13.7540993631 -0 2.57110337382e-07 -0.00911327590849
Te -2.2268453305 6.1518293378 14.2155568327 0.016383842029 -0.00945934642261 -0.0410085845917
Te 2.1007143811 1.2128480099 17.2057088682 0.011559166548 0.00667381302741 0.00424180634612
Te 4.2142178275 4.8735433719 17.2057088682 -0 -0.0133473689445 0.00424180634612
Te 6.327721274 1.2128480099 17.2057088682 -0.011559166548 0.00667381302741 0.00424154923578
Te 0 4.8661595943 16.951977582 0 -2.57110337382e-07 0.0425083091896
Te 2.0851862815 1.2038828525 10.2742640946 -0.00776884595432 -0.00448503272529 0.0379533424526
Te 4.2142178275 4.8914736865 10.2742640946 -0 0.00897057967125 0.0379535995629
Te 6.3432493735 1.2038828525 10.2742640946 0.00776884595432 -0.00448503272529 0.0379533424526
Te 0 4.8661595943 10.2756052641 0 -2.57110337382e-07 0.0486668731009
Te 0 0 24.2127827364 0 2.57110337382e-07 -0.0158127999696
Te 2.1206545702 3.6417991045 24.1614552828 -0.00526253438553 0.0030380157465 -0.00656968334078
Te 4.2142178275 0.0156411823 24.1614552828 -0 -0.00607628860334 -0.00656942623044
Te -2.1206545702 3.6417991045 24.1614552828 0.00526253438553 0.0030380157465 -0.00656968334078
Te 0 2.4380906262 27.5578638418 0 -0.000304932860135 0.0110128070811
Te 2.1027694097 6.0801940784 27.5578638418 0.000264309426828 0.00015220931973 0.0110128070811
Te 4.2142178275 2.4330797971 27.5756562813 -0 2.57110337382e-07 0.00779404276739
Te -2.1027694097 6.0801940784 27.5578638418 -0.000264309426828 0.00015220931973 0.0110128070811
Te -0 2.435720276 20.6820347484 0 0.00523682335179 -0.0128622017379
Te 2.1048221921 6.0813792535 20.6820347484 -0.00453491213074 -0.00261841167589 -0.0128622017379
Te 4.2142178275 2.4330797971 20.7203290325 -0 2.57110337382e-07 -0.00826866845019
Te -2.1048221921 6.0813792535 20.6820347484 0.00453491213074 -0.00261841167589 -0.0128622017379
Sb -0 2.4315179681 8.452577182 0 0.0136772415074 -0.00796810646579
Sb 2.1084615024 6.0834804074 8.452577182 -0.0118445590225 -0.00683862075368 -0.00796810646579
Sb 4.2142178275 2.4330797971 8.223326013 -0 2.57110337382e-07 -0.00338511470197
Sb -2.1084615024 6.0834804074 8.452577182 0.0118445590225 -0.00683862075368 -0.00796810646579
Sb -0 2.4279489421 1.8773226724 0 0.000310589287557 0.0128694008273
Sb 2.1115523645 6.0852649204 1.8773226724 -0.000268937412901 -0.000155294643779 0.0128694008273
Sb 4.2142178275 2.4330797971 1.8986418313 -0 2.57110337382e-07 0.0130298376778
Sb -2.1115523645 6.0852649204 1.8773226724 0.000268937412901 -0.000155294643779 0.0128694008273
Sb 0 0 18.8499916597 0 0 -0.0273858504759
Sb 2.101749037 3.652714227 18.738807226 -0.00443952419557 0.00256313295336 -0.0268711155804
Sb 4.2142178275 -0.0061890627 18.738807226 -0 -0.00512626590671 -0.0268711155804
Sb 6.3266866181 3.652714227 18.738807226 0.00443952419557 0.00256313295336 -0.0268711155804
Sb -0 -0 11.8356816838 0 0 0.00463312827962
Sb 1.9690342642 3.7293371425 12.4818163944 0.0455825774937 -0.0263172999137 -0.00926162857316
Sb 4.2142178275 -0.1594348933 12.4818163944 -0 0.0526340856067 -0.00926137146282
Sb -1.9690342642 3.7293371425 12.4818163944 -0.0455825774937 -0.0263172999137 -0.00926162857316
Sb 2.1075165544 1.2167752496 29.1440337113 0.000489538082375 0.00028282137112 -0.0124310277021
Sb 4.2142178275 4.8656888923 29.1440337113 -0 -0.000565385631902 -0.0124307705917
Sb 6.3209191007 1.2167752496 29.1440337113 -0.000489538082375 0.00028282137112 -0.0124310277021
Sb 0 4.8661595943 29.1491062885 0 -0 -0.0126058627315
Sb 2.0998288 1.2123367231 22.5523990471 0.0035758905723 0.00206459600917 0.00983832705991
Sb 4.2142178275 4.8745659453 22.5523990471 0 -0.00412919201835 0.00983858417025
Sb 6.328606855 1.2123367231 22.5523990471 -0.0035758905723 0.00206459600917 0.00983832705991
Sb 0 4.8661595943 22.610405071 0 -0 0.0070877606706
Cr 0 4.8661595943 14.3652120024 -0 2.57110337382e-07 0.0904102790369
61
Lattice="8.42843558953 0 0 -4.21421779477 7.29923593142 0 0 0 31.0334408416" Properties=species:S:1:pos:R:3:forces:R:3 energy=-133597.100246 ionic_step=6 pbc="T T T"
Te 2.0991050979 1.2119188917 3.4671238333 0.00309843667579 0.00178923083784 -0.00951488225548
Te 4.2142178275 4.8754016082 3.4671238333 -0 -0.00357820456534 -0.00951488225548
Te 6.3293305572 1.2119188917 3.4671238333 -0.00309843667579 0.00178923083784 -0.00951488225548
Te 0 4.8661595943 3.4551462719 0 -2.57110337382e-07 -0.00666455705527
Te -0 -0 6.8316817814 0 2.57110337382e-07 0.00291537411557
Te 2.1197883865 3.6422991909 6.8334528187 -0.00438218859033 0.0025297086095 0.00465678243066
Te 4.2142178275 0.0146410095 6.8334528187 -0 -0.00505993143967 0.00465678243066
Te -2.1197883865 3.6422991909 6.8334528187 0.00438218859033 0.0025297086095 0.00465678243066
Te 0 0 0.0120609617 0 2.57110337382e-07 -0.00165219102801
Te 2.1096522225 3.6481513151 0.005735964 -0.000893715532739 0.000515763336788 0.0012724390597
Te 4.2142178275 0.0029367612 0.005735964 -0 -0.00103178378391 0.0012724390597
Te -2.1096522225 3.6481513151 0.005735964 0.000893715532739 0.000515763336788 0.0012724390597
Te -0 2.2983069341 14.2116272635 0 0.0194216006651 -0.0417696311903
Te 2.2238256513 6.1500859244 14.2116272635 -0.0168193869405 -0.00971080033257 -0.04176937408
Te 4.2142178275 2.4330797971 13.7281869555 -0 2.57110337382e-07 -0.00201291683136
Te -2.2238256513 6.1500859244 14.2116272635 0.0168193869405 -0.00971080033257 -0.04176937408
Te 2.0963113896 1.2103059404 17.2218406766 0.0141289843701 0.00815759678444 0.00186584971838
Te 4.2142178275 4.8786275109 17.2218406766 -0 -0.0163149364586 0.00186584971838
Te 6.3321242655 1.2103059404 17.2218406766 -0.0141289843701 0.00815759678444 0.00186584971838
Te 0 4.8661595943 16.9598440356 0 -2.57110337382e-07 0.0414875811502
Te 2.0902791011 1.2068231947 10.2706985852 -0.010355118838 -0.0059783295648 0.0388470579853
Te 4.2142178275 4.8855930021 10.2706985852 -0 0.0119569162399 0.0388473150957
Te 6.3381565539 1.2068231947 10.2706985852 0.010355118838 -0.0059783295648 0.0388470579853
Te 0 4.8661595943 10.2795948002 0 -2.57110337382e-07 0.0515812187752
Te 0 0 24.1943599781 0 2.57110337382e-07 -0.0122294531976
Te 2.1230507117 3.640415691 24.1432908066 -0.00597164469603 0.00344759251395 -0.00222991795611
Te 4.2142178275 0.0184080094 24.1432908066 -0 -0.00689544213824 -0.00222991795611
Te -2.1230507117 3.640415691 24.1432908066 0.00597164469603 0.00344759251395 -0.00222991795611
Te 0 2.4388141724 27.5755034458 0 -0.000383094402699 0.00673654794974
Te 2.1021428006 6.0798323053 27.5755034458 0.00033192944556 0.000191290091012 0.00673654794974
Te 4.2142178275 2.4330797971 27.5945924333 -0 2.57110337382e-07 0.00350338545716
Te -2.1021428006 6.0798323053 27.5755034458 -0.00033192944556 0.000191290091012 0.00673654794974
Te -0 2.4394237897 20.6785126682 0 0.0045243706069 -0.0127295328038
Te 2.1016148566 6.0795274966 20.6785126682 -0.00391810443136 -0.00226231385862 -0.0127295328038
Te 4.2142178275 2.4330797971 20.7157868247 -0 2.57110337382e-07 -0.00818510759054
Te -2.1016148566 6.0795274966 20.6785126682 0.00391810443136 -0.00226231385862 -0.0127295328038
Sb -0 2.4307785125 8.4624899333 0 0.0140757625303 -0.00793905299767
Sb 2.1091018894 6.0838501352 8.4624899333 -0.0121898582056 -0.00703788126515 -0.00793931010801
Sb 4.2142178275 2.4330797971 8.2383403911 -0 2.57110337382e-07 -0.00130432074154
Sb -2.1091018894 6.0838501352 8.4624899333 0.0121898582056 -0.00703788126515 -0.00793931010801
Sb 0 2.4285925592 1.8623505391 0 0.00021108758699 0.0140536510413
Sb 2.1109949761 6.0849431119 1.8623505391 -0.000182805449878 -0.000105415238326 0.0140536510413
Sb 4.2142178275 2.4330797971 1.8864380193 -0 2.57110337382e-07 0.0139834599192
Sb -2.1109949761 6.0849431119 1.8623505391 0.000182805449878 -0.000105415238326 0.0140536510413
Sb 0 0 18.8664890057 0 0 -0.0284690563273
Sb 2.1007070458 3.6533158213 18.7462078132 -0.0044624070156 0.00257624558056 -0.027817281622
Sb 4.2142178275 -0.0073922511 18.7462078132 -0 -0.00515274827147 -0.027817281622
Sb 6.3277286093 3.6533158213 18.7462078132 0.0044624070156 0.00257624558056 -0.027817281622
Sb -0 -0 11.8104173423 0 0 0.00251273932723
Sb 1.963304935 3.7326449738 12.4809394235 0.0443296788197 -0.0255937914243 -0.00790151488841
Sb 4.2142178275 -0.1660505559 12.4809394235 -0 0.051187068628 -0.00790125777807
Sb -1.963304935 3.7326449738 12.4809394235 -0.0443296788197 -0.0255937914243 -0.00790151488841
Sb 2.1067063015 1.2163074497 29.1568931397 0.000648432270876 0.000374352651228 -0.0135859673376
Sb 4.2142178275 4.8666244923 29.1568931397 -0 -0.000748705302455 -0.0135857102272
Sb 6.3217293536 1.2163074497 29.1568931397 -0.000648432270876 0.000374352651228 -0.0135859673376
Sb 0 4.8661595943 29.1631539856 0 -0 -0.0139356373964
Sb 2.099570308 1.2121874826 22.5379862853 0.00383685756475 0.00221526266688 0.0108091756939
Sb 4.2142178275 4.8748644263 22.5379862853 0 -0.00443052533376 0.0108091756939
Sb 6.328865347 1.2121874826 22.5379862853 -0.00383685756475 0.00221526266688 0.0108091756939
Sb 0 4.8661595943 22.5980594872 0 -0 0.00760558089009
Cr 0 4.8661595943 14.3734855555 -0 2.57110337382e-07 0.0866027320506
61
Lattice="8.42843558953 0 0 -4.21421779477 7.29923593142 0 0 0 31.0334408416" Properties=species:S:1:pos:R:3:forces:R:3 energy=-133597.157236 ionic_step=7 pbc="T T T"
Te 2.0981435669 1.2113637513 3.4386589879 0.00387490989468 0.00223737415589 -0.00283926945571
Te 4.2142178275 4.876511889 3.4386589879 -0 -0.00447474831179 -0.00283926945571
Te 6.3302920882 1.2113637513 3.4386589879 -0.00387490989468 0.00223737415589 -0.00283926945571
Te 0 4.8661595943 3.4239076366 0 -2.57110337382e-07 0.00113334236718
Te -0 -0 6.8447999566 0 2.57110337382e-07 -0.00114619788405
Te 2.1177920274 3.64345179 6.8663498195 -0.00422226596048 0.00243740599838 -0.0035607210624
Te 4.2142178275 0.0123358115 6.8663498195 -0 -0.00487506910709 -0.0035607210624
Te -2.1177920274 3.64345179 6.8663498195 0.00422226596048 0.00243740599838 -0.0035607210624
Te 0 0 0.0109477151 0 2.57110337382e-07 -0.00178640262413
Te 2.1105405347 3.6476384476 0.0075751262 -0.00113231392583 0.000653317367287 0.000769531239783
Te 4.2142178275 0.0039624962 0.0075751262 -0 -0.00130714895525 0.000769531239783
Te -2.1105405347 3.6476384476 0.0075751262 0.00113231392583 0.000653317367287 0.000769531239783
Te -0 2.3036249328 14.2065120232 0 0.0197219055392 -0.0427443364794
Te 2.2192201314 6.147426925 14.2065120232 -0.0170795826019 -0.0098609527696 -0.0427443364794
Te 4.2142178275 2.4330797971 13.6893183441 -0 2.57110337382e-07 0.00890398809386
Te -2.2192201314 6.147426925 14.2065120232 0.0170795826019 -0.0098609527696 -0.0427443364794
Te 2.0893567052 1.2062906496 17.2457672905 0.0180296052985 0.0104096262296 -0.00177791798299
Te 4.2142178275 4.8866580924 17.2457672905 -0 -0.0208189953488 -0.00177791798299
Te 6.3390789499 1.2062906496 17.2457672905 -0.0180296052985 0.0104096262296 -0.00177791798299
Te 0 4.8661595943 16.972266264 0 -2.57110337382e-07 0.0402282547177
Te 2.0982041721 1.2113987387 10.2657913407 -0.0142989343031 -0.00825529871265 0.0400323366407
Te 4.2142178275 4.8764419141 10.2657913407 -0 0.0165108545356 0.0400323366407
Te 6.3302314829 1.2113987387 10.2657913407 0.0142989343031 -0.00825529871265 0.0400323366407
Te 0 4.8661595943 10.2852613473 0 -2.57110337382e-07 0.0558070842804
Te -0 0 24.1663298264 0 2.57110337382e-07 -0.00626423625997
Te 2.1269160206 3.6381840528 24.115913621 -0.00710267307017 0.00410039566056 0.00465498265829
Te 4.2142178275 0.0228712858 24.115913621 -0 -0.0082013055418 0.00465498265829
Te -2.1269160206 3.6381840528 24.115913621 0.00710267307017 0.00410039566056 0.00465498265829
Te 0 2.439938124 27.6020089977 0 -0.000559986314817 -0.000154780423104
Te 2.1011694304 6.0792703295 27.6020089977 0.000485167206639 0.000279736047071 -0.000154780423104
Te 4.2142178275 2.4330797971 27.6227306175 -0 2.57110337382e-07 -0.00322107830672
Te -2.1011694304 6.0792703295 27.6020089977 -0.000485167206639 0.000279736047071 -0.000154780423104
Te -0 2.4454687646 20.6730734159 0 0.00329358342186 -0.0125004474932
Te 2.0963797572 6.0765050092 20.6730734159 -0.00285212497257 -0.00164679171093 -0.0125004474932
Te 4.2142178275 2.4330797971 20.7077781242 -0 2.57110337382e-07 -0.00796887779681
Te -2.0963797572 6.0765050092 20.6730734159 0.00285212497257 -0.00164679171093 -0.0125004474932
Sb -0 2.4293134246 8.4778010361 0 0.0145704428194 -0.00776653196129
Sb 2.1103706921 6.0845826791 8.4778010361 -0.0126182040277 -0.00728522140971 -0.00776653196129
Sb 4.2142178275 2.4330797971 8.2612145382 -0 2.57110337382e-07 0.00170489864718
Sb -2.1103706921 6.0845826791 8.4778010361 0.0126182040277 -0.00728522140971 -0.00776653196129
Sb 0 2.429478358 1.8401126415 0 6.53060256949e-05 0.0158053437699
Sb 2.1102278522 6.0845002125 1.8401126415 -5.63071638866e-05 -3.26530128475e-05 0.0158053437699
Sb 4.2142178275 2.4330797971 1.8682189713 -0 2.57110337382e-07 0.0154284200153
Sb -2.1102278522 6.0845002125 1.8401126415 5.63071638866e-05 -3.26530128475e-05 0.0158053437699
Sb 0 0 18.8907913279 0 0 -0.0299505260912
Sb 2.0992739098 3.6541432431 18.757034486 -0.00451305775206 0.00260555615903 -0.0292915522965
Sb 4.2142178275 -0.0090470947 18.757034486 -0 -0.00521136942839 -0.0292915522965
Sb 6.3291617453 3.6541432431 18.757034486 0.00451305775206 0.00260555615903 -0.0292915522965
Sb -0 -0 11.7719272744 0 0 -0.00132077580313
Sb 1.9540857205 3.7379676923 12.4795983515 0.0434932988922 -0.0251109382107 -0.00679953998239
Sb 4.2142178275 -0.1766959928 12.4795983515 -0 0.0502213622008 -0.00679953998239
Sb -1.9540857205 3.7379676923 12.4795983515 -0.0434932988922 -0.0251109382107 -0.00679953998239
Sb 2.105546516 1.2156378469 29.1761184214 0.000872375374736 0.000503679150931 -0.0152754393645
Sb 4.2142178275 4.8679636978 29.1761184214 -0 -0.00100735830186 -0.0152751822542
Sb 6.3228891391 1.2156378469 29.1761184214 -0.000872375374736 0.000503679150931 -0.0152754393645
Sb 0 4.8661595943 29.184333614 0 -0 -0.0158518807409
Sb 2.099334987 1.2120516199 22.5163412343 0.00417264366537 0.00240912386127 0.0122104270326
Sb 4.2142178275 4.8751361518 22.5163412343 0 -0.00481824772253 0.0122106841429
Sb 6.329100668 1.2120516199 22.5163412343 -0.00417264366537 0.00240912386127 0.0122104270326
Sb 0 4.8661595943 22.5795579088 0 -0 0.00845353078277
Cr 0 4.8661595943 14.3862435707 -0 2.57110337382e-07 0.0835639449731
61
Lattice="8.42843558953 0 0 -4.21421779477 7.29923593142 0 0 0 31.0334408416" Properties=species:S:1:pos:R:3:forces:R:3 energy=-133597.173228 ionic_step=8 pbc="T T T"
Te 2.0973784714 1.210922023 3.4159402826 0.00457270735033 0.00264026605457 0.00280893043589
Te 4.2142178275 4.8773953456 3.4159402826 -0 -0.00528053210914 0.00280893043589
Te 6.3310571837 1.210922023 3.4159402826 -0.00457270735033 0.00264026605457 0.00280893043589
Te 0 4.8661595943 3.3991608604 0 -2.57110337382e-07 0.00762537838606
Te -0 -0 6.8545767256 0 2.57110337382e-07 -0.00449068915271
Te 2.1159533986 3.6445133233 6.893098141 -0.00392993150688 0.00226848450672 -0.0105649208733
Te 4.2142178275 0.0102127449 6.893098141 -0 -0.00453748323411 -0.0105649208733
Te -2.1159533986 3.6445133233 6.893098141 0.00392993150688 0.00226848450672 -0.0105649208733
Te 0 0 0.0095742152 0 2.57110337382e-07 -0.00181159943719
Te 2.1114370119 3.647120866 0.0086005278 -0.00136679855352 0.000788814515087 0.000456885069527
Te 4.2142178275 0.0049976595 0.0086005278 -0 -0.00157814325085 0.000456885069527
Te -2.1114370119 3.647120866 0.0086005278 0.00136679855352 0.000788814515087 0.000456885069527
Te -0 2.307895181 14.2039788452 0 0.0189369476792 -0.0433791419024
Te 2.2155219898 6.1452918009 14.2039788452 -0.0163997828699 -0.00946860239475 -0.0433791419024
Te 4.2142178275 2.4330797971 13.6573163759 -0 2.57110337382e-07 0.0176765928053
Te -2.2155219898 6.1452918009 14.2039788452 0.0163997828699 -0.00946860239475 -0.0433791419024
Te 2.0830292435 1.2026374862 17.2640311282 0.0212619964601 0.0122759901686 -0.00466835239584
Te 4.2142178275 4.8939644193 17.2640311282 -0 -0.0245514661166 -0.0046680952855
Te 6.3454064116 1.2026374862 17.2640311282 -0.0212619964601 0.0122759901686 -0.00466835239584
Te 0 4.8661595943 16.9833704396 0 -2.57110337382e-07 0.0401845459604
Te 2.1050163751 1.2153317678 10.2626730804 -0.0176097441176 -0.0101669140711 0.0407789850604
Te 4.2142178275 4.8685758559 10.2626730804 -0 0.0203338281422 0.0407792421708
Te 6.3234192799 1.2153317678 10.2626730804 0.0176097441176 -0.0101669140711 0.0407789850604
Te 0 4.8661595943 10.2889619038 0 -2.57110337382e-07 0.0590744424478
Te -0 0 24.1429012848 0 2.57110337382e-07 -0.00106340835541
Te 2.1306725753 3.6360152039 24.0938311101 -0.00818562181122 0.00472568800107 0.010308581867
Te 4.2142178275 0.0272089835 24.0938311101 -0 -0.00945189022282 0.0103083247566
Te -2.1306725753 3.6360152039 24.0938311101 0.00818562181122 0.00472568800107 0.010308581867
Te 0 2.4409289694 27.6230547283 0 -0.000793699611497 -0.00598295755087
Te 2.1003113335 6.0787749068 27.6230547283 0.000687513042158 0.00039672125058 -0.00598295755087
Te 4.2142178275 2.4330797971 27.6447216542 -0 2.57110337382e-07 -0.00866024749403
Te -2.1003113335 6.0787749068 27.6230547283 -0.000687513042158 0.00039672125058 -0.00598295755087
Te -0 2.4512408834 20.668430108 0 0.00200571774191 -0.0122873030235
Te 2.091380958 6.0736189497 20.668430108 -0.00173678032901 -0.00100298742613 -0.0122873030235
Te 4.2142178275 2.4330797971 20.6993390277 -0 2.57110337382e-07 -0.00778144436086
Te -2.091380958 6.0736189497 20.668430108 0.00173678032901 -0.00100298742613 -0.0122873030235
Sb -0 2.4274815444 8.4908030289 0 0.0149154848922 -0.00752870489921
Sb 2.1119571462 6.0854986192 8.4908030289 -0.0129169662397 -0.00745774244609 -0.00752870489921
Sb 4.2142178275 2.4330797971 8.2799371308 -0 2.57110337382e-07 0.00401169259417
Sb -2.1119571462 6.0854986192 8.4908030289 0.0129169662397 -0.00745774244609 -0.00752870489921
Sb 0 2.4300220507 1.8228833473 0 -4.03663229689e-05 0.0171217486973
Sb 2.1097570007 6.0842283661 1.8228833473 3.52241162213e-05 2.03117166531e-05 0.0171217486973
Sb 4.2142178275 2.4330797971 1.8537090666 -0 2.57110337382e-07 0.0165509637483
Sb -2.1097570007 6.0842283661 1.8228833473 -3.52241162213e-05 2.03117166531e-05 0.0171217486973
Sb 0 0 18.9098470067 0 0 -0.0309388582281
Sb 2.0983288087 3.6546888977 18.7652858064 -0.00458170621214 0.00264515115098 -0.0304686034211
Sb 4.2142178275 -0.010138404 18.7652858064 -0 -0.0052905594123 -0.0304686034211
Sb 6.3301068464 3.6546888977 18.7652858064 0.00458170621214 0.00264515115098 -0.0304686034211
Sb -0 -0 11.7396731959 0 0 -0.0050532465709
Sb 1.9454735753 3.7429399189 12.4785993622 0.0458407162724 -0.0264661667991 -0.00880808593802
Sb 4.2142178275 -0.1866404462 12.4785993622 -0 0.0529320764878 -0.00880808593802
Sb -1.9454735753 3.7429399189 12.4785993622 -0.0458407162724 -0.0264661667991 -0.00880808593802
Sb 2.1047311155 1.215167075 29.191448626 0.0010248418048 0.000591867996653 -0.0165116258666
Sb 4.2142178275 4.8689052416 29.191448626 -0 -0.00118347888297 -0.0165113687563
Sb 6.3237045396 1.215167075 29.191448626 -0.0010248418048 0.000591867996653 -0.0165116258666
Sb 0 4.8661595943 29.2014452584 0 -0 -0.0171999102398
Sb 2.09934818 1.2120592369 22.4990688663 0.00437961748696 0.00252868016815 0.0132602085401
Sb 4.2142178275 4.8751209178 22.4990688663 0 -0.00505710322596 0.0132602085401
Sb 6.329087475 1.2120592369 22.4990688663 -0.00437961748696 0.00252868016815 0.0132602085401
Sb 0 4.8661595943 22.5648284999 0 -0 0.00913770139054
Cr 0 4.8661595943 14.3970538065 -0 2.57110337382e-07 0.0891298695567
61
Lattice="8.42843558953 0 0 -4.21421779477 7.29923593142 0 0 0 31.0334408416" Properties=species:S:1:pos:R:3:forces:R:3 energy=-133597.175617 ionic_step=9 pbc="T T T"
Te 2.097299186 1.2108762475 3.4143454111 0.00466835239584 0.00269554477711 0.00320590879681
Te 4.2142178275 4.8774868966 3.4143454111 -0 -0.00539083244388 0.00320590879681
Te 6.3311364691 1.2108762475 3.4143454111 -0.00466835239584 0.00269554477711 0.00320590879681
Te 0 4.8661595943 3.3977672128 0 -2.57110337382e-07 0.0080128436645
Te -0 -0 6.8545982449 0 2.57110337382e-07 -0.00450997242801
Te 2.1154772536 3.6447882258 6.8957240841 -0.00373812719519 0.00215792706164 -0.0111745294833
Te 4.2142178275 0.0096629397 6.8957240841 -0 -0.00431611123363 -0.0111745294833
Te -2.1154772536 3.6447882258 6.8957240841 0.00373812719519 0.00215792706164 -0.0111745294833
Te 0 0 0.0090061948 0 2.57110337382e-07 -0.00176454824545
Te 2.1116906426 3.6469744322 0.0082208719 -0.00142747659314 0.000823781520971 0.000476168344831
Te 4.2142178275 0.0052905271 0.0082208719 -0 -0.00164807726262 0.000476168344831
Te -2.1116906426 3.6469744322 0.0082208719 0.00142747659314 0.000823781520971 0.000476168344831
Te -0 2.3081973241 14.2054909667 0 0.0175889181803 -0.0434174513426
Te 2.2152603262 6.1451407293 14.2054909667 -0.0152325019382 -0.00879445909014 -0.0434174513426
Te 4.2142178275 2.4330797971 13.6537374924 -0 2.57110337382e-07 0.0186207019642
Te -2.2152603262 6.1451407293 14.2054909667 0.0152325019382 -0.00879445909014 -0.0434174513426
Te 2.0816687295 1.2018519927 17.2644578683 0.0217492205494 0.0125572688777 -0.00493780402941
Te 4.2142178275 4.8955354063 17.2644578683 -0 -0.0251142806451 -0.00493780402941
Te 6.3467669256 1.2018519927 17.2644578683 -0.0217492205494 0.0125572688777 -0.00493780402941
Te 0 4.8661595943 16.9855362397 0 -2.57110337382e-07 0.0416022523607
Te 2.1060232384 1.2159130808 10.2632450928 -0.0181113663858 -0.010456420311 0.0407465891579
Te 4.2142178275 4.8674132298 10.2632450928 -0 0.0209128406219 0.0407465891579
Te 6.3224124166 1.2159130808 10.2632450928 0.0181113663858 -0.010456420311 0.0407465891579
Te 0 4.8661595943 10.2881910426 0 -2.57110337382e-07 0.0594020010176
Te -0 0 24.1399626544 0 2.57110337382e-07 -0.000601638189473
Te 2.131585677 3.6354880241 24.0921096322 -0.0084489027967 0.00487764021047 0.0106410255332
Te 4.2142178275 0.028263343 24.0921096322 -0 -0.00975553753127 0.0106410255332
Te -2.131585677 3.6354880241 24.0921096322 0.0084489027967 0.00487764021047 0.0106410255332
Te 0 2.4411119586 27.6244103766 0 -0.000874175147098 -0.00650977663217
Te 2.1001528603 6.0786834122 27.6244103766 0.000757189943589 0.000436830463211 -0.00650977663217
Te 4.2142178275 2.4330797971 27.6454697627 -0 2.57110337382e-07 -0.0089276422449
Te -2.1001528603 6.0786834122 27.6244103766 -0.000757189943589 0.000436830463211 -0.00650977663217
Te -0 2.4526744008 20.6677353145 0 0.00159356987109 -0.0122227683288
Te 2.0901394961 6.0729021911 20.6677353145 -0.00137991118073 -0.000796784935546 -0.0122227683288
Te 4.2142178275 2.4330797971 20.6967162845 -0 2.57110337382e-07 -0.00776293241656
Te -2.0901394961 6.0729021911 20.6677353145 0.00137991118073 -0.000796784935546 -0.0122227683288
Sb -0 2.4266969336 8.4923966271 0 0.0150170434754 -0.00753513265764
Sb 2.1126366388 6.0858909247 8.4923966271 -0.0130051550854 -0.00750839318256 -0.00753538976798
Sb 4.2142178275 2.4330797971 8.2814929993 -0 2.57110337382e-07 0.00415593149344
Sb -2.1126366388 6.0858909247 8.4923966271 0.0130051550854 -0.00750839318256 -0.00753538976798
Sb 0 2.4298880857 1.8221723707 0 -4.03663229689e-05 0.0172063379983
Sb 2.1098730178 6.0842953486 1.8221723707 3.49670058839e-05 2.00546063158e-05 0.0172063379983
Sb 4.2142178275 2.4330797971 1.8527309776 -0 2.57110337382e-07 0.0166265541875
Sb -2.1098730178 6.0842953486 1.8221723707 -3.49670058839e-05 2.00546063158e-05 0.0172063379983
Sb 0 0 18.9110169832 0 0 -0.0310154771087
Sb 2.0984666986 3.6546092869 18.7655388148 -0.00462515785916 0.00267009085371 -0.0305259390263
Sb 4.2142178275 -0.0099791824 18.7655388148 -0 -0.00534043881775 -0.0305259390263
Sb 6.3299689565 3.6546092869 18.7655388148 0.00462515785916 0.00267009085371 -0.0305259390263
Sb -0 -0 11.7358676086 0 0 -0.0055738950041
Sb 1.9434904854 3.7440848569 12.4786539295 0.0501452575409 -0.0289516524305 -0.0129833007068
Sb 4.2142178275 -0.1889303222 12.4786539295 -0 0.05790253353 -0.0129830435964
Sb -1.9434904854 3.7440848569 12.4786539295 -0.0501452575409 -0.0289516524305 -0.0129833007068
Sb 2.1047928898 1.2152027404 29.1924919932 0.00101764271536 0.000587754231254 -0.0165473642035
Sb 4.2142178275 4.8688339108 29.1924919932 -0 -0.00117525135217 -0.0165473642035
Sb 6.3236427653 1.2152027404 29.1924919932 -0.00101764271536 0.000587754231254 -0.0165473642035
Sb 0 4.8661595943 29.2028515915 0 -0 -0.0172173937428
Sb 2.0995306127 1.2121645645 22.4976969773 0.00437190417684 0.00252405218208 0.013356110696
Sb 4.2142178275 4.8749102626 22.4976969773 0 -0.00504810436415 0.0133563678063
Sb 6.3289050423 1.2121645645 22.4976969773 -0.00437190417684 0.00252405218208 0.013356110696
Sb 0 4.8661595943 22.5639364283 0 -0 0.00912613142536
Cr 0 4.8661595943 14.398644708 -0 2.57110337382e-07 0.100492346697
61
Lattice="8.42843558953 0 0 -4.21421779477 7.29923593142 0 0 0 31.0334408416" Properties=species:S:1:pos:R:3:forces:R:3 energy=-133597.178842 ionic_step=10 pbc="T T T"
Te 2.097220343 1.2108307274 3.4129056025 0.00477582451686 0.00275750836842 0.0035668917105
Te 4.2142178275 4.8775779367 3.4129056025 -0 -0.00551501673684 0.0035668917105
Te 6.3312153121 1.2108307274 3.4129056025 -0.00477582451686 0.00275750836842 0.0035668917105
Te 0 4.8661595943 3.3966507472 0 -2.57110337382e-07 0.00833808824129
Te -0 -0 6.854304778 0 2.57110337382e-07 -0.00441946958925
Te 2.1148734428 3.6451368363 6.8984926142 -0.00348101685781 0.00200931728664 -0.0117869663069
Te 4.2142178275 0.0089657187 6.8984926142 -0 -0.00401914879395 -0.0117869663069
Te -2.1148734428 3.6451368363 6.8984926142 0.00348101685781 0.00200931728664 -0.0117869663069
Te 0 0 0.0082687354 0 2.57110337382e-07 -0.00169898510942
Te 2.1120032476 3.6467939495 0.0076757548 -0.00150178148065 0.000866718947313 0.000510364019703
Te 4.2142178275 0.0056514924 0.0076757548 -0 -0.00173369500496 0.000510364019703
Te -2.1120032476 3.6467939495 0.0076757548 0.00150178148065 0.000866718947313 0.000510364019703
Te 0 2.3084949515 14.2077213333 0 0.0155469478808 -0.0434609029896
Te 2.2150025735 6.1449919156 14.2077213333 -0.0134640970377 -0.0077734739404 -0.0434606458793
Te 4.2142178275 2.4330797971 13.6497454866 -0 2.57110337382e-07 0.0196509430861
Te -2.2150025735 6.1449919156 14.2077213333 0.0134640970377 -0.0077734739404 -0.0434606458793
Te 2.0799875124 1.2008813411 17.2644240335 0.0223223194915 0.0128881698819 -0.00521779718682
Te 4.2142178275 4.8974767094 17.2644240335 -0 -0.0257758255432 -0.00521754007649
Te 6.3484481427 1.2008813411 17.2644240335 -0.0223223194915 0.0128879127716 -0.00521779718682
Te 0 4.8661595943 16.9882055054 0 -2.57110337382e-07 0.0438046595107
Te 2.1071944819 1.2165892989 10.264141199 -0.0187019488308 -0.0107973486183 0.0406771693668
Te 4.2142178275 4.8660607937 10.264141199 -0 0.0215946972367 0.0406774264771
Te 6.3212411731 1.2165892989 10.264141199 0.0187019488308 -0.0107973486183 0.0406771693668
Te 0 4.8661595943 10.286953362 0 -2.57110337382e-07 0.0597316164702
Te -0 0 24.1366653508 0 2.57110337382e-07 -0.000142696237247
Te 2.1327448213 3.6348187915 24.0904621672 -0.00878443178698 0.00507150140485 0.0109084202841
Te 4.2142178275 0.0296018082 24.0904621672 -0 -0.01014325992 0.0109084202841
Te -2.1327448213 3.6348187915 24.0904621672 0.00878443178698 0.00507150140485 0.0109084202841
Te 0 2.4413366332 27.6255767279 0 -0.0009780477234 -0.00704302347189
Te 2.0999582865 6.0785710749 27.6255767279 0.000847178561672 0.000488766751362 -0.00704302347189
Te 4.2142178275 2.4330797971 27.6457812712 -0 2.57110337382e-07 -0.0091119903568
Te -2.0999582865 6.0785710749 27.6255767279 -0.000847178561672 0.000488766751362 -0.00704302347189
Te -0 2.454469692 20.6669010438 0 0.00106417968642 -0.0121343223727
Te 2.0885847291 6.0720045455 20.6669010438 -0.000921483449176 -0.00053221839838 -0.0121343223727
Te 4.2142178275 2.4330797971 20.6933831266 -0 2.57110337382e-07 -0.00774930556868
Te -2.0885847291 6.0720045455 20.6669010438 0.000921483449176 -0.00053221839838 -0.0121343223727
Sb -0 2.4256893753 8.4941553509 0 0.0151445702028 -0.00755364460193
Sb 2.1135092095 6.0863947038 8.4941553509 -0.0131154554202 -0.00757215654623 -0.00755364460193
Sb 4.2142178275 2.4330797971 8.2829742356 -0 2.57110337382e-07 0.00427523068998
Sb -2.1135092095 6.0863947038 8.4941553509 0.0131154554202 -0.00757215654623 -0.00755364460193
Sb 0 2.4297022035 1.8217425771 0 -3.83094402699e-05 0.0172808999961
Sb 2.1100339963 6.0843882897 1.8217425771 3.34243438596e-05 1.92832753036e-05 0.0172811571064
Sb 4.2142178275 2.4330797971 1.8518596682 -0 2.57110337382e-07 0.0166949455372
Sb -2.1100339963 6.0843882897 1.8217425771 -3.34243438596e-05 1.92832753036e-05 0.0172811571064
Sb 0 0 18.9120433988 0 0 -0.0310933815409
Sb 2.0986950161 3.6544774677 18.7656043861 -0.00468455034709 0.00270454363892 -0.0305647626873
Sb 4.2142178275 -0.009715544 18.7656043861 -0 -0.00540908727783 -0.0305647626873
Sb 6.329740639 3.6544774677 18.7656043861 0.00468455034709 0.00270454363892 -0.0305647626873
Sb -0 -0 11.7316814626 0 0 -0.00617399053155
Sb 1.9410004784 3.7455224638 12.4787635776 0.056628294698 -0.0326944076118 -0.0193220989646
Sb 4.2142178275 -0.191805536 12.4787635776 -0 0.0653885581132 -0.0193218418542
Sb -1.9410004784 3.7455224638 12.4787635776 -0.056628294698 -0.0326944076118 -0.0193220989646
Sb 2.104913855 1.2152725797 29.1934205285 0.00100273031579 0.000579012479783 -0.016557648617
Sb 4.2142178275 4.8686942321 29.1934205285 -0 -0.00115802495957 -0.0165573915067
Sb 6.3235218001 1.2152725797 29.1934205285 -0.00100273031579 0.000579012479783 -0.016557648617
Sb 0 4.8661595943 29.2042315784 0 -0 -0.0172022242329
Sb 2.0997886655 1.2123135514 22.496332288 0.00435544911524 0.00251453909959 0.0134597261619
Sb 4.2142178275 4.8746122887 22.496332288 0 -0.00502933530952 0.0134599832723
Sb 6.3286469895 1.2123135514 22.496332288 -0.00435544911524 0.00251453909959 0.0134597261619
Sb 0 4.8661595943 22.5632278735 0 -0 0.00908576510239
Cr 0 4.8661595943 14.4006632842 -0 2.57110337382e-07 0.117722081736
61
Lattice="8.42843558953 0 0 -4.21421779477 7.29923593142 0 0 0 31.0334408416" Properties=species:S:1:pos:R:3:forces:R:3 energy=-133597.184695 ionic_step=11 pbc="T T T"
Te 2.0971180186 1.2107716504 3.4112679977 0.00494063224313 0.00285263919325 0.00399112376718
Te 4.2142178275 4.8776960908 3.4112679977 -0 -0.00570553549684 0.00399112376718
Te 6.3313176365 1.2107716504 3.4112679977 -0.00494063224313 0.00285263919325 0.00399112376718
Te 0 4.8661595943 3.3956273557 0 -2.57110337382e-07 0.00867464567292
Te -0 -0 6.8533950204 0 2.57110337382e-07 -0.00411273695676
Te 2.1138396818 3.6457336788 6.9024816747 -0.00302310334693 0.00174500785981 -0.0126158900346
Te 4.2142178275 0.0077720338 6.9024816747 -0 -0.00349027282996 -0.0126158900346
Te -2.1138396818 3.6457336788 6.9024816747 0.00302310334693 0.00174500785981 -0.0126158900346
Te 0 0 0.0069948309 0 2.57110337382e-07 -0.00158045724388
Te 2.1125160517 3.6464978818 0.0066766288 -0.00162056645652 0.000935367407394 0.000580040921133
Te 4.2142178275 0.0062436279 0.0066766288 -0 -0.00187099192513 0.000580040921133
Te -2.1125160517 3.6464978818 0.0066766288 0.00162056645652 0.000935367407394 0.000580040921133
Te 0 2.3088998461 14.2119699528 0 0.0113452507473 -0.0435411214149
Te 2.2146519247 6.1447894684 14.2119699528 -0.0098252144327 -0.00567262537365 -0.0435411214149
Te 4.2142178275 2.4330797971 13.6435919249 -0 2.57110337382e-07 0.0211840920279
Te -2.2146519247 6.1447894684 14.2119699528 0.0098252144327 -0.00567262537365 -0.0435411214149
Te 2.0771759749 1.1992580984 17.2635894749 0.0232404605063 0.0134180742873 -0.00561143311335
Te 4.2142178275 4.9007231948 17.2635894749 -0 -0.0268358914642 -0.00561143311335
Te 6.3512596802 1.1992580984 17.2635894749 -0.0232404605063 0.0134180742873 -0.00561143311335
Te 0 4.8661595943 16.992678869 0 -2.57110337382e-07 0.0484303315906
Te 2.1090375433 1.2176533914 10.2658775737 -0.0196409157829 -0.0113393372095 0.040522646054
Te 4.2142178275 4.8639326088 10.2658775737 -0 0.0226789315294 0.0405229031644
Te 6.3193981117 1.2176533914 10.2658775737 0.0196409157829 -0.0113393372095 0.040522646054
Te 0 4.8661595943 10.2844529449 0 -2.57110337382e-07 0.0601411932376
Te -0 0 24.1316169541 0 2.57110337382e-07 0.000473083020782
Te 2.1347346655 3.6336699539 24.0883659129 -0.00936215871508 0.00540497351244 0.011159874194
Te 4.2142178275 0.0318994835 24.0883659129 -0 -0.0108104612455 0.011159874194
Te -2.1347346655 3.6336699539 24.0883659129 0.00936215871508 0.00540497351244 0.011159874194
Te -0 2.4417092905 27.6267947525 0 -0.0011582820699 -0.00776344663724
Te 2.099635556 6.0783847463 27.6267947525 0.00100324453646 0.000579012479783 -0.00776344663724
Te 4.2142178275 2.4330797971 27.6454453288 -0 2.57110337382e-07 -0.00921457738142
Te -2.099635556 6.0783847463 27.6267947525 -0.00100324453646 0.000579012479783 -0.00776344663724
Te -0 2.4574909016 20.6655320785 0 0.000154523312766 -0.0119723428602
Te 2.085968286 6.0704939406 20.6655320785 -0.000133697375438 -7.73902115519e-05 -0.0119723428602
Te 4.2142178275 2.4330797971 20.687733241 -0 2.57110337382e-07 -0.00774622024463
Te -2.085968286 6.0704939406 20.6655320785 0.000133697375438 -7.73902115519e-05 -0.0119723428602
Sb -0 2.4239594571 8.4967864791 0 0.0153582288932 -0.00760069579368
Sb 2.1150073619 6.0872596629 8.4967864791 -0.0133003177528 -0.00767885733624 -0.00760069579368
Sb 4.2142178275 2.4330797971 8.284801606 -0 2.57110337382e-07 0.00439041612113
Sb -2.1150073619 6.0872596629 8.4967864791 0.0133003177528 -0.00767885733624 -0.00760069579368
Sb 0 2.4293737648 1.8216505918 0 -3.39385645344e-05 0.017360861311
Sb 2.1103184325 6.0845525091 1.8216505918 2.95676887989e-05 1.69692822672e-05 0.017360861311
Sb 4.2142178275 2.4330797971 1.8508961153 -0 2.57110337382e-07 0.0167702788661
Sb -2.1103184325 6.0845525091 1.8216505918 -2.95676887989e-05 1.69692822672e-05 0.017360861311
Sb 0 0 18.9132201915 0 0 -0.0312005965516
Sb 2.0991612823 3.6542082686 18.7653780806 -0.00479150824744 0.00276625011989 -0.0305812177488
Sb 4.2142178275 -0.0091771459 18.7653780806 -0 -0.00553275735012 -0.0305812177488
Sb 6.3292743728 3.6542082686 18.7653780806 0.00479150824744 0.00276625011989 -0.0305812177488
Sb -0 -0 11.7254022435 0 0 -0.0071366116347
Sb 1.9367813766 3.7479583645 12.4789844609 0.0698514793495 -0.04032904197 -0.0323701914763
Sb 4.2142178275 -0.1966773374 12.4789844609 -0 0.0806570554986 -0.032369934366
Sb -1.9367813766 3.7479583645 12.4789844609 -0.0698514793495 -0.04032904197 -0.0323701914763
Sb 2.1051794908 1.2154259447 29.1944361292 0.000968534640917 0.000559214983805 -0.0165280809282
Sb 4.2142178275 4.8683875022 29.1944361292 -0 -0.00111842996761 -0.0165278238179
Sb 6.3232561643 1.2154259447 29.1944361292 -0.000968534640917 0.000559214983805 -0.0165280809282
Sb 0 4.8661595943 29.2060068597 0 -0 -0.0171248340213
Sb 2.1002651801 1.2125886674 22.4944877206 0.00431919655767 0.00249371316226 0.0136062790542
Sb 4.2142178275 4.8740620568 22.4944877206 0 -0.00498742632453 0.0136062790542
Sb 6.3281704749 1.2125886674 22.4944877206 -0.00431919655767 0.00249371316226 0.0136062790542
Sb 0 4.8661595943 22.5626251626 0 -0 0.00898369229845
Cr 0 4.8661595943 14.4042702429 -0 5.14220674763e-07 0.153158056875
61
Lattice="8.42843558953 0 0 -4.21421779477 7.29923593142 0 0 0 31.0334408416" Properties=species:S:1:pos:R:3:forces:R:3 energy=-133597.193745 ionic_step=12 pbc="T T T"
Te 2.0969891257 1.210697234 3.4090781785 0.00518231596026 0.00299225010645 0.00457630689506
Te 4.2142178275 4.8778449235 3.4090781785 -0 -0.00598424310256 0.00457630689506
Te 6.3314465294 1.210697234 3.4090781785 -0.00518231596026 0.00299225010645 0.00457630689506
Te 0 4.8661595943 3.3943296129 0 -2.57110337382e-07 0.00912895963907
Te -0 -0 6.8518330155 0 2.57110337382e-07 -0.00357820456534
Te 2.1122461006 3.6466537338 6.9083184629 -0.00231476436745 0.00133620242337 -0.0138032255727
Te 4.2142178275 0.0059319239 6.9083184629 -0 -0.00267240484674 -0.0138032255727
Te -2.1122461006 3.6466537338 6.9083184629 0.00231476436745 0.00133620242337 -0.0138032255727
Te 0 0 0.0050623258 0 2.57110337382e-07 -0.00139970867671
Te 2.1132678594 3.6460638252 0.0051709471 -0.00179205905155 0.00103435488729 0.000682627945748
Te 4.2142178275 0.007111741 0.0051709471 -0 -0.00206896688491 0.000682627945748
Te -2.1132678594 3.6460638252 0.0051709471 0.00179205905155 0.00103435488729 0.000682627945748
Te 0 2.3095500308 14.2187050505 0 0.00373761297452 -0.0437077289135
Te 2.2140888484 6.144464376 14.2187050505 -0.0032367620373 -0.00186893504243 -0.0437077289135
Te 4.2142178275 2.4330797971 13.6341730963 -0 2.57110337382e-07 0.0234343217006
Te -2.2140888484 6.144464376 14.2187050505 0.0032367620373 -0.00186893504243 -0.0437077289135
Te 2.0729011897 1.1967900489 17.2620063406 0.0246162579216 0.0142125452298 -0.00617604741424
Te 4.2142178275 4.9056592939 17.2620063406 -0 -0.0284245762389 -0.00617604741424
Te 6.3555344654 1.1967900489 17.2620063406 -0.0246162579216 0.0142125452298 -0.00617604741424
Te 0 4.8661595943 16.9995845724 0 -2.57110337382e-07 0.0569280853514
Te 2.1118154596 1.2192572229 10.2686143044 -0.0210570795212 -0.0121569480824 0.040265021496
Te 4.2142178275 4.8607249457 10.2686143044 -0 0.0243141532752 0.0402652786063
Te 6.3166201954 1.2192572229 10.2686143044 0.0210570795212 -0.0121569480824 0.040265021496
Te 0 4.8661595943 10.2804129238 0 -2.57110337382e-07 0.0605739099354
Te -0 0 24.1241285838 0 2.57110337382e-07 0.00134725816788
Te 2.1378252988 3.6318855751 24.0854249709 -0.0102610164546 0.00592407928361 0.0114653212749
Te 4.2142178275 0.035468241 24.0854249709 -0 -0.0118481585672 0.0114653212749
Te -2.1378252988 3.6318855751 24.0854249709 0.0102610164546 0.00592407928361 0.0114653212749
Te -0 2.4422862903 27.6283587889 0 -0.00143724678596 -0.00879137376609
Te 2.0991358597 6.0780962463 27.6283587889 0.0012449282536 0.000718366282644 -0.00879137376609
Te 4.2142178275 2.4330797971 27.6446443371 -0 2.57110337382e-07 -0.00928451139319
Te -2.0991358597 6.0780962463 27.6283587889 -0.0012449282536 0.000718366282644 -0.00879137376609
Te -0 2.462092382 20.6634111706 0 -0.00123901471584 -0.0117039196679
Te 2.081983289 6.0681932005 20.6634111706 0.00107317854823 0.000619378802752 -0.0117041767783
Te 4.2142178275 2.4330797971 20.679210818 -0 2.57110337382e-07 -0.00776421796825
Te -2.081983289 6.0681932005 20.6634111706 -0.00107317854823 0.000619378802752 -0.0117041767783
Sb -0 2.4213800386 8.5006265738 0 0.0156670184083 -0.00767500068118
Sb 2.1172412028 6.0885493722 8.5006265738 -0.0135677125036 -0.00783338064901 -0.00767500068118
Sb 4.2142178275 2.4330797971 8.2872203168 -0 2.57110337382e-07 0.00452359927589
Sb -2.1172412028 6.0885493722 8.5006265738 0.0135677125036 -0.00783338064901 -0.00767500068118
Sb 0 2.4289109009 1.8216887184 0 -3.11103508232e-05 0.0174655052183
Sb 2.1107192841 6.084783941 1.8216887184 2.69965854251e-05 1.56837305803e-05 0.0174655052183
Sb 4.2142178275 2.4330797971 1.8496098497 -0 2.57110337382e-07 0.0168718374493
Sb -2.1107192841 6.084783941 1.8216887184 -2.69965854251e-05 1.56837305803e-05 0.0174655052183
Sb -0 0 18.9149192659 0 0 -0.0313543485334
Sb 2.0999140028 3.653773685 18.7648943171 -0.00495528753236 0.00286086672405 -0.0305735044387
Sb 4.2142178275 -0.0083079786 18.7648943171 -0 -0.00572173344809 -0.0305735044387
Sb 6.3285216523 3.653773685 18.7648943171 0.00495528753236 0.00286086672405 -0.0305735044387
Sb -0 -0 11.7161689567 0 0 -0.00862759448118
Sb 1.9303370496 3.7516790002 12.4793020802 0.0935439398289 -0.0540078261394 -0.0560533959836
Sb 4.2142178275 -0.2041186087 12.4793020802 -0 0.108014623837 -0.0560531388732
Sb -1.9303370496 3.7516790002 12.4793020802 -0.0935439398289 -0.0540078261394 -0.0560533959836
Sb 2.1056214518 1.2156811112 29.1957735383 0.000912484587367 0.000526819081295 -0.0164681742196
Sb 4.2142178275 4.8678771693 29.1957735383 -0 -0.00105363816259 -0.0164681742196
Sb 6.3228142033 1.2156811112 29.1957735383 -0.000912484587367 0.000526819081295 -0.0164681742196
Sb 0 4.8661595943 29.2085130303 0 -0 -0.0169962788526
Sb 2.1010209547 1.2130250143 22.4917587637 0.00426211806278 0.00246080303908 0.013823280179
Sb 4.2142178275 4.873189363 22.4917587637 0 -0.00492160607816 0.0138235372893
Sb 6.3274147003 1.2130250143 22.4917587637 -0.00426211806278 0.00246080303908 0.013823280179
Sb 0 4.8661595943 22.5620224483 0 -0 0.00881451369645
Cr 0 4.8661595943 14.410367646 -0 5.14220674763e-07 0.217405559311
61
Lattice="8.42843558953 0 0 -4.21421779477 7.29923593142 0 0 0 31.0334408416" Properties=species:S:1:pos:R:3:forces:R:3 energy=-133597.207531 ionic_step=13 pbc="T T T"
Te 2.0968200888 1.2105996405 3.4061459815 0.00553584267416 0.00319639571433 0.00538903267152
Te 4.2142178275 4.8780401106 3.4061459815 -0 -0.00639253431832 0.00538903267152
Te 6.3316155663 1.2105996405 3.4061459815 -0.00553584267416 0.00319613860399 0.00538903267152
Te 0 4.8661595943 3.3927052192 0 -2.57110337382e-07 0.00973831113867
Te -0 -0 6.8492949065 0 2.57110337382e-07 -0.0026927165634
Te 2.1098118536 3.6480591476 6.9168319417 -0.00123541517112 0.000712966965559 -0.0154957829237
Te 4.2142178275 0.0031210962 6.9168319417 -0 -0.00142619104146 -0.0154957829237
Te -2.1098118536 3.6480591476 6.9168319417 0.00123541517112 0.000712966965559 -0.0154957829237
Te 0 0 0.0021562586 0 2.57110337382e-07 -0.00112691460874
Te 2.1143752419 3.6454244773 0.0029103687 -0.00204119896847 0.00117833667622 0.000837922589527
Te 4.2142178275 0.0083904368 0.0029103687 -0 -0.00235693046278 0.000837922589527
Te -2.1143752419 3.6454244773 0.0029103687 0.00204119896847 0.00117833667622 0.000837922589527
Te 0 2.3105271835 14.2291742239 0 -0.0101635716367 -0.044056370531
Te 2.2132426098 6.1439757996 14.2291742239 0.00880217240026 0.00508178581835 -0.0440561134207
Te 4.2142178275 2.4330797971 13.6200448535 -0 2.57110337382e-07 0.0266183761188
Te -2.2132426098 6.1439757996 14.2291742239 -0.00880217240026 0.00508178581835 -0.0440561134207
Te 2.066447368 1.1930639314 17.2592567354 0.0266404876078 0.0153811117132 -0.00696254793629
Te 4.2142178275 4.9131115287 17.2592567354 -0 -0.030761966316 -0.00696254793629
Te 6.3619882871 1.1930639314 17.2592567354 -0.0266404876078 0.0153811117132 -0.00696254793629
Te 0 4.8661595943 17.0101321318 0 -2.57110337382e-07 0.0727167169493
Te 2.115961352 1.2216508561 10.2728086762 -0.0231556140949 -0.0133687091025 0.0398598156043
Te 4.2142178275 4.8559376794 10.2728086762 -0 0.0267376753153 0.0398598156043
Te 6.312474303 1.2216508561 10.2728086762 0.0231556140949 -0.0133687091025 0.0398598156043
Te 0 4.8661595943 10.2740367996 0 -2.57110337382e-07 0.060822021411
Te -0 -0 24.1130715033 0 2.57110337382e-07 0.00259604307654
Te 2.1425567001 3.629153898 24.0812805211 -0.0116309003321 0.00671469357106 0.0118347888297
Te 4.2142178275 0.0409315953 24.0812805211 -0 -0.0134299013628 0.0118347888297
Te -2.1425567001 3.629153898 24.0812805211 0.0116309003321 0.00671469357106 0.0118347888297
Te -0 2.4431616409 27.6303727263 0 -0.00186250728399 -0.0102615306752
Te 2.0983777842 6.077658571 27.6303727263 0.00161336736707 0.000931253641996 -0.0102615306752
Te 4.2142178275 2.4330797971 27.6430818151 -0 2.57110337382e-07 -0.00928991071027
Te -2.0983777842 6.077658571 27.6303727263 -0.00161336736707 0.000931253641996 -0.0102615306752
Te -0 2.4690237525 20.6602014432 0 -0.00334089172394 -0.0112706887495
Te 2.0759805488 6.0647275152 20.6602014432 0.00289351973689 0.00167044586197 -0.0112706887495
Te 4.2142178275 2.4330797971 20.6664497394 -0 2.57110337382e-07 -0.00781718269775
Te -2.0759805488 6.0647275152 20.6602014432 -0.00289351973689 0.00167044586197 -0.0112706887495
Sb -0 2.4175148482 8.5062211457 0 0.0161048773129 -0.00778478679524
Sb 2.1205885543 6.0904819674 8.5062211457 -0.0139469502513 -0.00805243865646 -0.00778478679524
Sb 4.2142178275 2.4330797971 8.2904694425 -0 2.57110337382e-07 0.00467683703697
Sb -2.1205885543 6.0904819674 8.5062211457 0.0139469502513 -0.00805243865646 -0.00778478679524
Sb 0 2.4282353767 1.8219863505 0 -2.93105784615e-05 0.0176012594765
Sb 2.111304305 6.0851217031 1.8219863505 2.54539234008e-05 1.46552892308e-05 0.0176012594765
Sb 4.2142178275 2.4330797971 1.8479038949 -0 2.57110337382e-07 0.0170050206041
Sb -2.111304305 6.0851217031 1.8219863505 -2.54539234008e-05 1.46552892308e-05 0.0176012594765
Sb -0 0 18.9173310058 0 0 -0.0315698069961
Sb 2.1011051413 3.6530859806 18.763995274 -0.00518925793937 0.00299584965117 -0.0304896864687
Sb 4.2142178275 -0.0069325697 18.763995274 -0 -0.00599195641268 -0.0304899435791
Sb 6.3273305138 3.6530859806 18.763995274 0.00518925793937 0.00299584965117 -0.0304896864687
Sb -0 -0 11.7025802222 0 0 -0.0109547001448
Sb 1.9206332923 3.7572814697 12.4797051703 0.13638109314 -0.0787397837128 -0.099646710797
Sb 4.2142178275 -0.2153235477 12.4797051703 0 0.157478281874 -0.0996461965763
Sb -1.9206332923 3.7572814697 12.4797051703 -0.13638109314 -0.0787397837128 -0.099646710797
Sb 2.106321249 1.2160851394 29.1975192146 0.000824552851983 0.000476168344831 -0.0163614734296
Sb 4.2142178275 4.8670691128 29.1975192146 -0 -0.000952336689662 -0.0163612163193
Sb 6.3221144061 1.2160851394 29.1975192146 -0.000824552851983 0.000476168344831 -0.0163614734296
Sb 0 4.8661595943 29.2120303202 0 -0 -0.0167864768173
Sb 2.1021848578 1.2136969944 22.4877581086 0.00417341499638 0.00240963808194 0.014141068556
Sb 4.2142178275 4.8718454029 22.4877581086 0 -0.00481927616388 0.014141068556
Sb 6.3262507972 1.2136969944 22.4877581086 -0.00417341499638 0.00240963808194 0.014141068556
Sb 0 4.8661595943 22.5614873792 0 -0 0.00854146251816
Cr 0 4.8661595943 14.4203182806 -0 1.02844134953e-06 0.33551896298
61
Lattice="8.42843558953 0 0 -4.21421779477 7.29923593142 0 0 0 31.0334408416" Properties=species:S:1:pos:R:3:forces:R:3 energy=-133597.227939 ionic_step=14 pbc="T T T"
Te 2.096584028 1.2104633506 3.4017709172 0.006054691335 0.00349592925738 0.00663576069748
Te 4.2142178275 4.8783126903 3.4017709172 -0 -0.00699160140442 0.00663576069748
Te 6.3318516271 1.2104633506 3.4017709172 -0.006054691335 0.00349592925738 0.00663576069748
Te 0 4.8661595943 3.3901366524 0 -2.57110337382e-07 0.0107153304207
Te -0 -0 6.8456511183 0 2.57110337382e-07 -0.00139199536658
Te 2.1061832214 3.6501541403 6.9295119988 0.00034658473479 -0.000200546063158 -0.0179892389756
Te 4.2142178275 -0.0010688893 6.9295119988 -0 0.000400577905641 -0.0179892389756
Te -2.1061832214 3.6501541403 6.9295119988 -0.00034658473479 -0.000200546063158 -0.0179892389756
Te 0 0 -0.0020905129 0 2.57110337382e-07 -0.000734564233899
Te 2.1159734878 3.6445017291 -0.0003359381 -0.00239935366845 0.00138505338747 0.00104978150753
Te 4.2142178275 0.0102359331 -0.0003359381 -0 -0.00277036388529 0.00104978150753
Te -2.1159734878 3.6445017291 -0.0003359381 0.00239935366845 0.00138505338747 0.00104978150753
Te 0 2.3120159302 14.2446872786 0 -0.0307349697306 -0.044454891554
Te 2.211953318 6.1432314263 14.2446872786 0.0266173476774 0.0153674848653 -0.0444546344436
Te 4.2142178275 2.4330797971 13.5988524894 -0 2.57110337382e-07 0.0310463303492
Te -2.211953318 6.1432314263 14.2446872786 -0.0266173476774 0.0153674848653 -0.0444546344436
Te 2.056893106 1.1875477731 17.2552884568 0.0295419777651 0.0170561855612 -0.00813317130239
Te 4.2142178275 4.9241438454 17.2552884568 -0 -0.0341123711224 -0.00813317130239
Te 6.3715425491 1.1875477731 17.2552884568 -0.0295419777651 0.0170561855612 -0.00813317130239
Te 0 4.8661595943 17.0259483497 0 -2.57110337382e-07 0.0961721216976
Te 2.1220915463 1.2251901271 10.2789046002 -0.0262031429239 -0.0151281151412 0.0393065141582
Te 4.2142178275 4.8488591374 10.2789046002 -0 0.0302564873927 0.0393065141582
Te 6.3063441087 1.2251901271 10.2789046002 0.0262031429239 -0.0151281151412 0.0393065141582
Te 0 4.8661595943 10.2645106437 0 -2.57110337382e-07 0.0614010338908
Te -0 -0 24.0966857684 0 2.57110337382e-07 0.00446754922234
Te 2.1496142936 3.6250791926 24.0750543785 -0.0136481880392 0.0078794033994 0.0124012029029
Te 4.2142178275 0.0490810061 24.0750543785 -0 -0.0157593210195 0.0124012029029
Te -2.1496142936 3.6250791926 24.0750543785 0.0136481880392 0.0078794033994 0.0124012029029
Te -0 2.4444599521 27.6334122996 0 -0.00249268472091 -0.0124490254257
Te 2.0972534143 6.0770094155 27.6334122996 0.00215895550299 0.00124621380529 -0.0124490254257
Te 4.2142178275 2.4330797971 27.6409291691 -0 2.57110337382e-07 -0.00931356486131
Te -2.0972534143 6.0770094155 27.6334122996 -0.00215895550299 0.00124621380529 -0.0124490254257
Te -0 2.4792245379 20.6554284317 0 -0.00639844785608 -0.0105957741138
Te 2.0671464137 6.0596271225 20.6554284317 0.00554149910159 0.00319922392804 -0.0105957741138
Te 4.2142178275 2.4330797971 20.6478310679 -0 2.57110337382e-07 -0.00792516903945
Te -2.0671464137 6.0596271225 20.6554284317 -0.00554149910159 0.00319922392804 -0.0105957741138
Sb 0 2.4118678074 8.5144236104 0 0.0166931457648 -0.00791437040528
Sb 2.1254790328 6.0933054878 8.5144236104 -0.01445654294 -0.00834657288242 -0.00791437040528
Sb 4.2142178275 2.4330797971 8.2951696786 -0 2.57110337382e-07 0.00489975169948
Sb -2.1254790328 6.0933054878 8.5144236104 0.01445654294 -0.00834657288242 -0.00791437040528
Sb 0 2.4272894951 1.8222650169 0 -2.93105784615e-05 0.0178010342086
Sb 2.1121234622 6.0855946439 1.8222650169 2.54539234008e-05 1.46552892308e-05 0.0178010342086
Sb 4.2142178275 2.4330797971 1.8453321009 -0 2.57110337382e-07 0.0172004244605
Sb -2.1121234622 6.0855946439 1.8222650169 -2.54539234008e-05 1.46552892308e-05 0.0178010342086
Sb -0 0 18.9211164217 0 0 -0.0318863098214
Sb 2.1028699979 3.6520670397 18.7627020401 -0.00553301446045 0.00319433883163 -0.0303577888657
Sb 4.2142178275 -0.004894688 18.7627020401 -0 -0.0063889347736 -0.0303577888657
Sb 6.3255656572 3.6520670397 18.7627020401 0.00553301446045 0.00319433883163 -0.0303577888657
Sb -0 -0 11.68240133 0 0 -0.0145668432747
Sb 1.906448667 3.7654709707 12.480078513 0.199400122384 -0.115123981776 -0.165661075471
Sb 4.2142178275 -0.2317025498 12.480078513 0 0.23024616378 -0.16566004703
Sb -1.906448667 3.7654709707 12.480078513 -0.199400122384 -0.115123981776 -0.165661075471
Sb 2.1073489106 1.2166784604 29.2001221134 0.000697540345316 0.000402891898677 -0.0162105496616
Sb 4.2142178275 4.8658824708 29.2001221134 -0 -0.000805526687017 -0.0162105496616
Sb 6.3210867445 1.2166784604 29.2001221134 -0.000697540345316 0.000402891898677 -0.0162105496616
Sb 0 4.8661595943 29.2172614298 0 -0 -0.0164892572673
Sb 2.1038973407 1.2146856973 22.4816531413 0.00404511693803 0.00233559030477 0.0146113233631
Sb 4.2142178275 4.869867997 22.4816531413 0 -0.00467118060955 0.0146115804734
Sb 6.3245383143 1.2146856973 22.4816531413 -0.00404511693803 0.00233559030477 0.0146113233631
Sb 0 4.8661595943 22.560784548 0 -0 0.00814037039184
Cr 0 4.8661595943 14.4361765866 -0 1.28555168691e-06 0.514144055883
61
Lattice="8.42843558953 0 0 -4.21421779477 7.29923593142 0 0 0 31.0334408416" Properties=species:S:1:pos:R:3:forces:R:3 energy=-133597.257791 ionic_step=15 pbc="T T T"
Te 2.0962435149 1.2102667553 3.3952426053 0.00682036591972 0.00393790192734 0.00853889141478
Te 4.2142178275 4.8787058811 3.3952426053 -0 -0.00787606096501 0.00853889141478
Te 6.3321921402 1.2102667553 3.3952426053 -0.00682036591972 0.00393790192734 0.00853889141478
Te 0 4.8661595943 3.3862129275 0 -2.57110337382e-07 0.012214540798
Te -0 -0 6.840306966 0 2.57110337382e-07 0.000559214983805
Te 2.1007413178 3.6532960263 6.9484697979 0.00265517845414 -0.00153314894181 -0.0216126949603
Te 4.2142178275 -0.0073526612 6.9484697979 -0 0.00306604077328 -0.0216126949603
Te -2.1007413178 3.6532960263 6.9484697979 -0.00265517845414 -0.00153314894181 -0.0216126949603
Te 0 0 -0.0083830896 0 2.57110337382e-07 -0.000169949933009
Te 2.118331795 3.6431401593 -0.0051083004 -0.00292411586704 0.00168792936491 0.00135060060227
Te 4.2142178275 0.0129590729 -0.0051083004 -0 -0.0033763729505 0.00135060060227
Te -2.118331795 3.6431401593 -0.0051083004 0.00292411586704 0.00168792936491 0.00135060060227
Te 0 2.3142574625 14.267802367 0 -0.0640734387375 -0.0450156491998
Te 2.2100120949 6.1421106602 14.267802367 0.0554892959034 0.0320367193688 -0.0450156491998
Te 4.2142178275 2.4330797971 13.5670639431 -0 2.57110337382e-07 0.0368310558299
Te -2.2100120949 6.1421106602 14.267802367 -0.0554892959034 0.0320367193688 -0.0450156491998
Te 2.0426520974 1.1793257191 17.2494608711 0.0335860662618 0.0193912616453 -0.00979024742682
Te 4.2142178275 4.9405879533 17.2494608711 -0 -0.03878200907 -0.00978999031648
Te 6.3857835577 1.1793257191 17.2494608711 -0.0335860662618 0.0193912616453 -0.00979024742682
Te 0 4.8661595943 17.0496531849 0 -2.57110337382e-07 0.134664367417
Te 2.1312600266 1.2304835541 10.2879139398 -0.0305992154725 -0.0176663083918 0.0385616655108
Te 4.2142178275 4.8382722834 10.2879139398 -0 0.0353326167837 0.0385616655108
Te 6.2971756284 1.2304835541 10.2879139398 0.0305992154725 -0.0176663083918 0.0385616655108
Te 0 4.8661595943 10.2502434819 0 -2.57110337382e-07 0.0618491772088
Te -0 -0 24.0722876584 0 2.57110337382e-07 0.00724896885214
Te 2.1601735355 3.6189828086 24.0657179781 -0.0165805314371 0.00957247497106 0.0132396397131
Te 4.2142178275 0.061273774 24.0657179781 -0 -0.0191452070524 0.0132396397131
Te -2.1601735355 3.6189828086 24.0657179781 0.0165805314371 0.00957247497106 0.0132396397131
Te -0 2.4463979669 27.6379642632 0 -0.00343447988674 -0.0157053278486
Te 2.095575045 6.0760404081 27.6379642632 0.00297450949317 0.00171723994337 -0.0157053278486
Te 4.2142178275 2.4330797971 27.6378129065 -0 2.57110337382e-07 -0.00935778783934
Te -2.095575045 6.0760404081 27.6379642632 -0.00297450949317 0.00171723994337 -0.0157053278486
Te -0 2.4944240138 20.6482982049 0 -0.0108238309831 -0.00954779237867
Te 2.0539832875 6.0520273845 20.6482982049 0.0093739857906 0.00541191549155 -0.00954779237867
Te 4.2142178275 2.4330797971 20.6202593113 -0 2.57110337382e-07 -0.00808740566234
Te -2.0539832875 6.0520273845 20.6482982049 -0.0093739857906 0.00541191549155 -0.00954779237867
Sb 0 2.4034914395 8.5265821543 0 0.0174616485633 -0.00802672762272
Sb 2.1327331768 6.0974936717 8.5265821543 -0.0151219444931 -0.00873069572647 -0.00802672762272
Sb 4.2142178275 2.4330797971 8.3021101232 -0 2.57110337382e-07 0.00523630913111
Sb -2.1327331768 6.0974936717 8.5265821543 0.0151219444931 -0.00873069572647 -0.00802672762272
Sb 0 2.4259154844 1.8225851525 0 -3.26530128475e-05 0.0180967110966
Sb 2.1133133898 6.0862816493 1.8225851525 2.85392474494e-05 1.64550615924e-05 0.0180969682069
Sb 4.2142178275 2.4330797971 1.8414806177 -0 2.57110337382e-07 0.0174832458316
Sb -2.1133133898 6.0862816493 1.8225851525 -2.85392474494e-05 1.64550615924e-05 0.0180969682069
Sb -0 0 18.9269010539 0 0 -0.0323246829466
Sb 2.1055185825 3.6505378779 18.7607997139 -0.00598424310256 0.0034547916034 -0.030038714937
Sb 4.2142178275 -0.0018363645 18.7607997139 -0 -0.00690984031713 -0.030038714937
Sb 6.3229170726 3.6505378779 18.7607997139 0.00598424310256 0.0034547916034 -0.030038714937
Sb -0 -0 11.6522411834 0 0 -0.020279577861
Sb 1.885426941 3.7776078756 12.4805303877 0.300718307484 -0.173619925965 -0.276049856164
Sb 4.2142178275 -0.2559763594 12.4805303877 0 0.347237280827 -0.276048313502
Sb -1.885426941 3.7776078756 12.4805303877 -0.300718307484 -0.173619925965 -0.276049856164
Sb 2.108874382 1.2175591921 29.2039956762 0.000511135350715 0.000295162667314 -0.0159873778887
Sb 4.2142178275 4.8641210073 29.2039956762 -0 -0.000590325334628 -0.0159873778887
Sb 6.3195612731 1.2175591921 29.2039956762 -0.000511135350715 0.000295162667314 -0.0159873778887
Sb 0 4.8661595943 29.2250592633 0 -0 -0.0160524268041
Sb 2.1064383803 1.2161527679 22.4724284411 0.00385048441263 0.00222323308734 0.0153050070533
Sb 4.2142178275 4.8669338558 22.4724284411 0 -0.00444620906434 0.0153052641637
Sb 6.3219972747 1.2161527679 22.4724284411 -0.00385048441263 0.00222323308734 0.0153050070533
Sb 0 4.8661595943 22.559822149 0 -0 0.00754336018844
Cr 0 4.8661595943 14.4604759798 -0 2.05688269905e-06 0.81268541014
61
Lattice="8.42843558953 0 0 -4.21421779477 7.29923593142 0 0 0 31.0334408416" Properties=species:S:1:pos:R:3:forces:R:3 energy=-133597.296279 ionic_step=16 pbc="T T T"
Te 2.0957425599 1.2099775286 3.3857573002 0.00792568326013 0.00457604978472 0.0113128548448
Te 4.2142178275 4.8792843344 3.3857573002 -0 -0.00915209956944 0.0113128548448
Te 6.3326930952 1.2099775286 3.3857573002 -0.00792568326013 0.00457604978472 0.0113128548448
Te 0 4.8661595943 3.3806050962 0 -2.57110337382e-07 0.0143858375972
Te -0 -0 6.832337077 0 2.57110337382e-07 0.00357537635163
Te 2.0925620542 3.6580183285 6.9762697239 0.00597293024771 -0.00344887806564 -0.0265942077471
Te 4.2142178275 -0.0167972657 6.9762697239 -0 0.0068972419106 -0.0265942077471
Te -2.0925620542 3.6580183285 6.9762697239 -0.00597293024771 -0.00344887806564 -0.0265942077471
Te 0 0 -0.017759809 0 2.57110337382e-07 0.000638919188393
Te 2.1218512247 3.6411082146 -0.0122172339 -0.00370830239606 0.00214070066904 0.00178768817581
Te 4.2142178275 0.0170229622 -0.0122172339 -0 -0.00428165844842 0.00178768817581
Te -2.1218512247 3.6411082146 -0.0122172339 0.00370830239606 0.00214070066904 0.00178768817581
Te 0 2.3173959759 14.3022376852 0 -0.0950827451981 -0.0440054626842
Te 2.2072940638 6.1405414034 14.3022376852 0.0823442135325 0.0475412440439 -0.0440052055739
Te 4.2142178275 2.4330797971 13.5193811237 -0 2.57110337382e-07 0.0437702067255
Te -2.2072940638 6.1405414034 14.3022376852 -0.0823442135325 0.0475412440439 -0.0440052055739
Te 2.0214915013 1.1671086376 17.2406729253 0.0388809965499 0.0224483035568 -0.012532329175
Te 4.2142178275 4.9650221164 17.2406729253 -0 -0.0448960928929 -0.012532329175
Te 6.4069441538 1.1671086376 17.2406729253 -0.0388809965499 0.0224483035568 -0.012532329175
Te 0 4.8661595943 17.0851149746 0 -2.57110337382e-07 0.16950076125
Te 2.145107106 1.2384781728 10.3014855241 -0.036792232169 -0.0212416847435 0.0377605096996
Te 4.2142178275 4.8222830458 10.3014855241 -0 0.0424838837076 0.0377605096996
Te 6.283328549 1.2384781728 10.3014855241 0.036792232169 -0.0212416847435 0.0377605096996
Te 0 4.8661595943 10.2287182033 0 -2.57110337382e-07 0.0652327492488
Te -0 -0 24.0364266799 0 2.57110337382e-07 0.0111786432487
Te 2.1759152172 3.6098943402 24.0519475991 -0.0207182080965 0.011961544226 0.0143902084729
Te 4.2142178275 0.0794507109 24.0519475991 -0 -0.023923088452 0.0143902084729
Te -2.1759152172 3.6098943402 24.0519475991 0.0207182080965 0.011961544226 0.0143902084729
Te -0 2.4492911961 27.6445513878 0 -0.00482210437759 -0.0204420715942
Te 2.0930694361 6.0745937934 27.6445513878 0.00417624321009 0.00241092363363 -0.0204420715942
Te 4.2142178275 2.4330797971 27.6329365003 -0 2.57110337382e-07 -0.0093850415351
Te -2.0930694361 6.0745937934 27.6445513878 -0.00417624321009 0.00241092363363 -0.0204420715942
Te -0 2.5172095476 20.6376664785 0 -0.0170124768039 -0.00800075947864
Te 2.0342504456 6.0406346177 20.6376664785 0.0147337078837 0.00850623840193 -0.00800075947864
Te 4.2142178275 2.4330797971 20.5797704913 -0 2.57110337382e-07 -0.00837485501953
Te -2.0342504456 6.0406346177 20.6376664785 -0.0147337078837 0.00850623840193 -0.00800075947864
Sb 0 2.3908636749 8.5445984769 0 0.0184312116455 -0.00798816107211
Sb 2.1436691366 6.103807554 8.5445984769 -0.0159619239653 -0.00921560582277 -0.00798816107211
Sb 4.2142178275 2.4330797971 8.3123160079 -0 2.57110337382e-07 0.00576209977106
Sb -2.1436691366 6.103807554 8.5445984769 0.0159619239653 -0.00921560582277 -0.00798816107211
Sb 0 2.4238531209 1.8232300538 0 -3.77952195951e-05 0.018524542698
Sb 2.1150994481 6.087312831 1.8232300538 3.29101231848e-05 1.90261649662e-05 0.018524542698
Sb 4.2142178275 2.4330797971 1.8358773431 -0 2.57110337382e-07 0.0178781673098
Sb -2.1150994481 6.087312831 1.8232300538 -3.29101231848e-05 1.90261649662e-05 0.018524542698
Sb -0 0 18.9354666007 0 0 -0.0329697727831
Sb 2.1095205484 3.6482273407 18.7578876073 -0.00681393816129 0.00393378816194 -0.0298857342862
Sb 4.2142178275 0.0027847099 18.7578876073 -0 -0.00786783343422 -0.0298857342862
Sb 6.3189151067 3.6482273407 18.7578876073 0.00681393816129 0.00393378816194 -0.0298857342862
Sb -0 0 11.607382365 0 0 -0.0289781347953
Sb 1.8546043175 3.7954033338 12.48097706 0.394495446389 -0.227762220811 -0.388734375059
Sb 4.2142178275 -0.2915672759 12.48097706 0 0.455521099187 -0.388732318177
Sb -1.8546043175 3.7954033338 12.48097706 -0.394495446389 -0.227762220811 -0.388734375059
Sb 2.1111395261 1.2188669743 29.2096003688 0.000236798620728 0.000136782699487 -0.0156397647126
Sb 4.2142178275 4.861505443 29.2096003688 -0 -0.000273565398974 -0.0156395076022
Sb 6.317296129 1.2188669743 29.2096003688 -0.000236798620728 0.000136782699487 -0.0156397647126
Sb 0 4.8661595943 29.2365570918 0 -0 -0.0153826543752
Sb 2.1102038239 1.2183267488 22.4587537524 0.00354940820755 0.00204942649927 0.016298481397
Sb 4.2142178275 4.8625858941 22.4587537524 0 -0.0040985958882 0.0162987385073
Sb 6.3182318311 1.2183267488 22.4587537524 -0.00354940820755 0.00204942649927 0.016298481397
Sb 0 4.8661595943 22.5586716934 0 -0 0.00663730335951
Cr 0 4.8661595943 14.4975398499 -0 2.8282137112e-06 1.11777202226
61
Lattice="8.42843558953 0 0 -4.21421779477 7.29923593142 0 0 0 31.0334408416" Properties=species:S:1:pos:R:3:forces:R:3 energy=-133597.324896 ionic_step=17 pbc="T T T"
Te 2.0951317694 1.2096248884 3.3743050832 0.00942926451313 0.00544405428372 0.0147542767106
Te 4.2142178275 4.8799896148 3.3743050832 -0 -0.0108881085674 0.0147542767106
Te 6.3333038857 1.2096248884 3.3743050832 -0.00942926451313 0.00544405428372 0.0147542767106
Te 0 4.8661595943 3.3749290002 0 -2.57110337382e-07 0.0168751798837
Te -0 -0 6.8193502413 0 2.57110337382e-07 0.0087921450971
Te 2.0796435391 3.6654768402 7.0156364885 0.0108009481631 -0.00623621123319 -0.0325712517602
Te 4.2142178275 -0.031714289 7.0156364885 -0 0.012472165356 -0.0325712517602
Te -2.0796435391 3.6654768402 7.0156364885 -0.0108009481631 -0.00623621123319 -0.0325712517602
Te 0 0 -0.0319404507 0 2.57110337382e-07 0.00183011138148
Te 2.1271114215 3.6380712371 -0.0229587712 -0.00486555602461 0.00280893043589 0.00245103284626
Te 4.2142178275 0.0230969171 -0.0229587712 -0 -0.00561811798213 0.00245103284626
Te -2.1271114215 3.6380712371 -0.0229587712 0.00486555602461 0.00280893043589 0.00245103284626
Te 0 2.3220892172 14.3553799169 0 -0.164704625016 -0.0432243614793
Te 2.2032295995 6.1381947828 14.3553799169 0.142638387421 0.082352183953 -0.0432243614793
Te 4.2142178275 2.4330797971 13.4478568946 -0 2.57110337382e-07 0.049243057367
Te -2.2032295995 6.1381947828 14.3553799169 -0.142638387421 0.082352183953 -0.0432243614793
Te 1.9900760918 1.148970934 17.2251195489 0.0447873352202 0.0258583579615 -0.0155772869006
Te 4.2142178275 5.0012975236 17.2251195489 -0 -0.0517162017023 -0.0155772869006
Te 6.4383595633 1.148970934 17.2251195489 -0.0447873352202 0.0258583579615 -0.0155772869006
Te 0 4.8661595943 17.1374326145 0 -2.57110337382e-07 0.25137806241
Te 2.1667483823 1.2509727754 10.3231913237 -0.0452439631794 -0.0261213818366 0.0367624073698
Te 4.2142178275 4.7972938408 10.3231913237 -0 0.0522430207836 0.0367626644802
Te 6.2616872727 1.2509727754 10.3231913237 0.0452439631794 -0.0261213818366 0.0367624073698
Te 0 4.8661595943 10.1948994814 0 -2.57110337382e-07 0.0643819711424
Te -0 -0 23.9841836837 0 2.57110337382e-07 0.0161107908507
Te 2.1997158463 3.5961530342 24.033264274 -0.0263131861483 0.0151916213945 0.0153327749698
Te 4.2142178275 0.1069333229 24.033264274 -0 -0.0303834998994 0.0153327749698
Te -2.1997158463 3.5961530342 24.033264274 0.0263131861483 0.0151916213945 0.0153327749698
Te -0 2.4537465778 27.6519698512 0 -0.00688130106968 -0.026777784528
Te 2.0892109642 6.0723661026 27.6519698512 0.00595981762051 0.00344065053484 -0.026777784528
Te 4.2142178275 2.4330797971 27.6227238052 -0 2.57110337382e-07 -0.00876000630493
Te -2.0892109642 6.0723661026 27.6519698512 -0.00595981762051 0.00344065053484 -0.026777784528
Te -0 2.551624646 20.621569915 0 -0.0249589860013 -0.00588936938806
Te 2.00444611 6.0234270685 20.621569915 0.0216152660637 0.0124793644455 -0.00588936938806
Te 4.2142178275 2.4330797971 20.5198695215 -0 2.57110337382e-07 -0.00878083224226
Te -2.00444611 6.0234270685 20.621569915 -0.0216152660637 0.0124793644455 -0.00588936938806
Sb 0 2.3712565567 8.57037189 0 0.0196437439966 -0.0077102247974
Sb 2.1606493912 6.1136111131 8.57037189 -0.0170117054729 -0.00982161488798 -0.0077102247974
Sb 4.2142178275 2.4330797971 8.3251247547 -0 2.57110337382e-07 0.00629971748652
Sb -2.1606493912 6.1136111131 8.57037189 0.0170117054729 -0.00982161488798 -0.0077102247974
Sb 0 2.4207857887 1.826200281 0 -4.60227503913e-05 0.0190217940905
Sb 2.1177558344 6.0888464971 1.826200281 3.98521022942e-05 2.2882820027e-05 0.0190217940905
Sb 4.2142178275 2.4330797971 1.8291408431 -0 2.57110337382e-07 0.0182982856011
Sb -2.1177558344 6.0888464971 1.826200281 -3.98521022942e-05 2.2882820027e-05 0.0190217940905
Sb -0 0 18.9474205442 0 0 -0.0336945668242
Sb 2.1160958964 3.64443106 18.7522203168 -0.00762666393775 0.00440301452766 -0.028452858376
Sb 4.2142178275 0.0103772713 18.7522203168 -0 -0.008806543276 -0.0284531154863
Sb 6.3123397587 3.64443106 18.7522203168 0.00762666393775 0.004403271638 -0.028452858376
Sb -0 0 11.5425770628 0 0 -0.0420334263965
Sb 1.8080067377 3.8223064717 12.4830920094 0.601663900507 -0.347370978202 -0.649746876032
Sb 4.2142178275 -0.3453735516 12.4830920094 0 0.694737071308 -0.649743533597
Sb -1.8080067377 3.8223064717 12.4830920094 -0.601663900507 -0.347370978202 -0.649746876032
Sb 2.1147106962 1.2209287913 29.2160671039 -0.000197460739109 -0.00011389987946 -0.0149602220909
Sb 4.2142178275 4.8573818091 29.2160671039 -0 0.00022779975892 -0.0149602220909
Sb 6.3137249589 1.2209287913 29.2160671039 0.000197460739109 -0.00011389987946 -0.0149602220909
Sb 0 4.8661595943 29.2521145121 0 -0 -0.0142254007467
Sb 2.1159092857 1.2216208002 22.4390118424 0.00307452541441 0.00177508976928 0.0176804494604
Sb 4.2142178275 4.8559977912 22.4390118424 0 -0.00355017953857 0.0176807065707
Sb 6.3125263693 1.2216208002 22.4390118424 -0.00307452541441 0.00177508976928 0.0176804494604
Sb 0 4.8661595943 22.559928587 0 -0 0.0051398927546
Cr 0 4.8661595943 14.5526631009 -0 4.37087573549e-06 1.82586289027
61
Lattice="8.42843558953 0 0 -4.21421779477 7.29923593142 0 0 0 31.0334408416" Properties=species:S:1:pos:R:3:forces:R:3 energy=-133597.333589 ionic_step=18 pbc="T T T"
Te 2.0951531553 1.2096372355 3.3753052979 0.00953185153775 0.00550344677165 0.0146794576025
Te 4.2142178275 4.8799649205 3.3753052979 -0 -0.011006636433 0.0146794576025
Te 6.3332824998 1.2096372355 3.3753052979 -0.00953185153775 0.00550344677165 0.0146794576025
Te 0 4.8661595943 3.3766062273 0 -2.57110337382e-07 0.0164974847981
Te -0 -0 6.8174609459 0 2.57110337382e-07 0.0100386160127
Te 2.0775576484 3.6666811303 7.0182837457 0.0115707365132 -0.00668049789619 -0.0326131607452
Te 4.2142178275 -0.0341228693 7.0182837457 -0 0.0133609957924 -0.0326131607452
Te -2.0775576484 3.6666811303 7.0182837457 -0.0115707365132 -0.00668049789619 -0.0326131607452
Te 0 0 -0.0336445408 0 2.57110337382e-07 0.00202268702418
Te 2.1277716261 3.6376900677 -0.024227538 -0.00501365157894 0.00289429106791 0.00257470291854
Te 4.2142178275 0.023859256 -0.024227538 -0 -0.00578883924615 0.00257470291854
Te -2.1277716261 3.6376900677 -0.024227538 0.00501365157894 0.00289429106791 0.00257470291854
Te 0 2.3218208034 14.360630891 0 -0.0817549166393 -0.0361296588295
Te 2.2034620526 6.1383289897 14.360630891 0.0708020162668 0.0408774583196 -0.0361294017192
Te 4.2142178275 2.4330797971 13.4409024417 -0 2.57110337382e-07 0.0509494986762
Te -2.2034620526 6.1383289897 14.360630891 -0.0708020162668 0.0408774583196 -0.0361294017192
Te 1.9874311184 1.1474438572 17.2220141626 0.0452776446336 0.0261411793326 -0.0182080398727
Te 4.2142178275 5.0043516773 17.2220141626 -0 -0.0522821015549 -0.0182080398727
Te 6.4410045367 1.1474438572 17.2220141626 -0.0452776446336 0.0261411793326 -0.0182080398727
Te 0 4.8661595943 17.1412753738 0 -2.57110337382e-07 0.144368739991
Te 2.1701098166 1.2529135012 10.3270145149 -0.0463155990656 -0.0267402464187 0.0371059067806
Te 4.2142178275 4.793412389 10.3270145149 -0 0.0534804928374 0.0371061638909
Te 6.2583258384 1.2529135012 10.3270145149 0.0463155990656 -0.0267402464187 0.0371059067806
Te 0 4.8661595943 10.1912101355 0 -2.57110337382e-07 0.0750849602669
Te -0 -0 23.9800536192 0 2.57110337382e-07 0.0162514302052
Te 2.201568971 3.5950831317 24.0328081563 -0.0267456457358 0.0154412755321 0.0149733347181
Te 4.2142178275 0.109073128 24.0328081563 -0 -0.0308830652849 0.0149733347181
Te -2.201568971 3.5950831317 24.0328081563 0.0267456457358 0.0154412755321 0.0149733347181
Te -0 2.4543858785 27.6508449435 0 -0.00715383802731 -0.0269999278595
Te 2.0886573138 6.0720464523 27.6508449435 0.00619584491022 0.00357691901365 -0.0269999278595
Te 4.2142178275 2.4330797971 27.61929878 -0 2.57110337382e-07 -0.00826172647108
Te -2.0886573138 6.0720464523 27.6508449435 -0.00619584491022 0.00357691901365 -0.0269999278595
Te -0 2.5546912478 20.6197915166 0 -0.025553167991 -0.00592716460766
Te 2.0017903562 6.0218937675 20.6197915166 0.0221300009591 0.0127765839955 -0.00592716460766
Te 4.2142178275 2.4330797971 20.5151435795 -0 2.57110337382e-07 -0.00893638399637
Te -2.0017903562 6.0218937675 20.6197915166 -0.0221300009591 0.0127765839955 -0.00592716460766
Sb 0 2.3679910537 8.5721191518 0 0.01998158698 -0.00748422481084
Sb 2.1634773985 6.1152438646 8.5721191518 -0.0173045541471 -0.00999079348998 -0.00748422481084
Sb 4.2142178275 2.4330797971 8.3243662615 -0 2.57110337382e-07 0.0061984160136
Sb -2.1634773985 6.1152438646 8.5721191518 0.0173045541471 -0.00999079348998 -0.00748422481084
Sb 0 2.4204335879 1.8281604832 0 -4.60227503913e-05 0.0189575165062
Sb 2.1180608492 6.0890225975 1.8281604832 4.01092126315e-05 2.31399303643e-05 0.0189577736165
Sb 4.2142178275 2.4330797971 1.8297016704 -0 2.57110337382e-07 0.0182057258797
Sb -2.1180608492 6.0890225975 1.8281604832 -4.01092126315e-05 2.31399303643e-05 0.0189577736165
Sb -0 0 18.9482901316 0 0 -0.0341085144674
Sb 2.1172955489 3.64373844 18.7503256484 -0.00921380605041 0.00531935577009 -0.0311358047466
Sb 4.2142178275 0.0117625113 18.7503256484 -0 -0.0106389686505 -0.0311358047466
Sb 6.3111401062 3.64373844 18.7503256484 0.00921380605041 0.00531935577009 -0.0311358047466
Sb -0 0 11.5383052535 0 0 -0.0420377972722
Sb 1.8054194288 3.8238002558 12.4833699113 0.352466905089 -0.2034969185 -0.36652775522
Sb 4.2142178275 -0.3483611199 12.4833699113 0 0.406991265896 -0.366525698337
Sb -1.8054194288 3.8238002558 12.4833699113 -0.352466905089 -0.2034969185 -0.36652775522
Sb 2.1151553567 1.2211855163 29.2151063455 -0.000259938551093 -0.000149895326693 -0.0147668751172
Sb 4.2142178275 4.8568683591 29.2151063455 -0 0.000300047763724 -0.0147666180068
Sb 6.3132802984 1.2211855163 29.2151063455 0.000259938551093 -0.000149895326693 -0.0147668751172
Sb 0 4.8661595943 29.2523408093 0 -0 -0.0139970867671
Sb 2.116406487 1.2219078597 22.4374239518 0.00305601347012 0.00176429113511 0.0177480694791
Sb 4.2142178275 4.8554236723 22.4374239518 0 -0.00352883938056 0.0177480694791
Sb 6.312029168 1.2219078597 22.4374239518 -0.00305601347012 0.00176429113511 0.0177480694791
Sb 0 4.8661595943 22.5626854129 0 -0 0.00483444567379
Cr 0 4.8661595943 14.5606877686 -0 2.57110337382e-06 1.06414626208
61
Lattice="8.42843558953 0 0 -4.21421779477 7.29923593142 0 0 0 31.0334408416" Properties=species:S:1:pos:R:3:forces:R:3 energy=-133597.351516 ionic_step=19 pbc="T T T"
Te 2.0953871871 1.2097723539 3.3795464053 0.00956913253667 0.00552504403999 0.0140307682213
Te 4.2142178275 4.8796946837 3.3795464053 -0 -0.0110498309697 0.0140307682213
Te 6.333048468 1.2097723539 3.3795464053 -0.00956913253667 0.00552504403999 0.0140307682213
Te -0 4.8661595943 3.3812329869 0 -2.57110337382e-07 0.0153330320801
Te -0 -0 6.814347608 0 2.57110337382e-07 0.0122695624102
Te 2.074120257 3.6686657101 7.0195898888 0.0128465180073 -0.00741711901279 -0.0320961118567
Te 4.2142178275 -0.0380920288 7.0195898888 -0 0.0148339809152 -0.0320961118567
Te -2.074120257 3.6686657101 7.0195898888 -0.0128465180073 -0.00741711901279 -0.0320961118567
Te 0 0 -0.0357518313 0 2.57110337382e-07 0.00234047540118
Te 2.1284688098 3.6372875483 -0.0255962982 -0.00515351960248 0.00297502371384 0.00274388152054
Te 4.2142178275 0.0246642949 -0.0255962982 -0 -0.00595056164836 0.00274388152054
Te -2.1284688098 3.6372875483 -0.0255962982 0.00515351960248 0.00297502371384 0.00274388152054
Te 0 2.3220213304 14.3679661989 0 -0.0752649375031 -0.0345448307099
Te 2.2032883912 6.1382287262 14.3679661989 0.0651813271813 0.0376324687515 -0.0345448307099
Te 4.2142178275 2.4330797971 13.4320753072 -0 2.57110337382e-07 0.0513500765819
Te -2.2032883912 6.1382287262 14.3679661989 -0.0651813271813 0.0376324687515 -0.0345448307099
Te 1.9846628851 1.1458456162 17.2160369409 0.0457149893175 0.0263936616839 -0.0189084084317
Te 4.2142178275 5.0075481592 17.2160369409 -0 -0.0527870662575 -0.0189081513214
Te 6.44377277 1.1458456162 17.2160369409 -0.0457149893175 0.0263936616839 -0.0189084084317
Te -0 4.8661595943 17.1446000604 0 -2.57110337382e-07 0.132152656531
Te 2.1750165455 1.2557464038 10.3330111172 -0.0477890984091 -0.0275907674148 0.0367405529912
Te 4.2142178275 4.7877465839 10.3330111172 -0 0.0551817919399 0.0367408101015
Te 6.2534191095 1.2557464038 10.3330111172 0.0477890984091 -0.0275907674148 0.0367405529912
Te -0 4.8661595943 10.1854706757 0 -2.57110337382e-07 0.0761470830706
Te -0 -0 23.9769955877 0 2.57110337382e-07 0.0159112732289
Te 2.2037531395 3.5938221008 24.0342467257 -0.027329543312 0.0157783471844 0.0139690617403
Te 4.2142178275 0.1115951897 24.0342467257 -0 -0.0315572085895 0.0139690617403
Te -2.2037531395 3.5938221008 24.0342467257 0.027329543312 0.0157783471844 0.0139690617403
Te -0 2.4553494782 27.6468423929 0 -0.00753744665068 -0.0266723692896
Te 2.0878228124 6.0715646524 27.6468423929 0.00652777435578 0.003768466215 -0.0266723692896
Te 4.2142178275 2.4330797971 27.6123500457 -0 2.57110337382e-07 -0.00696691881203
Te -2.0878228124 6.0715646524 27.6468423929 -0.00652777435578 0.003768466215 -0.0266723692896
Te -0 2.5579775865 20.6173737462 0 -0.0263185854654 -0.00575310090925
Te 1.9989443047 6.0202505982 20.6173737462 0.0227928314089 0.0131591641775 -0.00575310090925
Te 4.2142178275 2.4330797971 20.5117253398 -0 2.57110337382e-07 -0.00924697328393
Te -1.9989443047 6.0202505982 20.6173737462 -0.0227928314089 0.0131591641775 -0.00575310090925
Sb 0 2.3633387186 8.5726452389 0 0.0205307746606 -0.00735438409046
Sb 2.1675064369 6.1175700322 8.5726452389 -0.0177802082713 -0.0102653873303 -0.00735438409046
Sb 4.2142178275 2.4330797971 8.3199978494 -0 2.57110337382e-07 0.00561143311335
Sb -2.1675064369 6.1175700322 8.5726452389 0.0177802082713 -0.0102653873303 -0.00735438409046
Sb 0 2.4202284216 1.8322953446 0 -6.86484600809e-05 0.0187094050306
Sb 2.1182385283 6.0891251807 1.8322953446 5.96495982725e-05 3.44527852091e-05 0.0187096621409
Sb 4.2142178275 2.4330797971 1.8321050434 -0 2.57110337382e-07 0.0179298464876
Sb -2.1182385283 6.0891251807 1.8322953446 -5.96495982725e-05 3.44527852091e-05 0.0187096621409
Sb -0 0 18.9491066136 0 0 -0.0342265281122
Sb 2.1193866028 3.6425311689 18.7464134793 -0.00982212910865 0.00567056849095 -0.0312641028049
Sb 4.2142178275 0.0141770536 18.7464134793 -0 -0.0113416512026 -0.0312643599153
Sb 6.3090490523 3.6425311689 18.7464134793 0.00982212910865 0.00567056849095 -0.0312641028049
Sb -0 0 11.5359353422 0 0 -0.0426669462678
Sb 1.8017529238 3.8259171145 12.4862761277 0.332521056446 -0.191981203599 -0.345597945316
Sb 4.2142178275 -0.3525948372 12.4862761277 0 0.383959836094 -0.345596145543
Sb -1.8017529238 3.8259171145 12.4862761277 -0.332521056446 -0.191981203599 -0.345597945316
Sb 2.1158674169 1.2215966246 29.2116837412 -0.000357126258623 -0.000205945380243 -0.0143884087006
Sb 4.2142178275 4.8560461424 29.2116837412 -0 0.000412147870823 -0.0143884087006
Sb 6.3125682382 1.2215966246 29.2116837412 0.000357126258623 -0.000205945380243 -0.0143884087006
Sb -0 4.8661595943 29.2506477632 0 -0 -0.0136222198952
Sb 2.1169987301 1.2222497915 22.435719331 0.00307246853171 0.00177406132793 0.0177984631052
Sb 4.2142178275 4.8547398086 22.435719331 0 -0.00354786554553 0.0177984631052
Sb 6.3114369249 1.2222497915 22.435719331 -0.00307246853171 0.00177406132793 0.0177984631052
Sb -0 4.8661595943 22.5697385332 0 -0 0.00437344683886
Cr -0 4.8661595943 14.5688693511 -0 2.31399303643e-06 1.0110702038
61
Lattice="8.42843558953 0 0 -4.21421779477 7.29923593142 0 0 0 31.0334408416" Properties=species:S:1:pos:R:3:forces:R:3 energy=-133597.374714 ionic_step=20 pbc="T T T"
Te 2.095718517 1.2099636474 3.3839361536 0.00961386973537 0.00555075507373 0.0135432870216
Te 4.2142178275 4.8793120967 3.3839361536 -0 -0.0111015101475 0.0135432870216
Te 6.3327171381 1.2099636474 3.3839361536 -0.00961386973537 0.00555075507373 0.0135432870216
Te -0 4.8661595943 3.3854053088 0 -2.57110337382e-07 0.0143197602405
Te -0 -0 6.8112180922 0 2.57110337382e-07 0.0147463062902
Te 2.069391652 3.6713957727 7.0224869739 0.0145048796834 -0.00837459790919 -0.0317143030057
Te 4.2142178275 -0.043552154 7.0224869739 -0 0.0167489387081 -0.0317143030057
Te -2.069391652 3.6713957727 7.0224869739 -0.0145048796834 -0.00837459790919 -0.0317143030057
Te 0 0 -0.0381302071 0 2.57110337382e-07 0.00270840029398
Te 2.129207483 3.6368610749 -0.026755527 -0.00528593142623 0.00305164259438 0.00287963577867
Te 4.2142178275 0.0255172415 -0.026755527 -0 -0.0061035422991 0.00287963577867
Te -2.129207483 3.6368610749 -0.026755527 0.00528593142623 0.00305164259438 0.00287963577867
Te 0 2.3229138279 14.3761020993 0 -0.0694766124776 -0.0329995975823
Te 2.2025154661 6.1377824775 14.3761020993 0.0601687040437 0.034738434794 -0.0329993404719
Te 4.2142178275 2.4330797971 13.4188346055 -0 2.57110337382e-07 0.0517727659765
Te -2.2025154661 6.1377824775 14.3761020993 -0.0601687040437 0.034738434794 -0.0329993404719
Te 1.9814417705 1.1439859039 17.2100521051 0.0463114853002 0.026738189536 -0.0197190773255
Te 4.2142178275 5.0112675837 17.2100521051 -0 -0.0534758648513 -0.0197188202151
Te 6.4469938846 1.1439859039 17.2100521051 -0.0463114853002 0.026738189536 -0.0197190773255
Te -0 4.8661595943 17.1485446428 0 -2.57110337382e-07 0.11995842745
Te 2.1812466365 1.2593433502 10.3401608699 -0.0495721585989 -0.0286202372056 0.0363728852087
Te 4.2142178275 4.780552691 10.3401608699 -0 0.0572407315216 0.0363728852087
Te 6.2471890185 1.2593433502 10.3401608699 0.0495721585989 -0.0286202372056 0.0363728852087
Te -0 4.8661595943 10.1790637872 0 -2.57110337382e-07 0.0770474834721
Te -0 -0 23.972805327 0 2.57110337382e-07 0.0156508204571
Te 2.2064434208 3.5922688654 24.0349107625 -0.0280813339385 0.0162126065443 0.0130658331251
Te 4.2142178275 0.1147016604 24.0349107625 -0 -0.0324252130885 0.0130658331251
Te -2.2064434208 3.5922688654 24.0349107625 0.0280813339385 0.0162126065443 0.0130658331251
Te -0 2.4566328641 27.6427930484 0 -0.00801592898855 -0.0264299142415
Te 2.0867113681 6.0709229595 27.6427930484 0.00694223621964 0.0040078359391 -0.0264299142415
Te 4.2142178275 2.4330797971 27.6051436962 -0 2.57110337382e-07 -0.00563431593338
Te -2.0867113681 6.0709229595 27.6427930484 -0.00694223621964 0.0040078359391 -0.0264299142415
Te -0 2.5617054759 20.6141015225 0 -0.0271554796136 -0.00551373118515
Te 1.9957158593 6.0183866535 20.6141015225 0.02351762545 0.0135777398068 -0.00551373118515
Te 4.2142178275 2.4330797971 20.5091381286 -0 2.57110337382e-07 -0.00980644537807
Te -1.9957158593 6.0183866535 20.6141015225 -0.02351762545 0.0135777398068 -0.00551373118515
Sb 0 2.35794255 8.5736694672 0 0.0211707222903 -0.00712838410391
Sb 2.1721796538 6.1202681165 8.5736694672 -0.0183342810483 -0.01058523259 -0.00712838410391
Sb 4.2142178275 2.4330797971 8.3142514708 -0 2.57110337382e-07 0.00488843884464
Sb -2.1721796538 6.1202681165 8.5736694672 0.0183342810483 -0.01058523259 -0.00712838410391
Sb 0 2.4202489698 1.8362158211 0 -0.000120070527557 0.0184121854806
Sb 2.118220733 6.0891149065 1.8362158211 0.00010412968664 6.01638189473e-05 0.0184121854806
Sb 4.2142178275 2.4330797971 1.8345187385 -0 2.57110337382e-07 0.0175881468493
Sb -2.118220733 6.0891149065 1.8362158211 -0.00010412968664 6.01638189473e-05 0.0184121854806
Sb -0 0 18.9518654293 0 0 -0.0343504552949
Sb 2.1219202455 3.641068369 18.7418952784 -0.0105597786666 0.00609660031999 -0.0314286534209
Sb 4.2142178275 0.0171026534 18.7418952784 -0 -0.01219320064 -0.0314286534209
Sb 6.3065154097 3.641068369 18.7418952784 0.0105597786666 0.00609660031999 -0.0314286534209
Sb -0 0 11.5318615612 0 0 -0.0436023136752
Sb 1.7970378149 3.8286393851 12.4903750912 0.315305462476 -0.182041832176 -0.328199803006
Sb 4.2142178275 -0.3580393785 12.4903750912 0 0.364081093249 -0.328198260344
Sb -1.7970378149 3.8286393851 12.4903750912 -0.315305462476 -0.182041832176 -0.328199803006
Sb 2.1166627999 1.2220558394 29.2078236948 -0.000458170621214 -0.000264309426828 -0.0139821743675
Sb 4.2142178275 4.8551277128 29.2078236948 -0 0.000528875963994 -0.0139819172572
Sb 6.3117728552 1.2220558394 29.2078236948 0.000458170621214 -0.000264309426828 -0.0139821743675
Sb -0 4.8661595943 29.2490380232 0 -0 -0.0132578945471
Sb 2.1175719024 1.2225807128 22.4321838163 0.00313828877808 0.00181185654753 0.0178835666269
Sb 4.2142178275 4.8540779659 22.4321838163 0 -0.00362397020539 0.0178838237373
Sb 6.3108637526 1.2225807128 22.4321838163 -0.00313828877808 0.00181185654753 0.0178835666269
Sb -0 4.8661595943 22.5784408246 0 -0 0.00388082343244
Cr -0 4.8661595943 14.5797444571 -0 2.31399303643e-06 0.968960929856
61
Lattice="8.42843558953 0 0 -4.21421779477 7.29923593142 0 0 0 31.0334408416" Properties=species:S:1:pos:R:3:forces:R:3 energy=-133597.403554 ionic_step=21 pbc="T T T"
Te 2.0961266778 1.2101992993 3.3882890396 0.00970540101548 0.0056034626929 0.0132926044426
Te 4.2142178275 4.878840793 3.3882890396 -0 -0.0112071824961 0.0132926044426
Te 6.3323089773 1.2101992993 3.3882890396 -0.00970540101548 0.0056034626929 0.0132926044426
Te -0 4.8661595943 3.3889917582 0 -2.57110337382e-07 0.0135080629054
Te -0 -0 6.8077248023 0 2.57110337382e-07 0.0176048590212
Te 2.0628526218 3.6751710853 7.0279391026 0.0166862037857 -0.00963418145203 -0.0315574656999
Te 4.2142178275 -0.0511027792 7.0279391026 -0 0.0192678486834 -0.0315574656999
Te -2.0628526218 3.6751710853 7.0279391026 -0.0166862037857 -0.00963418145203 -0.0315574656999
Te 0 -0 -0.0410764682 0 2.57110337382e-07 0.0031562865017
Te 2.1301006881 3.6363453825 -0.0279022128 -0.00543376987022 0.00313700322639 0.00299302143746
Te 4.2142178275 0.0265486265 -0.0279022128 -0 -0.00627426356312 0.00299302143746
Te -2.1301006881 3.6363453825 -0.0279022128 0.00543376987022 0.00313700322639 0.00299302143746
Te 0 2.3245892877 14.3863621999 0 -0.0640803807166 -0.0313034406866
Te 2.201064476 6.1369447476 14.3863621999 0.0554954665515 0.0320403189135 -0.0313034406866
Te 4.2142178275 2.4330797971 13.3989735528 -0 2.57110337382e-07 0.0521270640214
Te -2.201064476 6.1369447476 14.3863621999 -0.0554954665515 0.0320403189135 -0.0313034406866
Te 1.9770196107 1.1414327676 17.2037437627 0.0471594351929 0.0272277276184 -0.0207554890955
Te 4.2142178275 5.0163738564 17.2037437627 -0 -0.0544551981264 -0.0207554890955
Te 6.4514160444 1.1414327676 17.2037437627 -0.0471594351929 0.0272277276184 -0.0207554890955
Te -0 4.8661595943 17.1544285904 0 -2.57110337382e-07 0.107491404301
Te 2.1893079821 1.2639975724 10.3491106433 -0.0517534827012 -0.0298795636381 0.0360502117353
Te 4.2142178275 4.7712442467 10.3491106433 -0 0.0597593843866 0.0360502117353
Te 6.2391276729 1.2639975724 10.3491106433 0.0517534827012 -0.0298795636381 0.0360502117353
Te -0 4.8661595943 10.1712523026 0 -2.57110337382e-07 0.0777517086862
Te -0 -0 23.9663222669 0 2.57110337382e-07 0.0155680309285
Te 2.2102723404 3.5900582367 24.034322171 -0.0291267445703 0.0168160445061 0.0122947592233
Te 4.2142178275 0.119122918 24.034322171 -0 -0.0336323461226 0.0122947592233
Te -2.2102723404 3.5900582367 24.034322171 0.0291267445703 0.0168160445061 0.0122947592233
Te -0 2.4583617175 27.6388266405 0 -0.00863427934995 -0.0264101167455
Te 2.0852141378 6.0700585327 27.6388266405 0.00747753994207 0.00431688256464 -0.0264101167455
Te 4.2142178275 2.4330797971 27.5974238891 -0 2.57110337382e-07 -0.00423512147735
Te -2.0852141378 6.0700585327 27.6388266405 -0.00747753994207 0.00431688256464 -0.0264101167455
Te -0 2.566668944 20.60956419 0 -0.0281918913836 -0.00516868911238
Te 1.9914173718 6.0159049194 20.60956419 0.0244151976378 0.0140958171366 -0.00516868911238
Te 4.2142178275 2.4330797971 20.506208396 -0 2.57110337382e-07 -0.0106579948155
Te -1.9914173718 6.0159049194 20.60956419 -0.0244151976378 0.0140958171366 -0.00516868911238
Sb 0 2.3513158826 8.5758659546 0 0.0219235413582 -0.00677614294169
Sb 2.1779185134 6.1235814501 8.5758659546 -0.0189863128639 -0.0109616421239 -0.00677614294169
Sb 4.2142178275 2.4330797971 8.3070180596 -0 2.57110337382e-07 0.00399086665684
Sb -2.1779185134 6.1235814501 8.5758659546 0.0189863128639 -0.0109616421239 -0.00677614294169
Sb 0 2.4204113346 1.8399402122 0 -0.000199517621808 0.0180815415867
Sb 2.1180801211 6.0890337242 1.8399402122 0.00017277814672 9.97588109041e-05 0.018081798697
Sb 4.2142178275 2.4330797971 1.8368234654 -0 2.57110337382e-07 0.0171795985232
Sb -2.1180801211 6.0890337242 1.8399402122 -0.00017277814672 9.97588109041e-05 0.018081798697
Sb -0 0 18.9569858967 0 0 -0.0344959797458
Sb 2.1251078799 3.6392279865 18.7365456623 -0.0114889754259 0.00663293248377 -0.0316672518139
Sb 4.2142178275 0.0207834184 18.7365456623 -0 -0.0132661220779 -0.0316675089243
Sb 6.3033277752 3.6392279865 18.7365456623 0.0114889754259 0.00663293248377 -0.0316672518139
Sb -0 0 11.5243551992 0 0 -0.0451249210932
Sb 1.790140357 3.8326216361 12.4958060088 0.299528915064 -0.172933184254 -0.313328541091
Sb 4.2142178275 -0.3660038806 12.4958060088 0 0.345864054515 -0.313326741319
Sb -1.790140357 3.8326216361 12.4958060088 -0.299528915064 -0.172933184254 -0.313328541091
Sb 2.1176086806 1.2226019441 29.2035958312 -0.000569242286963 -0.000328587011174 -0.0135337739391
Sb 4.2142178275 4.8540355033 29.2035958312 -0 0.000657174022347 -0.0135337739391
Sb 6.3108269745 1.2226019441 29.2035958312 0.000569242286963 -0.000328587011174 -0.0135337739391
Sb -0 4.8661595943 29.2478198806 0 -0 -0.0128822563442
Sb 2.1182121248 1.2229503456 22.4261804863 0.00324498956809 0.0018735630285 0.0180157213403
Sb 4.2142178275 4.8533387004 22.4261804863 0 -0.003747126057 0.0180157213403
Sb 6.3102235302 1.2229503456 22.4261804863 -0.00324498956809 0.0018735630285 0.0180157213403
Sb -0 4.8661595943 22.5890330951 0 -0 0.0033303502001
Cr -0 4.8661595943 14.5947436542 -0 2.05688269905e-06 0.935006424481
61
Lattice="8.42843558953 0 0 -4.21421779477 7.29923593142 0 0 0 31.0334408416" Properties=species:S:1:pos:R:3:forces:R:3 energy=-133597.443696 ionic_step=22 pbc="T T T"
Te 2.0967042691 1.2105327719 3.3937577025 0.00983704150822 0.00567956735276 0.0131905316387
Te 4.2142178275 4.8781738477 3.3937577025 -0 -0.0113593918159 0.0131905316387
Te 6.331731386 1.2105327719 3.3937577025 -0.00983704150822 0.00567956735276 0.0131905316387
Te -0 4.8661595943 3.392663497 0 -2.57110337382e-07 0.0127148775145
Te -0 -0 6.8034135114 0 2.57110337382e-07 0.0212951636936
Te 2.053047191 3.6808322561 7.0363567137 0.0197892684476 -0.0114257262829 -0.0314422802687
Te 4.2142178275 -0.0624251208 7.0363567137 -0 0.0228509383451 -0.0314422802687
Te -2.053047191 3.6808322561 7.0363567137 -0.0197892684476 -0.0114257262829 -0.0314422802687
Te 0 -0 -0.0447918955 0 2.57110337382e-07 0.0037409554089
Te 2.1311871865 3.635718092 -0.0288924575 -0.00559189272771 0.00322827739616 0.00306886898699
Te 4.2142178275 0.0278032073 -0.0288924575 -0 -0.00645681190266 0.00306886898699
Te -2.1311871865 3.635718092 -0.0288924575 0.00559189272771 0.00322827739616 0.00306886898699
Te 0 2.3273405136 14.3997552983 0 -0.0572957531338 -0.0292074772162
Te 2.1986818456 6.1355691346 14.3997552983 0.0496197240113 0.0286477480117 -0.0292074772162
Te 4.2142178275 2.4330797971 13.3691819739 -0 2.57110337382e-07 0.0521304064558
Te -2.1986818456 6.1355691346 14.3997552983 -0.0496197240113 0.0286477480117 -0.0292074772162
Te 1.9711489156 1.1380433186 17.1963335935 0.0483128321664 0.0278936433922 -0.022119973656
Te 4.2142178275 5.0231527544 17.1963335935 -0 -0.0557867725637 -0.0221197165456
Te 6.4572867395 1.1380433186 17.1963335935 -0.0483128321664 0.0278936433922 -0.022119973656
Te -0 4.8661595943 17.1625473497 0 -2.57110337382e-07 0.0921174916771
Te 2.2003684018 1.2703833117 10.3614000155 -0.0544611116642 -0.0314430515997 0.0357918158462
Te 4.2142178275 4.758472768 10.3614000155 -0 0.0628861031995 0.0357918158462
Te 6.2280672532 1.2703833117 10.3614000155 0.0544611116642 -0.0314430515997 0.0357918158462
Te -0 4.8661595943 10.1612929866 0 -2.57110337382e-07 0.0782091079764
Te -0 -0 23.9574133383 0 2.57110337382e-07 0.0155348636949
Te 2.2156505489 3.5869531251 24.0325844926 -0.030592787714 0.0176624517368 0.0115226568801
Te 4.2142178275 0.1253331412 24.0325844926 -0 -0.0353254176942 0.0115226568801
Te -2.2156505489 3.5869531251 24.0325844926 0.030592787714 0.0176624517368 0.0115226568801
Te -0 2.4608359627 27.6339309802 0 -0.00947734414622 -0.0264682236818
Te 2.0830713796 6.0688214101 27.6339309802 0.00820773330023 0.00473854351794 -0.0264682236818
Te 4.2142178275 2.4330797971 27.5879379941 -0 2.57110337382e-07 -0.00249294183125
Te -2.0830713796 6.0688214101 27.6339309802 -0.00820773330023 0.00473854351794 -0.0264682236818
Te -0 2.5731403241 20.6031315581 0 -0.0294741006361 -0.0046804365817
Te 1.9858129949 6.0126692294 20.6031315581 0.0255254000746 0.0147367932077 -0.0046804365817
Te 4.2142178275 2.4330797971 20.5040839189 -0 2.57110337382e-07 -0.0120628456989
Te -1.9858129949 6.0126692294 20.6031315581 -0.0255254000746 0.014737050318 -0.0046804365817
Sb 0 2.3425318468 8.5792767847 0 0.0229098166124 -0.00621718506823
Sb 2.185525708 6.127973468 8.5792767847 -0.0198404334047 -0.011454779751 -0.00621718506823
Sb 4.2142178275 2.4330797971 8.2958654157 -0 2.57110337382e-07 0.00263023875141
Sb -2.185525708 6.127973468 8.5792767847 0.0198404334047 -0.011454779751 -0.00621718506823
Sb 0 2.4208321573 1.8440049638 0 -0.000323444804426 0.0176287702826
Sb 2.1177156781 6.0888233128 1.8440049638 0.000279993157409 0.000161722402213 0.0176290273929
Sb 4.2142178275 2.4330797971 1.8396442581 -0 2.57110337382e-07 0.0165975007193
Sb -2.1177156781 6.0888233128 1.8440049638 -0.000279993157409 0.000161722402213 0.0176290273929
Sb -0 0 18.9656035037 0 0 -0.0346291629006
Sb 2.1295579042 3.6366587626 18.7292992197 -0.0127824975333 0.00737983801386 -0.0320578024164
Sb 4.2142178275 0.0259218662 18.7292992197 -0 -0.0147599331381 -0.0320578024164
Sb 6.2988777509 3.6366587626 18.7292992197 0.0127824975333 0.00737983801386 -0.0320578024164
Sb -0 0 11.5128288341 0 0 -0.0472987889957
Sb 1.7805160739 3.8381782212 12.503777533 0.279642201798 -0.161451665028 -0.294666958584
Sb 4.2142178275 -0.3771170507 12.503777533 0 0.322901016063 -0.294665415922
Sb -1.7805160739 3.8381782212 12.503777533 -0.279642201798 -0.161451665028 -0.294666958584
Sb 2.1188008205 1.2232902268 29.1979149637 -0.000698568786666 -0.000403149009014 -0.0129712165209
Sb 4.2142178275 4.8526589381 29.1979149637 -0 0.000806555128366 -0.0129712165209
Sb 6.3096348346 1.2232902268 29.1979149637 0.000698568786666 -0.000403149009014 -0.0129712165209
Sb -0 4.8661595943 29.2463820523 0 -0 -0.0124559674048
Sb 2.118847142 1.2233169731 22.4165583933 0.00343396566607 0.00198257781155 0.0181774437425
Sb 4.2142178275 4.8526054454 22.4165583933 0 -0.00396541273344 0.0181777008529
Sb 6.309588513 1.2233169731 22.4165583933 -0.00343396566607 0.00198257781155 0.0181774437425
Sb -0 4.8661595943 22.6039969882 0 -0 0.00268114659822
Cr -0 4.8661595943 14.615964425 -0 2.05688269905e-06 0.892639011756
61
Lattice="8.42843558953 0 0 -4.21421779477 7.29923593142 0 0 0 31.0334408416" Properties=species:S:1:pos:R:3:forces:R:3 energy=-133597.497818 ionic_step=23 pbc="T T T"
Te 2.0974887986 1.2109857205 3.400763657 0.0100476148745 0.00580118054234 0.0133283427795
Te 4.2142178275 4.8772679507 3.400763657 -0 -0.0116023610847 0.0133283427795
Te 6.3309468565 1.2109857205 3.400763657 -0.0100476148745 0.00580118054234 0.0133283427795
Te -0 4.8661595943 3.3963885613 0 -2.57110337382e-07 0.0119538309159
Te -0 -0 6.7977165803 0 2.57110337382e-07 0.026126266933
Te 2.0381476844 3.6894344942 7.049313377 0.0241596299624 -0.013949007134 -0.031329665941
Te 4.2142178275 -0.0796295971 7.049313377 -0 0.0278975000473 -0.0313294088306
Te -2.0381476844 3.6894344942 7.049313377 -0.0241596299624 -0.013949007134 -0.031329665941
Te 0 -0 -0.0496779003 0 2.57110337382e-07 0.00452719882062
Te 2.1325787322 3.6349146824 -0.0297344232 -0.00576852752949 0.00333009308977 0.00309226602769
Te 4.2142178275 0.0294100266 -0.0297344232 -0 -0.00666070040021 0.00309226602769
Te -2.1325787322 3.6349146824 -0.0297344232 0.00576852752949 0.00333009308977 0.00309226602769
Te 0 2.3315547911 14.4182851147 0 -0.0491723520242 -0.0265250450663
Te 2.1950321759 6.1334619959 14.4182851147 0.0425846709598 0.0245861760121 -0.026524787956
Te 4.2142178275 2.4330797971 13.3244946055 -0 2.57110337382e-07 0.0511500447394
Te -2.1950321759 6.1334619959 14.4182851147 -0.0425846709598 0.0245861760121 -0.026524787956
Te 1.9628712642 1.1332642122 17.187323382 0.0498434100048 0.0287773316218 -0.0238999485216
Te 4.2142178275 5.0327109673 17.187323382 -0 -0.0575541490229 -0.0238996914113
Te 6.4655643909 1.1332642122 17.187323382 -0.0498434100048 0.0287773316218 -0.0238999485216
Te -0 4.8661595943 17.1747883829 0 -2.57110337382e-07 0.0743126008134
Te 2.2156801458 1.2792235554 10.3787498829 -0.0576572502682 -0.0332883324911 0.0357409079994
Te 4.2142178275 4.7407922808 10.3787498829 -0 0.0665766649823 0.0357409079994
Te 6.2127555092 1.2792235554 10.3787498829 0.0576572502682 -0.0332883324911 0.0357409079994
Te -0 4.8661595943 10.1480618795 0 -2.57110337382e-07 0.0779262866053
Te -0 -0 23.9446837362 0 2.57110337382e-07 0.0155826862177
Te 2.223669382 3.5823234475 24.0289428615 -0.0326897796257 0.0188731843155 0.0107775511224
Te 4.2142178275 0.1345924964 24.0289428615 -0 -0.0377466257413 0.0107775511224
Te -2.223669382 3.5823234475 24.0289428615 0.0326897796257 0.0188731843155 0.0107775511224
Te -0 2.4644039923 27.6276889081 0 -0.0106471961813 -0.0266841963652
Te 2.0799813768 6.0670373953 27.6276889081 0.00922100513985 0.00532346953549 -0.0266841963652
Te 4.2142178275 2.4330797971 27.5758668532 -0 2.57110337382e-07 -0.000250168358272
Te -2.0799813768 6.0670373953 27.6276889081 -0.00922100513985 0.00532346953549 -0.0266841963652
Te -0 2.5821429876 20.5939098598 0 -0.0311067512785 -0.00399215220852
Te 1.9780164632 6.0081678976 20.5939098598 0.0269395069302 0.0155533756392 -0.00399215220852
Te 4.2142178275 2.4330797971 20.5025605173 -0 2.57110337382e-07 -0.0143066476133
Te -1.9780164632 6.0081678976 20.5939098598 -0.0269395069302 0.0155533756392 -0.00399215220852
Sb 0 2.3306076091 8.5848542228 0 0.0241917687546 -0.00535689387935
Sb 2.195852396 6.1339355869 8.5848542228 -0.0209506358415 -0.0120957558221 -0.00535689387935
Sb 4.2142178275 2.4330797971 8.2786978857 -0 2.57110337382e-07 0.000502393599244
Sb -2.195852396 6.1339355869 8.5848542228 0.0209506358415 -0.0120957558221 -0.00535689387935
Sb 0 2.4215425933 1.848548163 0 -0.000502907819918 0.0169975644043
Sb 2.1171004228 6.0884680948 1.848548163 0.000435802021862 0.000251453909959 0.0169975644043
Sb 4.2142178275 2.4330797971 1.843210388 -0 2.57110337382e-07 0.0157510934887
Sb -2.1171004228 6.0884680948 1.848548163 -0.000435802021862 0.000251453909959 0.0169975644043
Sb -0 0 18.9792796245 0 0 -0.03467441432
Sb 2.135907606 3.6329927589 18.7192807914 -0.0145840696673 0.00841984932857 -0.0326751243365
Sb 4.2142178275 0.0332538737 18.7192807914 -0 -0.0168402128778 -0.0326751243365
Sb 6.2925280492 3.6329927589 18.7192807914 0.0145840696673 0.00841984932857 -0.0326751243365
Sb -0 0 11.4946142423 0 0 -0.050430392905
Sb 1.7663755643 3.846342252 12.5152628709 0.254994062195 -0.147220864964 -0.271887496912
Sb 4.2142178275 -0.3934451123 12.5152628709 0 0.294439930156 -0.27188595425
Sb -1.7663755643 3.846342252 12.5152628709 -0.254994062195 -0.147220864964 -0.271887496912
Sb 2.1203449516 1.2241817317 29.190124796 -0.000850778106396 -0.000491080744399 -0.012235109625
Sb 4.2142178275 4.8508759282 29.190124796 -0 0.000982161488798 -0.012235109625
Sb 6.3080907035 1.2241817317 29.190124796 0.000850778106396 -0.000491080744399 -0.012235109625
Sb -0 4.8661595943 29.244654822 0 -0 -0.0119440607231
Sb 2.1194477909 1.2236637581 22.4015628069 0.00372552878866 0.00215098508253 0.0183491934479
Sb 4.2142178275 4.8519118754 22.4015628069 0 -0.00430197016507 0.0183494505583
Sb 6.3089878641 1.2236637581 22.4015628069 -0.00372552878866 0.00215098508253 0.0183491934479
Sb -0 4.8661595943 22.6252499538 0 -0 0.0019794924875
Cr -0 4.8661595943 14.6463784732 -0 1.79977236167e-06 0.840690382309
61
Lattice="8.42843558953 0 0 -4.21421779477 7.29923593142 0 0 0 31.0334408416" Properties=species:S:1:pos:R:3:forces:R:3 energy=-133597.565047 ionic_step=24 pbc="T T T"
Te 2.0984665971 1.2115502529 3.4091360034 0.0104013986988 0.00600532615022 0.013932294962
Te 4.2142178275 4.8761388857 3.4091360034 -0 -0.0120109094108 0.013932294962
Te 6.329969058 1.2115502529 3.4091360034 -0.0104013986988 0.00600532615022 0.013932294962
Te -0 4.8661595943 3.3995469188 0 -2.57110337382e-07 0.0114300971586
Te -0 -0 6.7900622703 0 2.57110337382e-07 0.0321971562193
Te 2.0160301213 3.7022040812 7.0693762005 0.0298515386114 -0.017235134356 -0.0312273360267
Te 4.2142178275 -0.105168771 7.0693762005 -0 0.0344697544914 -0.0312270789163
Te -2.0160301213 3.7022040812 7.0693762005 -0.0298515386114 -0.017235134356 -0.0312273360267
Te 0 -0 -0.0562773725 0 2.57110337382e-07 0.00557800876949
Te 2.1344612256 3.6338278238 -0.0305086363 -0.00598732842661 0.00345633426542 0.00303415909144
Te 4.2142178275 0.0315837438 -0.0305086363 -0 -0.00691318275152 0.00303415909144
Te -2.1344612256 3.6338278238 -0.0305086363 0.00598732842661 0.00345633426542 0.00303415909144
Te 0 2.3376457049 14.4447756698 0 -0.0381628873776 -0.0229596960178
Te 2.1897572923 6.1304165389 14.4447756698 0.0330502483187 0.0190814436888 -0.0229596960178
Te 4.2142178275 2.4330797971 13.2574635529 -0 2.57110337382e-07 0.0481112576619
Te -2.1897572923 6.1304165389 14.4447756698 -0.0330502483187 0.0190814436888 -0.0229596960178
Te 1.9506799285 1.1262255379 17.1764611165 0.0516958899856 0.0298469106253 -0.0261918300691
Te 4.2142178275 5.0467883157 17.1764611165 -0 -0.0596935641402 -0.0261915729587
Te 6.4777557266 1.1262255379 17.1764611165 -0.0516958899856 0.0298469106253 -0.0261918300691
Te -0 4.8661595943 17.1942258689 0 -2.57110337382e-07 0.0539276077141
Te 2.2369226985 1.2914879546 10.4031490139 -0.0610202534811 -0.0352297726487 0.0362178476753
Te 4.2142178275 4.7162634824 10.4031490139 -0 0.0704600595181 0.0362178476753
Te 6.1915129565 1.2914879546 10.4031490139 0.0610202534811 -0.035230029759 0.0362178476753
Te -0 4.8661595943 10.1300045787 0 -2.57110337382e-07 0.0761285711263
Te -0 -0 23.9256612472 0 2.57110337382e-07 0.015878620216
Te 2.2360152606 3.5751955478 24.0219119806 -0.0356105530584 0.0205595710184 0.0101975102012
Te 4.2142178275 0.1488482957 24.0219119806 -0 -0.0411191420368 0.0101975102012
Te -2.2360152606 3.5751955478 24.0219119806 0.0356105530584 0.0205595710184 0.0101975102012
Te -0 2.4694975665 27.6201365365 0 -0.0122615919897 -0.0273205444502
Te 2.0755702142 6.0644906082 27.6201365365 0.0106191711545 0.00613053888453 -0.0273205444502
Te 4.2142178275 2.4330797971 27.5606972599 -0 2.57110337382e-07 0.00258370178035
Te -2.0755702142 6.0644906082 27.6201365365 -0.0106191711545 0.00613053888453 -0.0273205444502
Te -0 2.5953165486 20.5807972306 0 -0.0331199252202 -0.00312029105446
Te 1.96660783 6.0015811171 20.5807972306 0.028682972128 0.0165599626101 -0.00312029105446
Te 4.2142178275 2.4330797971 20.5003910429 -0 2.57110337382e-07 -0.0176940763083
Te -1.96660783 6.0015811171 20.5807972306 -0.028682972128 0.0165599626101 -0.00312029105446
Sb 0 2.3142835337 8.594253969 0 0.025784053074 -0.00406851397873
Sb 2.2099894535 6.1420976246 8.594253969 -0.0223297756913 -0.012892026537 -0.00406851397873
Sb 4.2142178275 2.4330797971 8.2536629596 -0 2.57110337382e-07 -0.00270917162499
Sb -2.2099894535 6.1420976246 8.594253969 0.0223297756913 -0.012892026537 -0.00406851397873
Sb 0 2.4225060887 1.8534037859 0 -0.000748962412793 0.0161634984698
Sb 2.1162660116 6.0879863471 1.8534037859 0.000648689381214 0.000374352651228 0.0161634984698
Sb 4.2142178275 2.4330797971 1.8474223291 -0 2.57110337382e-07 0.0145745565848
Sb -2.1162660116 6.0879863471 1.8534037859 -0.000648689381214 0.000374352651228 0.0161634984698
Sb -0 -0 19.0001163701 0 0 -0.0344072766794
Sb 2.1449350183 3.6277807775 18.7057115774 -0.0170561855612 0.00984732592172 -0.0336943097139
Sb 4.2142178275 0.0436778365 18.7057115774 -0 -0.0196946518434 -0.0336943097139
Sb 6.2835006368 3.6277807775 18.7057115774 0.0170561855612 0.00984732592172 -0.0336943097139
Sb -0 0 11.4653899446 0 0 -0.0547115371328
Sb 1.7449286108 3.8587246622 12.5311162285 0.218889600178 -0.126376158582 -0.23732569692
Sb 4.2142178275 -0.4182099327 12.5311162285 0 0.25275026028 -0.237324668479
Sb -1.7449286108 3.8587246622 12.5311162285 -0.218889600178 -0.126376158582 -0.23732569692
Sb 2.1223664418 1.2253488401 29.1799594947 -0.00102998401155 -0.000594439100026 -0.0112830300457
Sb 4.2142178275 4.8485417114 29.1799594947 -0 0.00118913531039 -0.0112827729353
Sb 6.3060692133 1.2253488401 29.1799594947 0.00102998401155 -0.000594439100026 -0.0112830300457
Sb -0 4.8661595943 29.2430906064 0 -0 -0.0113133690655
Sb 2.1200014873 1.223983435 22.3788989681 0.00409988143989 0.00236721487627 0.0184736348512
Sb 4.2142178275 4.8512725216 22.3788989681 0 -0.00473417264221 0.0184736348512
Sb 6.3084341677 1.223983435 22.3788989681 -0.00409988143989 0.00236721487627 0.0184736348512
Sb -0 4.8661595943 22.6545539448 0 -0 0.00141719217965
Cr -0 4.8661595943 14.6898484789 -0 1.54266202429e-06 0.756524542036
61
Lattice="8.42843558953 0 0 -4.21421779477 7.29923593142 0 0 0 31.0334408416" Properties=species:S:1:pos:R:3:forces:R:3 energy=-133597.646721 ionic_step=25 pbc="T T T"
Te 2.0998393923 1.212342837 3.4219616335 0.0108464566928 0.0062624364876 0.0149126566785
Te 4.2142178275 4.8745537177 3.4219616335 -0 -0.0125246158649 0.0149126566785
Te 6.3285962628 1.212342837 3.4219616335 -0.0108464566928 0.0062624364876 0.0149126566785
Te -0 4.8661595943 3.4026213521 0 -2.57110337382e-07 0.01098915293
Te -0 -0 6.7803502199 0 2.57110337382e-07 0.039672125058
Te 1.9818345709 3.7219469006 7.0974272488 0.0367043004336 -0.0211915482277 -0.0303454475695
Te 4.2142178275 -0.1446544098 7.0974272488 -0 0.0423825822347 -0.0303451904591
Te -1.9818345709 3.7219469006 7.0974272488 -0.0367043004336 -0.0211915482277 -0.0303454475695
Te 0 -0 -0.0641086751 0 2.57110337382e-07 0.00695663439853
Te 2.1365384642 3.632628529 -0.0295919628 -0.00612719645014 0.00353706691136 0.00270634341128
Te 4.2142178275 0.0339823335 -0.0295919628 -0 -0.00707464804339 0.00270634341128
Te -2.1365384642 3.632628529 -0.0295919628 0.00612719645014 0.0035373240217 0.00270634341128
Te 0 2.3464597263 14.4799692787 0 -0.0258858687676 -0.0191531774729
Te 2.1821241294 6.1260095283 14.4799692787 0.022417964537 0.0129429343838 -0.0191531774729
Te 4.2142178275 2.4330797971 13.1569169739 -0 2.57110337382e-07 0.0414433581722
Te -2.1821241294 6.1260095283 14.4799692787 -0.022417964537 0.0129429343838 -0.0191531774729
Te 1.9353073969 1.1173501985 17.1643377772 0.0536602129632 0.0309807672131 -0.0285513316352
Te 4.2142178275 5.0645389945 17.1643377772 -0 -0.0619615344263 -0.0285513316352
Te 6.4931282582 1.1173501985 17.1643377772 -0.0536602129632 0.0309807672131 -0.0285513316352
Te -0 4.8661595943 17.2217157828 0 -2.57110337382e-07 0.0338112949174
Te 2.2669548507 1.3088270338 10.4384982636 -0.0636533204462 -0.0367500660736 0.0374296086953
Te 4.2142178275 4.6815853239 10.4384982636 -0 0.0735001321473 0.0374298658057
Te 6.1614808043 1.3088270338 10.4384982636 0.0636533204462 -0.0367500660736 0.0374296086953
Te -0 4.8661595943 10.1068874974 0 -2.57110337382e-07 0.0714795020058
Te -0 -0 23.9014266831 0 2.57110337382e-07 0.0161149046161
Te 2.254053351 3.5647812466 24.0107279709 -0.0394414970854 0.0227712341405 0.00979796073694
Te 4.2142178275 0.1696768981 24.0107279709 -0 -0.0455429825018 0.00979796073694
Te -2.254053351 3.5647812466 24.0107279709 0.0394414970854 0.0227712341405 0.00979796073694
Te -0 2.4769367873 27.6087871352 0 -0.0144585998227 -0.0279090700124
Te 2.069127663 6.0607709978 27.6087871352 0.0125217876512 0.00722917135616 -0.0279090700124
Te 4.2142178275 2.4330797971 27.5408468417 -0 2.57110337382e-07 0.0065732828855
Te -2.069127663 6.0607709978 27.6087871352 -0.0125217876512 0.00722917135616 -0.0279090700124
Te -0 2.6119400221 20.5624548915 0 -0.0351603528576 -0.00207179509862
Te 1.9522114864 5.9932693804 20.5624548915 0.0304500914768 0.0175801764288 -0.00207179509862
Te 4.2142178275 2.4330797971 20.5048079377 -0 2.57110337382e-07 -0.0232088359348
Te -1.9522114864 5.9932693804 20.5624548915 -0.0304500914768 0.0175801764288 -0.00207179509862
Sb 0 2.2921030832 8.6079835894 0 0.0277954272433 -0.00210393389079
Sb 2.229198278 6.1531878498 8.6079835894 -0.0240714411167 -0.0138975850665 -0.00210393389079
Sb 4.2142178275 2.4330797971 8.210957946 -0 2.57110337382e-07 -0.00826378335378
Sb -2.229198278 6.1531878498 8.6079835894 0.0240714411167 -0.0138975850665 -0.00210393389079
Sb 0 2.4242539952 1.8585678382 0 -0.0011073742231 0.0148545497422
Sb 2.114752281 6.0871123939 1.8585678382 0.000959021558433 0.000553558556383 0.0148545497422
Sb 4.2142178275 2.4330797971 1.854041183 -0 2.57110337382e-07 0.0126804247293
Sb -2.1147522809 6.0871123939 1.8585678382 -0.000959021558433 0.000553558556383 0.0148545497422
Sb -0 -0 19.0333259625 0 0 -0.0330793017868
Sb 2.1583838441 3.6200160907 18.6859914135 -0.0203729089134 0.0117620266042 -0.035246741931
Sb 4.2142178275 0.0592072101 18.6859914135 -0 -0.0235243103187 -0.035246741931
Sb 6.270051811 3.6200160907 18.6859914135 0.0203729089134 0.0117620266042 -0.035246741931
Sb -0 0 11.4228665561 0 0 -0.0591634026245
Sb 1.715297543 3.8758321751 12.5546363846 0.17382921378 -0.100360449094 -0.192800100023
Sb 4.2142178275 -0.4524249585 12.5546363846 0 0.200719612635 -0.192799328692
Sb -1.715297543 3.8758321751 12.5546363846 -0.17382921378 -0.100360449094 -0.192800100023
Sb 2.1247973836 1.2267523457 29.1642162578 -0.00119556306882 -0.000690084145532 -0.00999927813111
Sb 4.2142178275 4.8457347002 29.1642162578 -0 0.0013804254014 -0.00999927813111
Sb 6.3036382715 1.2267523457 29.1642162578 0.00119556306882 -0.000690084145532 -0.00999927813111
Sb -0 4.8661595943 29.239600499 0 -0 -0.0105896034657
Sb 2.1195189388 1.2237048353 22.3439186372 0.00463364250029 0.00267523306046 0.0181936416938
Sb 4.2142178275 4.8518297209 22.3439186372 0 -0.00535072323125 0.0181936416938
Sb 6.3089167162 1.2237048353 22.3439186372 -0.00463364250029 0.00267523306046 0.0181936416938
Sb -0 4.8661595943 22.6994087543 0 -0 0.00172392481214
Cr -0 4.8661595943 14.7502728307 -0 1.28555168691e-06 0.643716867289
61
Lattice="8.42843558953 0 0 -4.21421779477 7.29923593142 0 0 0 31.0334408416" Properties=species:S:1:pos:R:3:forces:R:3 energy=-133597.701122 ionic_step=26 pbc="T T T"
Te 2.1015457118 1.2133279815 3.4420241336 0.0114311256 0.00660002236059 0.0164270365656
Te 4.2142178275 4.8725834286 3.4420241336 -0 -0.0131997876108 0.0164270365656
Te 6.3268899433 1.2133279815 3.4420241336 -0.0114311256 0.00660002236059 0.0164270365656
Te -0 4.8661595943 3.4046110899 0 -2.57110337382e-07 0.0107366705787
Te -0 -0 6.7687270553 0 2.57110337382e-07 0.0473098447402
Te 1.9283528949 3.7528245751 7.1344387295 0.0425767005394 -0.0245818051364 -0.0276252202
Te 4.2142178275 -0.2064097587 7.1344387295 -0 0.0491633531624 -0.0276249630896
Te -1.9283528949 3.7528245751 7.1344387295 -0.0425767005394 -0.0245818051364 -0.0276252202
Te 0 -0 -0.0717238815 0 2.57110337382e-07 0.00854840449726
Te 2.1382331627 3.6316500939 -0.0243032271 -0.0059934990747 0.00345993381014 0.00173523766699
Te 4.2142178275 0.0359392036 -0.0243032271 -0 -0.00692038184096 0.00173523766699
Te -2.1382331627 3.6316500939 -0.0243032271 0.0059934990747 0.00345993381014 0.00173523766699
Te 0 2.3585051238 14.5258744657 0 -0.0258617003959 -0.0179588999558
Te 2.1716925141 6.1199868295 14.5258744657 0.0223971385997 0.0129308501979 -0.0179586428454
Te 4.2142178275 2.4330797971 13.0061316847 -0 2.57110337382e-07 0.0301736978641
Te -2.1716925141 6.1199868295 14.5258744657 -0.0223971385997 0.0129308501979 -0.0179586428454
Te 1.9178594712 1.1072766292 17.1544075572 0.0554119056918 0.0319922392804 -0.0297384100629
Te 4.2142178275 5.0846861332 17.1544075572 -0 -0.0639842214505 -0.0297381529526
Te 6.5105761839 1.1072766292 17.1544075572 -0.0554119056918 0.0319922392804 -0.0297384100629
Te -0 4.8661595943 17.2638792668 0 -2.57110337382e-07 0.0252482351309
Te 2.307634689 1.3323135604 10.4884274155 -0.0637731338635 -0.0368192287544 0.0393299111989
Te 4.2142178275 4.6346122708 10.4884274155 -0 0.0736387146191 0.0393301683093
Te 6.120800966 1.3323135604 10.4884274155 0.0637731338635 -0.0368192287544 0.0393299111989
Te -0 4.8661595943 10.0790529366 0 -2.57110337382e-07 0.0622998916303
Te -0 -0 23.8736491394 0 2.57110337382e-07 0.0161966657034
Te 2.2812147002 3.549099627 23.9922095907 -0.0439969780431 0.025401472892 0.00991546016112
Te 4.2142178275 0.2010401373 23.9922095907 -0 -0.0508032028942 0.00991546016112
Te -2.2812147002 3.549099627 23.9922095907 0.0439969780431 0.025401472892 0.00991546016112
Te -0 2.4876408074 27.5913089432 0 -0.01727627201 -0.0281134727307
Te 2.059857714 6.0554189878 27.5913089432 0.0149620218632 0.00863813600501 -0.0281134727307
Te 4.2142178275 2.4330797971 27.5163203145 -0 2.57110337382e-07 0.012148977662
Te -2.059857714 6.0554189878 27.5913089432 -0.0149620218632 0.00863813600501 -0.0281134727307
Te -0 2.6314642433 20.5377823322 0 -0.0369153880206 -0.000893201312064
Te 1.9353030228 5.9835072698 20.5377823322 0.031969870681 0.0184576940103 -0.000893201312064
Te 4.2142178275 2.4330797971 20.5236463666 -0 2.57110337382e-07 -0.0316456545456
Te -1.9353030228 5.9835072698 20.5377823322 -0.031969870681 0.0184576940103 -0.000893201312064
Sb 0 2.2631775269 8.6294478465 0 0.0300209743237 0.000755904391902
Sb 2.2542485329 6.167650628 8.6294478465 -0.025998997316 -0.0150103586067 0.000755904391902
Sb 4.2142178275 2.4330797971 8.1363215005 -0 2.57110337382e-07 -0.0181440193987
Sb -2.2542485329 6.167650628 8.6294478465 0.025998997316 -0.0150103586067 0.000755904391902
Sb 0 2.4269904435 1.8624918211 0 -0.00157994302321 0.0127917535054
Sb 2.1123824483 6.0857441697 1.8624918211 0.00136859832588 0.000790100066774 0.0127917535054
Sb 4.2142178275 2.4330797971 1.8649032132 -0 2.57110337382e-07 0.00958224516388
Sb -2.1123824483 6.0857441697 1.8624918211 -0.00136859832588 0.000790100066774 0.0127917535054
Sb -0 -0 19.0864652361 0 0 -0.0289737639195
Sb 2.1788231717 3.6082154339 18.6579206875 -0.0239737391885 0.0138410207923 -0.0367379818878
Sb 4.2142178275 0.0828085236 18.6579206875 -0 -0.0276822986949 -0.0367377247774
Sb 6.2496124834 3.6082154339 18.6579206875 0.0239737391885 0.0138410207923 -0.0367379818878
Sb -0 0 11.3589279469 0 0 -0.0612958757628
Sb 1.6747601901 3.8992364376 12.5880107984 0.160496500124 -0.0926628227027 -0.191218357228
Sb 4.2142178275 -0.4992334835 12.5880107984 0 0.185324359854 -0.191217585897
Sb -1.6747601901 3.8992364376 12.5880107984 -0.160496500124 -0.0926628227027 -0.191218357228
Sb 2.1272626579 1.2281756731 29.1395063507 -0.00123850049517 -0.000715023848258 -0.00835917128895
Sb 4.2142178275 4.8428880454 29.1395063507 -0 0.00143004769652 -0.00835891417861
Sb 6.3011729972 1.2281756731 29.1395063507 0.00123850049517 -0.000715023848258 -0.00835917128895
Sb -0 4.8661595943 29.2320697219 0 -0 -0.00986480942466
Sb 2.1158230461 1.2215710097 22.2900665132 0.00529107363298 0.00305498502877 0.0167060012817
Sb 4.2142178275 4.8560973721 22.2900665132 0 -0.0061097129472 0.016706258392
Sb 6.3126126089 1.2215710097 22.2900665132 -0.00529107363298 0.00305498502877 0.0167060012817
Sb -0 4.8661595943 22.7698454621 0 -0 0.00495760152539
Cr -0 4.8661595943 14.829928491 -0 1.02844134953e-06 0.651669290024
61
Lattice="8.42843558953 0 0 -4.21421779477 7.29923593142 0 0 0 31.0334408416" Properties=species:S:1:pos:R:3:forces:R:3 energy=-133597.73737 ionic_step=27 pbc="T T T"
Te 2.1010379674 1.213034835 3.4434087337 0.011094311058 0.00640564694553 0.0154464177389
Te 4.2142178275 4.8731697216 3.4434087337 -0 -0.0128110367807 0.0154464177389
Te 6.3273976877 1.213034835 3.4434087337 -0.011094311058 0.00640564694553 0.0154464177389
Te -0 4.8661595943 3.4039717762 0 -2.57110337382e-07 0.00996739644927
Te -0 -0 6.7769320346 0 2.57110337382e-07 0.0449734831045
Te 1.9391771834 3.7465751663 7.1111121729 0.0422177745084 -0.0243745742045 -0.026757987032
Te 4.2142178275 -0.1939109412 7.1111121729 -0 0.0487488912986 -0.0267577299216
Te -1.9391771834 3.7465751663 7.1111121729 -0.0422177745084 -0.0243745742045 -0.026757987032
Te 0 -0 -0.0621909913 0 2.57110337382e-07 0.00731890286391
Te 2.1349813177 3.6335275483 -0.0182240732 -0.00536357874812 0.00309637979309 0.00126009776351
Te 4.2142178275 0.0321842947 -0.0182240732 -0 -0.00619301669651 0.00126009776351
Te -2.1349813177 3.6335275483 -0.0182240732 0.00536357874812 0.00309637979309 0.00126009776351
Te 0 2.354217303 14.4972463091 0 -0.0846875171474 -0.026782412514
Te 2.175405874 6.1221307399 14.4972463091 0.0733417521795 0.0423437585737 -0.0267821554037
Te 4.2142178275 2.4330797971 13.0533883488 -0 2.57110337382e-07 0.0324861482385
Te -2.175405874 6.1221307399 14.4972463091 -0.0733417521795 0.0423437585737 -0.0267821554037
Te 1.9349810961 1.1171618086 17.1680831083 0.0552555826067 0.031901993552 -0.0258897254226
Te 4.2142178275 5.0649157744 17.1680831083 -0 -0.0638034728833 -0.0258897254226
Te 6.493454559 1.1171618086 17.1680831083 -0.0552555826067 0.031901993552 -0.0258897254226
Te -0 4.8661595943 17.2431269747 0 -2.57110337382e-07 0.0647470678215
Te 2.2895657615 1.3218814554 10.4700218586 -0.0638091293107 -0.0368400546917 0.0377689943407
Te 4.2142178275 4.6554764808 10.4700218586 -0 0.0736801093835 0.0377689943407
Te 6.1388698935 1.3218814554 10.4700218586 0.0638091293107 -0.0368400546917 0.0377689943407
Te -0 4.8661595943 10.0993671054 0 -2.57110337382e-07 0.0640163602426
Te -0 -0 23.902282659 0 2.57110337382e-07 0.0141940332855
Te 2.2703543481 3.5553698571 23.9991663397 -0.0429276561499 0.0247838938616 0.0103268367009
Te 4.2142178275 0.188499677 23.9991663397 -0 -0.0495683019438 0.0103268367009
Te -2.2703543481 3.5553698571 23.9991663397 0.0429276561499 0.0247838938616 0.0103268367009
Te -0 2.4840649651 27.5908878313 0 -0.0159097305668 -0.025550082667
Te 2.0629544828 6.0572069089 27.5908878313 0.0137785429803 0.00795473672825 -0.025550082667
Te 4.2142178275 2.4330797971 27.528080896 -0 2.57110337382e-07 0.0108431142584
Te -2.0629544828 6.0572069089 27.5908878313 -0.0137785429803 0.00795473672825 -0.025550082667
Te -0 2.6131972615 20.5494416126 0 -0.0363520592714 -0.000221114890148
Te 1.9511226857 5.9926407607 20.5494416126 0.0314818752607 0.0181759010805 -0.000221114890148
Te 4.2142178275 2.4330797971 20.5487334395 -0 2.57110337382e-07 -0.0302852837505
Te -1.9511226857 5.9926407607 20.5494416126 -0.0314818752607 0.0181759010805 -0.000221114890148
Sb 0 2.2777365199 8.6199198869 0 0.0292822963244 -7.07053427799e-05
Sb 2.2416400811 6.1603711315 8.6199198869 -0.0253593067966 -0.0146411481622 -7.07053427799e-05
Sb 4.2142178275 2.4330797971 8.1339105495 -0 2.57110337382e-07 -0.0178187748219
Sb -2.2416400811 6.1603711315 8.6199198869 0.0253593067966 -0.0146411481622 -7.07053427799e-05
Sb 0 2.4273502002 1.8576034448 0 -0.00141899195201 0.0128143792151
Sb 2.11207089 6.0855642914 1.8576034448 0.00122898741268 0.000709624531173 0.0128143792151
Sb 4.2142178275 2.4330797971 1.8665664807 -0 2.57110337382e-07 0.00974088224204
Sb -2.11207089 6.0855642914 1.8576034448 -0.00122898741268 0.000709624531173 0.0128143792151
Sb -0 -0 19.0764531877 0 0 -0.0292756114556
Sb 2.1741568834 3.6109095179 18.6656027589 -0.0210377962459 0.0121458923379 -0.0327586851961
Sb 4.2142178275 0.0774203555 18.6656027589 -0 -0.0242922988965 -0.0327586851961
Sb 6.2542787717 3.6109095179 18.6656027589 0.0210377962459 0.0121458923379 -0.0327586851961
Sb -0 0 11.3881276064 0 0 -0.0617131658404
Sb 1.6983466172 3.8856188012 12.5798452471 0.367895067994 -0.212404506138 -0.451601452094
Sb 4.2142178275 -0.4719982108 12.5798452471 0 0.424805926953 -0.451599395211
Sb -1.6983466172 3.8856188012 12.5798452471 -0.367895067994 -0.212404506138 -0.451601452094
Sb 2.1246169014 1.2266481442 29.1399781526 -0.00088574511228 -0.000511135350715 -0.00907265247519
Sb 4.2142178275 4.8459431032 29.1399781526 -0 0.00102252781177 -0.00907239536485
Sb 6.3038187537 1.2266481442 29.1399781526 0.00088574511228 -0.000511135350715 -0.00907265247519
Sb -0 4.8661595943 29.2259389369 0 -0 -0.0106130005064
Sb 2.111573319 1.2191174275 22.3041126509 0.00580580852841 0.00335194746844 0.0166072709122
Sb 4.2142178275 4.8610045366 22.3041126509 0 -0.00670389493689 0.0166072709122
Sb 6.316862336 1.2191174275 22.3041126509 -0.00580580852841 0.00335194746844 0.0166072709122
Sb -0 4.8661595943 22.7617728125 0 -0 0.00479973577824
Cr -0 4.8661595943 14.7905174981 -0 2.57110337382e-06 1.40005731832
61
Lattice="8.42843558953 0 0 -4.21421779477 7.29923593142 0 0 0 31.0334408416" Properties=species:S:1:pos:R:3:forces:R:3 energy=-133597.812046 ionic_step=28 pbc="T T T"
Te 2.0989279823 1.2118166339 3.4331980829 0.0117874805276 0.00680571063049 0.017505614431
Te 4.2142178275 4.8756061237 3.4331980829 -0 -0.013611421261 0.017505614431
Te 6.3295076728 1.2118166339 3.4331980829 -0.0117874805276 0.00680571063049 0.017505614431
Te -0 4.8661595943 3.3904003947 0 -2.57110337382e-07 0.0128035805809
Te -0 -0 6.7821208096 0 2.57110337382e-07 0.0409710464824
Te 1.9383422039 3.7470572422 7.1103267526 0.0419611783917 -0.0242264786501 -0.0282497412095
Te 4.2142178275 -0.1948750929 7.1103267526 -0 0.0484527001899 -0.0282497412095
Te -1.9383422039 3.7470572422 7.1103267526 -0.0419611783917 -0.0242264786501 -0.0282497412095
Te 0 -0 -0.0558322413 0 2.57110337382e-07 0.00590659578067
Te 2.1333466912 3.6344713009 -0.0136401382 -0.0050725298462 0.00292822963244 0.000663344670445
Te 4.2142178275 0.0302967897 -0.0136401382 -0 -0.00585697348555 0.000663344670445
Te -2.1333466912 3.6344713009 -0.0136401382 0.0050725298462 0.00292822963244 0.000663344670445
Te 0 2.3514909395 14.4959767748 0 -0.139898105445 -0.0339815019607
Te 2.177766973 6.1234939216 14.4959767748 0.121155276071 0.0699489241674 -0.0339812448504
Te 4.2142178275 2.4330797971 13.049749882 -0 2.57110337382e-07 0.0313630902848
Te -2.177766973 6.1234939216 14.4959767748 -0.121155276071 0.0699489241674 -0.0339812448504
Te 1.9365954892 1.1180938793 17.1869916348 0.0546297760455 0.0315404964176 -0.0233129656214
Te 4.2142178275 5.063051633 17.1869916348 -0 -0.0630809928352 -0.0233127085111
Te 6.4918401659 1.1180938793 17.1869916348 -0.0546297760455 0.0315404964176 -0.0233129656214
Te -0 4.8661595943 17.261485513 0 -2.57110337382e-07 0.122408688965
Te 2.2784706621 1.3154756937 10.4576371712 -0.0637024285207 -0.0367783482108 0.037574104705
Te 4.2142178275 4.668288004 10.4576371712 -0 0.0735572106422 0.037574104705
Te 6.1499649929 1.3154756937 10.4576371712 0.0637024285207 -0.0367786053211 0.037574104705
Te -0 4.8661595943 10.1076853292 0 -2.57110337382e-07 0.062243327356
Te -0 -0 23.9042655694 0 2.57110337382e-07 0.0149931322141
Te 2.2784639176 3.5506877929 23.9855278297 -0.043250072513 0.0249702988562 0.0136368751844
Te 4.2142178275 0.1978638056 23.9855278297 -0 -0.0499408548227 0.0136368751844
Te -2.2784639176 3.5506877929 23.9855278297 0.043250072513 0.0249702988562 0.0136368751844
Te -0 2.4824667054 27.5988178226 0 -0.0150453256126 -0.0274755819836
Te 2.0643386157 6.0580060388 27.5988178226 0.0130298376778 0.00752253425111 -0.0274755819836
Te 4.2142178275 2.4330797971 27.546182336 -0 2.57110337382e-07 0.00792953991519
Te -2.0643386157 6.0580060388 27.5988178226 -0.0130298376778 0.00752253425111 -0.0274755819836
Te -0 2.6125385953 20.5546873758 0 -0.0363294335617 0.000172006815708
Te 1.9516931071 5.9929700938 20.5546873758 0.0314623348751 0.0181645882257 0.000171749705371
Te 4.2142178275 2.4330797971 20.5435793327 -0 2.57110337382e-07 -0.0294059663967
Te -1.9516931071 5.9929700938 20.5546873758 -0.0314623348751 0.0181645882257 0.000171749705371
Sb 0 2.2865007474 8.6347411588 0 0.0276781849295 -0.000134211596113
Sb 2.2340500409 6.1559890177 8.6347411588 -0.0239701396438 -0.0138389639096 -0.000134211596113
Sb 4.2142178275 2.4330797971 8.1262263501 -0 2.57110337382e-07 -0.0181920990318
Sb -2.2340500409 6.1559890177 8.6347411588 0.0239698825334 -0.0138389639096 -0.000134211596113
Sb 0 2.4250062942 1.8454253868 0 -0.00109786114062 0.013398019681
Sb 2.1141007712 6.0867362443 1.8454253868 0.000950794027637 0.00054893057031 0.013398019681
Sb 4.2142178275 2.4330797971 1.8628408527 -0 2.57110337382e-07 0.0101921108841
Sb -2.1141007712 6.0867362443 1.8454253868 -0.000950794027637 0.00054893057031 0.013398019681
Sb -0 -0 19.0805846152 0 0 -0.0289136001006
Sb 2.1743145906 3.6108184656 18.6759055831 -0.0193781490181 0.0111878992208 -0.0294854134909
Sb 4.2142178275 0.0776024602 18.6759055831 -0 -0.022376055552 -0.0294854134909
Sb 6.2541210645 3.6108184656 18.6759055831 0.0193781490181 0.0111878992208 -0.0294854134909
Sb -0 0 11.3651647868 0 0 -0.0632977368496
Sb 1.6921344029 3.8892054265 12.5668043314 0.544346550105 -0.314278563788 -0.68474010717
Sb 4.2142178275 -0.4791714613 12.5668043314 0 0.628553270921 -0.684737021846
Sb -1.6921344029 3.8892054265 12.5668043314 -0.544346550105 -0.314278563788 -0.68474010717
Sb 2.1221085067 1.2251999211 29.1464633007 -0.000418832739595 -0.000241683717139 -0.0100962087283
Sb 4.2142178275 4.8488395493 29.1464633007 -0 0.000483624544615 -0.010095951618
Sb 6.3063271484 1.2251999211 29.1464633007 0.000418832739595 -0.000241683717139 -0.0100962087283
Sb -0 4.8661595943 29.2301668858 0 -0 -0.011348850292
Sb 2.1054866917 1.2156033099 22.3020868937 0.00620252977899 0.00358103277905 0.016533223135
Sb 4.2142178275 4.8680327717 22.3020868937 0 -0.0071620655581 0.0165334802453
Sb 6.3229489633 1.2156033099 22.3020868937 -0.00620252977899 0.00358103277905 0.016533223135
Sb -0 4.8661595943 22.7556494014 0 -0 0.00417778587211
Cr -0 4.8661595943 14.7784777177 -0 3.59954472334e-06 2.0521433842
61
Lattice="8.42843558953 0 0 -4.21421779477 7.29923593142 0 0 0 31.0334408416" Properties=species:S:1:pos:R:3:forces:R:3 energy=-133597.854393 ionic_step=29 pbc="T T T"
Te 2.0976194748 1.2110611664 3.431474008 0.012341810415 0.00712581300053 0.0189197212866
Te 4.2142178275 4.8771170587 3.431474008 -0 -0.0142513688907 0.0189197212866
Te 6.3308161803 1.2110611664 3.431474008 -0.012341810415 0.00712581300053 0.0189197212866
Te -0 4.8661595943 3.3822800635 0 -2.57110337382e-07 0.0140711345442
Te -0 -0 6.7855084912 0 2.57110337382e-07 0.0393731057356
Te 1.9274980025 3.7533181477 7.1122906871 0.0425692443396 -0.0245774342606 -0.0282929357461
Te 4.2142178275 -0.207396904 7.1122906871 -0 0.049154611411 -0.0282929357461
Te -1.9274980025 3.7533181477 7.1122906871 -0.0425692443396 -0.0245774342606 -0.0282929357461
Te 0 -0 -0.0513905556 0 2.57110337382e-07 0.00505890299832
Te 2.1321782851 3.6351458807 -0.0085536779 -0.00478996558542 0.00276522167854 2.44254820513e-05
Te 4.2142178275 0.02894763 -0.0085536779 -0 -0.00553070046742 2.44254820513e-05
Te -2.1321782851 3.6351458807 -0.0085536779 0.00478996558542 0.00276522167854 2.44254820513e-05
Te 0 2.3514829693 14.4985490283 0 -0.126657437291 -0.0336809399763
Te 2.1777738754 6.1234979068 14.4985490283 0.109688669244 0.0633285900901 -0.033680682866
Te 4.2142178275 2.4330797971 13.0244907805 -0 2.57110337382e-07 0.0297458662627
Te -2.1777738754 6.1234979068 14.4985490283 -0.109688669244 0.0633285900901 -0.033680682866
Te 1.9371182872 1.118395717 17.1997570036 0.0546734848029 0.031565950341 -0.023204465059
Te 4.2142178275 5.0624479575 17.1997570036 -0 -0.0631313864614 -0.0232042079487
Te 6.4913173679 1.118395717 17.1997570036 -0.0546734848029 0.031565950341 -0.023204465059
Te -0 4.8661595943 17.2744855517 0 -2.57110337382e-07 0.120793521826
Te 2.277784769 1.315079693 10.4564858601 -0.0635990701651 -0.0367186986125 0.0379116905779
Te 4.2142178275 4.6690800055 10.4564858601 -0 0.0734376543353 0.0379116905779
Te 6.150650886 1.315079693 10.4564858601 0.0635990701651 -0.0367186986125 0.0379116905779
Te -0 4.8661595943 10.1121102933 0 -2.57110337382e-07 0.0632977368496
Te -0 -0 23.9063116035 0 2.57110337382e-07 0.014968706732
Te 2.2871848357 3.5456527661 23.9741325179 -0.0438738221915 0.0253302533285 0.0157541788127
Te 4.2142178275 0.2079338591 23.9741325179 -0 -0.0506607637673 0.0157541788127
Te -2.2871848357 3.5456527661 23.9741325179 0.0438738221915 0.0253302533285 0.0157541788127
Te -0 2.4829316094 27.5997868025 0 -0.0147866726132 -0.028133527337
Te 2.0639359972 6.0577735868 27.5997868025 0.012805894574 0.00739320775141 -0.028133527337
Te 4.2142178275 2.4330797971 27.554692382 -0 2.57110337382e-07 0.00688181529036
Te -2.0639359972 6.0577735868 27.5997868025 -0.012805894574 0.00739320775141 -0.028133527337
Te -0 2.6130534295 20.5557309705 0 -0.0365176383287 0.000422175173981
Te 1.9512472478 5.9927126767 20.5557309705 0.0316255999393 0.0182586906092 0.000422175173981
Te 4.2142178275 2.4330797971 20.5493087936 -0 2.57110337382e-07 -0.030212521525
Te -1.9512472478 5.9927126767 20.5557309705 -0.0316255999393 0.0182586906092 0.000422175173981
Sb 0 2.2884582921 8.6466898825 0 0.0270153544797 0.00028179292977
Sb 2.2323547583 6.1550102454 8.6466898825 -0.0233960122604 -0.0135075486847 0.00028179292977
Sb 4.2142178275 2.4330797971 8.103676108 -0 2.57110337382e-07 -0.0205387450811
Sb -2.2323547583 6.1550102454 8.6466898825 0.0233960122604 -0.0135075486847 0.00028179292977
Sb 0 2.4239648683 1.8377919774 0 -0.000932024973008 0.0133399127447
Sb 2.1150026721 6.0872569573 1.8377919774 0.000807326459378 0.000465883931336 0.013340169855
Sb 4.2142178275 2.4330797971 1.8635428744 -0 2.57110337382e-07 0.0098272713154
Sb -2.1150026721 6.0872569573 1.8377919774 -0.000807326459378 0.000465883931336 0.013340169855
Sb 0 -0 19.0926234469 0 0 -0.0279358094875
Sb 2.1780729703 3.6086485631 18.6789340622 -0.0204549271111 0.0118093349063 -0.0306028150172
Sb 4.2142178275 0.0819422652 18.6789340622 -0 -0.0236191840332 -0.0306028150172
Sb 6.2503626848 3.6086485631 18.6789340622 0.0204549271111 0.0118093349063 -0.0306028150172
Sb -0 0 11.3433351292 0 0 -0.0636237527574
Sb 1.6850060812 3.8933209669 12.5636029814 0.496204439202 -0.286483650765 -0.62734845188
Sb 4.2142178275 -0.4874025421 12.5636029814 0 0.572963701986 -0.627345623666
Sb -1.6850060812 3.8933209669 12.5636029814 -0.496204439202 -0.286483650765 -0.62734845188
Sb 2.1204015382 1.224214402 29.1453385279 -4.57656400539e-05 -2.62252544129e-05 -0.0105201836746
Sb 4.2142178275 4.8508105877 29.1453385279 -0 5.27076191632e-05 -0.0105199265643
Sb 6.3080341169 1.224214402 29.1453385279 4.57656400539e-05 -2.62252544129e-05 -0.0105201836746
Sb -0 4.8661595943 29.229791331 0 -0 -0.0117663974799
Sb 2.0994524873 1.2121194588 22.2922088476 0.00666044328987 0.00384534220588 0.0160585974522
Sb 4.2142178275 4.8750004741 22.2922088476 0 -0.00769068441176 0.0160585974522
Sb 6.3289831677 1.2121194588 22.2922088476 -0.00666044328987 0.00384534220588 0.0160585974522
Sb -0 4.8661595943 22.765717066 0 -0 0.00464161292075
Cr -0 4.8661595943 14.782455621 -0 3.34243438596e-06 1.882626425
61
Lattice="8.42843558953 0 0 -4.21421779477 7.29923593142 0 0 0 31.0334408416" Properties=species:S:1:pos:R:3:forces:R:3 energy=-133597.898373 ionic_step=30 pbc="T T T"
Te 2.0955342043 1.2098572344 3.4310112179 0.0132216419895 0.00763360591686 0.0205024925235
Te 4.2142178275 4.8795249229 3.4310112179 -0 -0.0152672118337 0.0205024925235
Te 6.3329014508 1.2098572344 3.4310112179 -0.0132216419895 0.00763360591686 0.0205024925235
Te -0 4.8661595943 3.3733377425 0 -2.57110337382e-07 0.0148607203903
Te -0 -0 6.7895936848 0 2.57110337382e-07 0.0376077861591
Te 1.9102329055 3.7632861607 7.1140149257 0.0431909371354 -0.0249363602916 -0.0278823305374
Te 4.2142178275 -0.22733293 7.1140149257 -0 0.0498724634729 -0.027882073427
Te -1.9102329055 3.7632861607 7.1140149257 -0.0431909371354 -0.0249363602916 -0.0278823305374
Te 0 -0 -0.0461099001 0 2.57110337382e-07 0.00396849805749
Te 2.1310910274 3.6357736095 -0.0026662848 -0.00453568346175 0.00261841167589 -0.000728136475465
Te 4.2142178275 0.0276921724 -0.0026662848 -0 -0.00523708046213 -0.000728136475465
Te -2.1310910274 3.6357736095 -0.0026662848 0.00453568346175 0.00261841167589 -0.000728136475465
Te 0 2.3514881446 14.5056531107 0 -0.102562084913 -0.0322866306167
Te 2.1777693935 6.1234953191 14.5056531107 0.0888215942622 0.0512811710114 -0.0322866306167
Te 4.2142178275 2.4330797971 12.9866021281 -0 2.57110337382e-07 0.0274408720881
Te -2.1777693935 6.1234953191 14.5056531107 -0.0888215942622 0.0512811710114 -0.0322866306167
Te 1.9354844376 1.1174524131 17.2139563722 0.0547341628425 0.0316009173469 -0.0232895685807
Te 4.2142178275 5.0643345655 17.2139563722 -0 -0.0632015775835 -0.0232893114704
Te 6.4929512175 1.1174524131 17.2139563722 -0.0547341628425 0.0316009173469 -0.0232895685807
Te -0 4.8661595943 17.2918739756 0 -2.57110337382e-07 0.108644801274
Te 2.280386109 1.316581578 10.4564765258 -0.0635417345598 -0.0366857884893 0.0383356655243
Te 4.2142178275 4.6660762354 10.4564765258 -0 0.0733715769786 0.0383356655243
Te 6.148049546 1.316581578 10.4564765258 0.0635417345598 -0.0366857884893 0.0383356655243
Te -0 4.8661595943 10.1162208445 0 -2.57110337382e-07 0.0647514386972
Te -0 -0 23.9092812419 0 2.57110337382e-07 0.0144462585265
Te 2.3006447945 3.5378816516 23.95921058 -0.0444597766504 0.0256686105325 0.0181291069991
Te 4.2142178275 0.2234760881 23.95921058 -0 -0.0513377352857 0.0181291069991
Te -2.3006447945 3.5378816516 23.95921058 0.0444597766504 0.0256686105325 0.0181291069991
Te -0 2.483685637 27.5989089339 0 -0.0144827681944 -0.0287757889598
Te 2.0632829905 6.057396573 27.5989089339 0.0125428706988 0.00724125554202 -0.0287757889598
Te 4.2142178275 2.4330797971 27.5631875368 -0 2.57110337382e-07 0.00593950590385
Te -2.0632829905 6.057396573 27.5989089339 -0.0125428706988 0.00724125554202 -0.0287757889598
Te -0 2.6168378463 20.557338302 0 -0.0370295450104 0.000558186542456
Te 1.9479698482 5.9908204683 20.557338302 0.0320688581609 0.0185147725052 0.000558186542456
Te 4.2142178275 2.4330797971 20.5544827916 -0 2.57110337382e-07 -0.0314703052955
Te -1.9479698482 5.9908204683 20.557338302 -0.0320688581609 0.0185147725052 0.000558186542456
Sb 0 2.2896220156 8.6629485078 0 0.026251993888 0.000783929418677
Sb 2.2313469446 6.1544283836 8.6629485078 -0.022734981583 -0.013125996944 0.000783929418677
Sb 4.2142178275 2.4330797971 8.0684803445 -0 2.57110337382e-07 -0.0242881851311
Sb -2.2313469446 6.1544283836 8.6629485078 0.022734981583 -0.013125996944 0.000783929418677
Sb 0 2.422124969 1.8296650556 0 -0.000667972656517 0.0131715054737
Sb 2.1165960709 6.088176907 1.8296650556 0.000578755369446 0.000333986328259 0.0131717625841
Sb 4.2142178275 2.4330797971 1.8662529766 -0 2.57110337382e-07 0.00920532140927
Sb -2.1165960709 6.088176907 1.8296650556 -0.000578755369446 0.000333986328259 0.0131717625841
Sb 0 -0 19.1086049384 0 0 -0.0266163192361
Sb 2.183877672 3.6052972154 18.6832374944 -0.0221729383855 0.0128012665879 -0.0323601641732
Sb 4.2142178275 0.0886449605 18.6832374944 -0 -0.0256027902861 -0.0323601641732
Sb 6.2445579831 3.6052972154 18.6832374944 0.0221729383855 0.0128012665879 -0.0323601641732
Sb -0 0 11.3127253724 0 0 -0.0631154456204
Sb 1.6733396268 3.9000566006 12.5604154225 0.410417518252 -0.236954686703 -0.522408353457
Sb 4.2142178275 -0.5008738095 12.5604154225 0 0.473906288082 -0.522406039464
Sb -1.6733396268 3.9000566006 12.5604154225 -0.410417518252 -0.236954686703 -0.522408353457
Sb 2.1182641981 1.2229804075 29.1424672215 0.00043888734591 0.000253510792658 -0.0108719106162
Sb 4.2142178275 4.8532785766 29.1424672215 -0 -0.000506764474979 -0.0108719106162
Sb 6.310171457 1.2229804075 29.1424672215 -0.00043888734591 0.000253510792658 -0.0108719106162
Sb -0 4.8661595943 29.2282522393 0 -0 -0.0120793007605
Sb 2.0908328387 1.2071429 22.2789526357 0.00726825212744 0.00419655492674 0.0154446179665
Sb 4.2142178275 4.8849535915 22.2789526357 0 -0.00839285274315 0.0154448750769
Sb 6.3376028163 1.2071429 22.2789526357 -0.00726825212744 0.00419629781641 0.0154446179665
Sb -0 4.8661595943 22.7824381075 0 -0 0.00547207931049
Cr -0 4.8661595943 14.7916033307 -0 2.8282137112e-06 1.58026004026
61
Lattice="8.42843558953 0 0 -4.21421779477 7.29923593142 0 0 0 31.0334408416" Properties=species:S:1:pos:R:3:forces:R:3 energy=-133597.94055 ionic_step=31 pbc="T T T"
Te 2.092098376 1.207873557 3.4334321079 0.0145879263224 0.00842242043195 0.022146713131
Te 4.2142178275 4.8834922775 3.4334321079 -0 -0.0168448408639 0.022146713131
Te 6.3363372791 1.207873557 3.4334321079 -0.0145879263224 0.00842242043195 0.022146713131
Te -0 4.8661595943 3.3636408533 0 -2.57110337382e-07 0.0144933097182
Te -0 -0 6.7966898529 0 2.57110337382e-07 0.0350971037146
Te 1.8837521981 3.7785748114 7.1117224327 0.0433151214283 -0.0250080940758 -0.0265515274311
Te 4.2142178275 -0.2579102313 7.1117224327 -0 0.0500159310412 -0.0265512703207
Te -1.8837521981 3.7785748114 7.1117224327 -0.0433151214283 -0.0250080940758 -0.0265515274311
Te 0 -0 -0.0386682349 0 2.57110337382e-07 0.00237801351044
Te 2.1298625372 3.636482879 0.0048100442 -0.00428937175854 0.00247622965932 -0.00165450502105
Te 4.2142178275 0.0262736334 0.0048100442 -0 -0.00495271642898 -0.00165450502105
Te -2.1298625372 3.636482879 0.0048100442 0.00428937175854 0.00247622965932 -0.00165450502105
Te 0 2.3513281319 14.5162442849 0 -0.0751073288663 -0.0310049355849
Te 2.1779079685 6.1235753255 14.5162442849 0.0650450587025 0.0375537929883 -0.0310049355849
Te 4.2142178275 2.4330797971 12.9349611136 -0 2.57110337382e-07 0.0243743170941
Te -2.1779079685 6.1235753255 14.5162442849 -0.0650450587025 0.0375537929883 -0.0310049355849
Te 1.9321396155 1.1155212782 17.2317691921 0.0547758147171 0.0316248286083 -0.0229504400457
Te 4.2142178275 5.0681968352 17.2317691921 -0 -0.0632496572166 -0.0229504400457
Te 6.4962960396 1.1155212782 17.2317691921 -0.0547758147171 0.0316248286083 -0.0229504400457
Te -0 4.8661595943 17.3118823488 0 -2.57110337382e-07 0.0909473825317
Te 2.2869770303 1.32038685 10.4554349731 -0.0634188358186 -0.0366148260362 0.0386177155644
Te 4.2142178275 4.6584656915 10.4554349731 -0 0.0732296520724 0.0386179726747
Te 6.1414586247 1.32038685 10.4554349731 0.0634188358186 -0.0366148260362 0.0386177155644
Te -0 4.8661595943 10.1222268246 0 -2.57110337382e-07 0.0664478527032
Te -0 -0 23.9182213744 0 2.57110337382e-07 0.0126017489661
Te 2.3200821842 3.5266594642 23.9401740738 -0.0445682772127 0.0257310883445 0.0207516324404
Te 4.2142178275 0.2459204629 23.9401740738 -0 -0.0514626909096 0.0207516324404
Te -2.3200821842 3.5266594642 23.9401740738 0.0445682772127 0.0257310883445 0.0207516324404
Te -0 2.4844591049 27.5944329956 0 -0.0139127545764 -0.0289285125002
Te 2.0626131479 6.057009839 27.5944329956 0.0120489617407 0.0069563772882 -0.0289285125002
Te 4.2142178275 2.4330797971 27.5724659395 -0 2.57110337382e-07 0.00507407250823
Te -2.0626131479 6.057009839 27.5944329956 -0.0120489617407 0.0069563772882 -0.0289285125002
Te -0 2.6242490169 20.5616307447 0 -0.0379386871634 0.000620664354439
Te 1.9415515892 5.987114883 20.5616307447 0.032856130014 0.0189693435817 0.000620664354439
Te 4.2142178275 2.4330797971 20.5622427047 -0 2.57110337382e-07 -0.0331461504746
Te -1.9415515892 5.987114883 20.5616307447 -0.032856130014 0.0189693435817 0.000620664354439
Sb 0 2.290991494 8.6839314032 0 0.0252888585642 0.00128220925252
Sb 2.2301609421 6.1537436444 8.6839314032 -0.0219006585382 -0.0126444292821 0.00128220925252
Sb 4.2142178275 2.4330797971 8.011647366 -0 2.57110337382e-07 -0.030334391825
Sb -2.2301609421 6.1537436444 8.6839314032 0.0219006585382 -0.0126441721718 0.00128220925252
Sb 0 2.4192927769 1.821022949 0 -0.000249911247935 0.012808979898
Sb 2.11904882 6.089593003 1.821022949 0.000216486904075 0.000124955623967 0.012808979898
Sb 4.2142178275 2.4330797971 1.8730774096 -0 2.57110337382e-07 0.00816093921883
Sb -2.11904882 6.089593003 1.821022949 -0.000216486904075 0.000124955623967 0.012808979898
Sb 0 -0 19.1296026331 0 0 -0.024725529815
Sb 2.1921132366 3.6005424078 18.6909438926 -0.0243182670406 0.0140400241934 -0.0342712653109
Sb 4.2142178275 0.0981545759 18.6909438926 -0 -0.0280803054971 -0.0342710082006
Sb 6.2363224185 3.6005424078 18.6909438926 0.0243182670406 0.0140400241934 -0.0342712653109
Sb -0 0 11.2725358876 0 0 -0.0608099372251
Sb 1.658047562 3.9088854825 12.5567828039 0.312476220323 -0.180408153093 -0.400349848771
Sb 4.2142178275 -0.5185315733 12.5567828039 0 0.360813992192 -0.400348048999
Sb -1.658047562 3.9088854825 12.5567828039 -0.312476220323 -0.180408153093 -0.400349848771
Sb 2.1152122674 1.2212183737 29.1364839258 0.00112408639503 0.000649203601889 -0.0111169367677
Sb 4.2142178275 4.8568026442 29.1364839258 -0 -0.00129815009344 -0.0111169367677
Sb 6.3132233877 1.2212183737 29.1364839258 -0.00112408639503 0.000649203601889 -0.0111169367677
Sb -0 4.8661595943 29.2235889655 0 -0 -0.0122806181547
Sb 2.0775963059 1.1995007807 22.2624837994 0.0081483408123 0.00470460495341 0.0146069524873
Sb 4.2142178275 4.9002378302 22.2624837994 0 -0.00940895279648 0.0146069524873
Sb 6.3508393491 1.1995007807 22.2624837994 -0.0081483408123 0.00470460495341 0.0146069524873
Sb -0 4.8661595943 22.809477569 0 -0 0.0070031713696
Cr -0 4.8661595943 14.8041059414 -0 2.05688269905e-06 1.23269571508
61
Lattice="8.42843558953 0 0 -4.21421779477 7.29923593142 0 0 0 31.0334408416" Properties=species:S:1:pos:R:3:forces:R:3 energy=-133597.972507 ionic_step=32 pbc="T T T"
Te 2.0881675561 1.2056040961 3.4379596414 0.01596552351 0.00921791981581 0.0228871909027
Te 4.2142178275 4.8880311994 3.4379596414 -0 -0.0184358396316 0.0228871909027
Te 6.340268099 1.2056040961 3.4379596414 -0.01596552351 0.00921791981581 0.0228871909027
Te -0 4.8661595943 3.3577410121 0 -2.57110337382e-07 0.0123045294161
Te -0 -0 6.8063020041 0 2.57110337382e-07 0.0323689059247
Te 1.8600901988 3.7922360794 7.1006957903 0.0427353376176 -0.0246733364165 -0.0246689655408
Te 4.2142178275 -0.2852327674 7.1006957903 -0 0.0493464157226 -0.0246689655408
Te -1.8600901988 3.7922360794 7.1006957903 -0.0427353376176 -0.0246733364165 -0.0246689655408
Te 0 -0 -0.0314668968 0 2.57110337382e-07 0.000760789488312
Te 2.1290830502 3.6369329162 0.0101736537 -0.00422020907778 0.00243637755703 -0.00228134002359
Te 4.2142178275 0.0253735589 0.0101736537 -0 -0.00487301222439 -0.00228134002359
Te -2.1290830502 3.6369329162 0.0101736537 0.00422020907778 0.00243637755703 -0.00228134002359
Te 0 2.3504780645 14.5222552771 0 -0.0503985112232 -0.0297067854914
Te 2.1786441481 6.1240003592 14.5222552771 0.0436465366532 0.0251993841668 -0.0297065283811
Te 4.2142178275 2.4330797971 12.9023025253 -0 2.57110337382e-07 0.0229059599573
Te -2.1786441481 6.1240003592 14.5222552771 -0.0436465366532 0.0251993841668 -0.0297065283811
Te 1.9290331872 1.1137277802 17.2462807311 0.0547544745591 0.0316124873121 -0.0223598576007
Te 4.2142178275 5.0717838312 17.2462807311 -0 -0.0632249746242 -0.0223598576007
Te 6.4994024679 1.1137277802 17.2462807311 -0.0547544745591 0.0316124873121 -0.0223598576007
Te -0 4.8661595943 17.3204043576 0 -2.57110337382e-07 0.0709246578977
Te 2.2941060575 1.3245027977 10.4489048344 -0.063129586689 -0.0364477043169 0.0384382525489
Te 4.2142178275 4.6502337961 10.4489048344 -0 0.0728954086338 0.0384385096592
Te 6.1343295975 1.3245027977 10.4489048344 0.063129586689 -0.0364477043169 0.0384382525489
Te -0 4.8661595943 10.1302682104 0 -2.57110337382e-07 0.0688076113797
Te -0 -0 23.9350891598 0 2.57110337382e-07 0.0093066228822
Te 2.3365919588 3.5171275369 23.9264042931 -0.0439149598455 0.0253539074795 0.0224935549762
Te 4.2142178275 0.2649843174 23.9264042931 -0 -0.0507083291798 0.0224935549762
Te -2.3365919588 3.5171275369 23.9264042931 0.0439149598455 0.0253539074795 0.0224935549762
Te -0 2.4840091694 27.5876312592 0 -0.0129179946811 -0.0281674659015
Te 2.0630028033 6.0572348068 27.5876312592 0.0111876421105 0.00645886878536 -0.0281674659015
Te 4.2142178275 2.4330797971 27.5795125043 -0 2.57110337382e-07 0.0044438950713
Te -2.0630028033 6.0572348068 27.5876312592 -0.0111876421105 0.00645886878536 -0.0281674659015
Te -0 2.6322449769 20.570184404 0 -0.0388920522944 0.000537360605128
Te 1.934626888 5.983116903 20.570184404 0.0336817113073 0.0194460261472 0.000537360605128
Te 4.2142178275 2.4330797971 20.5702632463 -0 2.57110337382e-07 -0.03448389556
Te -1.934626888 5.983116903 20.570184404 -0.0336817113073 0.0194460261472 0.000537360605128
Sb 0 2.2944414031 8.6982716869 0 0.0244234251686 0.0013865960495
Sb 2.2271732345 6.1520186899 8.6982716869 -0.0211511819047 -0.0122117125843 0.0013865960495
Sb 4.2142178275 2.4330797971 7.9554357576 -0 2.57110337382e-07 -0.0360944347133
Sb -2.2271732345 6.1520186899 8.6982716869 0.0211511819047 -0.0122117125843 0.0013865960495
Sb 0 2.4164884284 1.8162115686 0 0.00021108758699 0.0124973621691
Sb 2.1214774559 6.0909951773 1.8162115686 -0.000182548339541 -0.000105415238326 0.0124976192794
Sb 4.2142178275 2.4330797971 1.8823294442 -0 2.57110337382e-07 0.00725745349327
Sb -2.1214774559 6.0909951773 1.8162115686 0.000182548339541 -0.000105415238326 0.0124976192794
Sb 0 -0 19.1438508227 0 0 -0.0235680190761
Sb 2.1976109984 3.597368272 18.7023146761 -0.0259372908351 0.0149748773801 -0.0356169808168
Sb 4.2142178275 0.1045028474 18.7023146761 -0 -0.0299497547602 -0.0356169808168
Sb 6.2308246567 3.597368272 18.7023146761 0.0259372908351 0.0149748773801 -0.0356169808168
Sb -0 0 11.245008755 0 0 -0.057961926018
Sb 1.6498805128 3.9136007327 12.5525051138 0.227915201462 -0.131587013789 -0.289174310446
Sb 4.2142178275 -0.5279620737 12.5525051138 0 0.263171970696 -0.289173024894
Sb -1.6498805128 3.9136007327 12.5525051138 -0.227915201462 -0.131587013789 -0.289174310446
Sb 2.1121488444 1.2194497048 29.1307123601 0.00176531957646 0.00101918537738 -0.011156017539
Sb 4.2142178275 4.8603399821 29.1307123601 -0 -0.00203837075476 -0.0111557604287
Sb 6.3162868107 1.2194497048 29.1307123601 -0.00176531957646 0.00101918537738 -0.011156017539
Sb -0 4.8661595943 29.2168516727 0 -0 -0.0122608206587
Sb 2.0644689442 1.1919216913 22.2543543081 0.00903588569694 0.00521702585581 0.0141626658243
Sb 4.2142178275 4.9153960089 22.2543543081 0 -0.0104337946013 0.0141626658243
Sb 6.3639667108 1.1919216913 22.2543543081 -0.00903588569694 0.00521702585581 0.0141626658243
Sb -0 4.8661595943 22.8340235749 0 -0 0.00852500745656
Cr -0 4.8661595943 14.8091024735 -0 1.54266202429e-06 0.918948084139
61
Lattice="8.42843558953 0 0 -4.21421779477 7.29923593142 0 0 0 31.0334408416" Properties=species:S:1:pos:R:3:forces:R:3 energy=-133598.014829 ionic_step=33 pbc="T T T"
Te 2.082516036 1.2023411879 3.446821632 0.0177267293211 0.0102347912002 0.0226074548556
Te 4.2142178275 4.8945570158 3.446821632 -0 -0.0204695824003 0.0226074548556
Te 6.3459196191 1.2023411879 3.446821632 -0.0177267293211 0.0102347912002 0.0226074548556
Te -0 4.8661595943 3.3550638704 0 -2.57110337382e-07 0.00715075270326
Te -0 0 6.8223878721 0 2.57110337382e-07 0.0287341370851
Te 1.8334099857 3.8076399148 7.0748664776 0.0415333467903 -0.0239793956159 -0.0214687131714
Te 4.2142178275 -0.3160404382 7.0748664776 -0 0.0479585341215 -0.0214687131714
Te -1.8334099857 3.8076399148 7.0748664776 -0.0415333467903 -0.0239793956159 -0.0214687131714
Te 0 -0 -0.0228448623 0 2.57110337382e-07 -0.00132026158245
Te 2.1287469385 3.6371269705 0.0141808037 -0.0043695901838 0.00252250952005 -0.00270480074925
Te 4.2142178275 0.0249854503 0.0141808037 -0 -0.00504527615044 -0.00270480074925
Te -2.1287469385 3.6371269705 0.0141808037 0.0043695901838 0.00252250952005 -0.00270480074925
Te 0 2.3488772941 14.5234056359 0 -0.032181729599 -0.0290195295596
Te 2.1800304553 6.1248007444 14.5234056359 0.0278702463515 0.0160909933547 -0.0290195295596
Te 4.2142178275 2.4330797971 12.8860668862 -0 2.57110337382e-07 0.0229162443708
Te -2.1800304553 6.1248007444 14.5234056359 -0.0278702463515 0.0160909933547 -0.0290195295596
Te 1.9253646562 1.1116097518 17.260662652 0.0547099944708 0.0315867762783 -0.0208951000087
Te 4.2142178275 5.0760198879 17.260662652 -0 -0.0631735525567 -0.0208951000087
Te 6.5030709989 1.1116097518 17.260662652 -0.0547099944708 0.0315867762783 -0.0208951000087
Te -0 4.8661595943 17.3169350106 0 -2.57110337382e-07 0.0541050138469
Te 2.3038843463 1.330148298 10.4331327811 -0.0624554433844 -0.0360584392661 0.0376036723938
Te 4.2142178275 4.6389427955 10.4331327811 -0 0.0721171356425 0.0376036723938
Te 6.1245513087 1.330148298 10.4331327811 0.0624554433844 -0.0360584392661 0.0376036723938
Te -0 4.8661595943 10.142965861 0 -2.57110337382e-07 0.0722217795498
Te -0 -0 23.9676558278 0 2.57110337382e-07 0.00289994749533
Te 2.3539819781 3.5070874 23.9158941956 -0.042511651624 0.0245437528065 0.0236819189555
Te 4.2142178275 0.2850645914 23.9158941956 -0 -0.0490880198336 0.0236819189555
Te -2.3539819781 3.5070874 23.9158941956 0.042511651624 0.0245437528065 0.0236819189555
Te -0 2.4819554367 27.5756455237 0 -0.0110032939986 -0.0259504034623
Te 2.0647813872 6.0582616732 27.5756455237 0.00952928043438 0.00550138988895 -0.0259504034623
Te 4.2142178275 2.4330797971 27.5854009783 -0 2.57110337382e-07 0.00405565846186
Te -2.0647813872 6.0582616732 27.5756455237 -0.00952928043438 0.00550138988895 -0.0259504034623
Te -0 2.6432551191 20.5867992304 0 -0.0401848030707 0.000386436837085
Te 1.9250918296 5.9776118319 20.5867992304 0.0348011697163 0.0200924015354 0.000386179726747
Te 4.2142178275 2.4330797971 20.5827411571 -0 2.57110337382e-07 -0.0361206599677
Te -1.9250918296 5.9776118319 20.5867992304 -0.0348011697163 0.0200924015354 0.000386179726747
Sb 0 2.3017803854 8.7069302664 0 0.023477259127 0.00113642769123
Sb 2.2208174924 6.1483491987 8.7069302664 -0.0203317712595 -0.0117386295635 0.00113642769123
Sb 4.2142178275 2.4330797971 7.8815436116 -0 2.57110337382e-07 -0.043464245424
Sb -2.2208174924 6.1483491987 8.7069302664 0.0203317712595 -0.0117386295635 0.00113642769123
Sb 0 2.4133726102 1.8152923672 0 0.000819667755573 0.0121500061033
Sb 2.1241758323 6.0925530863 1.8152923672 -0.000709881641511 -0.000409833877786 0.0121500061033
Sb 4.2142178275 2.4330797971 1.897720343 -0 2.57110337382e-07 0.0063022885899
Sb -2.1241758323 6.0925530863 1.8152923672 0.000709881641511 -0.000409833877786 0.0121500061033
Sb 0 -0 19.1545421227 0 -0 -0.0231275890682
Sb 2.2005504924 3.5956711536 18.7214163971 -0.0269389927095 0.0155531185289 -0.035902116181
Sb 4.2142178275 0.1078970842 18.7214163971 -0 -0.0311064941681 -0.035902116181
Sb 6.2278851627 3.5956711536 18.7214163971 0.0269389927095 0.0155531185289 -0.035902116181
Sb -0 0 11.2264935862 0 0 -0.0550506656678
Sb 1.6496288205 3.9137460474 12.5469696988 0.168452779515 -0.0972563559903 -0.207318863665
Sb 4.2142178275 -0.5282527031 12.5469696988 0 0.194511169319 -0.207317835224
Sb -1.6496288205 3.9137460474 12.5469696988 -0.168452779515 -0.0972563559903 -0.207318863665
Sb 2.1082791113 1.2172155123 29.1235135104 0.00251711020297 0.00145344473722 -0.0108960789879
Sb 4.2142178275 4.8648083671 29.1235135104 -0 -0.0029066323641 -0.0108960789879
Sb 6.3201565438 1.2172155123 29.1235135104 -0.00251711020297 0.00145344473722 -0.0108960789879
Sb -0 4.8661595943 29.2053187535 0 -0 -0.0119666864328
Sb 2.0480115092 1.1824199824 22.2549460834 0.0102281063314 0.00590531022898 0.0142089456851
Sb 4.2142178275 4.9343994269 22.2549460834 0 -0.0118103633476 0.0142089456851
Sb 6.3804241458 1.1824199824 22.2549460834 -0.0102281063314 0.00590531022898 0.0142089456851
Sb -0 4.8661595943 22.863245655 0 -0 0.0104574487523
Cr -0 4.8661595943 14.8049289786 -0 1.28555168691e-06 0.689348038636
61
Lattice="8.42843558953 0 0 -4.21421779477 7.29923593142 0 0 0 31.0334408416" Properties=species:S:1:pos:R:3:forces:R:3 energy=-133598.061795 ionic_step=34 pbc="T T T"
Te 2.0767999801 1.19904102 3.4556331419 0.0192372525532 0.0111069094645 0.0210802194516
Te 4.2142178275 4.9011573516 3.4556331419 -0 -0.0222135618188 0.0210802194516
Te 6.351635675 1.19904102 3.4556331419 -0.0192372525532 0.0111069094645 0.0210802194516
Te -0 4.8661595943 3.357073782 0 -2.57110337382e-07 0.000733278682212
Te -0 0 6.8409669331 0 2.57110337382e-07 0.0251996412771
Te 1.8158791611 3.8177613459 7.0426969563 0.0404750806416 -0.0233685014543 -0.0184083288255
Te 4.2142178275 -0.3362833003 7.0426969563 -0 0.0467367457982 -0.0184080717152
Te -1.815879161 3.8177613459 7.0426969563 -0.0404750806416 -0.0233685014543 -0.0184083288255
Te 0 -0 -0.0183844071 0 2.57110337382e-07 -0.0028536676346
Te 2.1300289665 3.636386791 0.0124148297 -0.00495065954628 0.0028577814 -0.00242120804712
Te 4.2142178275 0.0264658094 0.0124148297 -0 -0.00571607702067 -0.00242120804712
Te -2.1300289665 3.636386791 0.0124148297 0.00495065954628 0.0028577814 -0.00242120804712
Te 0 2.3479841531 14.5196196346 0 -0.0199821012006 -0.0280129425887
Te 2.1808039377 6.1252473149 14.5196196346 0.0173053254781 0.00999105060031 -0.0280126854784
Te 4.2142178275 2.4330797971 12.898933913 -0 2.57110337382e-07 0.0250078369654
Te -2.1808039377 6.1252473149 14.5196196346 -0.0173053254781 0.00999105060031 -0.0280126854784
Te 1.9191381137 1.1080148542 17.267212997 0.0546320900385 0.0315420390796 -0.0193622081772
Te 4.2142178275 5.0832096833 17.267212997 -0 -0.0630838210489 -0.0193619510669
Te 6.5092975414 1.1080148542 17.267212997 -0.0546320900385 0.0315420390796 -0.0193622081772
Te -0 4.8661595943 17.300893936 0 -2.57110337382e-07 0.0408322069003
Te 2.3153525124 1.3367694499 10.4109087108 -0.061454512841 -0.035480712338 0.0365459204658
Te 4.2142178275 4.6257004917 10.4109087108 -0 0.070961424676 0.0365461775761
Te 6.1130831426 1.3367694499 10.4109087108 0.061454512841 -0.035480712338 0.0365459204658
Te -0 4.8661595943 10.1535586121 0 -2.57110337382e-07 0.0756909693321
Te -0 -0 24.0030068393 0 2.57110337382e-07 -0.00444903727805
Te 2.365373503 3.5005104969 23.9139766348 -0.0410777472725 0.0237161146304 0.023880408136
Te 4.2142178275 0.2982183975 23.9139766348 -0 -0.0474322292608 0.023880408136
Te -2.365373503 3.5005104969 23.9139766348 0.0410777472725 0.0237161146304 0.023880408136
Te -0 2.47882303 27.5634557911 0 -0.00878417467664 -0.0234556618587
Te 2.0674941297 6.0598278765 27.5634557911 0.00760763777279 0.00439195878315 -0.0234556618587
Te 4.2142178275 2.4330797971 27.5866590028 -0 2.57110337382e-07 0.00393533082396
Te -2.0674941297 6.0598278765 27.5634557911 -0.00760763777279 0.00439195878315 -0.0234556618587
Te -0 2.6572265639 20.6068403275 0 -0.0411643934561 -0.000147838443994
Te 1.9129922091 5.9706261095 20.6068403275 0.0356496338296 0.0205819396177 -0.000147838443994
Te 4.2142178275 2.4330797971 20.5910810551 -0 2.57110337382e-07 -0.038084725835
Te -1.9129922091 5.9706261095 20.6068403275 -0.0356496338296 0.0205821967281 -0.000147838443994
Sb 0 2.3102598516 8.7029185669 0 0.0229380987495 0.000699597228015
Sb 2.2134740627 6.1441094657 8.7029185669 -0.0198648588868 -0.0114689208196 0.000699597228015
Sb 4.2142178275 2.4330797971 7.8185192267 -0 2.57110337382e-07 -0.0493168480338
Sb -2.2134740627 6.1441094657 8.7029185669 0.0198648588868 -0.0114689208196 0.000699597228015
Sb 0 2.4116779998 1.8208553763 0 0.00128452324556 0.0121024406909
Sb 2.1256434073 6.0934003915 1.8208553763 -0.00111225931951 -0.000642261622779 0.0121024406909
Sb 4.2142178275 2.4330797971 1.9139012605 -0 2.57110337382e-07 0.00598655709559
Sb -2.1256434073 6.0934003915 1.8208553763 0.00111225931951 -0.000642261622779 0.0121024406909
Sb 0 -0 19.15721061 0 -0 -0.024112835881
Sb 2.1973342695 3.5975280416 18.7434577278 -0.0269747310464 0.0155736873559 -0.0351474973407
Sb 4.2142178275 0.1041833082 18.7434577278 -0 -0.0311476318221 -0.0351474973407
Sb 6.2311013856 3.5975280416 18.7434577278 0.0269747310464 0.0155736873559 -0.0351474973407
Sb -0 0 11.2246399986 0 0 -0.0533339399451
Sb 1.6589389575 3.9083708348 12.5427664026 0.132725498363 -0.0766291649532 -0.154951401478
Sb 4.2142178275 -0.5175022778 12.5427664026 0 0.153257301465 -0.154950630147
Sb -1.6589389575 3.9083708348 12.5427664026 -0.132725498363 -0.0766291649532 -0.154951401478
Sb 2.1055424949 1.2156355254 29.1199304244 0.00300536273365 0.00173523766699 -0.0102612735649
Sb 4.2142178275 4.8679683409 29.1199304244 -0 -0.00347021822364 -0.0102610164546
Sb 6.3228931602 1.2156355254 29.1199304244 -0.00300536273365 0.00173523766699 -0.0102612735649
Sb -0 4.8661595943 29.1947658455 0 -0 -0.0113431938646
Sb 2.0355699054 1.1752368157 22.2678825911 0.0112213235647 0.00647866628134 0.0151036896591
Sb 4.2142178275 4.9487657602 22.2678825911 0 -0.0129573325627 0.0151036896591
Sb 6.3928657496 1.1752368157 22.2678825911 -0.0112213235647 0.00647866628134 0.0151036896591
Sb -0 4.8661595943 22.884090424 0 -0 0.0117828525415
Cr -0 4.8661595943 14.7929700472 -0 1.02844134953e-06 0.542591772052
61
Lattice="8.42843558953 0 0 -4.21421779477 7.29923593142 0 0 0 31.0334408416" Properties=species:S:1:pos:R:3:forces:R:3 energy=-133598.095284 ionic_step=35 pbc="T T T"
Te 2.0729257495 1.1968042308 3.4624503895 0.0201132274727 0.0116126454982 0.0192534505045
Te 4.2142178275 4.90563093 3.4624503895 -0 -0.023225033886 0.0192534505045
Te 6.3555099056 1.1968042308 3.4624503895 -0.0201132274727 0.0116126454982 0.0192534505045
Te -0 4.8661595943 3.3611168304 0 -2.57110337382e-07 -0.00432048210936
Te -0 0 6.8557041526 0 2.57110337382e-07 0.023077966773
Te 1.8071869907 3.8227797751 7.0194265289 0.0397860249374 -0.022970494652 -0.0164404063032
Te 4.2142178275 -0.3463201588 7.0194265289 -0 0.0459407321937 -0.0164401491929
Te -1.8071869907 3.8227797751 7.0194265289 -0.0397860249374 -0.022970494652 -0.0164404063032
Te 0 -0 -0.0206444759 0 2.57110337382e-07 -0.00315242984664
Te 2.1326163305 3.634892975 0.0064222714 -0.00574410204744 0.00331595202121 -0.00163804995946
Te 4.2142178275 0.0294534414 0.0064222714 -0 -0.0066324182631 -0.00163804995946
Te -2.1326163305 3.634892975 0.0064222714 0.00574410204744 0.00331595202121 -0.00163804995946
Te 0 2.3500803145 14.5158974951 0 -0.0228604514276 -0.0280674499803
Te 2.1789886095 6.1241992341 14.5158974951 0.0197977530887 0.0114300971586 -0.0280674499803
Te 4.2142178275 2.4330797971 12.9185987232 -0 2.57110337382e-07 0.0270379801894
Te -2.1789886095 6.1241992341 14.5158974951 -0.0197977530887 0.0114300971586 -0.0280674499803
Te 1.91057226 1.1030693539 17.2663289107 0.0546503448725 0.0315525806035 -0.0178316303388
Te 4.2142178275 5.0931006837 17.2663289107 -0 -0.0631046469863 -0.0178313732284
Te 6.5178633951 1.1030693539 17.2663289107 -0.0546503448725 0.0315525806035 -0.0178316303388
Te -0 4.8661595943 17.2862100713 0 -2.57110337382e-07 0.0405534992945
Te 2.3284440349 1.3443278474 10.3937478279 -0.0603209133634 -0.034826109419 0.0357689330262
Te 4.2142178275 4.6105836967 10.3937478279 -0 0.0696524759484 0.0357691901365
Te 6.0999916201 1.3443278474 10.3937478279 0.0603209133634 -0.034826109419 0.0357689330262
Te -0 4.8661595943 10.1557092263 0 -2.57110337382e-07 0.0766615608557
Te -0 -0 24.0260382318 0 2.57110337382e-07 -0.00974448178676
Te 2.3701591575 3.4977474967 23.9181087905 -0.0403218428805 0.0232795412775 0.0233188791592
Te 4.2142178275 0.3037443978 23.9181087905 -0 -0.0465595967758 0.0233188791592
Te -2.3701591575 3.4977474967 23.9181087905 0.0403218428805 0.0232795412775 0.0233188791592
Te -0 2.4771295273 27.5544473512 0 -0.00745414290137 -0.0218602922152
Te 2.0689607454 6.0606746278 27.5544473512 0.00645578346132 0.00372681434035 -0.0218602922152
Te 4.2142178275 2.4330797971 27.5822604585 -0 2.57110337382e-07 0.00433333762623
Te -2.0689607454 6.0606746278 27.5544473512 -0.00645578346132 0.00372681434035 -0.0218602922152
Te -0 2.6713640981 20.6217345792 0 -0.0414847529365 -0.000893458422401
Te 1.900748751 5.9635573424 20.6217345792 0.0359270558837 0.0207423764683 -0.000893458422401
Te 4.2142178275 2.4330797971 20.5974571948 -0 2.57110337382e-07 -0.0402603935099
Te -1.900748751 5.9635573424 20.6217345792 -0.0359270558837 0.0207423764683 -0.000893458422401
Sb 0 2.3145751439 8.6899941885 0 0.0232468882647 0.000640976071092
Sb 2.2097369117 6.1419518195 8.6899941885 -0.0201322536377 -0.0116234441323 0.00064123318143
Sb 4.2142178275 2.4330797971 7.7750214563 -0 2.57110337382e-07 -0.0531539627089
Sb -2.2097369117 6.1419518195 8.6899941885 0.0201322536377 -0.0116234441323 0.00064123318143
Sb 0 2.4129646237 1.8296624164 0 0.00132926044426 0.012280875265
Sb 2.1245291589 6.0927570796 1.8296624164 -0.00115108298046 -0.000664630222132 0.012280875265
Sb 4.2142178275 2.4330797971 1.9262966394 -0 2.57110337382e-07 0.00618838871044
Sb -2.1245291589 6.0927570796 1.8296624164 0.00115108298046 -0.000664630222132 0.012280875265
Sb 0 -0 19.161706015 0 -0 -0.0246967334572
Sb 2.1908573078 3.601267519 18.7576516718 -0.0263185854654 0.0151949638289 -0.0338976839907
Sb 4.2142178275 0.0967043535 18.7576516718 -0 -0.0303901847682 -0.0338976839907
Sb 6.2375783474 3.601267519 18.7576516718 0.0263185854654 0.0151949638289 -0.0338976839907
Sb -0 0 11.2280872534 0 0 -0.0519823109015
Sb 1.6704818433 3.9017065435 12.5452032552 0.14616619836 -0.0843892691561 -0.169412058183
Sb 4.2142178275 -0.5041736952 12.5452032552 0 0.16877699565 -0.169411286852
Sb -1.6704818433 3.9017065435 12.5452032552 -0.14616619836 -0.0843892691561 -0.169412058183
Sb 2.1051187173 1.2153908571 29.119560287 0.00309123758634 0.0017848599621 -0.009399439714
Sb 4.2142178275 4.8684576774 29.119560287 -0 -0.00356946281387 -0.00939918260366
Sb 6.3233169378 1.2153908571 29.119560287 -0.00309123758634 0.0017848599621 -0.009399439714
Sb -0 4.8661595943 29.188866772 0 -0 -0.0107258719445
Sb 2.0305843377 1.1723583955 22.2815326518 0.0117337444671 0.00677434316933 0.0159650092894
Sb 4.2142178275 4.9545226006 22.2815326518 0 -0.013548943449 0.0159652663997
Sb 6.3978513173 1.1723583955 22.2815326518 -0.0117337444671 0.00677434316933 0.0159650092894
Sb -0 4.8661595943 22.8983976829 0 -0 0.0126727114192
Cr -0 4.8661595943 14.7842653402 -0 1.02844134953e-06 0.584145687669
61
Lattice="8.42843558953 0 0 -4.21421779477 7.29923593142 0 0 0 31.0334408416" Properties=species:S:1:pos:R:3:forces:R:3 energy=-133598.114492 ionic_step=36 pbc="T T T"
Te 2.0710508552 1.1957217596 3.4621438464 0.020451070456 0.0118077922443 0.0186217304055
Te 4.2142178275 4.9077958725 3.4621438464 -0 -0.0236153273782 0.0186217304055
Te 6.3573847999 1.1957217596 3.4621438464 -0.020451070456 0.0118077922443 0.0186217304055
Te -0 4.8661595943 3.3607754836 0 -2.57110337382e-07 -0.0060924865546
Te -0 0 6.864194006 0 2.57110337382e-07 0.0208668178716
Te 1.8067966305 3.8230051498 7.0106312006 0.0395546256338 -0.0228370543869 -0.016535537128
Te 4.2142178275 -0.3467709082 7.0106312006 -0 0.0456735945531 -0.0165352800177
Te -1.8067966305 3.8230051498 7.0106312006 -0.0395546256338 -0.0228370543869 -0.016535537128
Te 0 -0 -0.0256111403 0 2.57110337382e-07 -0.0027690783336
Te 2.1349658948 3.6335364528 0.0006343705 -0.00637633636706 0.00368104870029 -0.000875203588447
Te 4.2142178275 0.0321664859 0.0006343705 -0 -0.00736235451092 -0.000875203588447
Te -2.1349658948 3.6335364528 0.0006343705 0.00637633636706 0.00368104870029 -0.000875203588447
Te 0 2.3533064003 14.513015899 0 -0.0323290538224 -0.0291606831348
Te 2.1761947386 6.1225861913 14.513015899 0.0279977730788 0.0161645269112 -0.0291606831348
Te 4.2142178275 2.4330797971 12.9339717237 -0 2.57110337382e-07 0.0281857207355
Te -2.1761947386 6.1225861913 14.513015899 -0.0279977730788 0.0161645269112 -0.0291606831348
Te 1.902841641 1.0986060769 17.2674957018 0.0546009796877 0.031524041356 -0.0166283539598
Te 4.2142178275 5.1020272379 17.2674957018 -0 -0.0630478256017 -0.0166283539598
Te 6.5255940141 1.0986060769 17.2674957018 -0.0546009796877 0.031524041356 -0.0166283539598
Te -0 4.8661595943 17.2827260926 0 -2.57110337382e-07 0.0487920858352
Te 2.3362787735 1.348851238 10.3820165603 -0.0596094890599 -0.0344155042102 0.0356702026566
Te 4.2142178275 4.6015369155 10.3820165603 -0 0.0688310084204 0.035670459767
Te 6.0921568815 1.348851238 10.3820165603 0.0596094890599 -0.0344155042102 0.0356702026566
Te -0 4.8661595943 10.1536251532 0 -2.57110337382e-07 0.0761051740856
Te -0 -0 24.0322538195 0 2.57110337382e-07 -0.0112778878389
Te 2.3710424775 3.4972375114 23.921271478 -0.0400698747499 0.0231340168266 0.0232206630103
Te 4.2142178275 0.3047643684 23.921271478 -0 -0.0462685478738 0.0232206630103
Te -2.3710424775 3.4972375114 23.921271478 0.0400698747499 0.0231340168266 0.0232206630103
Te -0 2.4769655761 27.5536593646 0 -0.00718597681948 -0.0221068610287
Te 2.0691027312 6.0607566035 27.5536593646 0.00622361282666 0.00359285985457 -0.0221068610287
Te 4.2142178275 2.4330797971 27.5806616997 -0 2.57110337382e-07 0.00395538543028
Te -2.0691027312 6.0607566035 27.5536593646 -0.00622361282666 0.00359285985457 -0.0221068610287
Te -0 2.6810221939 20.6296116268 0 -0.0411934469243 -0.00135599991935
Te 1.8923845986 5.9587282945 20.6296116268 0.0356745735324 0.020596594907 -0.00135599991935
Te 4.2142178275 2.4330797971 20.5997604022 -0 2.57110337382e-07 -0.0413443706923
Te -1.8923845986 5.9587282945 20.6296116268 -0.0356745735324 0.020596594907 -0.00135599991935
Sb 0 2.3163740219 8.6795183854 0 0.02358627391 0.000833551713791
Sb 2.2081790384 6.1410523805 8.6795183854 -0.0204263878636 -0.011793136955 0.000833551713791
Sb 4.2142178275 2.4330797971 7.7554900137 -0 2.57110337382e-07 -0.054512019511
Sb -2.2081790384 6.1410523805 8.6795183854 0.0204263878636 -0.011793136955 0.000833551713791
Sb 0 2.4154786736 1.8336289942 0 0.001121772402 0.0128187500908
Sb 2.1223519288 6.0915000546 1.8336289942 -0.000971362854628 -0.000560757645829 0.0128187500908
Sb 4.2142178275 2.4330797971 1.9307174984 -0 2.57110337382e-07 0.00683090744356
Sb -2.1223519288 6.0915000546 1.8336289942 0.000971362854628 -0.000560757645829 0.0128187500908
Sb 0 -0 19.1708702034 0 -0 -0.0241740281413
Sb 2.1846807403 3.6048335635 18.7637019913 -0.0255703943836 0.0147630184621 -0.0329489468458
Sb 4.2142178275 0.0895722645 18.7637019913 -0 -0.0295260369242 -0.0329489468458
Sb 6.2437549148 3.6048335635 18.7637019913 0.0255703943836 0.0147630184621 -0.0329489468458
Sb -0 0 11.2242074811 0 0 -0.0504877285103
Sb 1.6775688355 3.8976148647 12.5483139623 0.18054313602 -0.10423664454 -0.213070679023
Sb 4.2142178275 -0.4959903377 12.5483139623 0 0.208471746418 -0.213069650581
Sb -1.6775688355 3.8976148647 12.5483139623 -0.18054313602 -0.10423664454 -0.213070679023
Sb 2.1058747397 1.215827347 29.1238415227 0.00300896227838 0.00173729454969 -0.00898626340183
Sb 4.2142178275 4.8675846976 29.1238415227 -0 -0.00347458909938 -0.00898600629149
Sb 6.3225609154 1.215827347 29.1238415227 -0.00300896227838 0.00173729454969 -0.00898626340183
Sb -0 4.8661595943 29.190139539 0 -0 -0.0106340835541
Sb 2.0308910238 1.1725354609 22.2888868232 0.0117921085137 0.00680802462353 0.016236003585
Sb 4.2142178275 4.9541684698 22.2888868232 0 -0.0136160492471 0.0162362606953
Sb 6.3975446312 1.1725354609 22.2888868232 -0.0117918514033 0.00680802462353 0.016236003585
Sb -0 4.8661595943 22.903078098 0 -0 0.0127215623833
Cr -0 4.8661595943 14.7796221624 -0 1.28555168691e-06 0.706635880612
61
Lattice="8.42843558953 0 0 -4.21421779477 7.29923593142 0 0 0 31.0334408416" Properties=species:S:1:pos:R:3:forces:R:3 energy=-133598.131299 ionic_step=37 pbc="T T T"
Te 2.0693091224 1.1947161692 3.4599997468 0.0208318508657 0.0120273644724 0.0186430705635
Te 4.2142178275 4.9098070531 3.4599997468 -0 -0.0240547289448 0.0186430705635
Te 6.3591265327 1.1947161692 3.4599997468 -0.0208318508657 0.0120273644724 0.0186430705635
Te -0 4.8661595943 3.3576679042 0 -2.57110337382e-07 -0.00696486192933
Te -0 0 6.871216364 0 2.57110337382e-07 0.0180064653682
Te 1.8049394168 3.8240774131 7.0054048881 0.0391231944877 -0.02258791447 -0.017023275438
Te 4.2142178275 -0.3489154348 7.0054048881 -0 0.0451755718296 -0.0170230183277
Te -1.8049394168 3.8240774131 7.0054048881 -0.0391231944877 -0.02258791447 -0.017023275438
Te 0 -0 -0.0301762906 0 2.57110337382e-07 -0.00243303512264
Te 2.1369896838 3.6323680171 -0.003644323 -0.00690161278634 0.0039844388984 -0.000287963577867
Te 4.2142178275 0.0345033572 -0.003644323 -0 -0.00796913490714 -0.000287963577867
Te -2.1369896838 3.6323680171 -0.003644323 0.00690161278634 0.0039844388984 -0.000287963577867
Te 0 2.3566993876 14.5113879983 0 -0.0425435333059 -0.0308709810991
Te 2.1732563267 6.1208896976 14.5113879983 0.0368439113468 0.0212717666529 -0.0308709810991
Te 4.2142178275 2.4330797971 12.9410787858 -0 2.57110337382e-07 0.028602239482
Te -2.1732563267 6.1208896976 14.5113879983 -0.0368439113468 0.0212717666529 -0.0308709810991
Te 1.8950602533 1.0941134885 17.2732140736 0.0544742242914 0.0314507649099 -0.0153011503983
Te 4.2142178275 5.1110124146 17.2732140736 -0 -0.0629015298197 -0.0153008932879
Te 6.5333754018 1.0941134885 17.2732140736 -0.0544742242914 0.0314507649099 -0.0153011503983
Te -0 4.8661595943 17.2851006397 0 -2.57110337382e-07 0.0596740237546
Te 2.3430018856 1.3527328304 10.3714475419 -0.0589600283477 -0.034040380228 0.0357231673861
Te 4.2142178275 4.5937737308 10.3714475419 -0 0.0680810175663 0.0357234244965
Te 6.0854337694 1.3527328304 10.3714475419 0.0589600283477 -0.034040380228 0.0357231673861
Te -0 4.8661595943 10.1515509907 0 -2.57110337382e-07 0.0752487395518
Te -0 -0 24.0348686128 0 2.57110337382e-07 -0.0118589572014
Te 2.3734165149 3.4958668597 23.9219006766 -0.039736916863 0.0229419554046 0.0234911430852
Te 4.2142178275 0.307505672 23.9219006766 -0 -0.0458841679195 0.0234911430852
Te -2.3734165149 3.4958668597 23.9219006766 0.039736916863 0.0229419554046 0.0234911430852
Te -0 2.4775581282 27.5549442008 0 -0.00721168785322 -0.0228596800966
Te 2.0685895663 6.0604603274 27.5549442008 0.00624572431567 0.00360571537144 -0.0228596800966
Te 4.2142178275 2.4330797971 27.5814493337 -0 2.57110337382e-07 0.00328124212566
Te -2.0685895663 6.0604603274 27.5549442008 -0.00624572431567 0.00360571537144 -0.0228596800966
Te -0 2.6897394743 20.636329768 0 -0.0407023661799 -0.00155037533441
Te 1.8848352159 5.9543696543 20.636329768 0.0352493130343 0.0203510545348 -0.00155037533441
Te 4.2142178275 2.4330797971 20.6031329536 -0 2.57110337382e-07 -0.0419454946611
Te -1.8848352159 5.9543696543 20.636329768 -0.0352493130343 0.0203510545348 -0.00155037533441
Sb 0 2.3177472067 8.6730279644 0 0.0237551954017 0.00113771324291
Sb 2.206989826 6.1403657881 8.6730279644 -0.0205724265353 -0.0118774691457 0.00113771324291
Sb 4.2142178275 2.4330797971 7.7340054269 -0 2.57110337382e-07 -0.0560251138465
Sb -2.206989826 6.1403657881 8.6730279644 0.0205724265353 -0.0118774691457 0.00113771324291
Sb 0 2.4178973755 1.8343477443 0 0.00090631393927 0.0134170458459
Sb 2.1202572725 6.0902907037 1.8343477443 -0.000784700749689 -0.000453285524804 0.0134170458459
Sb 4.2142178275 2.4330797971 1.9336990438 -0 2.57110337382e-07 0.00744900069462
Sb -2.1202572725 6.0902907037 1.8343477443 0.000784700749689 -0.000453285524804 0.0134170458459
Sb 0 -0 19.1862374348 0 -0 -0.02271749808
Sb 2.1802423013 3.6073960986 18.7676593531 -0.0250091225171 0.0144388023267 -0.0322370083216
Sb 4.2142178275 0.0844471941 18.7676593531 -0 -0.0288778617637 -0.0322370083216
Sb 6.2481933538 3.6073960986 18.7676593531 0.0250091225171 0.0144388023267 -0.0322370083216
Sb -0 0 11.211111676 0 0 -0.0481559948606
Sb 1.681362842 3.895424393 12.5510568261 0.217378048505 -0.125503268986 -0.260677743313
Sb 4.2142178275 -0.4916093943 12.5510568261 0 0.25100499531 -0.260676457761
Sb -1.681362842 3.895424393 12.5510568261 -0.217378048505 -0.125503268986 -0.260677743313
Sb 2.106488245 1.2161815547 29.1285005718 0.00298890767206 0.00172572458451 -0.00879728730385
Sb 4.2142178275 4.8668762823 29.1285005718 -0 -0.00345119205867 -0.00879703019351
Sb 6.3219474101 1.2161815547 29.1285005718 -0.00298890767206 0.00172572458451 -0.00879728730385
Sb -0 4.8661595943 29.1928707699 0 -0 -0.0108014623837
Sb 2.0308411426 1.172506662 22.2912490174 0.0117921085137 0.00680828173387 0.016047027487
Sb 4.2142178275 4.9542260676 22.2912490174 0 -0.0136163063574 0.016047027487
Sb 6.3975945124 1.172506662 22.2912490174 -0.0117921085137 0.00680828173387 0.016047027487
Sb -0 4.8661595943 22.9095479083 0 -0 0.0127909821744
Cr -0 4.8661595943 14.7777577197 -0 1.54266202429e-06 0.839286559867
61
Lattice="8.42843558953 0 0 -4.21421779477 7.29923593142 0 0 0 31.0334408416" Properties=species:S:1:pos:R:3:forces:R:3 energy=-133598.153965 ionic_step=38 pbc="T T T"
Te 2.0667453289 1.1932359617 3.4557821349 0.021442487917 0.0123801198553 0.0190277076283
Te 4.2142178275 4.9127674682 3.4557821349 -0 -0.0247599826002 0.0190277076283
Te 6.3616903262 1.1932359617 3.4557821349 -0.021442487917 0.0123801198553 0.0190277076283
Te -0 4.8661595943 3.3517858513 0 -2.57110337382e-07 -0.0078030416292
Te -0 0 6.8797989463 0 2.57110337382e-07 0.0134170458459
Te 1.8012423576 3.8262119122 6.999100364 0.0383953151225 -0.0221677961787 -0.0178460285177
Te 4.2142178275 -0.353184433 6.999100364 -0 0.0443350781367 -0.0178460285177
Te -1.8012423576 3.8262119122 6.999100364 -0.0383953151225 -0.0221677961787 -0.0178460285177
Te 0 -0 -0.0360161079 0 2.57110337382e-07 -0.00206279623681
Te 2.1396182892 3.6308503903 -0.0085591598 -0.00757498475994 0.00437318972852 0.000413690532847
Te 4.2142178275 0.0375386107 -0.0085591598 -0 -0.00874663656739 0.000413690532847
Te -2.1396182892 3.6308503903 -0.0085591598 0.00757498475994 0.00437318972852 0.000413690532847
Te 0 2.3610775221 14.5098505243 0 -0.0505016124685 -0.0329746578795
Te 2.1694647528 6.1187006303 14.5098505243 0.0437357539403 0.0252508062342 -0.0329746578795
Te 4.2142178275 2.4330797971 12.9474371017 -0 2.57110337382e-07 0.0290097593668
Te -2.1694647528 6.1187006303 14.5098505243 -0.0437357539403 0.0252508062342 -0.0329746578795
Te 1.8838591359 1.0876465174 17.284953922 0.0541217260188 0.031247390633 -0.0135684838346
Te 4.2142178275 5.1239463569 17.284953922 -0 -0.0624942670453 -0.0135682267243
Te 6.5445765192 1.0876465174 17.284953922 -0.0541217260188 0.031247390633 -0.0135684838346
Te -0 4.8661595943 17.2908800022 0 -2.57110337382e-07 0.0708179571077
Te 2.3514261358 1.3575965758 10.3564816897 -0.0580647701529 -0.0335235884498 0.0358244688591
Te 4.2142178275 4.58404624 10.3564816897 -0 0.0670471768997 0.0358244688591
Te 6.0770095192 1.3575965758 10.3564816897 0.0580647701529 -0.0335235884498 0.0358244688591
Te -0 4.8661595943 10.1491938487 0 -2.57110337382e-07 0.0744748374363
Te -0 -0 24.0369710894 0 2.57110337382e-07 -0.012133036821
Te 2.3779242117 3.4932643385 23.9215227829 -0.0391579043832 0.022607711966 0.0240747835511
Te 4.2142178275 0.3127107143 23.9215227829 -0 -0.0452156810423 0.0240747835511
Te -2.3779242117 3.4932643385 23.9215227829 0.0391579043832 0.022607711966 0.0240747835511
Te -0 2.4787793737 27.5580205401 0 -0.00739603596512 -0.0241611726244
Te 2.0675319372 6.0598497047 27.5580205401 0.00640538983519 0.00369776087222 -0.0241611726244
Te 4.2142178275 2.4330797971 27.5841844472 -0 2.57110337382e-07 0.00221294867384
Te -2.0675319372 6.0598497047 27.5580205401 -0.00640538983519 0.00369776087222 -0.0241611726244
Te -0 2.7015588136 20.6458407292 0 -0.0397595425727 -0.00165244813835
Te 1.8745993725 5.9484599846 20.6458407292 0.0344329877132 0.0198797712863 -0.00165244813835
Te 4.2142178275 2.4330797971 20.607918956 -0 2.57110337382e-07 -0.0424183205716
Te -1.8745993725 5.9484599846 20.6458407292 -0.0344329877132 0.0198797712863 -0.00165244813835
Sb 0 2.3197807226 8.6668443474 0 0.0238097027932 0.00159356987109
Sb 2.2052287504 6.1393490301 8.6668443474 -0.0206197348373 -0.0119047228414 0.00159356987109
Sb 4.2142178275 2.4330797971 7.7017785467 -0 2.57110337382e-07 -0.058240890734
Sb -2.2052287504 6.1393490301 8.6668443474 0.0206197348373 -0.0119047228414 0.00159356987109
Sb 0 2.4208257344 1.833164827 0 0.000645089836491 0.0142940492067
Sb 2.1177212405 6.0888265243 1.833164827 -0.00055870076313 -0.000322673473414 0.0142940492067
Sb 4.2142178275 2.4330797971 1.9371634062 -0 2.57110337382e-07 0.00829129415988
Sb -2.1177212405 6.0888265243 1.833164827 0.00055870076313 -0.000322673473414 0.0142940492067
Sb 0 -0 19.2119075466 0 -0 -0.0201674777539
Sb 2.1754834217 3.6101436403 18.7723072729 -0.0245396390411 0.0141678080311 -0.0317176454401
Sb 4.2142178275 0.0789521107 18.7723072729 -0 -0.0283358731725 -0.0317176454401
Sb 6.2529522334 3.6101436403 18.7723072729 0.0245396390411 0.0141678080311 -0.0317176454401
Sb -0 0 11.1863508573 0 0 -0.0440080337876
Sb 1.6847238517 3.8934839122 12.5538427219 0.247523207121 -0.142907581944 -0.299359736462
Sb 4.2142178275 -0.4877284328 12.5538427219 0 0.285813364116 -0.2993581938
Sb -1.6847238517 3.8934839122 12.5538427219 -0.247523207121 -0.142907581944 -0.299359736462
Sb 2.1071031831 1.2165365895 29.1351400858 0.00302541733997 0.00174680763217 -0.00869804271362
Sb 4.2142178275 4.8661662126 29.1351400858 -0 -0.00349361526434 -0.00869778560328
Sb 6.321332472 1.2165365895 29.1351400858 -0.00302541733997 0.00174680763217 -0.00869804271362
Sb -0 4.8661595943 29.1974242794 0 -0 -0.0111878992208
Sb 2.0301987697 1.1721357876 22.2918124703 0.0117617694939 0.00679079823092 0.0154898693859
Sb 4.2142178275 4.9549678163 22.2918124703 0 -0.0135813393515 0.0154898693859
Sb 6.3982368853 1.1721357876 22.2918124703 -0.0117617694939 0.00679054112059 0.0154898693859
Sb -0 4.8661595943 22.9198921101 0 -0 0.0128652870619
Cr -0 4.8661595943 14.7766107788 -0 1.79977236167e-06 0.944710025724
61
Lattice="8.42843558953 0 0 -4.21421779477 7.29923593142 0 0 0 31.0334408416" Properties=species:S:1:pos:R:3:forces:R:3 energy=-133598.185594 ionic_step=39 pbc="T T T"
Te 2.0629123829 1.1910230082 3.4489253822 0.0223868541862 0.0129254508808 0.0197381034905
Te 4.2142178275 4.9171933751 3.4489253822 -0 -0.0258506446514 0.0197381034905
Te 6.3655232722 1.1910230082 3.4489253822 -0.0223868541862 0.0129254508808 0.0197381034905
Te -0 4.8661595943 3.3427684434 0 -2.57110337382e-07 -0.00888599037025
Te -0 0 6.889991837 0 2.57110337382e-07 0.00649357868091
Te 1.795019919 3.8298044405 6.9902389863 0.0372532310039 -0.0215083081633 -0.0190287360696
Te 4.2142178275 -0.3603694896 6.9902389863 -0 0.0430163592163 -0.0190287360696
Te -1.795019919 3.8298044405 6.9902389863 -0.0372532310039 -0.0215083081633 -0.0190287360696
Te 0 -0 -0.0442224841 0 2.57110337382e-07 -0.00157428659579
Te 2.143320624 3.6287128453 -0.0148447583 -0.00850135330552 0.00490797923028 0.00133851641641
Te 4.2142178275 0.0418137007 -0.0148447583 -0 -0.00981621557089 0.00133851641641
Te -2.143320624 3.6287128453 -0.0148447583 0.00850135330552 0.00490797923028 0.00133851641641
Te 0 2.3668533491 14.5084223252 0 -0.0537903107939 -0.0355102800268
Te 2.1644627423 6.1158127169 14.5084223252 0.0465840222578 0.0268952839521 -0.0355100229165
Te 4.2142178275 2.4330797971 12.9550286691 -0 2.57110337382e-07 0.029639422583
Te -2.1644627423 6.1158127169 14.5084223252 -0.0465840222578 0.0268952839521 -0.0355100229165
Te 1.8666686715 1.0777215934 17.3053229059 0.0532277533758 0.0307311130755 -0.0112791733906
Te 4.2142178275 5.1437962048 17.3053229059 -0 -0.0614619690407 -0.0112789162803
Te 6.5617669836 1.0777215934 17.3053229059 -0.0532277533758 0.0307311130755 -0.0112791733906
Te -0 4.8661595943 17.3002823302 0 -2.57110337382e-07 0.0798247893365
Te 2.3629452279 1.3642471298 10.3346505647 -0.0567149408817 -0.0327442870172 0.0358748624852
Te 4.2142178275 4.5707451319 10.3346505647 -0 0.0654885740345 0.0358748624852
Te 6.0654904271 1.3642471298 10.3346505647 0.0567149408817 -0.0327442870172 0.0358748624852
Te -0 4.8661595943 10.1458158973 0 -2.57110337382e-07 0.07390610937
Te -0 -0 24.0385024021 0 2.57110337382e-07 -0.0119587160123
Te 2.385183246 3.4890733311 23.9211236208 -0.0382343640513 0.0220744651262 0.0249044786098
Te 4.2142178275 0.3210927291 23.9211236208 -0 -0.0441491873628 0.0249044786098
Te -2.385183246 3.4890733311 23.9211236208 0.0382343640513 0.0220744651262 0.0249044786098
Te -0 2.4810723713 27.5634290035 0 -0.00787554674434 -0.0261473499807
Te 2.0655461439 6.0587032058 27.5634290035 0.00682062303006 0.003937644817 -0.0261473499807
Te 4.2142178275 2.4330797971 27.5887124506 -0 2.57110337382e-07 0.000848464113359
Te -2.0655461439 6.0587032058 27.5634290035 -0.00682062303006 0.003937644817 -0.0261473499807
Te -0 2.7185021841 20.6599690066 0 -0.0379615699834 -0.00162005223584
Te 1.8599259901 5.9399882994 20.6599690066 0.03287592751 0.0189806564365 -0.00162005223584
Te 4.2142178275 2.4330797971 20.6147091981 -0 2.57110337382e-07 -0.0427767323819
Te -1.8599259901 5.9399882994 20.6599690066 -0.03287592751 0.0189806564365 -0.00162005223584
Sb 0 2.3226592531 8.6598268838 0 0.0237739644563 0.00227311249279
Sb 2.202735871 6.1379097649 8.6598268838 -0.0205888815968 -0.0118869822282 0.00227311249279
Sb 4.2142178275 2.4330797971 7.6534382263 -0 2.57110337382e-07 -0.0614092614216
Sb -2.202735871 6.1379097649 8.6598268838 0.0205888815968 -0.0118869822282 0.00227311249279
Sb 0 2.4245420238 1.8298653674 0 0.000310846397894 0.0155734302455
Sb 2.114502841 6.0869683796 1.8298653674 -0.000268937412901 -0.000155294643779 0.0155734302455
Sb 4.2142178275 2.4330797971 1.941684778 -0 2.57110337382e-07 0.00948325768398
Sb -2.114502841 6.0869683796 1.8298653674 0.000268937412901 -0.000155294643779 0.0155734302455
Sb 0 -0 19.253649316 0 -0 -0.0160092322674
Sb 2.1701815788 3.6132046622 18.7774987876 -0.0242344490706 0.0139914303396 -0.0315980891332
Sb 4.2142178275 0.072830067 18.7774987876 -0 -0.0279833748999 -0.0315980891332
Sb 6.2582540763 3.6132046622 18.7774987876 0.0242344490706 0.0139914303396 -0.0315980891332
Sb -0 0 11.1447504288 0 0 -0.0366533925868
Sb 1.6881398348 3.8915116926 12.5571313598 0.261566573749 -0.151015556433 -0.316776647826
Sb 4.2142178275 -0.4837839934 12.5571313598 0 0.302029055984 -0.316775362274
Sb -1.6881398348 3.8915116926 12.5571313598 -0.261566573749 -0.151015556433 -0.316776647826
Sb 2.1078773694 1.2169835664 29.144468917 0.00311951972345 0.00180105791336 -0.00868544430709
Sb 4.2142178275 4.8652722588 29.144468917 -0 -0.00360211582672 -0.00868518719675
Sb 6.3205582857 1.2169835664 29.144468917 -0.00311951972345 0.00180105791336 -0.00868544430709
Sb -0 4.8661595943 29.2045737926 0 -0 -0.011855614767
Sb 2.0290701424 1.1714841741 22.2903202545 0.011640670525 0.00672060710882 0.0143693825356
Sb 4.2142178275 4.9562710435 22.2903202545 0 -0.0134412142176 0.0143693825356
Sb 6.3993655126 1.1714841741 22.2903202545 -0.011640670525 0.00672060710882 0.0143693825356
Sb -0 4.8661595943 22.9365652667 0 -0 0.0129730162933
Cr -0 4.8661595943 14.7763010443 -0 1.79977236167e-06 0.987674448652
61
Lattice="8.42843558953 0 0 -4.21421779477 7.29923593142 0 0 0 31.0334408416" Properties=species:S:1:pos:R:3:forces:R:3 energy=-133598.227353 ionic_step=40 pbc="T T T"
Te 2.0572222856 1.1877378275 3.4397523407 0.0237698506909 0.0137237784784 0.0205377166397
Te 4.2142178275 4.9237637367 3.4397523407 -0 -0.0274475569568 0.0205377166397
Te 6.3712133695 1.1877378275 3.4397523407 -0.0237698506909 0.0137237784784 0.0205377166397
Te -0 4.8661595943 3.3307728978 0 -2.57110337382e-07 -0.0107279288272
Te -0 0 6.9017232938 0 2.57110337382e-07 -0.00303133087773
Te 1.7849886587 3.835595994 6.9753079908 0.0355473039154 -0.0205235755712 -0.0203086313291
Te 4.2142178275 -0.3719525966 6.9753079908 -0 0.0410466369216 -0.0203086313291
Te -1.7849886587 3.835595994 6.9753079908 -0.0355473039154 -0.0205235755712 -0.0203086313291
Te -0 -0 -0.0548820784 0 2.57110337382e-07 -0.00104155397673
Te 2.1483155598 3.6258290165 -0.022413411 -0.00972288451842 0.00561323288572 0.00251428198925
Te 4.2142178275 0.0475813584 -0.022413411 -0 -0.0112267228818 0.00251428198925
Te -2.1483155598 3.6258290165 -0.022413411 0.00972288451842 0.00561323288572 0.00251428198925
Te 0 2.3739011409 14.5059503817 0 -0.0527724109683 -0.038930618845
Te 2.1583591784 6.112288821 14.5059503817 0.0457023909109 0.0263862054841 -0.038930618845
Te 4.2142178275 2.4330797971 12.9672895461 -0 2.57110337382e-07 0.0308257296797
Te -2.1583591784 6.112288821 14.5059503817 -0.0457023909109 0.0263862054841 -0.038930618845
Te 1.8416737482 1.063290761 17.338147356 0.0512932551973 0.02961422577 -0.00811003137203
Te 4.2142178275 5.1726578696 17.338147356 -0 -0.0592284515399 -0.00810977426169
Te 6.5867619069 1.063290761 17.338147356 -0.0512932551973 0.02961422577 -0.00811003137203
Te -0 4.8661595943 17.3117854899 0 -2.57110337382e-07 0.0858082611081
Te 2.3785367337 1.3732488941 10.302742566 -0.0546313187075 -0.0315412677486 0.0356066964033
Te 4.2142178275 4.5527416034 10.302742566 -0 0.0630825354973 0.0356066964033
Te 6.0498989213 1.3732488941 10.302742566 0.0546313187075 -0.0315412677486 0.0356066964033
Te -0 4.8661595943 10.1418647619 0 -2.57110337382e-07 0.0737289603476
Te -0 -0 24.0416016524 0 2.57110337382e-07 -0.0113100266311
Te 2.3958091099 3.4829384829 23.9222718232 -0.0368336269333 0.0212655960048 0.0257933090461
Te 4.2142178275 0.3333624256 23.9222718232 -0 -0.0425317062303 0.0257933090461
Te -2.3958091099 3.4829384829 23.9222718232 0.0368336269333 0.0212655960048 0.0257933090461
Te -0 2.484777074 27.5709287301 0 -0.00868930096215 -0.0286102099025
Te 2.0623377787 6.0568508545 27.5709287301 0.00752536246482 0.00434439337074 -0.0286102099025
Te 4.2142178275 2.4330797971 27.5949369384 -0 2.57110337382e-07 -0.000537360605128
Te -2.0623377787 6.0568508545 27.5709287301 -0.00752536246482 0.00434439337074 -0.0286102099025
Te -0 2.7415080936 20.6813172718 0 -0.0348785599278 -0.00132077580313
Te 1.8400022973 5.9284853447 20.6813172718 0.0302058366563 0.0174390228536 -0.00132077580313
Te 4.2142178275 2.4330797971 20.6258915635 -0 2.57110337382e-07 -0.0429040019989
Te -1.8400022973 5.9284853447 20.6813172718 -0.0302058366563 0.0174392799639 -0.00132077580313
Sb 0 2.327172272 8.6505860816 0 0.0236217551366 0.00316374270148
Sb 2.1988274838 6.1356532555 8.6505860816 -0.0204569839938 -0.0118108775683 0.00316374270148
Sb 4.2142178275 2.4330797971 7.5809277458 -0 2.57110337382e-07 -0.0657899073499
Sb -2.1988274838 6.1356532555 8.6505860816 0.0204569839938 -0.0118108775683 0.00316374270148
Sb 0 2.4291156039 1.8240582385 0 -9.43594938191e-05 0.0173058396988
Sb 2.1105420063 6.0846815895 1.8240582385 8.17610872874e-05 4.70511917408e-05 0.0173058396988
Sb 4.2142178275 2.4330797971 1.9484587773 -0 2.57110337382e-07 0.0110634578175
Sb -2.1105420063 6.0846815895 1.8240582385 -8.17610872874e-05 4.70511917408e-05 0.0173058396988
Sb 0 -0 19.318255936 0 -0 -0.00980464560571
Sb 2.1645134836 3.61647714 18.7831792091 -0.0240927812747 0.0139099263627 -0.0319541869505
Sb 4.2142178275 0.0662851114 18.7831792091 -0 -0.0278198527254 -0.0319541869505
Sb 6.2639221715 3.61647714 18.7831792091 0.0240927812747 0.0139099263627 -0.0319541869505
Sb -0 0 11.0825646601 0 0 -0.0247563830555
Sb 1.693128646 3.8886313997 12.5610889114 0.258613661524 -0.149310914897 -0.311291970109
Sb 4.2142178275 -0.4780234077 12.5610889114 0 0.2986195158 -0.311290684557
Sb -1.693128646 3.8886313997 12.5610889114 -0.258613661524 -0.149310914897 -0.311291970109
Sb 2.1087403623 1.2174818158 29.1562041678 0.0033090100421 0.00191058691708 -0.00877620425618
Sb 4.2142178275 4.86427576 29.1562041678 -0 -0.00382117383417 -0.00877620425618
Sb 6.3196952928 1.2174818158 29.1562041678 -0.0033090100421 0.00191058691708 -0.00877620425618
Sb -0 4.8661595943 29.2141246118 0 -0 -0.0128765999167
Sb 2.0269067109 1.1702351157 22.2867554512 0.0113889595047 0.00657559687854 0.0124312848124
Sb 4.2142178275 4.9587691602 22.2867554512 -0 -0.0131509366467 0.0124312848124
Sb 6.4015289441 1.1702351157 22.2867554512 -0.0113889595047 0.00657559687854 0.0124312848124
Sb -0 4.8661595943 22.9633717344 0 -0 0.0132851482428
Cr -0 4.8661595943 14.7752785596 -0 1.79977236167e-06 0.963915653706
61
Lattice="8.42843558953 0 0 -4.21421779477 7.29923593142 0 0 0 31.0334408416" Properties=species:S:1:pos:R:3:forces:R:3 energy=-133598.284066 ionic_step=41 pbc="T T T"
Te 2.0485713025 1.1827431777 3.4269234371 0.0256817231597 0.0148275531568 0.0210642786107
Te 4.2142178275 4.9337530361 3.4269234371 -0 -0.0296548492033 0.0210642786107
Te 6.3798643526 1.1827431777 3.4269234371 -0.0256817231597 0.0148275531568 0.0210642786107
Te -0 4.8661595943 3.3151239611 0 -2.57110337382e-07 -0.0138405065716
Te -0 0 6.914060359 0 2.57110337382e-07 -0.0152831526746
Te 1.7707006915 3.8438451596 6.9490455912 0.0331147830134 -0.019118981798 -0.0216517757316
Te 4.2142178275 -0.3884509277 6.9490455912 -0 0.0382377064857 -0.0216517757316
Te -1.7707006915 3.8438451596 6.9490455912 -0.0331147830134 -0.019118981798 -0.0216517757316
Te -0 -0 -0.068946471 0 2.57110337382e-07 -0.000485424316977
Te 2.1552430446 3.6218294294 -0.0315519544 -0.0113637626916 0.00656042736863 0.00404717382072
Te 4.2142178275 0.0555805325 -0.0315519544 -0 -0.0131213689579 0.00404717382072
Te -2.1552430446 3.6218294294 -0.0315519544 0.0113637626916 0.00656042736863 0.00404717382072
Te 0 2.3819069806 14.5002951468 0 -0.0466976650269 -0.0439206162729
Te 2.151425921 6.1082859011 14.5002951468 0.0404413991874 0.0233487039583 -0.0439206162729
Te 4.2142178275 2.4330797971 12.9933198561 -0 2.57110337382e-07 0.0334842505682
Te -2.151425921 6.1082859011 14.5002951468 -0.0404413991874 0.0233487039583 -0.0439206162729
Te 1.8047970104 1.0419999566 17.3921401189 0.047316529609 0.0273182304571 -0.00361497134359
Te 4.2142178275 5.2152394784 17.3921401189 -0 -0.0546362038039 -0.00361471423325
Te 6.6236386447 1.0419999566 17.3921401189 -0.047316529609 0.0273182304571 -0.00361497134359
Te -0 4.8661595943 17.324082507 0 -2.57110337382e-07 0.08588590843
Te 2.3995302407 1.3853695066 10.2536742844 -0.0514500925031 -0.0297044714984 0.0345993381014
Te 4.2142178275 4.5285003782 10.2536742844 -0 0.0594092001071 0.0345993381014
Te 6.0289054143 1.3853695066 10.2536742844 0.0514500925031 -0.0297044714984 0.0345993381014
Te -0 4.8661595943 10.1374909851 0 -2.57110337382e-07 0.0743033448413
Te -0 -0 24.0475127818 0 2.57110337382e-07 -0.00908088000598
Te 2.4107178558 3.4743309104 23.9281875726 -0.0347466623248 0.0200607769639 0.0265407287969
Te 4.2142178275 0.3505775705 23.9281875726 -0 -0.0401220681484 0.0265407287969
Te -2.4107178558 3.4743309104 23.9281875726 0.0347466623248 0.0200607769639 0.0265407287969
Te -0 2.490753429 27.5820438445 0 -0.0100805249977 -0.0316042597813
Te 2.0571621059 6.053862677 27.5820438445 0.00873018150579 0.00504013394369 -0.0316042597813
Te 4.2142178275 2.4330797971 27.6035146218 -0 2.57110337382e-07 -0.00161233892572
Te -2.0571621059 6.053862677 27.5820438445 -0.00873018150579 0.00504013394369 -0.0316042597813
Te -0 2.772589784 20.7148418591 0 -0.0296502212172 -0.000476168344831
Te 1.8130847764 5.9129444995 20.7148418591 0.025678123615 0.0148249820534 -0.000476168344831
Te 4.2142178275 2.4330797971 20.6436165565 -0 2.57110337382e-07 -0.0423818109037
Te -1.8130847764 5.9129444995 20.7148418591 -0.025678123615 0.0148249820534 -0.000476168344831
Sb 0 2.3349325947 8.6365220079 0 0.0232222056723 0.00422509417419
Sb 2.1921068504 6.1317730941 8.6365220079 -0.0201109134797 -0.0116111028362 0.00422509417419
Sb 4.2142178275 2.4330797971 7.4721620251 -0 2.57110337382e-07 -0.0710789241002
Sb -2.1921068504 6.1317730941 8.6365220079 0.0201109134797 -0.0116111028362 0.00422509417419
Sb 0 2.4347514029 1.8140143083 0 -0.00058724001058 0.0197195915462
Sb 2.1056612634 6.08186369 1.8140143083 0.000508821357678 0.00029362000529 0.0197195915462
Sb 4.2142178275 2.4330797971 1.9583010298 -0 2.57110337382e-07 0.0133203723591
Sb -2.1056612634 6.08186369 1.8140143083 -0.000508821357678 0.00029362000529 0.0197195915462
Sb 0 -0 19.4198117011 0 0 -0.00126369730823
Sb 2.1584235819 3.619993148 18.7888541998 -0.0240920099437 0.013909412142 -0.033045106112
Sb 4.2142178275 0.0592530954 18.7888541998 -0 -0.0278190813944 -0.033045106112
Sb 6.2700120732 3.619993148 18.7888541998 0.0240920099437 0.013909412142 -0.033045106112
Sb -0 0 10.9893081369 0 0 -0.00647326696426
Sb 1.7019936668 3.8835131752 12.5653265645 0.231598307045 -0.13371357339 -0.273230641315
Sb 4.2142178275 -0.4677869586 12.5653265645 0 0.267425089897 -0.273229612873
Sb -1.7019936668 3.8835131752 12.5653265645 -0.231598307045 -0.13371357339 -0.273230641315
Sb 2.1097828951 1.2180837226 29.171373765 0.00364711013576 0.00210573366316 -0.00910067750196
Sb 4.2142178275 4.8630719463 29.171373765 -0 -0.00421121021597 -0.00910067750196
Sb 6.31865276 1.2180837226 29.171373765 -0.00364711013576 0.00210573366316 -0.00910067750196
Sb -0 4.8661595943 29.227630934 0 -0 -0.0144709411189
Sb 2.0236376986 1.1683477497 22.2811630216 0.010858026658 0.00626886424604 0.00923746020145
Sb 4.2142178275 4.9625438921 22.2811630216 -0 -0.0125377284921 0.00923746020145
Sb 6.4047979564 1.1683477497 22.2811630216 -0.010858026658 0.00626886424604 0.00923746020145
Sb -0 4.8661595943 23.0054231332 0 -0 0.0139402653825
Cr -0 4.8661595943 14.770623998 -0 1.54266202429e-06 0.846667426322
61
Lattice="8.42843558953 0 0 -4.21421779477 7.29923593142 0 0 0 31.0334408416" Properties=species:S:1:pos:R:3:forces:R:3 energy=-133598.360628 ionic_step=42 pbc="T T T"
Te 2.0349602497 1.1748848291 3.4079695165 0.0280731064077 0.0162082356685 0.0203675095964
Te 4.2142178275 4.9494697334 3.4079695165 -0 -0.0324162142267 0.0203675095964
Te 6.3934754054 1.1748848291 3.4079695165 -0.0280731064077 0.0162082356685 0.0203675095964
Te -0 4.8661595943 3.2954928233 0 -2.57110337382e-07 -0.0189145790798
Te -0 0 6.9235043199 0 2.57110337382e-07 -0.0274951223693
Te 1.7498716025 3.8558708453 6.9067239913 0.0294586740158 -0.0170081059281 -0.0232252909964
Te 4.2142178275 -0.4125022993 6.9067239913 -0 0.0340159547459 -0.0232252909964
Te -1.7498716025 3.8558708453 6.9067239913 -0.0294589311262 -0.0170081059281 -0.0232252909964
Te -0 -0 -0.0895634749 0 2.57110337382e-07 0.000154780423104
Te 2.1659432868 3.6156516388 -0.0439211872 -0.013739462209 0.00793211101856 0.00617013387648
Te 4.2142178275 0.0679361137 -0.0439211872 -0 -0.0158644791475 0.00617013387648
Te -2.1659432868 3.6156516388 -0.0439211872 0.013739462209 0.00793211101856 0.00617013387648
Te 0 2.3904893338 14.4945909058 0 -0.0352799091645 -0.0510124907089
Te 2.1439933886 6.1039947245 14.4945909058 0.0305534498324 0.0176400831374 -0.0510124907089
Te 4.2142178275 2.4330797971 13.0407391805 -0 2.57110337382e-07 0.0389090215766
Te -2.1439933886 6.1039947245 14.4945909058 -0.0305534498324 0.0176400831374 -0.0510124907089
Te 1.7440819136 1.0069460628 17.4790845754 0.0387421569677 0.0223678280212 0.00247005901123
Te 4.2142178275 5.2853472661 17.4790845754 -0 -0.0447356560424 0.00247031612156
Te 6.6843537415 1.0069460628 17.4790845754 -0.0387421569677 0.0223678280212 0.00247005901123
Te -0 4.8661595943 17.3392607134 0 -2.57110337382e-07 0.0734301981355
Te 2.4330365059 1.4047143669 10.1784310049 -0.0458833965885 -0.0264905922811 0.031944673868
Te 4.2142178275 4.4898106578 10.1784310049 -0 0.0529814416725 0.031944673868
Te 5.9953991491 1.4047143669 10.1784310049 0.0458833965885 -0.0264905922811 0.031944673868
Te -0 4.8661595943 10.1284994787 0 -2.57110337382e-07 0.0752747076959
Te -0 -0 24.0524902654 0 2.57110337382e-07 -0.00127963814915
Te 2.4344099036 3.4606522938 23.9430729207 -0.0313569196367 0.0181036530757 0.0267770131969
Te 4.2142178275 0.3779348036 23.9430729207 -0 -0.0362075632618 0.0267770131969
Te -2.4344099036 3.4606522938 23.9430729207 0.0313569196367 0.0181036530757 0.0267770131969
Te -0 2.5010207259 27.5991350398 0 -0.0126889093705 -0.0356684028843
Te 2.0482703701 6.0487290285 27.5991350398 0.01098915293 0.00634445468523 -0.0356684028843
Te 4.2142178275 2.4330797971 27.612841204 -0 2.57110337382e-07 -0.00141359263492
Te -2.0482703701 6.0487290285 27.5991350398 -0.01098915293 0.00634445468523 -0.0356684028843
Te -0 2.8202363062 20.7666049965 0 -0.0200916302044 0.00123361539876
Te 1.771821697 5.8891212383 20.7666049965 0.0173999420823 0.0100458151022 0.00123361539876
Te 4.2142178275 2.4330797971 20.6636245065 -0 2.57110337382e-07 -0.0413166027759
Te -1.771821697 5.8891212383 20.7666049965 -0.0173999420823 0.0100458151022 0.00123387250909
Sb 0 2.3456865118 8.615089533 0 0.022569659636 0.00524299399989
Sb 2.1827936893 6.1263961355 8.615089533 -0.0195457849581 -0.011284829818 0.00524299399989
Sb 4.2142178275 2.4330797971 7.309202872 -0 2.57110337382e-07 -0.0752345984833
Sb -2.1827936893 6.1263961355 8.615089533 0.0195457849581 -0.011284829818 0.00524299399989
Sb 0 2.4412298157 1.7979755255 0 -0.00120121949625 0.0231376163713
Sb 2.100050796 6.0786244836 1.7979755255 0.00104052553538 0.000600609748123 0.0231378734816
Sb 4.2142178275 2.4330797971 1.9720797836 -0 2.57110337382e-07 0.0168214438232
Sb -2.100050796 6.0786244836 1.7979755255 -0.00104052553538 0.000600609748123 0.0231378734816
Sb 0 -0 19.5829602822 0 0 0.00744977202563
Sb 2.1527428759 3.6232729067 18.7930006004 -0.0242542465666 0.0140030003048 -0.0352171742422
Sb 4.2142178275 0.052693578 18.7930006004 -0 -0.02800625772 -0.0352171742422
Sb 6.2756927792 3.6232729067 18.7930006004 0.0242542465666 0.0140030003048 -0.0352171742422
Sb 0 0 10.842703241 0 0 0.0199993275932
Sb 1.7133638149 3.876948614 12.5699804048 0.170832592797 -0.0986303536333 -0.192565101175
Sb 4.2142178275 -0.4546578364 12.5699804048 0 0.197259164605 -0.192564329844
Sb -1.7133638149 3.876948614 12.5699804048 -0.170832592797 -0.0986303536333 -0.192565101175
Sb 2.1116842735 1.2191814845 29.1912826126 0.00413459133543 0.00238701237225 -0.00973239760091
Sb 4.2142178275 4.8608764226 29.1912826126 -0 -0.0047740247445 -0.00973239760091
Sb 6.3167513816 1.2191814845 29.1912826126 -0.00413459133543 0.00238701237225 -0.00973239760091
Sb -0 4.8661595943 29.2491408287 0 -0 -0.0167060012817
Sb 2.0200491445 1.1662758961 22.271931689 0.00971825653235 0.00561091889268 0.00454776764761
Sb 4.2142178275 4.9666875994 22.271931689 -0 -0.0112218377854 0.00454776764761
Sb 6.4083865105 1.1662758961 22.271931689 -0.00971825653235 0.00561091889268 0.00454776764761
Sb -0 4.8661595943 23.0716936226 0 -0 0.0153016646189
Cr -0 4.8661595943 14.7640713836 -0 1.28555168691e-06 0.611605843033
61
Lattice="8.42843558953 0 0 -4.21421779477 7.29923593142 0 0 0 31.0334408416" Properties=species:S:1:pos:R:3:forces:R:3 energy=-133598.440528 ionic_step=43 pbc="T T T"
Te 2.0245349272 1.1688657635 3.394042126 0.0291807377411 0.0168476690776 0.0176819921224
Te 4.2142178275 4.9615078645 3.394042126 -0 -0.0336953381552 0.0176819921224
Te 6.4039007279 1.1688657635 3.394042126 -0.0291807377411 0.0168476690776 0.0176819921224
Te -0 4.8661595943 3.2877568539 0 -2.57110337382e-07 -0.0228414252626
Te -0 0 6.9146864324 0 2.57110337382e-07 -0.0313363508097
Te 1.743917421 3.8593084952 6.8643448722 0.0278399073317 -0.0160735098517 -0.0237256277129
Te 4.2142178275 -0.419377599 6.8643448722 -0 0.0321467625932 -0.0237253706026
Te -1.743917421 3.8593084952 6.8643448722 -0.0278399073317 -0.0160735098517 -0.0237256277129
Te -0 -0 -0.1027762135 0 2.57110337382e-07 0.000448143318056
Te 2.1734803522 3.6113001101 -0.0485230427 -0.0153142630255 0.00884125317154 0.00747522594903
Te 4.2142178275 0.0766391713 -0.0485230427 -0 -0.0176830205638 0.00747522594903
Te -2.1734803522 3.6113001101 -0.0485230427 0.0153142630255 0.00884125317154 0.00747522594903
Te 0 2.3899759299 14.4816500672 0 -0.0268783146699 -0.0555250342403
Te 2.1444380092 6.1042514265 14.4816500672 0.0232774843948 0.0134391573349 -0.0555247771299
Te 4.2142178275 2.4330797971 13.111485449 -0 2.57110337382e-07 0.0465603681068
Te -2.1444380092 6.1042514265 14.4816500672 -0.0232774843948 0.0134391573349 -0.0555247771299
Te 1.6973915895 0.979989379 17.5606914226 0.0315196704803 0.0181980125695 0.00617399053155
Te 4.2142178275 5.3392606335 17.5606914226 -0 -0.0363955109184 0.00617424764188
Te 6.7310440656 0.979989379 17.5606914226 -0.0315196704803 0.0181980125695 0.00617399053155
Te -0 4.8661595943 17.3353159965 0 -2.57110337382e-07 0.0599463036019
Te 2.4546643138 1.4172011934 10.1139813614 -0.0423576425319 -0.0244550497401 0.0284844829475
Te 4.2142178275 4.4648370047 10.1139813614 -0 0.0489100994801 0.0284844829475
Te 5.9737713412 1.4172011934 10.1139813614 0.0423576425319 -0.0244550497401 0.0284844829475
Te -0 4.8661595943 10.1240478153 0 -2.57110337382e-07 0.0767962866725
Te -0 -0 24.0554350745 0 2.57110337382e-07 0.0105677490871
Te 2.4461579062 3.4538695782 23.9709365247 -0.0297142416912 0.0171554301515 0.0259267493112
Te 4.2142178275 0.3915002348 23.9709365247 -0 -0.0343108603029 0.0259267493112
Te -2.4461579062 3.4538695782 23.9709365247 0.0297142416912 0.0171554301515 0.0259267493112
Te -0 2.5108300312 27.6145902848 0 -0.0155328068122 -0.0373583891319
Te 2.0397752665 6.0438243759 27.6145902848 0.0134520128518 0.00776627485095 -0.0373583891319
Te 4.2142178275 2.4330797971 27.6166507513 -0 2.57110337382e-07 0.00122024566121
Te -2.0397752665 6.0438243759 27.6145902848 -0.0134520128518 0.00776627485095 -0.0373583891319
Te -0 2.8476416912 20.8098511046 0 -0.0128999969574 0.00328998387714
Te 1.7480879485 5.8754185459 20.8098511046 0.0111719583799 0.00644986992356 0.00328998387714
Te 4.2142178275 2.4330797971 20.6804943979 -0 2.57110337382e-07 -0.0390056950635
Te -1.7480879484 5.8754185459 20.8098511046 -0.0111719583799 0.00644986992356 0.00328998387714
Sb 0 2.356043576 8.591278812 0 0.0218754617251 0.0056564274224
Sb 2.1738242128 6.1212176035 8.591278812 -0.0189446609893 -0.0109377308626 0.0056564274224
Sb 4.2142178275 2.4330797971 7.1949208694 -0 2.57110337382e-07 -0.0747784847447
Sb -2.1738242128 6.1212176035 8.591278812 0.0189446609893 -0.0109377308626 0.0056564274224
Sb 0 2.4441772237 1.7818396261 0 -0.00160719671897 0.0254300121394
Sb 2.097498267 6.0771507796 1.7818396261 0.00139199536658 0.000803469804318 0.0254300121394
Sb 4.2142178275 2.4330797971 1.9791346009 -0 2.57110337382e-07 0.0194149157964
Sb -2.097498267 6.0771507796 1.7818396261 -0.00139199536658 0.000803469804318 0.0254300121394
Sb 0 -0 19.7237779445 0 0 0.00933361946763
Sb 2.1521763167 3.62360001 18.7860315163 -0.024176856355 0.0139582631061 -0.037384357276
Sb 4.2142178275 0.0520393714 18.7860315163 -0 -0.0279170404329 -0.037384357276
Sb 6.2762593384 3.62360001 18.7860315163 0.024176856355 0.0139582631061 -0.037384357276
Sb 0 0 10.7330783945 0 0 0.033891770453
Sb 1.7293590835 3.8677137371 12.5703512387 0.128428156184 -0.0741480501975 -0.13535959377
Sb 4.2142178275 -0.4361880826 12.5703512387 0 0.148295071954 -0.135358822439
Sb -1.7293590835 3.8677137371 12.5703512387 -0.128428156184 -0.0741480501975 -0.13535959377
Sb 2.113554595 1.2202613156 29.2016151526 0.00448066184955 0.00258704421473 -0.0107922064116
Sb 4.2142178275 4.8587167603 29.2016151526 -0 -0.00517383131913 -0.0107922064116
Sb 6.3148810601 1.2202613156 29.2016151526 -0.00448066184955 0.00258704421473 -0.0107922064116
Sb -0 4.8661595943 29.2672688745 0 -0 -0.0187312594093
Sb 2.0212521779 1.166970468 22.2670576381 0.00859031348226 0.00495965840809 0.00120584748232
Sb 4.2142178275 4.9652984555 22.2670576381 -0 -0.00991931681618 0.00120584748232
Sb 6.4071834771 1.166970468 22.2670576381 -0.00859031348226 0.00495965840809 0.00120584748232
Sb -0 4.8661595943 23.1236399976 0 -0 0.0166916031028
Cr -0 4.8661595943 14.7474640649 -0 7.71331012145e-07 0.4482837003
61
Lattice="8.42843558953 0 0 -4.21421779477 7.29923593142 0 0 0 31.0334408416" Properties=species:S:1:pos:R:3:forces:R:3 energy=-133598.580928 ionic_step=44 pbc="T T T"
Te 2.0180404554 1.1651161767 3.3886223569 0.0302045511046 0.0174387657432 0.0142282289604
Te 4.2142178275 4.9690070382 3.3886223569 -0 -0.0348775314865 0.0142282289604
Te 6.4103951997 1.1651161767 3.3886223569 -0.0302045511046 0.0174387657432 0.0142282289604
Te -0 4.8661595943 3.298802893 0 -2.57110337382e-07 -0.0254755206691
Te 0 0 6.8748376519 0 2.57110337382e-07 -0.0274262167988
Te 1.7506321618 3.855431736 6.8262763942 0.028217345307 -0.0162912823075 -0.0224207927507
Te 4.2142178275 -0.4116240806 6.8262763942 -0 0.0325823075047 -0.0224207927507
Te -1.7506321618 3.855431736 6.8262763942 -0.028217345307 -0.0162912823075 -0.0224207927507
Te -0 -0 -0.1051963681 0 2.57110337382e-07 0.000299790653387
Te 2.1772915272 3.6090997261 -0.0415938263 -0.0161005064372 0.00929531002736 0.00767962866725
Te 4.2142178275 0.0810399392 -0.0415938263 -0 -0.0185908771651 0.00767962866725
Te -2.1772915272 3.6090997261 -0.0415938263 0.0161005064372 0.00929531002736 0.00767962866725
Te 0 2.3761843891 14.4723155496 0 -0.0194118304723 -0.056738852143
Te 2.1563818283 6.1111471968 14.4723155496 0.0168111594097 0.00970591523616 -0.056738852143
Te 4.2142178275 2.4330797971 13.1964376353 -0 2.57110337382e-07 0.0548910001483
Te -2.1563818283 6.1111471968 14.4723155496 -0.0168111594097 0.00970591523616 -0.056738852143
Te 1.66328674 0.9602989258 17.6323661126 0.0257771110949 0.014882574769 0.00648817936383
Te 4.2142178275 5.37864154 17.6323661126 -0 -0.0297646353173 0.00648843647416
Te 6.7651489151 0.9602989258 17.6323661126 -0.0257771110949 0.014882574769 0.00648817936383
Te -0 4.8661595943 17.3127054761 0 -2.57110337382e-07 0.0466102475122
Te 2.4651636603 1.4232629968 10.0710847727 -0.0414659838819 -0.0239403148446 0.0240984377021
Te 4.2142178275 4.452713398 10.0710847727 -0 0.0478806296892 0.0240986948124
Te 5.9632719947 1.4232629968 10.0710847727 0.0414659838819 -0.0239403148446 0.0240984377021
Te -0 4.8661595943 10.1203058217 0 -2.57110337382e-07 0.0779656244869
Te -0 -0 24.0477532719 0 2.57110337382e-07 0.0240773546544
Te 2.449243981 3.4520878313 24.0139893631 -0.0296522780999 0.0171194347042 0.0234967995126
Te 4.2142178275 0.3950637287 24.0139893631 -0 -0.0342393836291 0.0234967995126
Te -2.449243981 3.4520878313 24.0139893631 0.0296522780999 0.0171194347042 0.0234967995126
Te -0 2.5211621616 27.6256204772 0 -0.0192344243395 -0.0362361025092
Te 2.0308273833 6.0386583107 27.6256204772 0.0166576645383 0.00961695505942 -0.0362361025092
Te 4.2142178275 2.4330797971 27.6082177403 -0 2.57110337382e-07 0.00756392901543
Te -2.0308273833 6.0386583107 27.6256204772 -0.0166576645383 0.00961721216976 -0.0362361025092
Te -0 2.8535735468 20.8371377736 0 -0.00869212917586 0.00564562878823
Te 1.7429508132 5.8724526181 20.8371377736 0.00752767645786 0.00434593603276 0.00564562878823
Te 4.2142178275 2.4330797971 20.6782343077 -0 2.57110337382e-07 -0.0355251924264
Te -1.7429508132 5.8724526181 20.8371377736 -0.00752767645786 0.00434593603276 0.00564562878823
Sb 0 2.3613259003 8.5706161988 0 0.021463828075 0.00571350591729
Sb 2.1692495879 6.1185764413 8.5706161988 -0.0185883060617 -0.0107320425926 0.00571350591729
Sb 4.2142178275 2.4330797971 7.1518554189 -0 2.57110337382e-07 -0.0736160889094
Sb -2.1692495879 6.1185764413 8.5706161988 0.0185883060617 -0.0107320425926 0.00571350591729
Sb 0 2.4399215823 1.7669769457 0 -0.00166221833117 0.0260031110814
Sb 2.1011837588 6.0792786003 1.7669769457 0.001439560779 0.000830980610417 0.0260031110814
Sb 4.2142178275 2.4330797971 1.9767424526 -0 2.57110337382e-07 0.0198208930191
Sb -2.1011837588 6.0792786003 1.7669769457 -0.001439560779 0.000830980610417 0.0260031110814
Sb 0 -0 19.8314280903 0 0 0.00686895977349
Sb 2.162397802 3.6176986299 18.762250759 -0.0245010724904 0.0141454394317 -0.0398834697553
Sb 4.2142178275 0.0638421316 18.762250759 -0 -0.0282913930841 -0.0398834697553
Sb 6.2660378531 3.6176986299 18.762250759 0.0245010724904 0.0141454394317 -0.0398834697553
Sb 0 0 10.6642640796 0 0 0.0398875835207
Sb 1.7403348936 3.8613768473 12.5637477826 0.100575907556 -0.0580675983666 -0.0989779668094
Sb 4.2142178275 -0.4235143028 12.5637477826 0 0.116134168292 -0.0989774525888
Sb -1.7403348936 3.8613768473 12.5637477826 -0.100575907556 -0.0580675983666 -0.0989779668094
Sb 2.1157231889 1.2215133545 29.1941006746 0.00461975854207 0.00266726264 -0.0123505521665
Sb 4.2142178275 4.8562126827 29.1941006746 -0 -0.00533452527999 -0.0123502950561
Sb 6.3127124662 1.2215133545 29.1941006746 -0.00461975854207 0.00266726264 -0.0123505521665
Sb -0 4.8661595943 29.2812889293 0 -0 -0.0202577234823
Sb 2.0300261355 1.1720361172 22.2652620663 0.00733021571875 0.00423229326364 -0.000691883917894
Sb 4.2142178275 4.9551671572 22.2652620663 -0 -0.00846432941694 -0.000691883917894
Sb 6.3984095195 1.1720361172 22.2652620663 -0.00733021571875 0.00423229326364 -0.000691883917894
Sb -0 4.8661595943 23.1591722894 0 -0 0.0183000853735
Cr -0 4.8661595943 14.7284275254 -0 7.71331012145e-07 0.347851003202
61
Lattice="8.42843558953 0 0 -4.21421779477 7.29923593142 0 0 0 31.0334408416" Properties=species:S:1:pos:R:3:forces:R:3 energy=-133598.736559 ionic_step=45 pbc="T T T"
Te 2.0137957322 1.1626654835 3.3982990921 0.031946987861 0.0184448384934 0.0114689208196
Te 4.2142178275 4.9739084246 3.3982990921 -0 -0.0368894198765 0.0114689208196
Te 6.4146399229 1.1626654835 3.3982990921 -0.031946987861 0.0184448384934 0.0114689208196
Te -0 4.8661595943 3.3259783752 0 -2.57110337382e-07 -0.0274740393216
Te 0 0 6.814593261 0 2.57110337382e-07 -0.0153952527817
Te 1.744316218 3.8590782496 6.8032605998 0.0274534704946 -0.0158505951892 -0.0193321262677
Te 4.2142178275 -0.4189171078 6.8032605998 -0 0.0317006761578 -0.0193321262677
Te -1.744316218 3.8590782496 6.8032605998 -0.0274534704946 -0.0158505951892 -0.0193321262677
Te -0 -0 -0.0973313936 0 2.57110337382e-07 -0.00046639815201
Te 2.17950462 3.6078219958 -0.0254589663 -0.0165504495276 0.00955499146811 0.0067046662679
Te 4.2142178275 0.0835953998 -0.0254589663 -0 -0.0191104971569 0.0067046662679
Te -2.17950462 3.6078219958 -0.0254589663 0.0165504495276 0.00955499146811 0.0067046662679
Te 0 2.3564813883 14.4897621836 0 -0.0111840425658 -0.0550282970684
Te 2.1734451196 6.1209986973 14.4897621836 0.00968586062984 0.00559189272771 -0.0550282970684
Te 4.2142178275 2.4330797971 13.2377089389 -0 2.57110337382e-07 0.0590682717997
Te -2.1734451196 6.1209986973 14.4897621836 -0.00968586062984 0.00559189272771 -0.0550282970684
Te 1.6322458443 0.9423774479 17.6794504085 0.0200327519371 0.0115661085271 0.00496145818045
Te 4.2142178275 5.4144844957 17.6794504085 -0 -0.0231317028336 0.00496171529079
Te 6.7961898108 0.9423774479 17.6794504085 -0.0200327519371 0.0115661085271 0.00496145818045
Te -0 4.8661595943 17.2882991297 0 -2.57110337382e-07 0.0290735227304
Te 2.4845489884 1.4344551264 10.0623798785 -0.0396093901357 -0.0228684218481 0.0186883219829
Te 4.2142178275 4.4303291388 10.0623798785 -0 0.0457368436961 0.0186885790933
Te 5.9438866666 1.4344551264 10.0623798785 0.0396093901357 -0.0228684218481 0.0186883219829
Te -0 4.8661595943 10.1075290712 0 -2.57110337382e-07 0.0771968645782
Te -0 -0 24.0264385595 0 2.57110337382e-07 0.0333757500058
Te 2.4618924138 3.4447852518 24.0550701305 -0.028302705939 0.016340390382 0.0191210386807
Te 4.2142178275 0.4096688877 24.0550701305 -0 -0.0326812949846 0.0191210386807
Te -2.4618924138 3.4447852518 24.0550701305 0.028302705939 0.016340390382 0.0191210386807
Te -0 2.532237519 27.622410129 0 -0.0233376482138 -0.0330425350086
Te 2.0212358468 6.033120632 27.622410129 0.0202111865112 0.0116686955517 -0.0330425350086
Te 4.2142178275 2.4330797971 27.5818940532 -0 2.57110337382e-07 0.016660492752
Te -2.0212358468 6.033120632 27.622410129 -0.0202111865112 0.0116686955517 -0.0330425350086
Te -0 2.8609134373 20.8418440825 0 -0.0047526845865 0.00840288004631
Te 1.7365942845 5.8687826728 20.8418440825 0.00411607939114 0.00237621373808 0.00840288004631
Te 4.2142178275 2.4330797971 20.6415762634 -0 2.57110337382e-07 -0.0324702073976
Te -1.7365942845 5.8687826728 20.8418440825 -0.00411607939114 0.00237621373808 0.00840288004631
Sb 0 2.3519750074 8.563598229 0 0.0223218052708 0.00543556964259
Sb 2.1773476949 6.1232518877 8.563598229 -0.0193310978264 -0.0111609026354 0.00543556964259
Sb 4.2142178275 2.4330797971 7.162181503 -0 2.57110337382e-07 -0.07295351557
Sb -2.1773476949 6.1232518877 8.563598229 0.0193310978264 -0.0111609026354 0.00543556964259
Sb 0 2.4278795675 1.7602778249 0 -0.00134083040945 0.0245560941026
Sb 2.1116124447 6.0852996077 1.7602778249 0.00116136739395 0.000670543759891 0.0245560941026
Sb 4.2142178275 2.4330797971 1.9712231659 -0 2.57110337382e-07 0.0171744563164
Sb -2.1116124447 6.0852996077 1.7602778249 -0.00116136739395 0.000670543759891 0.0245560941026
Sb 0 -0 19.8943015775 0 0 0.00266443442629
Sb 2.1848263651 3.6047494869 18.7303710264 -0.0258838118849 0.0149437670293 -0.0425026527622
Sb 4.2142178275 0.0897404176 18.7303710264 -0 -0.0298877911689 -0.0425026527622
Sb 6.24360929 3.6047494869 18.7303710264 0.0258838118849 0.0149437670293 -0.0425026527622
Sb 0 0 10.6238493785 0 0 0.0444281520789
Sb 1.7288543807 3.8680051275 12.5554382731 0.0728861526616 -0.0420809918089 -0.0684188605496
Sb 4.2142178275 -0.4367708634 12.5554382731 0 0.0841609551765 -0.0684183463289
Sb -1.7288543807 3.8680051275 12.5554382731 -0.0728861526616 -0.0420809918089 -0.0684188605496
Sb 2.1181950648 1.2229404934 29.1626469184 0.00458479153619 0.00264720803368 -0.013551257442
Sb 4.2142178275 4.8533584049 29.1626469184 -0 -0.00529415895703 -0.013551257442
Sb 6.3102405903 1.2229404934 29.1626469184 -0.00458479153619 0.00264720803368 -0.013551257442
Sb -0 4.8661595943 29.2875194764 0 -0 -0.0205382308604
Sb 2.0418144609 1.1788421132 22.2605733298 0.00600815436393 0.00346893267195 -0.00108217741004
Sb 4.2142178275 4.9415551652 22.2605733298 -0 -0.00693760823357 -0.00108217741004
Sb 6.3866211941 1.1788421132 22.2605733298 -0.00600815436393 0.00346893267195 -0.00108217741004
Sb -0 4.8661595943 23.1927054664 0 -0 0.021678000986
Cr -0 4.8661595943 14.7333611721 -0 5.14220674763e-07 0.268832254773
61
Lattice="8.42843558953 0 0 -4.21421779477 7.29923593142 0 0 0 31.0334408416" Properties=species:S:1:pos:R:3:forces:R:3 energy=-133598.809846 ionic_step=46 pbc="T T T"
Te 2.0155076109 1.1636538376 3.4069368685 0.0329895702791 0.0190467337932 0.0123225271397
Te 4.2142178275 4.9719317164 3.4069368685 -0 -0.0380932104761 0.0123225271397
Te 6.4129280442 1.1636538376 3.4069368685 -0.0329895702791 0.0190467337932 0.0123225271397
Te -0 4.8661595943 3.345016167 0 -2.57110337382e-07 -0.0268405194503
Te -0 0 6.7777706773 0 2.57110337382e-07 -0.00774056381721
Te 1.7532373632 3.8539276216 6.804598149 0.0287346513058 -0.0165900445195 -0.0178758533168
Te 4.2142178275 -0.4086158518 6.804598149 -0 0.0331798319288 -0.0178758533168
Te -1.7532373632 3.8539276216 6.804598149 -0.0287346513058 -0.0165900445195 -0.0178758533168
Te -0 -0 -0.0846429675 0 2.57110337382e-07 -0.00139919445603
Te 2.1786011885 3.6083435925 -0.0110304983 -0.0163720149535 0.00945214733316 0.00515943314024
Te 4.2142178275 0.0825522064 -0.0110304983 -0 -0.0189045517767 0.00515943314024
Te -2.1786011885 3.6083435925 -0.0110304983 0.0163720149535 0.00945214733316 0.00515943314024
Te 0 2.3455979344 14.49258686 0 8.92172870714e-05 -0.0516370117184
Te 2.1828704628 6.1264404242 14.4925868601 -7.71331012145e-05 -4.47371987044e-05 -0.0516370117184
Te 4.2142178275 2.4330797971 13.2615885345 -0 2.57110337382e-07 0.0607726562262
Te -2.1828704628 6.1264404242 14.49258686 7.71331012145e-05 -4.47371987044e-05 -0.0516370117184
Te 1.6327362154 0.942660564 17.6855241294 0.0192503651804 0.0111143656643 0.00326452995373
Te 4.2142178275 5.4139182637 17.6855241294 -0 -0.0222284742183 0.00326478706407
Te 6.7956994397 0.942660564 17.6855241294 -0.0192503651804 0.0111143656643 0.00326452995373
Te -0 4.8661595943 17.2597391215 0 -2.57110337382e-07 0.0141572665072
Te 2.4860072099 1.4352970314 10.0743373902 -0.0401166688313 -0.0231612705223 0.016129302795
Te 4.2142178275 4.4286453288 10.0743373902 -0 0.0463225410447 0.016129302795
Te 5.9424284451 1.4352970314 10.0743373902 0.0401166688313 -0.0231612705223 0.016129302795
Te -0 4.8661595943 10.103415265 0 -2.57110337382e-07 0.0778085300708
Te -0 -0 24.0095860483 0 2.57110337382e-07 0.035121786307
Te 2.4572512982 3.4474648024 24.0774495938 -0.0288845466325 0.0166761764826 0.0156266520854
Te 4.2142178275 0.4043097865 24.0774495938 -0 -0.0333528671858 0.0156266520854
Te -2.4572512982 3.4474648024 24.0774495938 0.0288845466325 0.0166761764826 0.0156266520854
Te -0 2.53618059 27.6185704261 0 -0.0255223147505 -0.029682102899
Te 2.0178210488 6.0311490965 27.6185704261 0.0221030043737 0.0127609002649 -0.029682102899
Te 4.2142178275 2.4330797971 27.5659695869 -0 2.57110337382e-07 0.0214491727857
Te -2.0178210488 6.0311490965 27.6185704261 -0.0221030043737 0.0127609002649 -0.029682102899
Te -0 2.8526923944 20.8280440758 0 -0.00470511917408 0.00974936688317
Te 1.7437139132 5.8728931942 20.8280440758 0.00407494173716 0.00235255958704 0.00974936688317
Te 4.2142178275 2.4330797971 20.606393068 -0 2.57110337382e-07 -0.0286176661023
Te -1.7437139132 5.8728931942 20.8280440758 -0.00407494173716 0.00235255958704 0.00974936688317
Sb 0 2.3421200144 8.5576806274 0 0.0233273638003 0.00554149910159
Sb 2.1858823652 6.1281793842 8.5576806274 -0.0202019305391 -0.011663553345 0.00554149910159
Sb 4.2142178275 2.4330797971 7.2515405464 -0 2.57110337382e-07 -0.072550366561
Sb -2.1858823652 6.1281793842 8.5576806274 0.0202019305391 -0.011663553345 0.00554149910159
Sb 0 2.419891206 1.759653332 0 -0.00123927182618 0.0227198120731
Sb 2.1185305654 6.0892937884 1.759653332 0.00107317854823 0.00061963591309 0.0227198120731
Sb 4.2142178275 2.4330797971 1.9580845621 -0 2.57110337382e-07 0.0143891800316
Sb -2.1185305654 6.0892937884 1.759653332 -0.00107317854823 0.00061963591309 0.0227198120731
Sb 0 -0 19.8740963198 0 0 8.97315077462e-05
Sb 2.1942867922 3.5992875043 18.7120744864 -0.0264255433657 0.0152566703099 -0.0434537039002
Sb 4.2142178275 0.1006643828 18.7120744864 -0 -0.0305135977301 -0.0434537039002
Sb 6.2341488629 3.5992875043 18.7120744864 0.0264255433657 0.0152566703099 -0.0434537039002
Sb 0 0 10.6610925332 0 0 0.039861872487
Sb 1.7265860454 3.8693147522 12.5475986089 0.0410594924385 -0.0237058302169 -0.0292329311396
Sb 4.2142178275 -0.4393901127 12.5475986089 -0 0.0474108891028 -0.0292326740293
Sb -1.7265860454 3.8693147522 12.5475986089 -0.0410594924385 -0.0237058302169 -0.0292329311396
Sb 2.1197289526 1.2238260843 29.138653361 0.00425234786995 0.00245514661166 -0.0143850662662
Sb 4.2142178275 4.851587223 29.138653361 -0 -0.00491029322331 -0.0143850662662
Sb 6.3087067025 1.2238260843 29.138653361 -0.00425234786995 0.00245514661166 -0.0143850662662
Sb -0 4.8661595943 29.2894748727 0 -0 -0.0203507974244
Sb 2.0547735913 1.1863240741 22.2676356769 0.00518951504971 0.00299610676151 -0.000691112586882
Sb 4.2142178275 4.9265912434 22.2676356769 -0 -0.00599221352302 -0.000690855476544
Sb 6.3736620637 1.1863240741 22.2676356769 -0.00518951504971 0.00299610676151 -0.000691112586882
Sb -0 4.8661595943 23.1797465936 0 -0 0.0214964810878
Cr -0 4.8661595943 14.7317872269 -0 2.57110337382e-07 0.161684606993
61
Lattice="8.42843558953 0 0 -4.21421779477 7.29923593142 0 0 0 31.0334408416" Properties=species:S:1:pos:R:3:forces:R:3 energy=-133598.867106 ionic_step=47 pbc="T T T"
Te 2.0072266384 1.1588728137 3.411837506 0.0347600320623 0.0200687473843 0.0119761995152
Te 4.2142178275 4.9814937643 3.411837506 -0 -0.0401374947686 0.0119761995152
Te 6.4212090167 1.1588728137 3.411837506 -0.0347600320623 0.0200687473843 0.0119761995152
Te -0 4.8661595943 3.3512622274 0 -2.57110337382e-07 -0.0279615205213
Te -0 0 6.755096516 0 2.57110337382e-07 -0.00277859141608
Te 1.7344691774 3.8647634437 6.779827094 0.0253173978116 -0.0146172369008 -0.0172641878242
Te 4.2142178275 -0.4302874961 6.779827094 -0 0.029233959581 -0.0172641878242
Te -1.7344691774 3.8647634437 6.779827094 -0.0253173978116 -0.0146172369008 -0.0172641878242
Te -0 -0 -0.0794903759 0 2.57110337382e-07 -0.00295651176955
Te 2.1855137462 3.6043526236 -0.0008561195 -0.0177701809681 0.0102592166822 0.00441792692723
Te 4.2142178275 0.0905341443 -0.0008561195 -0 -0.0205189475851 0.00441792692723
Te -2.1855137462 3.6043526236 -0.0008561195 0.0177701809681 0.0102592166822 0.00441792692723
Te 0 2.3447463497 14.495380101 0 0.0060292374116 -0.0513266795412
Te 2.1836079564 6.1268662165 14.495380101 -0.00522139673155 -0.0030146187058 -0.0513266795412
Te 4.2142178275 2.4330797971 13.2918827576 -0 2.57110337382e-07 0.0636412362604
Te -2.1836079564 6.1268662165 14.495380101 0.00522139673155 -0.0030146187058 -0.0513266795412
Te 1.5924638188 0.9194092741 17.742314089 0.0123901471584 0.00715358091697 0.00369133311379
Te 4.2142178275 5.4604208433 17.742314089 -0 -0.0143069047236 0.00369133311379
Te 6.8359718363 0.9194092741 17.742314089 -0.0123901471584 0.00715358091697 0.00369133311379
Te -0 4.8661595943 17.2390888488 0 -2.57110337382e-07 0.00606394730715
Te 2.5230760104 1.4566987233 10.041105011 -0.0333492676411 -0.0192539647252 0.0112658036531
Te 4.2142178275 4.3858419449 10.041105011 -0 0.0385081865607 0.0112658036531
Te 5.9053596446 1.4566987233 10.041105011 0.0333492676411 -0.0192539647252 0.0112658036531
Te -0 4.8661595943 10.0926754445 0 -2.57110337382e-07 0.0777236836595
Te -0 -0 24.0025006892 0 2.57110337382e-07 0.0387460136227
Te 2.4761197084 3.4365711156 24.1017341313 -0.0255467402326 0.0147491345039 0.012746502086
Te 4.2142178275 0.4260971601 24.1017341313 -0 -0.0294987832285 0.012746502086
Te -2.4761197084 3.4365711156 24.1017341313 0.0255467402326 0.0147491345039 0.012746502086
Te -0 2.5472984955 27.61627895 0 -0.0285238208291 -0.0278141962979
Te 2.0081926647 6.0255901437 27.61627895 0.024702646995 0.0142616533042 -0.0278141962979
Te 4.2142178275 2.4330797971 27.5530386368 -0 2.57110337382e-07 0.0252513204549
Te -2.0081926647 6.0255901437 27.61627895 -0.024702646995 0.0142616533042 -0.0278141962979
Te -0 2.8855784212 20.8437134339 0 0.00317042757025 0.0115825635887
Te 1.7152337918 5.8564501808 20.8437134339 -0.0027456812929 -0.0015853423403 0.0115825635887
Te 4.2142178275 2.4330797971 20.5772121337 -0 2.57110337382e-07 -0.0259411474901
Te -1.7152337918 5.8564501808 20.8437134339 0.0027456812929 -0.0015853423403 0.0115825635887
Sb 0 2.3331248372 8.5386635978 0 0.0244835889875 0.00564331479519
Sb 2.1936724136 6.1326769728 8.5386635978 -0.0212031181929 -0.0122417944938 0.00564331479519
Sb 4.2142178275 2.4330797971 7.2461562125 -0 2.57110337382e-07 -0.070074394012
Sb -2.1936724136 6.1326769728 8.5386635978 0.0212031181929 -0.0122417944938 0.00564331479519
Sb 0 2.4155665937 1.7520748452 0 -0.00150049592896 0.0221582830962
Sb 2.1222757878 6.0914560946 1.7520748452 0.00129969275546 0.00075024796448 0.0221582830962
Sb 4.2142178275 2.4330797971 1.9568875819 -0 2.57110337382e-07 0.0126979082323
Sb -2.1222757878 6.0914560946 1.7520748452 -0.00129969275546 0.00075024796448 0.0221582830962
Sb 0 -0 19.9446804773 0 0 -0.00253253682321
Sb 2.1972837148 3.5975572294 18.7047978468 -0.0262350246057 0.0151466270855 -0.0436825321005
Sb 4.2142178275 0.1041249326 18.7047978468 -0 -0.0302935112813 -0.0436825321005
Sb 6.2311519403 3.5975572294 18.7047978468 0.0262350246057 0.0151466270855 -0.0436825321005
Sb 0 0 10.6184371566 0 0 0.0446384683348
Sb 1.7303881401 3.8671196107 12.5438661938 0.0197558441037 -0.0114061858973 -0.00387336723265
Sb 4.2142178275 -0.4349998297 12.5438661938 -0 0.0228118575738 -0.00387336723265
Sb -1.7303881401 3.8671196107 12.5438661938 -0.0197558441037 -0.0114061858973 -0.00387336723265
Sb 2.1218120058 1.2250287362 29.1173582436 0.00430762659249 0.00248702829349 -0.0152582129719
Sb 4.2142178275 4.8491819192 29.1173582436 -0 -0.00497405658699 -0.0152582129719
Sb 6.3066236493 1.2250287362 29.1173582436 -0.00430762659249 0.00248702829349 -0.0152582129719
Sb -0 4.8661595943 29.3013775114 0 -0 -0.0207061239107
Sb 2.0626890016 1.1908940405 22.2705266932 0.00409602478483 0.00236490088324 -4.19089849932e-05
Sb 4.2142178275 4.9174513105 22.2705266932 -0 -0.00472954465614 -4.19089849932e-05
Sb 6.3657466534 1.1908940405 22.2705266932 -0.00409602478483 0.00236490088324 -4.19089849932e-05
Sb -0 4.8661595943 23.2145213096 0 -0 0.0237055731066
Cr -0 4.8661595943 14.7304054386 -0 2.57110337382e-07 0.0878198923878
61
Lattice="8.42843558953 0 0 -4.21421779477 7.29923593142 0 0 0 31.0334408416" Properties=species:S:1:pos:R:3:forces:R:3 energy=-133598.92711 ionic_step=48 pbc="T T T"
Te 2.0086779593 1.1597107345 3.4158241578 0.0350461958678 0.0202340693313 0.0142390275945
Te 4.2142178275 4.9798179225 3.4158241578 -0 -0.0404678815522 0.0142390275945
Te 6.4197576958 1.1597107345 3.4158241578 -0.0350461958678 0.0202340693313 0.0142390275945
Te -0 4.8661595943 3.3478724481 0 -2.57110337382e-07 -0.0265147606528
Te -0 0 6.754676685 0 2.57110337382e-07 -0.0014375038963
Te 1.7388436891 3.8622378171 6.786920169 0.0254819484276 -0.0147121106153 -0.017764781651
Te 4.2142178275 -0.4252362427 6.786920169 -0 0.0294239641203 -0.017764781651
Te -1.7388436891 3.8622378171 6.786920169 -0.0254819484276 -0.0147121106153 -0.017764781651
Te -0 -0 -0.0682927131 0 2.57110337382e-07 -0.004361362653
Te 2.1854240295 3.6044044215 0.0100879471 -0.0177478123688 0.0102463611653 0.00292720119109
Te 4.2142178275 0.0904305483 0.0100879471 -0 -0.0204932365513 0.00292720119109
Te -2.1854240295 3.6044044215 0.0100879471 0.0177478123688 0.0102463611653 0.00292720119109
Te 0 2.3503671229 14.4765654844 0 0.00727493699621 -0.0503247205564
Te 2.1787402263 6.1240558299 14.4765654844 -0.00629997459686 -0.00363759705328 -0.0503247205564
Te 4.2142178275 2.4330797971 13.2971108032 -0 2.57110337382e-07 0.0631301009097
Te -2.1787402263 6.1240558299 14.4765654844 0.00629997459686 -0.00363759705328 -0.0503247205564
Te 1.6049574142 0.9266224582 17.749126657 0.0136044792819 0.00785472080701 0.0030084480577
Te 4.2142178275 5.4459944753 17.749126657 -0 -0.0157091845037 0.0030084480577
Te 6.8234782409 0.9266224582 17.749126657 -0.0136044792819 0.00785472080701 0.0030084480577
Te -0 4.8661595943 17.2222908264 0 -2.57110337382e-07 0.00483341723244
Te 2.5236730102 1.4570434014 10.0395336323 -0.0326748672261 -0.0188646996744 0.0109040494084
Te 4.2142178275 4.3851525887 10.0395336323 -0 0.0377296564591 0.0109040494084
Te 5.9047626448 1.4570434014 10.0395336323 0.0326748672261 -0.0188646996744 0.0109040494084
Te -0 4.8661595943 10.09814786 0 -2.57110337382e-07 0.0794545504507
Te -0 -0 24.003112914 0 2.57110337382e-07 0.0373252218984
Te 2.4679881707 3.4412658633 24.1033487676 -0.0265134751011 0.0153073210464 0.011751999301
Te 4.2142178275 0.4167076647 24.1033487676 -0 -0.030614899203 0.011751999301
Te -2.4679881707 3.4412658633 24.1033487676 0.0265134751011 0.0153073210464 0.011751999301
Te -0 2.5501996388 27.6146035167 0 -0.0294792428428 -0.0256303010922
Te 2.0056802021 6.0241395721 27.6146035167 0.0255300280606 0.0147393643111 -0.0256303010922
Te 4.2142178275 2.4330797971 27.5550513445 -0 2.57110337382e-07 0.0263270701065
Te -2.0056802021 6.0241395721 27.6146035167 -0.0255300280606 0.0147393643111 -0.0256303010922
Te -0 2.8800737576 20.8349015909 0 0.00270660052162 0.0117440288806
Te 1.7200009682 5.8592025127 20.8349015909 -0.00234381783557 -0.00135342881598 0.0117440288806
Te 4.2142178275 2.4330797971 20.5725250314 -0 2.57110337382e-07 -0.0231517574399
Te -1.7200009682 5.8592025127 20.8349015909 0.00234381783557 -0.00135342881598 0.0117440288806
Sb 0 2.3266236072 8.5295076772 0 0.0252852590195 0.00605186312129
Sb 2.1993026413 6.1359275879 8.5295076772 -0.0218975732141 -0.0126426295097 0.00605186312129
Sb 4.2142178275 2.4330797971 7.323472873 -0 2.57110337382e-07 -0.0670284078451
Sb -2.1993026413 6.1359275879 8.5295076772 0.0218975732141 -0.0126426295097 0.00605186312129
Sb 0 2.4166383118 1.7480008855 0 -0.00191392935147 0.0210889612031
Sb 2.1213476532 6.0909202356 1.7480008855 0.0016575903451 0.000956964675734 0.0210889612031
Sb 4.2142178275 2.4330797971 1.9479154555 -0 2.57110337382e-07 0.0109058491807
Sb -2.1213476532 6.0909202356 1.7480008855 -0.0016575903451 0.000956964675734 0.0210889612031
Sb 0 -0 19.9257474689 0 0 -0.0027161136041
Sb 2.1899529344 3.6017896594 18.7046826702 -0.0255853067832 0.0147715031032 -0.0429302272533
Sb 4.2142178275 0.0956600726 18.7046826702 -0 -0.0295432633168 -0.0429299701429
Sb 6.2384827207 3.6017896594 18.7046826702 0.0255853067832 0.0147715031032 -0.0429302272533
Sb 0 0 10.6636553901 0 0 0.0378967781784
Sb 1.7451062113 3.8586221244 12.5407200972 0.0168332708987 -0.00971877075303 0.00163676440777
Sb 4.2142178275 -0.4180048571 12.5407200972 -0 0.0194372843957 0.00163676440777
Sb -1.7451062113 3.8586221244 12.5407200972 -0.0168332708987 -0.00971877075303 0.00163676440777
Sb 2.1213333454 1.2247523814 29.1060131891 0.00425389053198 0.00245591794267 -0.0158791344367
Sb 4.2142178275 4.8497346288 29.1060131891 -0 -0.00491183588534 -0.0158791344367
Sb 6.3071023097 1.2247523814 29.1060131891 -0.00425389053198 0.00245591794267 -0.0158791344367
Sb -0 4.8661595943 29.3042460646 0 -0 -0.0209724902202
Sb 2.0689774582 1.1945246843 22.2770484968 0.00389007940458 0.00224611590737 0.000431431146126
Sb 4.2142178275 4.910190023 22.2770484968 -0 -0.00449197470439 0.000431431146126
Sb 6.3594581968 1.1945246843 22.2770484968 -0.00389007940458 0.00224611590737 0.000431431146126
Sb -0 4.8661595943 23.1981450125 0 -0 0.0224809565696
Cr -0 4.8661595943 14.715265137 -0 2.57110337382e-07 0.0700643667089
61
Lattice="8.42843558953 0 0 -4.21421779477 7.29923593142 0 0 0 31.0334408416" Properties=species:S:1:pos:R:3:forces:R:3 energy=-133598.985991 ionic_step=49 pbc="T T T"
Te 2.0072504068 1.1588865364 3.4081999101 0.0357038841108 0.0206138212996 0.0180514596772
Te 4.2142178275 4.9814663188 3.4081999101 -0 -0.0412276425991 0.0180514596772
Te 6.4211852483 1.1588865364 3.4081999101 -0.0357038841108 0.0206138212996 0.0180514596772
Te -0 4.8661595943 3.3263715175 0 -2.57110337382e-07 -0.0247373568905
Te -0 0 6.7663817426 0 2.57110337382e-07 -0.00384842752993
Te 1.7420806322 3.8603689662 6.7999447978 0.0249648995391 -0.0144136055136 -0.0208632183268
Te 4.2142178275 -0.421498541 6.7999447978 -0 0.0288269539169 -0.0208632183268
Te -1.7420806322 3.8603689662 6.7999447978 -0.0249648995391 -0.0144136055136 -0.0208632183268
Te -0 -0 -0.0634928856 0 2.57110337382e-07 -0.00593384947643
Te 2.189463116 3.6020724527 0.0160295041 -0.0184250409974 0.0106374259885 0.00194195437824
Te 4.2142178275 0.0950944859 0.0160295041 -0 -0.0212751090873 0.00194195437824
Te -2.189463116 3.6020724527 0.0160295041 0.0184250409974 0.0106374259885 0.00194195437824
Te 0 2.3658614921 14.4545437222 0 0.00478816581306 -0.050615512348
Te 2.1653217152 6.1163086453 14.4545437222 -0.00414641841095 -0.0023942114617 -0.050615512348
Te 4.2142178275 2.4330797971 13.2989139587 -0 2.57110337382e-07 0.0621844490888
Te -2.1653217152 6.1163086453 14.4545437222 0.00414641841095 -0.0023942114617 -0.050615512348
Te 1.6062981078 0.9273965083 17.7741305674 0.0127881539607 0.00738343755859 0.00230088040923
Te 4.2142178275 5.4444463749 17.7741305674 -0 -0.0147666180068 0.00230088040923
Te 6.8221375473 0.9273965083 17.7741305674 -0.0127881539607 0.00738343755859 0.00230088040923
Te -0 4.8661595943 17.2259809924 0 -2.57110337382e-07 0.00513063678245
Te 2.5305306164 1.4610026441 10.0158927245 -0.0301945238014 -0.0174325950951 0.0109531574828
Te 4.2142178275 4.3772341033 10.0158927245 -0 0.0348654473006 0.0109531574828
Te 5.8979050386 1.4610026441 10.0158927245 0.0301945238014 -0.0174325950951 0.0109531574828
Te -0 4.8661595943 10.1008919458 0 -2.57110337382e-07 0.0811172830026
Te -0 -0 23.9981343608 0 2.57110337382e-07 0.0388737974604
Te 2.466213143 3.4422906765 24.0949625359 -0.0265900939817 0.0153515440244 0.0126284884412
Te 4.2142178275 0.4146580384 24.0949625359 -0 -0.0307036022694 0.0126284884412
Te -2.466213143 3.4422906765 24.0949625359 0.0265900939817 0.0153515440244 0.0126284884412
Te -0 2.5574467839 27.6218847674 0 -0.0311707717525 -0.0264566537166
Te 1.9994039932 6.0205159996 27.6218847674 0.026995042763 0.0155852573211 -0.0264566537166
Te 4.2142178275 2.4330797971 27.5669291172 -0 2.57110337382e-07 0.0253364239766
Te -1.9994039932 6.0205159996 27.6218847674 -0.026995042763 0.0155852573211 -0.0264566537166
Te -0 2.8907160306 20.8345438439 0 0.00512189503098 0.0117486568667
Te 1.7107844937 5.8538813761 20.8345438439 -0.00443566754051 -0.00256107607066 0.0117486568667
Te 4.2142178275 2.4330797971 20.5638333004 -0 2.57110337382e-07 -0.0211699509593
Te -1.7107844937 5.8538813761 20.8345438439 0.00443566754051 -0.00256107607066 0.0117486568667
Sb 0 2.3184689854 8.5232169712 0 0.0259223784355 0.00666687104831
Sb 2.2063647476 6.1400048987 8.5232169712 -0.0224493319981 -0.0129611892177 0.00666687104831
Sb 4.2142178275 2.4330797971 7.395472377 -0 2.57110337382e-07 -0.0614293160279
Sb -2.2063647476 6.1400048987 8.5232169712 0.0224493319981 -0.0129611892177 0.00666687104831
Sb 0 2.421611019 1.7371030701 0 -0.0026122410278 0.0210437097837
Sb 2.1170411644 6.088433882 1.7371030701 0.00226231385862 0.0013061205139 0.0210437097837
Sb 4.2142178275 2.4330797971 1.9393131024 -0 2.57110337382e-07 0.0102188503592
Sb -2.1170411644 6.088433882 1.7371030701 -0.00226231385862 0.0013061205139 0.0210437097837
Sb 0 -0 19.9420015405 0 0 -0.00282538549749
Sb 2.1724741046 3.6118810712 18.7140287481 -0.0241750565826 0.0139572346648 -0.0414009349665
Sb 4.2142178275 0.075477249 18.7140287481 -0 -0.0279149835502 -0.0414009349665
Sb 6.2559615505 3.6118810712 18.7140287481 0.0241750565826 0.0139572346648 -0.0414009349665
Sb 0 0 10.6716342418 0 0 0.0351773221399
Sb 1.7616325417 3.8490806387 12.5336249307 0.0152638693993 -0.00881271392409 0.0049604297391
Sb 4.2142178275 -0.3989218857 12.5336249307 -0 0.0176249136275 0.0049604297391
Sb -1.7616325417 3.8490806387 12.5336249307 -0.0152638693993 -0.00881271392409 0.0049604297391
Sb 2.1202212121 1.2241102906 29.1065546227 0.00447037743605 0.00258113067697 -0.0166270684081
Sb 4.2142178275 4.8510188104 29.1065546227 -0 -0.00516200424361 -0.0166270684081
Sb 6.308214443 1.2241102906 29.1065546227 -0.00447037743605 0.00258113067697 -0.0166270684081
Sb -0 4.8661595943 29.3193511703 0 -0 -0.0212457985089
Sb 2.0745877173 1.1977637705 22.2792396301 0.00341339683908 0.00197075073603 0.00122487364729
Sb 4.2142178275 4.9037118507 22.2792396301 -0 -0.00394150147206 0.00122487364729
Sb 6.3538479377 1.1977637705 22.2792396301 -0.00341339683908 0.00197075073603 0.00122487364729
Sb -0 4.8661595943 23.1840901886 0 -0 0.0199967564899
Cr -0 4.8661595943 14.6940897093 -0 0 0.0564840557987
