61
Properties=species:S:1:pos:R:3:forces:R:3 energy=-194.27489413737788 mlff_rel_energy_eV=0.0 mlff_fmax_eV_A=2.8637569092517428 calculator_label=/data/pclancy3/yi/flare-data/1-Cr-Sb2Te3/3.fine-tuning/2-layer/MACE-omat/MACE-matpes-pbe-omat-ft.model neb_image=0 neb_protocol=mlff_pre_neb pbc="F F F"
Te       2.10710960       1.21450109       3.47277178       0.24353438       0.17850767       0.37007157
Te       4.21598382       4.86717840       3.47277178      -0.56291127       0.86771646      -0.08007558
Te       6.32132606       1.21654029       3.46337882      -0.82727462       0.34761089      -0.23928927
Te      -0.00176600       4.86717919       3.47277179      -0.26623462       1.33776374       0.54161888
Te      -0.02683937       0.01549573       6.87268349       0.18032642       0.97896307       0.41409367
Te       2.10710848       3.64961994       6.92335299      -0.68523523       0.76219481      -0.54055193
Te       4.24105720       0.01549523       6.87268330      -0.14095448       0.86050418       0.16553289
Te      -2.10710848       3.61862849       6.87268330      -0.17143897       1.16288321       0.36797980
Te       0.00000000       0.00000000       0.00000000       0.18510068       1.15853050       0.77137970
Te       2.10710891       3.64961970       0.00000000      -0.73370426       0.78136986       0.70057580
Te       4.21421783      -0.00000000      -0.00000000      -0.21694002       1.03269430       0.72677391
Te      -2.10710891       3.64961970       0.00000000       0.17482950       1.48229788       1.33995379
Te       0.04960189       2.46171773      13.94762059      -1.00257604      -1.16375552       0.16805989
Te       2.10710870       6.02542401      13.94762059      -0.03506243      -1.07780823       0.44615794
Te       4.16461594       2.46171748      13.94762098       0.15245075      -0.38771888       0.16317546
Te      -2.10710870       6.08269937      13.89453363       0.05573110      -1.46340822      -0.87382643
Te       2.10710913       1.27381538      17.08581663      -0.36626605      -1.52238845      -0.10188815
Te       4.16461594       4.83752167      17.08581663       0.58498591       0.14417065      -0.20221245
Te       6.32132652       1.21654002      17.13890359      -0.21662326       0.02791950       0.60400850
Te       0.04960189       4.83752192      17.08581625       0.81246491      -0.48596693      -0.31012883
Te       2.10710868       1.19984378      10.38852379       0.12023341      -1.13082383       0.50983696
Te       4.22867697       4.87450786      10.38852379      -0.92937221       0.55972357      -0.64238314
Te       6.32132698       1.21653976      10.39111941      -1.27365994      -0.57715034       0.83720824
Te      -0.01445914       4.87450759      10.38852421      -0.85615872       1.00363038      -0.36439870
Te       0.02683937      -0.01549573      24.16075373       0.90394076       0.68961821      -0.52239301
Te       2.10710934       3.64961945      24.11008424       1.10674652      -0.23424457       0.49764912
Te       4.18737845      -0.01549523      24.16075392       1.19922384       0.39180884      -0.26459883
Te      -2.10710934       3.68061090      24.16075392       0.84498736       0.31228849      -0.19779255
Te      -0.00176600       2.43206099      27.56066545       0.71176033      -0.09461542       0.60509888
Te       2.10710823       6.08473830      27.56066545       0.45258883      -0.66155360       0.84916128
Te       4.21598382       2.43206020      27.56066544       0.34786329      -0.23121444       0.67409795
Te      -2.10710823       6.08269910      27.57005841       1.30860043      -0.87933609       0.70766877
Te      -0.01445914       2.42473153      20.64491344      -0.07283835      -0.59049548      -0.38759545
Te       2.10710915       6.09939562      20.64491344       1.04748946      -0.53712495       0.66440871
Te       4.22867697       2.42473180      20.64491301       1.58473477      -0.22965374       0.30800973
Te      -2.10710915       6.08269963      20.64231782       1.01297430      -0.65697269       0.69886494
Sb      -0.03018654       2.41564989       8.46733874      -0.33860693      -1.25807253      -0.82746780
Sb       2.10711038       6.11755676       8.46733874       0.73163103      -1.23868298       0.76904192
Sb       4.24440436       2.41565158       8.46733912       1.14741813      -1.23736306       0.24301121
Sb      -2.10711038       6.08270034       8.40301845       0.64875033      -1.42465352      -0.18684659
Sb       0.00025079       2.43322202       1.88152630       0.18998503      -1.89779065      -2.13621159
Sb       2.10711114       6.08241119       1.88152630       0.61359900      -1.51138959      -0.07116320
Sb       4.21396703       2.43322459       1.88152659       0.50701639      -1.99985191      -0.30893330
Sb      -2.10711114       6.08270078       1.88047883       0.48364071      -1.93018884      -0.95520517
Sb      -0.05023393       0.02900259      18.75787975       0.58979459       1.06020487       0.15348341
Sb       2.10710819       3.64962011      18.71293056      -1.18696528       1.43488001       0.77221945
Sb       4.26445176       0.02900175      18.75787999      -0.00047517       0.28810550      -0.53340658
Sb       6.32132747       3.59161494      18.75787999      -0.68575549      -0.06701988      -0.72672734
Sb       0.05023393      -0.02900259      12.27555748       0.51757319       1.00543718       0.07984134
Sb       2.10710964       3.64961928      12.32050666       1.01623755       1.15454834      -0.62931314
Sb       4.16398389      -0.02900175      12.27555723       0.65325582       1.54897200      -0.97130389
Sb      -2.10710964       3.70762446      12.27555723       0.38587752       1.50793047       1.02178622
Sb       2.10710669       1.21682820      29.15191093      -0.56108899       0.63520272      -0.76135288
Sb       4.21396703       4.86601737      29.15191093      -0.82182452       0.13769884      -0.78944529
Sb       6.32132897       1.21653861      29.15295839      -0.63653789       0.36176916      -0.46297139
Sb       0.00025079       4.86601480      29.15191064      -0.85289276       0.46698677      -1.46691449
Sb       2.10710745       1.18168263      22.56609849      -1.80614640      -0.83949701       0.68960916
Sb       4.24440436       4.88358950      22.56609849      -1.46317542       0.23013916      -0.72015407
Sb       6.32132821       1.21653905      22.63041878      -1.36138208      -0.19754270       0.27587610
Sb      -0.03018654       4.88358781      22.56609810      -2.38657185       0.72897250      -0.82032859
Cr       2.10710891       3.64961970      15.51671861      -0.05667296       0.88524033      -0.04137552
61
Properties=species:S:1:pos:R:3:forces:R:3 energy=-207.21455053062965 mlff_rel_energy_eV=-12.939656393251767 mlff_fmax_eV_A=0.29058151651415093 calculator_label=/data/pclancy3/yi/flare-data/1-Cr-Sb2Te3/3.fine-tuning/2-layer/MACE-omat/MACE-matpes-pbe-omat-ft.model neb_image=1 neb_protocol=mlff_pre_neb pbc="F F F"
Te       1.92999418       1.30789212       3.87562673      -0.06259543       0.02895268       0.14473977
Te       4.14843364       4.89596419       3.57635805      -0.02623417       0.01089806       0.04419663
Te       5.97791301       1.19766002       4.23190540      -0.11552427      -0.00376824       0.26660375
Te      -0.07790090       4.98280309       3.62571814      -0.02897192       0.03696020       0.06071105
Te       0.11061160       0.15530568       6.68099652       0.04627623       0.04875009      -0.07803629
Te       2.08192221       3.76598160       6.73390133      -0.00070837       0.04796148      -0.07598117
Te       4.42800556       0.21067648       6.30625594       0.05361327       0.05513133      -0.18332629
Te      -2.19345117       3.75489675       6.80334699      -0.02879712       0.04612016      -0.03181446
Te       0.75918426       0.04620680      -0.04902585       0.25829649       0.01494123      -0.01524348
Te       2.02423538       3.72671857       0.14548658      -0.02904940       0.02227298       0.05539720
Te       3.48697594       0.04192001       0.06593918      -0.23873342       0.01147935       0.02939969
Te      -2.15341523       3.76965672       0.11250444      -0.02216652       0.04186667       0.04778902
Te      -0.02224951       2.31504459      14.09401553      -0.02306824      -0.05040135       0.04740984
Te       2.10722551       5.84787064      14.10070125      -0.00467204      -0.05957294       0.04917309
Te       4.23940964       2.55179265      13.96203316       0.02598330       0.03514584       0.00009455
Te      -2.01943575       5.92481586      14.04663682       0.02557657      -0.05923897       0.06372474
Te       2.05843576       1.03885792      16.83899126      -0.02001783      -0.07931031      -0.08743508
Te       4.13072627       4.90774653      16.92860675      -0.01903163       0.02584571      -0.05623613
Te       6.26022802       1.09222781      17.17590470      -0.02428191      -0.03802703      -0.00045139
Te       0.18303869       4.75971674      16.87337100       0.04233152      -0.02933541      -0.07318938
Te       2.13216219       0.86839351      10.33745011       0.00882339      -0.10846419      -0.02418684
Te       4.24823480       4.94947942      10.28363592       0.01210346       0.02876562      -0.03782272
Te       6.19829908       1.09339458      10.48019088      -0.03952414      -0.04390611       0.02420927
Te      -0.11152464       5.29617124      10.37960515      -0.03284902       0.14449927      -0.00766873
Te       0.02378469       0.12828076      24.25075383      -0.00260156       0.05136869       0.04064904
Te       2.08389743       3.60325755      24.09085068      -0.01362166      -0.00703621      -0.00164930
Te       4.22462667       0.01642302      24.12554175       0.00337592       0.00956679      -0.00926251
Te      -1.94410652       3.96519744      24.73839301       0.05249390       0.08604426       0.18991705
Te       0.10937292       2.31683326      27.46508833       0.03995911      -0.04280906      -0.04257292
Te       2.10209581       6.03349133      27.63992256      -0.00239490      -0.01948875       0.02365829
Te       4.49334527       2.29737712      27.35650200       0.09170859      -0.04736987      -0.07171950
Te      -2.03603874       5.78837817      26.86512016       0.02688713      -0.09242629      -0.24476842
Te      -0.18006221       2.49018404      20.48705267      -0.05804559       0.02786068      -0.05123738
Te       2.17587196       6.14529885      20.70619773       0.01819295       0.02282959       0.02246903
Te       4.47751026       2.41636525      20.64296158       0.08336133      -0.00217268      -0.00224813
Te      -1.79388540       5.49660269      20.75965672       0.10327651      -0.20525003       0.04866961
Sb      -0.01498212       2.35767795       8.18550824       0.01301137      -0.01234960      -0.10975671
Sb       2.21463839       5.90048698       8.59496810       0.03966264      -0.06948461       0.03971925
Sb       4.37947226       2.19841049       8.44956923       0.04567497      -0.07792259      -0.01001317
Sb      -2.03145106       5.97102335       8.37884251       0.02101575      -0.03569644      -0.01116929
Sb       0.14846453       2.27825855       1.73850004       0.04811763      -0.05709800      -0.04369938
Sb       2.12507510       5.88496338       1.97097644      -0.00055230      -0.06790346       0.03687661
Sb       4.03611659       2.19372372       2.22319828      -0.06189916      -0.08385840       0.12323927
Sb      -2.01962427       5.85720237       1.77596732       0.03313969      -0.06934592      -0.02851561
Sb       0.45477022       0.18288234      19.06784846       0.18791499       0.05338870       0.11703885
Sb       1.97209262       3.88732517      18.83850832      -0.04752278       0.08583778       0.04605644
Sb       4.06646912       0.08820352      18.64645457      -0.06859463       0.02501590      -0.04073675
Sb       6.14090145       3.60891216      18.40684035      -0.06334826       0.00747734      -0.12854507
Sb       0.27027279       0.09361918      12.41333413       0.07697308       0.04197355       0.04256166
Sb       2.32051193       3.83743530      12.18750184       0.07465112       0.06782623      -0.05113526
Sb       4.21353363       0.22707201      12.22646846       0.01450844       0.08841792      -0.01906293
Sb      -1.94609063       3.87526761      12.44279433       0.05905929       0.05527922       0.05295945
Sb       2.26124731       1.82002046      29.19142567       0.04973694       0.19699531       0.00865982
Sb       3.70751525       4.40201791      29.23414385      -0.16705028      -0.15617316       0.02300221
Sb       6.43501566       1.12638200      28.92694184       0.03925038      -0.02963019      -0.07826096
Sb      -0.20796393       4.81834893      28.75225932      -0.07144965      -0.02157872      -0.14163962
Sb       1.83754418       1.10385773      22.56450021      -0.09479295      -0.02032005       0.00471889
Sb       3.95897885       4.88376602      22.43154486      -0.09978891       0.00107848      -0.04521099
Sb       6.17811277       1.15955770      22.65404712      -0.05142838      -0.02073536       0.00977683
Sb      -0.26320787       5.50357087      22.96361296      -0.08373046       0.21497403       0.14729195
Cr       2.13745078       3.58666675      15.50364593       0.00807095      -0.02485120      -0.00811701
61
Properties=species:S:1:pos:R:3:forces:R:3 energy=-207.6883941188351 mlff_rel_energy_eV=-13.413499981457221 mlff_fmax_eV_A=0.11787229287508573 calculator_label=/data/pclancy3/yi/flare-data/1-Cr-Sb2Te3/3.fine-tuning/2-layer/MACE-omat/MACE-matpes-pbe-omat-ft.model neb_image=2 neb_protocol=mlff_pre_neb pbc="F F F"
Te       1.87124578       1.25346514       4.11875685      -0.00000976      -0.02171904       0.01564539
Te       4.12133890       4.96803555       3.89940532      -0.01275455       0.00550895       0.02444571
Te       5.87865498       1.41924594       4.79732346      -0.00401517       0.00804907       0.02660204
Te      -0.20546514       4.87167515       3.98863501      -0.00003157       0.01544828       0.00970424
Te      -0.26477620       0.26753642       6.26106095      -0.03311472       0.01947261      -0.01298022
Te       2.10753015       3.75110933       6.58019491      -0.01122573      -0.01434252       0.00837964
Te       4.26570149      -0.03325097       6.43321181       0.00754292      -0.01186551       0.01198100
Te      -2.29210164       3.77803227       6.77947408       0.00043282       0.00189505       0.02348971
Te       0.95924897       0.09521225       0.04316342       0.03287652       0.00830768       0.01680272
Te       2.04948247       3.74365423       0.49519231      -0.00342500      -0.00860326       0.02312483
Te       3.62275380      -0.00435725       0.51980502       0.00767340       0.00675633       0.02469162
Te      -2.32630615       3.63637303       0.48303626       0.00081621      -0.00543535       0.00795032
Te      -0.08577268       1.98481646      14.26127814       0.05865837      -0.02365230       0.06240126
Te       2.22889963       6.01986254      13.99964464      -0.00899883      -0.00015791      -0.00965997
Te       4.40114205       2.46156814      13.84552597       0.00493248       0.00071006      -0.00227913
Te      -2.06070675       5.87335049      13.92325460      -0.00638779      -0.00000053       0.02229480
Te       2.06218320       1.01448070      17.13773988       0.02618457      -0.00811781       0.01004669
Te       4.25610541       4.87054007      16.89731292      -0.00912128      -0.01259859      -0.02832109
Te       6.20294437       0.99454373      17.17395747       0.01246268       0.00118697       0.01717042
Te      -0.04820739       5.09566516      17.12840074      -0.01157055      -0.03060277      -0.01674833
Te       2.24022147       0.93478335      10.21488419       0.00660771      -0.01154764       0.01333197
Te       4.28351136       4.92792442      10.25575424      -0.00111049      -0.00288477      -0.00687571
Te       6.44304098       1.08162710      10.14647130      -0.00328668       0.00663076       0.00145251
Te      -0.11334554       5.36604409      10.22587221       0.00733524       0.00117795       0.00085120
Te      -0.05407627       0.22886650      24.33754607      -0.00410210       0.00692594      -0.01809503
Te       2.12771925       3.84120660      24.27569714      -0.00018367      -0.00020099      -0.01460625
Te       4.11040442      -0.15510547      24.05983525      -0.00812819      -0.00729256      -0.01820688
Te      -2.04676282       3.90313833      24.58108999      -0.00541915       0.01844966      -0.01077669
Te       0.07554084       2.28719139      27.01039447      -0.00357962       0.00481744      -0.00649385
Te       2.05382751       6.02487211      27.57881119       0.00307759       0.00073270       0.00229078
Te       4.63883313       2.24826884      27.25967343      -0.00176945       0.01991024       0.01996537
Te      -2.00234301       5.87354814      26.50019132      -0.00614584       0.00273599       0.00831454
Te      -0.05318436       2.46689226      20.48784655       0.00222005      -0.00737948      -0.01126294
Te       2.13912355       6.19647860      20.69987212       0.00219709      -0.00368287      -0.01861962
Te       4.49748620       2.53177450      20.71317045       0.00720250       0.00635229      -0.00111743
Te      -1.64624228       5.15468643      20.81630905      -0.01800863       0.00063494      -0.02108234
Sb      -0.03924503       2.34503800       7.97669467      -0.00818710      -0.00470120       0.02010172
Sb       2.26658784       5.84869229       8.53978518      -0.00190063       0.00001928      -0.00797939
Sb       4.45218161       2.12067645       8.33145822      -0.00546496      -0.00183067       0.00333933
Sb      -1.73125252       6.15218657       8.00401764       0.04650780       0.01022230      -0.02633706
Sb       0.14088779       2.17837093       1.90939381      -0.00352290      -0.00423692       0.02809324
Sb       1.97804092       5.86264168       2.37467682       0.00072362       0.00478963       0.00596810
Sb       4.06349006       2.24950482       2.57213499      -0.00213043       0.00677699       0.02149177
Sb      -1.90897247       5.83016697       1.93903654      -0.01356145       0.00239102       0.01173227
Sb       0.97772495      -0.01257987      19.55695948      -0.01202357      -0.00443296      -0.01524633
Sb       2.04707072       3.92941737      18.71008452       0.00027528      -0.01073938      -0.01607380
Sb       4.05652921       0.08789633      18.92196674       0.02158690      -0.00705547       0.01866649
Sb       6.20091493       3.54033022      18.32472354      -0.00791385       0.01356925      -0.00649551
Sb       0.22851956       0.16596888      12.13136108      -0.06900746       0.07340068      -0.03910909
Sb       2.45866958       3.84169402      12.22888541      -0.00107130      -0.00535526      -0.00364182
Sb       4.50545307       0.34317345      12.01193431       0.00881560      -0.00597463       0.01146780
Sb      -1.66654679       3.66783953      12.34682917       0.05712123      -0.01266273       0.03487116
Sb       2.15791510       1.72762968      28.83668630      -0.01224891      -0.00187854       0.00270084
Sb       3.53429356       4.25101615      29.14713082      -0.01815901       0.00458819       0.02359777
Sb       6.76398213       0.97924808      28.42816119       0.02843980      -0.01959134      -0.11269975
Sb      -0.31227128       4.74154088      28.44672758       0.00257181       0.00249494      -0.00095420
Sb       1.80124410       1.30792371      22.71598748       0.00828523      -0.00209535      -0.01171222
Sb       3.93206495       5.04823572      22.43815713      -0.00226890       0.00364612      -0.00735181
Sb       6.07324045       1.03915825      22.65978012       0.00053458      -0.00732199      -0.01285414
Sb      -0.26600457       5.57980476      23.11095011      -0.00633602      -0.00093393      -0.03568402
Cr       0.13222669       4.68149240      14.63470587      -0.03889674       0.00129294      -0.03970262
61
Properties=species:S:1:pos:R:3:forces:R:3 energy=-206.6070404691788 mlff_rel_energy_eV=-12.332146331800914 mlff_fmax_eV_A=0.6200124943131781 calculator_label=/data/pclancy3/yi/flare-data/1-Cr-Sb2Te3/3.fine-tuning/2-layer/MACE-omat/MACE-matpes-pbe-omat-ft.model neb_image=3 neb_protocol=mlff_pre_neb pbc="F F F"
Te       2.00426462       1.29243674       3.80212100      -0.08942019       0.06457562       0.19093520
Te       4.15178240       4.90256546       3.55306710      -0.06886359       0.09203712       0.02423844
Te       6.00824075       1.12320143       4.08990928      -0.24213862      -0.07729030       0.49139269
Te      -0.05363394       4.99297949       3.61057164      -0.05971842       0.10692708       0.07810251
Te       0.08288198       0.09992921       6.66467351       0.06318069       0.09582756      -0.09769033
Te       2.05386641       3.73444566       6.69756270      -0.05018367       0.07119799      -0.04755341
Te       4.43667131       0.21716438       6.25292393       0.19882202       0.15664058      -0.41973892
Te      -2.16589650       3.74754050       6.76312688      -0.03405012       0.09150195       0.00481477
Te       0.72850914       0.03205725      -0.01560788       0.61667512       0.06424039       0.00067630
Te       2.00068081       3.73186609       0.11970308      -0.05034711       0.06110890       0.09117359
Te       3.50980094       0.02989859       0.02484938      -0.60549866       0.09095367       0.06876283
Te      -2.13831282       3.81459468       0.11283084      -0.01873111       0.11034614       0.10359230
Te      -0.06944616       2.05715414      14.22415925      -0.04340981      -0.15996778       0.00887397
Te       2.22430708       6.07299043      14.09319390      -0.02417628      -0.06749054      -0.08709380
Te       4.25932762       2.42345780      13.94426727       0.03935694      -0.01211041       0.09786137
Te      -2.18825404       6.06548633      14.10072601       0.04878177      -0.08128946      -0.09113984
Te       2.11021782       1.05483874      17.12534621       0.00217054      -0.10985362      -0.02674267
Te       4.28281142       4.90098569      17.04961469       0.05320043       0.02298849      -0.09501787
Te       6.30337419       1.14826311      17.24051983      -0.01498624      -0.05038066       0.04979160
Te      -0.08730720       4.85298771      17.03088889      -0.06144476      -0.00886177       0.05785055
Te       2.18086287       1.00287751      10.34917930       0.08540161      -0.14200310       0.05237277
Te       4.12619337       4.90567042      10.30525175      -0.07037097       0.01478975       0.01265202
Te       6.21992127       1.09189029      10.30994535      -0.11666174      -0.09346652       0.05000936
Te      -0.13215329       5.12824385      10.34232038      -0.10061117       0.18265949       0.04189670
Te       0.03640645       0.09985651      24.28423040       0.04191282       0.09559248       0.02147088
Te       2.18153459       3.56748164      24.19380700       0.02986760      -0.03798832      -0.00892583
Te       4.31772117       0.01082154      24.16764194       0.08062674       0.00383821      -0.03890190
Te      -1.99763574       3.95069481      24.73822675       0.09377401       0.25780900       0.40603356
Te       0.08086579       2.34828824      27.50150881       0.08372697      -0.08899870      -0.03046755
Te       2.12383686       6.04334374      27.61015263       0.03181539      -0.03601231       0.06072039
Te       4.45623865       2.29860924      27.33743636       0.22360890      -0.12036052      -0.19545555
Te      -2.04584667       5.76783945      26.94551311       0.07152296      -0.26934696      -0.44833716
Te      -0.07418725       2.45940611      20.54976042      -0.03940024       0.01701630      -0.10767563
Te       2.18036952       6.07536639      20.72739962       0.05168559      -0.02739537       0.03996983
Te       4.41961411       2.40627129      20.67542533       0.14864581      -0.02572091      -0.02776780
Te      -1.93039164       5.75949528      20.76561484       0.14920033      -0.25259462       0.08585595
Sb      -0.02463861       2.29700904       8.18455052      -0.02457064      -0.11035769      -0.18632350
Sb       2.15521125       5.87793934       8.56290004       0.05916250      -0.14340411       0.11404401
Sb       4.42860859       2.28643752       8.30065376       0.14886017      -0.10453584       0.08316525
Sb      -2.04328272       5.94404805       8.38032466       0.05195094      -0.11324642      -0.05127800
Sb       0.15115459       2.29607873       1.76849435       0.07678055      -0.13083657      -0.15631097
Sb       2.12682097       5.90738392       1.93564673       0.05090652      -0.16771184       0.04474891
Sb       4.08546868       2.24501977       2.14410709      -0.12792978      -0.25162029       0.07115996
Sb      -2.04578098       5.88602660       1.80774604       0.07376468      -0.17391411      -0.06869249
Sb       0.21283444       0.14806625      19.02999890       0.17166293       0.12181381       0.17861011
Sb       2.04768948       3.84256106      18.71883031      -0.04321168       0.13822698      -0.00531080
Sb       4.21569194       0.00408279      18.70267148       0.00052465       0.00643713      -0.01825473
Sb       6.20401759       3.66582481      18.58925490      -0.09590628       0.00931293      -0.11739364
Sb      -0.09292295       0.35800220      11.90271884      -0.07838651       0.28119391       0.00413122
Sb       2.26941664       3.82252512      12.36332880       0.20347792       0.07217780      -0.09055727
Sb       4.32329882       0.23225734      12.19955828       0.11238962       0.28886807      -0.23117731
Sb      -1.88561929       3.80671548      12.54853019       0.06967032       0.05899484       0.06100227
Sb       2.26776155       1.76646512      29.16458892       0.11405891       0.48610650       0.04705718
Sb       3.79060980       4.43330840      29.17883527      -0.38810191      -0.36235403       0.05212593
Sb       6.34762929       1.19535989      29.03392930       0.00554623      -0.00833007      -0.07597269
Sb      -0.16004669       4.84746249      28.80776846      -0.13144084      -0.00798169      -0.23878225
Sb       1.87498599       1.12008612      22.63992556      -0.18222668      -0.07155118       0.06431398
Sb       3.98506635       4.86688020      22.46697978      -0.18605937       0.00375224      -0.09261289
Sb       6.20630408       1.15631878      22.61428462      -0.10426815      -0.04840312       0.02986128
Sb      -0.29180690       5.34161382      22.83340598      -0.22724941       0.34180335       0.14676741
Cr       0.04282655       4.78598539      14.50642860       0.02663178      -0.05335947       0.11913968
61
Properties=species:S:1:pos:R:3:forces:R:3 energy=-193.79667342398375 mlff_rel_energy_eV=0.47822071339413696 mlff_fmax_eV_A=2.828035896078292 calculator_label=/data/pclancy3/yi/flare-data/1-Cr-Sb2Te3/3.fine-tuning/2-layer/MACE-omat/MACE-matpes-pbe-omat-ft.model neb_image=4 neb_protocol=mlff_pre_neb pbc="F F F"
Te       2.10098864       1.21300635       3.52044537       0.22420018       0.15189036       0.37918863
Te       4.21421783       4.87322669       3.52044537      -0.57566012       0.84127387      -0.11788803
Te       6.32744702       1.21300635       3.52044537      -0.84494750       0.33118175      -0.23574158
Te       0.00000000       4.86615959       3.51368646      -0.29637816       1.34270614       0.41610337
Te       0.00000000       0.00000000       6.80558913       0.17668300       1.03391364       0.41590660
Te       2.12314963       3.64035858       6.77353864      -1.14523047       0.90048643      -0.62585808
Te       4.21421783       0.01852224       6.77353864      -0.14730828       0.67464001      -0.02298206
Te      -2.12314963       3.64035858       6.77353864       0.01434848       1.27535752       0.63033564
Te       0.00000000       0.00000000       0.01304124       0.19283629       1.15112198       0.78117998
Te       2.10832252       3.64891902       0.00155926      -0.71963908       0.77025157       0.84477703
Te       4.21421783       0.00140136       0.00155926      -0.22901783       1.02580003       0.74233079
Te      -2.10832252       3.64891902       0.00155926       0.21648815       1.48461712       1.42244781
Te      -0.00000000       2.28878158      14.22382394      -0.51058455      -1.28982917      -0.17400792
Te       2.23207485       6.15484860      14.22382394      -0.30815007      -0.60950764      -0.40215159
Te       4.21421783       2.43307980      13.80034036       0.15012942      -0.91855535       0.05803988
Te      -2.23207485       6.15484860      14.22382394       0.15055217      -0.83871736      -0.72524915
Te       2.10799020       1.21704871      17.17526645      -0.21649299      -1.32869252      -0.23566635
Te       4.21421783       4.86514198      17.17526645       0.87495438      -0.13974322       0.06697344
Te       6.32044546       1.21704871      17.17526645      -0.31956822       0.02186229       0.56413700
Te       0.00000000       4.86615959      16.93861115       0.01733787      -0.08057672      -0.15717756
Te       2.07669424       1.19897997      10.28149754       0.09582642      -0.70485997       0.87611406
Te       4.21421783       4.90127946      10.28149754      -1.21863344       0.40759205      -0.54890259
Te       6.35174142       1.19897997      10.28149754      -1.53702789      -0.60549703       0.77737405
Te       0.00000000       4.86615959      10.26823231      -0.84742162       1.25676837      -0.07810685
Te       0.00000000       0.00000000      24.24482848       0.94437772       0.77630536      -0.58171609
Te       2.11687289       3.64398246      24.19441993       1.07409292      -0.27476097       0.47506902
Te       4.21421783       0.01127447      24.19441993       1.13014024       0.45347045      -0.41574165
Te      -2.11687289       3.64398246      24.19441993       0.90491502       0.32094225      -0.17723585
Te      -0.00000000       2.43687328      27.52586254       0.68437203      -0.14245597       0.56999679
Te       2.10382366       6.08080275      27.52586254       0.45770369      -0.64567311       0.84295289
Te       4.21421783       2.43307980      27.54138885       0.36992812      -0.23901072       0.60114565
Te      -2.10382366       6.08080275      27.52586254       1.29389166      -0.88836607       0.70823957
Te      -0.00000000       2.42990033      20.68811130      -0.15588002      -0.48895339      -0.48788867
Te       2.10986241       6.08428923      20.68811130       0.96797821      -0.46162825       0.60121862
Te       4.21421783       2.43307980      20.72632209       1.49788556      -0.07309910      -0.09942638
Te      -2.10986241       6.08428923      20.68811130       0.99288085      -0.64157423       0.75437793
Sb      -0.00000000       2.43230122       8.43536613      -0.34982832      -1.61917874      -1.19039941
Sb       2.10778318       6.08308878       8.43536613       0.86116976      -1.15650982       0.83646663
Sb       4.21421783       2.43307980       8.19671022       1.79384240      -1.18014824       0.79248917
Sb      -2.10778318       6.08308878       8.43536613       0.59980351      -1.55286560      -0.47346249
Sb      -0.00000000       2.42671799       1.90473875       0.16709077      -1.78139594      -2.19009046
Sb       2.11261840       6.08588040       1.90473875       0.55396434      -1.57728636      -0.03941908
Sb       4.21421783       2.43307980       1.92089496       0.51396180      -1.96453384      -0.34458491
Sb      -2.11261840       6.08588040       1.90473875       0.53442328      -1.97163007      -0.95733731
Sb       0.00000000      -0.00000000      18.81923863       0.57882783       0.98736417       0.21385722
Sb       2.10388635       3.65148025      18.72474621      -0.73961457       1.34141905       0.47689683
Sb       4.21421783      -0.00372110      18.72474621       0.12062765       0.34536634      -0.35713451
Sb       6.32454930       3.65148025      18.72474621      -0.85348322      -0.00371811      -0.62946676
Sb       0.00000000       0.00000000      11.88040369       0.33589138       0.70970127       0.01791619
Sb       1.97849168       3.72387690      12.48317439       1.16526880       0.62735376      -0.42617945
Sb       4.21421783      -0.14851441      12.48317439       0.77176243       2.14670004      -1.24314039
Sb      -1.97849168       3.72387690      12.48317439       0.30782843       0.81378872       0.70063683
Sb       2.10909386       1.21768591      29.12053626      -0.58771531       0.61184812      -0.72515052
Sb       4.21421783       4.86386757      29.12053626      -0.81431432       0.17076184      -0.76617709
Sb       6.31934179       1.21768591      29.12053626      -0.60307273       0.34806430      -0.42773597
Sb       0.00000000       4.86615959      29.12384287      -0.85610769       0.47768096      -1.46803110
Sb       2.10063901       1.21280450      22.57836874      -1.78465866      -1.06243569       1.00344686
Sb       4.21421783       4.87363039      22.57836874      -1.31244619       0.24047286      -0.70879231
Sb       6.32779664       1.21280450      22.57836874      -1.37729540      -0.25181763       0.39764363
Sb       0.00000000       4.86615959      22.63293601      -2.49347905       0.70487145      -0.85252260
Cr       0.00000000       4.86615959      14.35116463       0.10797095       0.74744677       0.91810266
