61
Lattice="8.428435589532 0.0 0.0 -4.214217794766 7.299235931425 0.0 0.0 0.0 31.033440841609" Properties=species:S:1:pos:R:3:forces:R:3 branch_id=historical_curvature_warp image_index=0 energy=-222.74578324571658 mlff_rel_energy_eV=0.0 mlff_fmax_eV_A=1.5405109742687801 calculator_label=/home/ycao73/.cache/mace/20231203mace128L1_epoch199model neb_image=0 neb_protocol=mlff_pre_neb pbc="T T T"
Te       2.10744601       1.21354019       3.41254337      -0.00012710       0.01112967       1.12177365
Te       0.00276640      -2.43186842       3.41254337      -0.00969525      -0.00545359       1.12176793
Te      -2.10824211       1.21719419       3.38538356       0.00030710      -0.00016915       1.18945956
Te       4.21320531      -2.43249178       3.41107878       0.00966350      -0.00558203       1.13615550
Te      -0.14767532       0.08526043       6.97789257       0.30390945      -0.17545659      -1.17573581
Te      -2.11172824      -3.64694924       7.05874685       0.02990280      -0.01726768      -1.16375429
Te      -4.07165586       0.02485596       6.97812592      -0.24876063      -0.05861283      -1.22435204
Te      -2.05735384       3.51372943       6.97812592      -0.07361526       0.24473934      -1.22434477
Te       0.00049552      -0.00028609       0.00268288      -0.01163061       0.00672270      -0.00052804
Te      -2.10747599      -3.64940429      -0.00308441      -0.00685737       0.00395787       0.00798740
Te      -4.21389062      -0.00009060       0.00057115       0.00880065      -0.00261343      -0.01549951
Te       2.10735091      -3.64985425       0.00057115       0.00667036      -0.00631236      -0.01549897
Te       0.17741958       2.47897744      13.78975036      -0.31984409      -0.14267983       1.01113974
Te      -2.05814760      -1.39313519      13.78975036      -0.03635475       0.34832980       1.01114588
Te      -4.45714591       2.57333449      13.92253187       0.36219018      -0.20910773       1.00507372
Te       2.10470209      -1.21514688      13.89228571       0.00605120      -0.00349952       0.96936468
Te       2.09440037       1.02354448     -13.88865516       0.02430302      -0.17135632      -0.83696789
Te       0.16078465      -2.32557274     -13.88865516       0.16055674       0.06462801      -0.83697253
Te      -2.04117795       1.17847469     -13.91688198      -0.08660292       0.05000284      -1.12107940
Te       4.35937602      -2.51688351     -14.11593492      -0.35639004       0.20575517      -0.53386442
Te       2.15203410       1.09568677      10.38899708       0.01468956      -0.05970587      -0.13314288
Te       0.12712446      -2.41155614      10.38899708       0.05905805       0.01712752      -0.13314486
Te      -2.10826780       1.21720902      10.47731738      -0.05202414       0.03004263       0.00303884
Te       4.08965336      -2.36115900      10.40810354      -0.05109699       0.02949348      -0.01479662
Te       0.28553338      -0.16485285      -7.04908116      -0.40566821       0.23422155       1.24525426
Te      -2.03979346      -3.68848083      -7.11179535      -0.16466343       0.09506937       1.08713557
Te       4.06405015       0.04552971      -6.91845580       0.40064723      -0.03899558       1.31784078
Te       1.99259517      -3.54233201      -6.91845580       0.23410207      -0.32746990       1.31783418
Te       0.00009101       2.43212971      -3.42495934       0.01400656      -0.00330301      -1.07641824
Te      -2.10624058      -1.21614021      -3.42495934       0.00986293      -0.01048596      -1.07642418
Te      -4.21484012       2.43343912      -3.40284132      -0.02011242       0.01161086      -1.12929803
Te       2.10723896      -1.21661154      -3.38977230      -0.00639839       0.00368684      -1.17544305
Te      -0.02180159       2.47020236     -10.35795495       0.04324243       0.00571488      -0.01655357
Te      -2.15015874      -1.21621698     -10.35795495       0.01667244      -0.04031234      -0.01655042
Te      -3.97507961       2.29501326     -10.43820484       0.05631797      -0.03251326      -0.15935643
Te       2.18215737      -1.25986572     -10.51199702      -0.02449429       0.01413440      -0.04606560
Sb       0.00391944       2.41825669       8.61950618       0.10733306       0.07992916       0.37811251
Sb      -2.09231198      -1.21251922       8.61950618      -0.01555289      -0.13292441       0.37811690
Sb      -4.18832363       2.41812981       8.56502544      -0.05630055       0.03250623       0.27567878
Sb       2.11170727      -1.21919132       8.36203490      -0.04590444       0.02649674       0.09983311
Sb       0.00236690       2.43529918       1.83705735       0.03491451       0.01181722      -0.14965746
Sb      -2.10784747      -1.21969592       1.83705735       0.00722723      -0.03615364      -0.14965648
Sb      -4.21701031       2.43469208       1.83482700      -0.03504976       0.02024055      -0.14489515
Sb       2.10839355      -1.21727814       1.83816743      -0.00574005       0.00330380      -0.13086615
Sb      -0.08898265       0.05137418     -12.14534741       0.04048061      -0.02336290       0.19734885
Sb      -1.90272798      -3.76761564     -12.09002400      -0.26334908       0.15204115       1.19061559
Sb      -4.09522627      -0.12316377     -12.32690286       0.02957341       0.03157155      -0.00535493
Sb      -1.94095023       3.60815187     -12.32690286      -0.01254789      -0.04139678      -0.00535309
Sb       0.03607400      -0.02082734      12.22503296      -0.10569963       0.06103313       0.10833899
Sb      -2.10359106      -3.65164726      12.01283341      -0.04487820       0.02590828      -0.19439942
Sb       4.20386750      -0.00659023      12.32047798       0.13219299       0.09581341       0.09013579
Sb       2.10764103      -3.63735747      12.32047798      -0.01687418      -0.16238616       0.09013867
Sb       2.10500921       1.21538069      -1.82998739      -0.02473271       0.05171420       0.12749256
Sb      -0.00004592      -2.43067834      -1.82998739      -0.05714474      -0.00444027       0.12748970
Sb      -2.10587506       1.21582757      -1.84477976       0.02996243      -0.01729046       0.11897728
Sb       4.21405810      -2.43298414      -1.84149487       0.05831795      -0.03367641       0.12932470
Sb       2.18106995       1.18989441      -8.69963679      -0.05515347       0.24584600      -0.38054793
Sb       0.06005621      -2.48380576      -8.69963679      -0.24048080      -0.07516441      -0.38055236
Sb      -2.04751422       1.18213291      -8.22151382       0.13020377      -0.07516866      -0.42453054
Sb       4.12669097      -2.38254267      -8.46317739       0.29004851      -0.16746825      -0.24804032
Cr      -1.88137911      -3.77994102      16.47228056       0.23253556      -0.13425904      -1.51692972
61
Lattice="8.428435589532 0.0 0.0 -4.214217794766 7.299235931425 0.0 0.0 0.0 31.033440841609" Properties=species:S:1:pos:R:3:forces:R:3 branch_id=historical_curvature_warp image_index=1 energy=-227.49396288339128 mlff_rel_energy_eV=-4.748179637674696 mlff_fmax_eV_A=0.3164921753327912 calculator_label=/home/ycao73/.cache/mace/20231203mace128L1_epoch199model neb_image=1 neb_protocol=mlff_pre_neb pbc="T T T"
Te       2.11062999       1.21585305       3.69859072       0.00145898       0.00126114       0.17065326
Te       0.00235652      -2.43578190       3.69859061      -0.00036200      -0.00189385       0.17065320
Te      -2.10480678       1.21521211       3.68449134       0.00148430      -0.00085617       0.17600926
Te       4.22101557      -2.43700133       3.69949953       0.00139686      -0.00080664       0.17164940
Te      -0.04544327       0.02623742       6.68221675       0.05816989      -0.03358397      -0.16893550
Te      -2.10044328      -3.65346537       6.73428781       0.00765323      -0.00441903      -0.18380228
Te      -4.15688608       0.00288001       6.66975440      -0.04194956      -0.00963523      -0.17998585
Te      -2.08093656       3.59852878       6.66975468      -0.01263002       0.04114691      -0.17998566
Te       0.00169187      -0.00097553       0.00535793      -0.00115662       0.00066859       0.00131251
Te      -2.10461463      -3.65105648       0.00145572       0.00095955      -0.00055412       0.00256654
Te      -4.20968562      -0.00328137      -0.00036588       0.00185391      -0.00109577      -0.00178442
Te       2.11221782      -3.65190007      -0.00036588       0.00187663      -0.00105738      -0.00178440
Te       0.12044287       2.44782383      14.10659390      -0.03537549      -0.01662267       0.19297815
Te      -2.05965571      -1.32821542      14.10659427      -0.00329180       0.03894722       0.19297837
Te      -4.28320255       2.47290869      14.15053978       0.09920688      -0.05727681       0.13268222
Te       2.12194588      -1.22510346      14.09872048       0.00624016      -0.00360327       0.12047101
Te       2.12282193       1.10318359     -14.08184964       0.02038703       0.04142455      -0.11868558
Te       0.10602650      -2.39000700     -14.08184981      -0.02568080      -0.03836847      -0.11868568
Te      -2.05993594       1.18930502     -14.14343835      -0.00516504       0.00298225      -0.14047403
Te       4.27419856      -2.46770747     -14.17225773      -0.05779887       0.03336943      -0.04336156
Te       2.13834491       1.15141379      10.37965222      -0.00647441       0.02232003       0.00200523
Te       0.07201969      -2.42756490      10.37965203      -0.02256638      -0.00555331       0.00200510
Te      -2.09660287       1.21047495      10.44612763       0.00194474      -0.00112231      -0.00867415
Te       4.16634605      -2.40543849      10.40670963       0.04208967      -0.02430113      -0.00924634
Te       0.12788853      -0.07383481      -6.71119578      -0.09415013       0.05435862       0.20037497
Te      -2.07614098      -3.66749531      -6.76669065      -0.01807969       0.01043847       0.20065847
Te       4.20114744       0.01534353      -6.62808100       0.08002305      -0.02451826       0.16680726
Te       2.08728721      -3.64596781      -6.62808111       0.06124574      -0.05704234       0.16680717
Te       0.01012017       2.42630643      -3.70149367       0.00539827      -0.00245933      -0.16694309
Te      -2.09618306      -1.22191578      -3.70149375       0.00482886      -0.00344638      -0.16694315
Te      -4.21972137       2.43625711      -3.68539364      -0.00163092       0.00094148      -0.16839633
Te       2.11241383      -1.21960086      -3.68042486       0.00236535      -0.00136655      -0.17104287
Te       0.02775567       2.44395831     -10.35250288       0.03226470      -0.01702740      -0.00032000
Te      -2.10265196      -1.24601397     -10.35250293       0.03087858      -0.01942902      -0.00031996
Te      -4.08661075       2.35940611     -10.42803477      -0.06292265       0.03632858       0.00846001
Te       2.14895061      -1.24069494     -10.47584442      -0.01802030       0.01040326       0.01952061
Sb       0.00694804       2.42554496       8.44668620       0.00361377       0.00336792      -0.09056200
Sb      -2.09710955      -1.21878764       8.44668630      -0.00110983      -0.00481443      -0.09056185
Sb      -4.18921180       2.41864254       8.40827768       0.00025914      -0.00014966      -0.08199669
Sb       2.11233691      -1.21955615       8.28772300       0.00560491      -0.00323676      -0.04572310
Sb       0.00579875       2.43341263       1.97427651       0.00200282       0.00046562       0.08144673
Sb      -2.10449728      -1.22172542       1.97427653       0.00059842      -0.00196775       0.08144677
Sb      -4.21441868       2.43319633       1.97231046      -0.00015644       0.00009062       0.07920341
Sb       2.11166549      -1.21916818       1.98025320      -0.00057228       0.00032981       0.07992244
Sb      -0.06280540       0.03626163     -12.25848118       0.01665273      -0.00961396      -0.06779796
Sb      -2.00360831      -3.70937282     -12.25651690      -0.05340008       0.03083025      -0.09354227
Sb      -4.09362923      -0.04561985     -12.37538284       0.00044711       0.04384784      -0.03466865
Sb      -2.00730582       3.56799695     -12.37538260      -0.03774928      -0.02231107      -0.03466849
Sb       0.04802427      -0.02772547      12.33755438       0.00506791      -0.00292513       0.07276944
Sb      -2.08802814      -3.66063244      12.23063464       0.00831137      -0.00479856       0.12219779
Sb       4.20360456      -0.02432905      12.38547756       0.00759961      -0.01125652       0.04142931
Sb       2.12287305      -3.62825980      12.38547759       0.01354896      -0.00095289       0.04142940
Sb       2.10627310       1.21636380      -1.96427800      -0.00069682       0.00184179      -0.07903152
Sb      -0.00026482      -2.43226504      -1.96427810      -0.00194311      -0.00031778      -0.07903161
Sb      -2.10175595       1.21345005      -1.98155220       0.00300066      -0.00173204      -0.08016342
Sb       4.22281525      -2.43804099      -1.97743079       0.00601070      -0.00347082      -0.07890890
Sb       2.17193903       1.19146268      -8.47714406      -0.00877805      -0.00155094       0.12122285
Sb       0.05413342      -2.47668240      -8.47714420      -0.00304540       0.00837738       0.12122272
Sb      -2.04630710       1.18143682      -8.25082747       0.00023317      -0.00013410      -0.00966398
Sb       4.17866207      -2.41254893      -8.34370789       0.04143376      -0.02392223       0.06325510
Cr      -1.98611739      -3.71947073      15.91931636      -0.06140544       0.03545225      -0.30844741
61
Lattice="8.428435589532 0.0 0.0 -4.214217794766 7.299235931425 0.0 0.0 0.0 31.033440841609" Properties=species:S:1:pos:R:3:forces:R:3 branch_id=historical_curvature_warp image_index=2 energy=-227.55332286353016 mlff_rel_energy_eV=-4.807539617813575 mlff_fmax_eV_A=0.49992592560411303 calculator_label=/home/ycao73/.cache/mace/20231203mace128L1_epoch199model neb_image=2 neb_protocol=mlff_pre_neb pbc="T T T"
Te       2.13394972       1.19978257       3.74747134       0.00113361       0.00157979       0.01526386
Te       0.02793389      -2.44794215       3.74747130      -0.00080134      -0.00177160       0.01526391
Te      -2.08877411       1.20595572       3.75516866       0.00240217      -0.00138691       0.00788614
Te       4.23725808      -2.44637902       3.75503894      -0.00110731       0.00063937       0.01364782
Te       0.01512400      -0.00873083       6.53022862       0.01424502      -0.00822435       0.01548338
Te      -2.06501442      -3.67392015       6.55511594       0.00178756      -0.00103208      -0.00974593
Te      -4.17540476      -0.02022340       6.56190295      -0.00032287       0.00075622      -0.00698206
Te      -2.07018754       3.62611827       6.56190298      -0.00081633      -0.00009855      -0.00698205
Te       0.01601842      -0.00924681       0.01458049       0.00067283      -0.00038849       0.00127195
Te      -2.08617269      -3.66170403       0.01760153       0.00145986      -0.00084289      -0.00410142
Te      -4.18937343      -0.01544752       0.00559391      -0.00061278      -0.00125704       0.00204500
Te       2.13291027      -3.66340790       0.00559393       0.00078223       0.00115917       0.00204497
Te       0.10084576       2.40584204      14.12503078       0.03883964      -0.00518920       0.06584790
Te      -2.03309667      -1.29025285      14.12503104       0.02391378      -0.03104154       0.06584795
Te      -4.21369134       2.43277673      14.13535192       0.03879399      -0.02239775       0.02997210
Te       2.18881727      -1.26371138      14.01746999       0.00499300      -0.00288278       0.03191045
Te       2.11276881       0.97855914     -14.09737021       0.06034953       0.08699160      -0.00121880
Te       0.20892823      -2.31898857     -14.09737058      -0.04516233      -0.09576006      -0.00121859
Te      -2.13124697       1.23047614     -14.07728503       0.07065920      -0.04079506      -0.00405028
Te       4.40763453      -2.54474691     -14.15124665      -0.08834584       0.05100653      -0.01870998
Te       2.15519099       1.17665949      10.33095795       0.00255012      -0.00280744       0.01489591
Te       0.05857955      -2.45477662      10.33095784       0.00370627      -0.00080477       0.01489587
Te      -2.05522782       1.18658741      10.30136891       0.00154565      -0.00089243       0.01740418
Te       4.22624684      -2.44002209      10.31116400       0.01856114      -0.01071619       0.02619344
Te       0.08757695      -0.05056070      -6.56773684      -0.01288328       0.00743815       0.01700264
Te      -2.11384459      -3.64572737      -6.57238781       0.01373477      -0.00792973       0.01469683
Te       4.25423232       0.01758822      -6.50488726       0.00900733      -0.01433997      -0.00685162
Te       2.11188581      -3.69306293      -6.50488719       0.01692242      -0.00063060      -0.00685160
Te       0.02504670       2.41181478      -3.73564561       0.00276736      -0.00057883      -0.01441485
Te      -2.07616972      -1.22759716      -3.73564563       0.00188494      -0.00210719      -0.01441481
Te      -4.21108482       2.43127070      -3.72469466       0.00661447      -0.00381889      -0.01016799
Te       2.13203640      -1.23093031      -3.72290659       0.00250809      -0.00144806      -0.01325779
Te       0.06533001       2.46076552     -10.28278500       0.02007912      -0.02079027      -0.01989921
Te      -2.09842039      -1.28695833     -10.28278508       0.02804445      -0.00699374      -0.01989918
Te      -4.09108780       2.36199089     -10.35943097      -0.01237576       0.00714516      -0.01340885
Te       2.09203984      -1.20783807     -10.33344320       0.01579466      -0.00911898      -0.00402627
Sb       0.04158487       2.40710733       8.28219541       0.00031455       0.00390079      -0.00533967
Sb      -2.06382349      -1.23956525       8.28219546      -0.00322090      -0.00222286      -0.00533976
Sb      -4.17357903       2.40961713       8.29817643      -0.00080135       0.00046268      -0.00253730
Sb       2.11968530      -1.22379895       8.26407811       0.01783236      -0.01029551       0.01557713
Sb       0.02114030       2.42049049       2.02197073       0.00249582       0.00134439       0.01100269
Sb      -2.08563565      -1.22855072       2.02197077       0.00008372      -0.00283355       0.01100266
Sb      -4.19122574       2.41980586       2.01375789       0.00105149      -0.00060702       0.00482322
Sb       2.13356099      -1.23180973       2.00971199      -0.00348957       0.00201474       0.01429967
Sb      -0.10674823       0.06163179     -12.19976957       0.03857230      -0.02226973      -0.04699880
Sb      -1.96382137      -3.73234407     -12.22456925      -0.00755710       0.00436310      -0.04393660
Sb      -4.14049356      -0.08124312     -12.32477428       0.02503544       0.03921216       0.00747793
Sb      -1.99988738       3.62639389     -12.32477413      -0.02144107      -0.04128739       0.00747799
Sb       0.05947668      -0.03433698      12.32672619       0.00950391      -0.00548703       0.02394003
Sb      -2.07391044      -3.66878311      12.32366089       0.03398711      -0.01962244       0.02974678
Sb       4.24949747      -0.05425127      12.28164185       0.00618558      -0.00803582       0.02078024
Sb       2.17173360      -3.65304250      12.28164173       0.01005201      -0.00133902       0.02078017
Sb       2.12404937       1.20290734      -1.98554574      -0.00126814      -0.00010615      -0.01156319
Sb       0.02027690      -2.44093182      -1.98554576      -0.00054217       0.00115127      -0.01156317
Sb      -2.09074135       1.20709065      -2.00620522       0.00535369      -0.00309098      -0.01024496
Sb       4.24241956      -2.44935980      -2.00299575       0.00090169      -0.00052064      -0.00990447
Sb       2.17618232       1.21169531      -8.29235618      -0.01356307      -0.01500744       0.01059598
Sb       0.03873304      -2.49047363      -8.29235618       0.00621534       0.01924971       0.01059597
Sb      -2.03788275       1.17657322      -8.22996797       0.00192171      -0.00110954      -0.00214776
Sb       4.16783970      -2.40630079      -8.23180941       0.03136746      -0.01811003       0.00499973
Cr      -1.72873373      -3.86807121      16.04520344      -0.38031617       0.21957572      -0.23889756
61
Lattice="8.428435589532 0.0 0.0 -4.214217794766 7.299235931425 0.0 0.0 0.0 31.033440841609" Properties=species:S:1:pos:R:3:forces:R:3 branch_id=historical_curvature_warp image_index=3 energy=-226.9428756371554 mlff_rel_energy_eV=-4.197092391438815 mlff_fmax_eV_A=0.1653243118739902 calculator_label=/home/ycao73/.cache/mace/20231203mace128L1_epoch199model neb_image=3 neb_protocol=mlff_pre_neb pbc="T T T"
Te       2.13202507       1.20085489       3.74366301      -0.00049722       0.00177426       0.01482967
Te       0.02604291      -2.44681152       3.74366296      -0.00178518      -0.00045650       0.01482972
Te      -2.09125067       1.20738556       3.75041696       0.00180124      -0.00103996       0.01057475
Te       4.23556306      -2.44540041       3.75144812      -0.00173889       0.00100401       0.01394801
Te       0.00400203      -0.00230952       6.52114034       0.01288631      -0.00743990       0.00363616
Te      -2.07231135      -3.66970721       6.54042412       0.00133798      -0.00077251      -0.02158992
Te      -4.18562305      -0.01718593       6.54782468      -0.00997687      -0.00298913      -0.01511059
Te      -2.07792721       3.63344880       6.54782473      -0.00239975       0.01013474      -0.01511064
Te       0.01445787      -0.00834584       0.01303399      -0.00057206       0.00033026       0.00271883
Te      -2.08788535      -3.66071523       0.01507848       0.00069301      -0.00040015      -0.00254958
Te      -4.19057568      -0.01497615       0.00314158      -0.00117425      -0.00083771       0.00240504
Te       2.13190092      -3.66260242       0.00314160       0.00013835       0.00143575       0.00240501
Te       0.01146994       2.39794217      14.02549944      -0.00520397      -0.01292908       0.02787789
Te      -2.07094301      -1.20890108      14.02549951       0.00859496       0.01097135       0.02787785
Te      -4.28380622       2.47325766      14.09694256       0.01273527      -0.00735268      -0.00835187
Te       2.20068272      -1.27056175      13.96998408       0.01518787      -0.00876872       0.00868761
Te       1.99878136       0.81369297     -14.12109805       0.01648170      -0.00788052      -0.00473524
Te       0.29471315      -2.13783943     -14.12109874       0.01506552      -0.01033333      -0.00473522
Te      -2.26608238       1.30832332     -14.09890330      -0.01851544       0.01068984       0.00230660
Te       4.53321919      -2.61725317     -14.13339478      -0.00237149       0.00136929      -0.00451772
Te       2.14010241       1.20266008      10.28990791      -0.00291660       0.01894587      -0.00323244
Te       0.02851804      -2.45470983      10.28990787      -0.01786599      -0.00694706      -0.00323243
Te      -2.06117846       1.19002310      10.26852503       0.00413272      -0.00238604      -0.00053096
Te       4.20785561      -2.42940385      10.29598733       0.00637478      -0.00368038      -0.00270988
Te       0.08609319      -0.04970407      -6.56722784      -0.00153917       0.00088864       0.01460317
Te      -2.13044636      -3.63614237      -6.56744545       0.00078838      -0.00045520       0.01966725
Te       4.24158317       0.02954430      -6.48995928       0.00653734      -0.01138439       0.00716092
Te       2.09520692      -3.68808652      -6.48995922       0.01312779       0.00003065       0.00716092
Te       0.02331990       2.41217673      -3.73673248       0.00120150      -0.00172308      -0.01490834
Te      -2.07734659      -1.22628269      -3.73673249       0.00209296      -0.00017900      -0.01490830
Te      -4.21475750       2.43339112      -3.72281796       0.00370418      -0.00213864      -0.01159573
Te       2.12947150      -1.22944946      -3.72226282       0.00069146      -0.00039923      -0.01358761
Te       0.04881670       2.48559475     -10.25783266       0.01563693      -0.00445112       0.00430284
Te      -2.12817993      -1.28507212     -10.25783270       0.01167320      -0.01131642       0.00430283
Te      -4.07902658       2.35502733     -10.33314410       0.00060136      -0.00034716      -0.00353016
Te       2.04303447      -1.17954491     -10.33082771      -0.01820899       0.01051294      -0.00048326
Sb       0.03499382       2.41485748       8.27209995      -0.00052898       0.00542582      -0.01762027
Sb      -2.07383082      -1.23773223       8.27209999      -0.00496335      -0.00225486      -0.01762033
Sb      -4.18363688       2.41542402       8.28621694      -0.00201854       0.00116545      -0.01548859
Sb       2.10645491      -1.21616040       8.25076389       0.00880445      -0.00508327       0.01184351
Sb       0.02005321       2.42130930       2.01898425       0.00135310       0.00172929       0.01148504
Sb      -2.08688831      -1.22801868       2.01898428      -0.00082098      -0.00203638       0.01148502
Sb      -4.19261807       2.42060972       2.00917980       0.00056945      -0.00032871       0.00562000
Sb       2.13260418      -1.23125732       2.00734585      -0.00417913       0.00241285       0.01286660
Sb      -0.16626769       0.09599526     -12.12099933      -0.00683175       0.00394428      -0.01520224
Sb      -1.95702271      -3.73626932     -12.11905828       0.00745676      -0.00430521       0.01102505
Sb      -4.20187729      -0.13932713     -12.38164284      -0.00111400      -0.01089583      -0.00159888
Sb      -1.98027684       3.70859567     -12.38164278       0.00887911       0.00641270      -0.00159898
Sb       0.03604729      -0.02081005      12.29698995       0.00753462      -0.00435005       0.00643309
Sb      -2.12580528      -3.63882168      12.29352484      -0.00126683       0.00073143       0.02712282
Sb       4.25286096      -0.04528446      12.26013392       0.00826849      -0.01010432       0.00063259
Sb       2.16564988      -3.66043860      12.26013383       0.01288489      -0.00210857       0.00063255
Sb       2.12175467       1.20347118      -1.98488919      -0.00190709       0.00053662      -0.01077476
Sb       0.01864124      -2.43922646      -1.98488921      -0.00141829       0.00138323      -0.01077475
Sb      -2.09112196       1.20731039      -2.00792077       0.00416232      -0.00240313      -0.00857673
Sb       4.24157975      -2.44887494      -2.00544317       0.00049479      -0.00028571      -0.01040804
Sb       2.17323737       1.22633851      -8.29686008      -0.00268728      -0.00792553       0.01253372
Sb       0.02457913      -2.49524486      -8.29686009       0.00552009       0.00629003       0.01253370
Sb      -2.04798003       1.18240287      -8.21159270       0.00014270      -0.00008244       0.01039852
Sb       4.14567352      -2.39350318      -8.20444166       0.01853018      -0.01069846       0.01465204
Cr      -1.02740863      -4.27298161      16.51134543      -0.12358369       0.07135114      -0.08347584
61
Lattice="8.428435589532 0.0 0.0 -4.214217794766 7.299235931425 0.0 0.0 0.0 31.033440841609" Properties=species:S:1:pos:R:3:forces:R:3 branch_id=historical_curvature_warp image_index=4 energy=-227.6370382857409 mlff_rel_energy_eV=-4.891255040024333 mlff_fmax_eV_A=0.2785341182528774 calculator_label=/home/ycao73/.cache/mace/20231203mace128L1_epoch199model neb_image=4 neb_protocol=mlff_pre_neb pbc="T T T"
Te       2.12801612       1.19979203       3.74561988      -0.00076327       0.00284090       0.01617801
Te       0.02495891      -2.44280822       3.74561984      -0.00284195      -0.00075941       0.01617805
Te      -2.08839328       1.20573584       3.75133330       0.00103513      -0.00059765       0.00921441
Te       4.23544326      -2.44533124       3.74865687      -0.00159207       0.00091924       0.01548593
Te       0.00763827      -0.00440892       6.55811187       0.01251277      -0.00722426       0.00906033
Te      -2.07844412      -3.66616649       6.54629790      -0.00014381       0.00008300      -0.01489576
Te      -4.18569487      -0.01504614       6.55377790      -0.01271329      -0.00207206      -0.01821045
Te      -2.07981623       3.63244105       6.55377796      -0.00456217       0.01204602      -0.01821051
Te       0.01647117      -0.00950820       0.00757100      -0.00110682       0.00063900       0.00299259
Te      -2.08869989      -3.66024496       0.01039857      -0.00003657       0.00002108      -0.00370426
Te      -4.19275643      -0.01162673       0.00194253      -0.00227826      -0.00117964       0.00262558
Te       2.12790987      -3.66238853       0.00194256      -0.00011753       0.00256282       0.00262554
Te       0.01412170       2.43146200      14.01911984      -0.00599641      -0.00226192       0.01563254
Te      -2.09864606      -1.22795755      14.01911994      -0.00103931       0.00632404       0.01563247
Te      -4.24557080       2.45118224      14.18806053       0.01584024      -0.00914534       0.02770526
Te       2.16201929      -1.24823960      13.99679264      -0.00149522       0.00086326       0.02631737
Te       1.92655301       1.06296018     -14.21656306      -0.00841111       0.06035214      -0.03413771
Te       0.04272705      -2.19992199     -14.21656316      -0.05647220      -0.02289176      -0.03413771
Te      -2.05961742       1.18912119     -14.22275462       0.04677111      -0.02700323      -0.03667363
Te       4.28781081      -2.47556652     -14.10919768      -0.05978248       0.03451548      -0.00396791
Te       2.13189193       1.19875376      10.29679201      -0.00800802       0.02124623      -0.00774183
Te       0.02779570      -2.44564622      10.29679198      -0.02240387      -0.00368798      -0.00774179
Te      -2.07362781       1.19721067      10.27971249       0.00073758      -0.00042586       0.00781509
Te       4.21488487      -2.43346225      10.34518030       0.00911391      -0.00526185       0.01887268
Te       0.04058288      -0.02342861      -6.57896892      -0.00969069       0.00559490       0.01000108
Te      -2.11405533      -3.64560562      -6.56168487       0.00862834      -0.00498158       0.00119606
Te       4.22428623       0.03423991      -6.52895543       0.00002401      -0.00663263      -0.01241247
Te       2.08249198      -3.67545455      -6.52895541       0.00575604       0.00329546      -0.01241243
Te       0.01732095       2.41795568      -3.74094408       0.00154413       0.00033243      -0.01832729
Te      -2.08535076      -1.22397689      -3.74094407       0.00048415      -0.00150348      -0.01832727
Te      -4.20856806       2.42981766      -3.73050381       0.00294933      -0.00170282      -0.01450645
Te       2.12423717      -1.22642742      -3.73411253       0.00104539      -0.00060357      -0.01559372
Te       0.01654078       2.47082685     -10.29681553      -0.00685455      -0.00744607      -0.01331006
Te      -2.13152842      -1.24973612     -10.29681554       0.00302124       0.00965930      -0.01331008
Te      -4.16307646       2.40355357     -10.33281836      -0.03239959       0.01870593       0.00417195
Te       2.08209106      -1.20209406     -10.34779797      -0.00043736       0.00025256      -0.00514744
Sb       0.03078871       2.42756083       8.29228648      -0.00366015       0.00874332      -0.00623053
Sb      -2.08693485      -1.24044221       8.29228649      -0.00940198      -0.00120195      -0.00623061
Sb      -4.18803532       2.41796345       8.28487141      -0.00261373       0.00150908      -0.01240572
Sb       2.12175476      -1.22499379       8.27348887       0.01157420      -0.00668240       0.00953192
Sb       0.01965204       2.42071900       2.01589693       0.00171138       0.00231285       0.00906810
Sb      -2.08657768      -1.22737611       2.01589696      -0.00114721      -0.00263843       0.00906808
Sb      -4.19414981       2.42149408       2.01431090      -0.00074059       0.00042765       0.00435177
Sb       2.13177724      -1.23077988       2.00635855      -0.00435857       0.00251646       0.01360949
Sb      -0.06010986       0.03470518     -12.05332237       0.02469651      -0.01425847      -0.00624158
Sb      -2.05096007      -3.68203446     -12.36433685      -0.03954685       0.02283238      -0.05046794
Sb      -4.24495615       0.02189235     -12.45045270      -0.00778225       0.03692789      -0.01719391
Sb      -2.14143627       3.66529341     -12.45045267      -0.03587176      -0.01172438      -0.01719411
Sb       0.02499454      -0.01442871      12.29655249       0.00400868      -0.00231438       0.00633269
Sb      -2.09924575      -3.65415589      12.30437938       0.00655497      -0.00378452       0.02417276
Sb       4.24100801       0.00177372      12.30826227      -0.00002596       0.00951267       0.02160037
Sb       2.11896970      -3.67370283      12.30826203      -0.00825117      -0.00473390       0.02160037
Sb       2.12110142       1.20437562      -1.99600895      -0.00298836       0.00134096      -0.01177910
Sb       0.01753136      -2.43911295      -1.99600895      -0.00265549       0.00191748      -0.01177909
Sb      -2.08976407       1.20652644      -2.00735286       0.00166369      -0.00096056      -0.01050025
Sb       4.23557754      -2.44540955      -2.00869874      -0.00012734       0.00007348      -0.01236186
Sb       2.12447704       1.22847281      -8.32213860      -0.01423800      -0.00949375      -0.00383868
Sb      -0.00164934      -2.45408416      -8.32213868       0.00110286       0.01707730      -0.00383861
Sb      -2.07254423       1.19658512      -8.28757611      -0.00414628       0.00239383      -0.00999333
Sb       4.17477790      -2.41030647      -8.19911253       0.02187694      -0.01263065      -0.00366800
Cr      -0.14850627      -4.78041699      17.07637392       0.19404966      -0.11203464       0.16545157
61
Lattice="8.428435589532 0.0 0.0 -4.214217794766 7.299235931425 0.0 0.0 0.0 31.033440841609" Properties=species:S:1:pos:R:3:forces:R:3 branch_id=historical_curvature_warp image_index=5 energy=-227.81992016742868 mlff_rel_energy_eV=-5.074136921712096 mlff_fmax_eV_A=0.15910530134640655 calculator_label=/home/ycao73/.cache/mace/20231203mace128L1_epoch199model neb_image=5 neb_protocol=mlff_pre_neb pbc="T T T"
Te       2.13224693       1.19933084       3.69212457      -0.00108403      -0.00325301       0.01252874
Te       0.02747357      -2.44624201       3.69212481       0.00227501       0.00256543       0.01252863
Te      -2.08461778       1.20355586       3.71457594       0.00722907      -0.00417388       0.00170253
Te       4.23550547      -2.44536745       3.67647448       0.00307542      -0.00177539       0.00383859
Te       0.00518495      -0.00299230       6.36715371       0.01008358      -0.00582186       0.07512064
Te      -2.07459002      -3.66839157       6.42164370      -0.00710376       0.00410138       0.04077059
Te      -4.19459816      -0.02482872       6.42049249       0.00014140       0.01214990       0.03633828
Te      -2.07579569       3.64504288       6.42049269      -0.01045150      -0.00619735       0.03633816
Te       0.02056857      -0.01187404      -0.05486190       0.00219051      -0.00126486       0.00802787
Te      -2.06300158      -3.67508207       0.00761952      -0.00794307       0.00458595      -0.01087261
Te      -4.18231369      -0.00599618      -0.02388580      -0.00092881      -0.00372371       0.00824293
Te       2.12825492      -3.67424777      -0.02388604       0.00276025       0.00266620       0.00824313
Te       0.01734514       2.42200287      13.94844541      -0.00367687       0.00212391       0.00151236
Te      -2.08884233      -1.22601914      13.94844555      -0.00367769       0.00212223       0.00151214
Te      -4.22280344       2.43803807      13.84935385       0.00611226      -0.00352895       0.05618784
Te       2.12976479      -1.22961713      13.95881248       0.00281782      -0.00162702       0.00345811
Te       2.15961213       1.27458749     -14.06797680      -0.01396596      -0.02488669      -0.04493474
Te      -0.02401881      -2.50757003     -14.06797711       0.01456935       0.02453819      -0.04493478
Te      -2.22202286       1.28288570     -14.10930348       0.03624653      -0.02092721      -0.03708937
Te       4.22444494      -2.43898258     -14.09196167      -0.00260679       0.00150555      -0.00977075
Te       2.13080658       1.20873664      10.16538487      -0.00605526       0.00026348       0.02352332
Te       0.01860765      -2.44969741      10.16538453      -0.00325584       0.00511241       0.02352356
Te      -2.07419768       1.19753992      10.17660548      -0.00970477       0.00560289       0.01398994
Te       4.21768878      -2.43508093      10.09098349       0.00266844      -0.00154016       0.06902536
Te       0.06863974      -0.03962718      -6.30884916      -0.04181060       0.02413900      -0.10010047
Te      -2.16110846      -3.61843958      -6.53756389       0.00423277      -0.00244393       0.01354731
Te       4.21232807      -0.05099443      -6.49286712       0.00553839       0.00249167       0.00434157
Te       2.15032832      -3.62248133      -6.49286733       0.00061110      -0.00604249       0.00434159
Te       0.03522230       2.44057312      -3.73452347      -0.00562334      -0.00919696      -0.00625405
Te      -2.09598739      -1.25078884      -3.73452375       0.00515309       0.00946864      -0.00625377
Te      -4.19887853       2.42422325      -3.79286049      -0.00125720       0.00072589       0.01633149
Te       2.17443737      -1.25541069      -3.69501462      -0.02216576       0.01279758      -0.02577659
Te      -0.02573241       2.37738418     -10.22943440       0.02957447      -0.00231313      -0.02488332
Te      -2.07174095      -1.16640527     -10.22943482       0.01679049      -0.02445564      -0.02488302
Te      -4.18626123       2.41693909     -10.04040161       0.01163443      -0.00671701      -0.05476706
Te       2.01919517      -1.16578141     -10.27586341       0.02224391      -0.01284218      -0.00870346
Sb       0.03000711       2.40528680       8.15531142      -0.00992183       0.01825229       0.01793240
Sb      -2.06803568      -1.22862804       8.15531119      -0.02076795      -0.00053357       0.01793246
Sb      -4.17799927       2.41216927       8.15064668      -0.00922871       0.00532822       0.04684165
Sb       2.08792053      -1.20545952       8.13519650       0.03677082      -0.02122951       0.03191626
Sb       0.01858259       2.40817066       1.96821222       0.00659622       0.00159486       0.01776646
Sb      -2.07624537      -1.22017632       1.96821241       0.00191693      -0.00650948       0.01776640
Sb      -4.18110917       2.41396486       1.98027728      -0.00068795       0.00039729       0.02998378
Sb       2.12257040      -1.22546474       1.94765592       0.00567773      -0.00327763       0.02346808
Sb      -0.05238900       0.03024784     -12.48266497       0.02402304      -0.01386974       0.10835170
Sb      -2.26906370      -3.55611257     -12.11301838       0.02313449      -0.01335667      -0.08634654
Sb      -4.22703166      -0.16744747     -12.15627231      -0.00787860       0.03554807      -0.08605195
Sb      -1.96850118       3.74443989     -12.15627284      -0.03472529      -0.01095113      -0.08605174
Sb       0.02594477      -0.01497703      12.21576820      -0.00184263       0.00106375       0.03985172
Sb      -2.13129486      -3.63565204      12.15373644       0.03310507      -0.01911311       0.05097238
Sb       4.23638113      -0.02781443      12.19397129      -0.00709577       0.01524714       0.02339733
Sb       2.14228039      -3.65490134      12.19397118      -0.01675224      -0.00147844       0.02339731
Sb       2.15092658       1.21140372      -2.02265989      -0.01078220      -0.00428200      -0.01223228
Sb       0.02635726      -2.46845660      -2.02266006      -0.00168289       0.01147865      -0.01223209
Sb      -2.09344287       1.20865017      -2.05414894       0.00572165      -0.00330348      -0.00319381
Sb       4.26709187      -2.46360431      -1.94929850      -0.01550818       0.00895347      -0.04568313
Sb       2.09087503       1.20247006      -8.15247804       0.00011323       0.00330594      -0.01954195
Sb       0.00406865      -2.41198257      -8.15247773      -0.00280644      -0.00175130      -0.01954239
Sb      -2.02030144       1.16642260      -8.04006780      -0.05615932       0.03242349      -0.09193774
Sb       4.18813656      -2.41801883      -8.37891949       0.01241710      -0.00716907       0.09657784
Cr      -0.02132679      -4.85384307      18.34828666       0.00172668      -0.00099693      -0.15909281
61
Lattice="8.428435589532 0.0 0.0 -4.214217794766 7.299235931425 0.0 0.0 0.0 31.033440841609" Properties=species:S:1:pos:R:3:forces:R:3 branch_id=historical_curvature_warp image_index=6 energy=-226.54744990092811 mlff_rel_energy_eV=-3.801666655211534 mlff_fmax_eV_A=0.7993316706689156 calculator_label=/home/ycao73/.cache/mace/20231203mace128L1_epoch199model neb_image=6 neb_protocol=mlff_pre_neb pbc="T T T"
Te       2.10870921       1.21746383       3.58373571      -0.00303761      -0.00174635       0.74247288
Te       0.00000003      -2.43492420       3.58373571      -0.00000008       0.00350437       0.74246714
Te      -2.10870914       1.21746383       3.58373571       0.00303750      -0.00174639       0.74247297
Te       4.21421779      -2.43307634       3.57866983       0.00000001      -0.00000311       0.79933167
Te      -0.00000000       0.00000000       6.73023730       0.00000002       0.00000548      -0.59206914
Te      -2.11186507      -3.64687025       6.75807582      -0.01109490       0.00640229      -0.72293020
Te      -4.21421776      -0.00549197       6.75807582      -0.00000007      -0.01280590      -0.72293606
Te      -2.10235273       3.65236568       6.75807582       0.01109502       0.00640233      -0.72293029
Te       0.00000000       0.00000000      -0.00547728       0.00000006       0.00000584       0.00165894
Te      -2.10782211      -3.64920445       0.00303373      -0.00552411       0.00318773      -0.03117708
Te      -4.21421776      -0.00082357       0.00303373      -0.00000007      -0.00637290      -0.03117759
Te       2.10782211      -3.64920445       0.00303373       0.00552420       0.00318775      -0.03117707
Te       0.00000000       2.44262829      13.93275255       0.00000006       0.04532592       0.61515507
Te      -2.11537812      -1.22131069      13.93275255      -0.03925026      -0.02266747       0.61516080
Te      -4.21421776       2.43307980      14.11551804      -0.00000010       0.00000316       0.17929583
Te       2.11537812      -1.22131069      13.93275255       0.03925038      -0.02266740       0.61516070
Te       1.97104262       1.13798199     -14.25171701      -0.11908042      -0.06874757      -0.14477600
Te       0.00000003      -2.27596052     -14.25171701      -0.00000005       0.13749876      -0.14477856
Te      -1.97104255       1.13798199     -14.25171701       0.11908038      -0.06874760      -0.14477604
Te       4.21421779      -2.43307634     -13.91299990       0.00000011      -0.00000712      -0.57457032
Te       2.10381612       1.21463880      10.33710037       0.04710739       0.02720321       0.10608764
Te       0.00000003      -2.42927415      10.33710037      -0.00000008      -0.05440066       0.10608771
Te      -2.10381606       1.21463880      10.33710037      -0.04710753       0.02720319       0.10608764
Te       4.21421779      -2.43307634      10.32928454       0.00000005      -0.00000524       0.26239093
Te       0.00000000      -0.00000000      -6.74699509       0.00000011       0.00000631       0.67601773
Te      -2.11643660      -3.64423087      -6.69461214       0.21495588      -0.12410400       0.70257224
Te       4.21421783      -0.01077073      -6.69461214      -0.00000006       0.24821840       0.70257840
Te       2.11643660      -3.64423087      -6.69461214      -0.21495582      -0.12410400       0.70257233
Te      -0.00000000       2.43045523      -3.59552834       0.00000011      -0.00425748      -0.70437223
Te      -2.10483594      -1.21522415      -3.59552834       0.00368651       0.00212160      -0.70437717
Te      -4.21421776       2.43307980      -3.59498629      -0.00000006      -0.00000076      -0.66798592
Te       2.10483594      -1.21522415      -3.59552834      -0.00368644       0.00212167      -0.70437727
Te      -0.00000000       2.40488425     -10.30721420       0.00000009       0.22952776      -0.20456886
Te      -2.08269083      -1.20243866     -10.30721420      -0.19877919      -0.11477062      -0.20456880
Te      -4.21421776       2.43307980     -10.26805999      -0.00000008       0.00000106      -0.29050572
Te       2.08269083      -1.20243866     -10.30721420       0.19877928      -0.11477059      -0.20456880
Sb       0.00000000       2.42739575       8.39926522       0.00000007      -0.03147573       0.24950184
Sb      -2.10218635      -1.21369442       8.39926522       0.02726016       0.01573274       0.24950585
Sb      -4.21421776       2.43307980       8.35798337      -0.00000012       0.00000137       0.34846112
Sb       2.10218635      -1.21369442       8.39926522      -0.02726008       0.01573284       0.24950583
Sb       0.00000000       2.43781189       1.96015735       0.00000011      -0.03369933      -0.37451913
Sb      -2.11120699      -1.21890248       1.96015735       0.02918819       0.01684300      -0.37451906
Sb      -4.21421776       2.43307980       1.95613627      -0.00000007       0.00000422      -0.35576517
Sb       2.11120699      -1.21890248       1.96015735      -0.02918810       0.01684309      -0.37451908
Sb      -0.00000000       0.00000000     -11.97142417       0.00000000       0.00000617      -0.13662230
Sb      -1.99321705      -3.71537172     -12.47690343       0.09231706      -0.05330146       0.13067347
Sb      -4.21421776       0.13151097     -12.47690343      -0.00000002       0.10660471       0.13067523
Sb      -2.22100068       3.58386421     -12.47690343      -0.09231713      -0.05330148       0.13067353
Sb       0.00000000      -0.00000000      12.28357695       0.00000008       0.00000571      -0.35068330
Sb      -2.11302755      -3.64619909      12.34092277       0.03274315      -0.01890566      -0.41066297
Sb       4.21421783      -0.00683429      12.34092277      -0.00000013       0.03781453      -0.41066796
Sb       2.11302755      -3.64619909      12.34092277      -0.03274308      -0.01890559      -0.41066297
Sb       2.10024860       1.21257909      -1.96136998       0.03261846       0.01883987       0.34372316
Sb       0.00000003      -2.42515472      -1.96136998      -0.00000014      -0.03766945       0.34372189
Sb      -2.10024853       1.21257909      -1.96136998      -0.03261856       0.01883978       0.34372316
Sb       4.21421779      -2.43307634      -1.97027533       0.00000006      -0.00000472       0.36594113
Sb       2.10126150       1.21316390      -8.40423866      -0.04870798      -0.02811578      -0.14419448
Sb       0.00000003      -2.42632433      -8.40423866      -0.00000011       0.05623524      -0.14419497
Sb      -2.10126144       1.21316390      -8.40423866       0.04870789      -0.02811579      -0.14419455
Sb       4.21421779      -2.43307634      -8.16991420       0.00000003      -0.00000957      -0.64121835
Cr       0.00000003      -4.86615613      16.71632754       0.00000000      -0.00000033       0.51737058
