61
Lattice="8.42843558953249 0.0 0.0 -4.21421779476624 7.29923593142487 0.0 0.0 0.0 31.03344084160948" Properties=species:S:1:pos:R:3:forces:R:3 repair_mode=unwrap repair_image_index=0 migrant_element=Cr energy=-223.8444651403962 mlff_rel_energy_eV=0.0 mlff_fmax_eV_A=1.204806306113894 calculator_label=/home/ycao73/.cache/mace/20231203mace128L1_epoch199model neb_image=0 neb_protocol=mlff_pre_neb pbc="T T T"
Te       2.10710960       1.21612744       3.42192680      -0.00000252       0.01062703       1.09995506
Te       4.21457537       4.86636523       3.42192680      -0.00919766      -0.00531019       1.09994932
Te       6.32132606       1.21654029       3.40258279       0.00000235       0.00000670       1.15819400
Te      -0.00035754       4.86636602       3.42192681       0.00919750      -0.00531299       1.09992980
Te      -0.07696737       0.04443715       6.96506176       0.15740548      -0.09087292      -1.19101742
Te       2.10710848       3.64961994       7.10629020       0.00000175      -0.00000413      -1.10925646
Te       4.29118520       0.04443665       6.96506157      -0.15740582      -0.09087116      -1.19100252
Te      -2.10710848       3.56074564       6.96506157      -0.00000157       0.18175290      -1.19099520
Te      -0.00000000      -0.00000000       0.00000000       0.00000013       0.00000752      -0.00001066
Te       2.10710891       3.64961970       0.00000000       0.00000001      -0.00000130      -0.00001022
Te       4.21421783      -0.00000000       0.00000000      -0.00000013       0.00000750      -0.00001067
Te      -2.10710891       3.64961970       0.00000000       0.00000013      -0.00000125      -0.00001020
Te       0.09510216       2.48798733      13.95071521      -0.27547168      -0.15904109       1.05840118
Te       2.10710870       5.97288480      13.95071521       0.00000060       0.31808369       1.05840655
Te       4.11911567       2.48798708      13.95071560       0.27547245      -0.15904092       1.05840430
Te      -2.10710870       6.08269937      14.00926900      -0.00000023      -0.00000556       1.11933185
Te       2.10710913       1.32635459      17.08272201      -0.00000061      -0.31808497      -1.05840126
Te       4.11911567       4.81125206      17.08272201       0.27547235       0.15903776      -1.05840579
Te       6.32132652       1.21654002      17.02416822       0.00000027       0.00000286      -1.11932493
Te       0.09510216       4.81125231      17.08272162      -0.27547314       0.15903759      -1.05840891
Te       2.10710868       1.16191020      10.45735891       0.00000098      -0.13680168      -0.11285716
Te       4.26152840       4.89347465      10.45735891       0.11847921       0.06839604      -0.11285834
Te       6.32132698       1.21653976      10.53271700      -0.00000134       0.00000684       0.15451910
Te      -0.04731057       4.89347438      10.45735933      -0.11847852       0.06839674      -0.11285906
Te       0.07696737      -0.04443715      24.06837547      -0.15740541       0.09088580       1.19101702
Te       2.10710934       3.64961945      23.92714703      -0.00000176       0.00000176       1.10925686
Te       4.13725046      -0.04443665      24.06837566       0.15740573       0.09088402       1.19100213
Te      -2.10710934       3.73849375      24.06837566       0.00000179      -0.18175543       1.19099539
Te      -0.00035754       2.43287416      27.61151043       0.00919770       0.00530643      -1.09994583
Te       2.10710823       6.08311195      27.61151043       0.00000246      -0.01062619      -1.09995171
Te       4.21457537       2.43287337      27.61151042      -0.00919755       0.00530921      -1.09992632
Te      -2.10710823       6.08269910      27.63085443      -0.00000235      -0.00000587      -1.15819047
Te      -0.04731057       2.40576474      20.57607831      -0.11847902      -0.06840116       0.11285702
Te       2.10710915       6.13732919      20.57607831      -0.00000103       0.13680084       0.11285844
Te       4.26152840       2.40576501      20.57607789       0.11847833      -0.06840187       0.11285773
Te      -2.10710915       6.08269963      20.50072022       0.00000133      -0.00000730      -0.15451852
Sb      -0.04783569       2.40546014       8.59398377       0.15412203       0.08899643       0.44581473
Sb       2.10711038       6.13793626       8.59398377      -0.00001095      -0.17797783       0.44581885
Sb       4.26205352       2.40546184       8.59398416      -0.15412194       0.08898362       0.44580588
Sb      -2.10711038       6.08270034       8.39629258       0.00001043      -0.00001177       0.45602580
Sb       0.00077807       2.43352644       1.84259646       0.02879867       0.01665282      -0.15601842
Sb       2.10711114       6.08180234       1.84259646      -0.00001842      -0.03327483      -0.15601745
Sb       4.21343976       2.43352901       1.84259675      -0.02879863       0.01663149      -0.15603259
Sb      -2.10711114       6.08270078       1.84746453       0.00001860      -0.00002089      -0.14669964
Sb      -0.06737878       0.03890117      18.68632111       0.08238929      -0.04755923       0.24917976
Sb       2.10710819       3.64962011      18.79321941       0.00000547      -0.00000701       0.55179238
Sb       4.28159661       0.03890034      18.68632135      -0.08238928      -0.04755321       0.24918343
Sb       6.32132747       3.57181777      18.68632135      -0.00000532       0.09512827       0.24918465
Sb       0.06737878      -0.03890117      12.34711612      -0.08238987       0.04757412      -0.24918235
Sb       2.10710964       3.64961928      12.24021781      -0.00000547       0.00000119      -0.55179060
Sb       4.14683905      -0.03890034      12.34711588       0.08238984       0.04756810      -0.24918599
Sb      -2.10710964       3.72742163      12.34711588       0.00000532      -0.09513317      -0.24918309
Sb       2.10710669       1.21743705      29.19084076       0.00001843       0.03327309       0.15602638
Sb       4.21343976       4.86571295      29.19084076      -0.02879872      -0.01665470       0.15602370
Sb       6.32132897       1.21653861      29.18597269      -0.00001861       0.00001919       0.14670844
Sb       0.00077807       4.86571038      29.19084047       0.02879861      -0.01663339       0.15603792
Sb       2.10710745       1.16130313      22.43945345       0.00001095       0.17797692      -0.44581491
Sb       4.26205352       4.89377925      22.43945345      -0.15412207      -0.08900367      -0.44581828
Sb       6.32132821       1.21653905      22.63714464      -0.00001043       0.00001092      -0.45602289
Sb      -0.04783569       4.89377756      22.43945306       0.15412181      -0.08899096      -0.44580932
Cr       2.10710891       3.64961970      15.51671861       0.00000002      -0.00000075      -0.00000049
61
Lattice="8.42843558953249 0.0 0.0 -4.21421779476624 7.29923593142487 0.0 0.0 0.0 31.03344084160948" Properties=species:S:1:pos:R:3:forces:R:3 repair_mode=unwrap repair_image_index=1 migrant_element=Cr energy=-227.76333273180904 mlff_rel_energy_eV=-3.918867591412834 mlff_fmax_eV_A=0.0977064473632472 calculator_label=/home/ycao73/.cache/mace/20231203mace128L1_epoch199model neb_image=1 neb_protocol=mlff_pre_neb pbc="T T T"
Te       2.10621532       1.20788137       3.77304673       0.00549838       0.00074880      -0.04853172
Te       4.22127078       4.87126328       3.77304676       0.00210068      -0.00513635      -0.04853150
Te       6.31803373       1.21844258       3.78904504       0.00781435      -0.00451162      -0.05245457
Te      -0.00795030       4.87074955       3.77330185       0.00267954      -0.00154724      -0.04621478
Te       0.01141720      -0.00659077       6.53418490       0.00871655      -0.00503270       0.07239739
Te       2.11250541       3.64650300       6.47730449       0.00631382      -0.00364494       0.09743408
Te       4.20434738      -0.00582089       6.55175278       0.01697655       0.00066830       0.05787550
Te      -2.10700222       3.66107772       6.55175274       0.00790932      -0.01503594       0.05787534
Te      -0.00215163       0.00124384       0.01659335       0.00324511      -0.00187375       0.00469615
Te       2.11440081       3.64540949       0.02734647       0.00071788      -0.00041445      -0.00264390
Te       4.22134295      -0.00172968       0.01798721       0.00392463      -0.00329123      -0.00063216
Te      -2.10204699       3.64431453       0.01798720       0.00481244      -0.00175330      -0.00063210
Te       0.04782520       2.41846426      14.22104410      -0.04675232      -0.00593030      -0.06586788
Te       2.14367965       6.04858921      14.22104424      -0.01824050       0.04345342      -0.06586799
Te       4.26873290       2.40160640      14.19518132      -0.01842862       0.01063950      -0.03602185
Te      -2.06803286       6.06013792      14.02053521      -0.01084098       0.00625922       0.01572511
Te       2.16512744       1.15849853      16.95644899      -0.01364941      -0.00373587      -0.01804458
Te       4.29349281       4.84493348      16.95644926      -0.00358931       0.01368859      -0.01804460
Te       6.39467102       1.17419469      17.02665646      -0.02460794       0.01420773       0.04433935
Te       0.00529894       4.86309870      16.97447152       0.07421676      -0.04284893      -0.04607650
Te       2.12957350       1.18256233      10.37171579      -0.00350339       0.02796320       0.00442117
Te       4.25487647       4.86369302      10.37171569      -0.02596859      -0.01094727       0.00442118
Te       6.33841192       1.20667652      10.23926155       0.00610226      -0.00352331       0.06730521
Te       0.01709567       4.85628846      10.33314883       0.00224129      -0.00129375       0.03128356
Te       0.07150106      -0.04127919      24.56354946      -0.00649857       0.00375191      -0.07112760
Te       2.15398057       3.62255858      24.55949862       0.00193484      -0.00111730      -0.07365501
Te       4.29766240      -0.00364814      24.55686204      -0.04136491      -0.03153341      -0.05518223
Te      -2.06222561       3.57917997      24.55686194       0.00662630       0.05158956      -0.05518203
Te       0.01737779       2.42138312      27.29666755       0.00117727       0.00265996       0.05395906
Te       2.12592722       6.07349609      27.29666757      -0.00171476      -0.00234938       0.05395921
Te       4.21683459       2.43156878      27.29847156       0.00878302      -0.00507069       0.05562913
Te      -2.08254609       6.06851616      27.29688099      -0.00109632       0.00063300       0.06168691
Te       0.06606268       2.41019823      20.77463339      -0.00674349      -0.01574262      -0.01713941
Te       2.15995636       6.03692707      20.77463306       0.01026189       0.01371113      -0.01713926
Te       4.28339021       2.39314326      20.78736641      -0.00303421       0.00175194      -0.01702805
Te      -2.05337881       6.05167676      20.77730027       0.01284693      -0.00741695      -0.00559243
Sb       0.01073411       2.43645351       8.23565871       0.00042060      -0.01794462       0.04198861
Sb       2.10955424       6.07171460       8.23565833       0.01575070       0.00860835       0.04198863
Sb       4.21091567       2.43498634       8.25314845       0.01439228      -0.00830953       0.04325087
Sb      -2.11031440       6.08454824       8.33756342       0.02022687      -0.01167753      -0.00920122
Sb      -0.00518073       2.43136907       2.04173547       0.00730793       0.00282619      -0.00126908
Sb       2.10600074       6.08804085       2.04173543       0.00120619      -0.00774193      -0.00126930
Sb       4.21528620       2.43246373       2.04222840       0.00361862      -0.00208947      -0.00601638
Sb      -2.10698771       6.08262845       2.02055856       0.00209654      -0.00121028      -0.00035908
Sb       0.01678367      -0.00968917      18.84520036      -0.00521668       0.00301183      -0.05376190
Sb       2.18090648       3.60701206      18.69953613      -0.02834456       0.01636461      -0.00183153
Sb       4.32629844       0.00292873      18.81559424      -0.00222415      -0.00674643      -0.02437471
Sb       6.37483155       3.55109021      18.81559493       0.00473034       0.00529969      -0.02437505
Sb       0.04984896      -0.02877819      12.31528375       0.02336951      -0.01349252       0.00520596
Sb       2.15728249       3.62065211      12.45388777      -0.02279436       0.01316050       0.01526390
Sb       4.22905996      -0.03632726      12.27831391      -0.02186124      -0.00898741       0.02461503
Sb      -2.06822561       3.65493050      12.27831326      -0.00314744       0.02342596       0.02461519
Sb       2.11370534       1.20474703      29.04363860       0.00335514       0.00206688       0.00224032
Sb       4.22772943       4.86634247      29.04363879      -0.00011241      -0.00393894       0.00223999
Sb       6.32487950       1.21448923      29.02290539       0.00711118      -0.00410566       0.02065643
Sb       0.01351129       4.85835767      29.04145132       0.00139904      -0.00080757       0.00361488
Sb       2.17648830       1.17737081      22.82785449      -0.01417399      -0.01454335       0.00035034
Sb       4.28282988       4.82565991      22.82785438       0.00550775       0.01954658       0.00035005
Sb       6.42375881       1.15740193      22.77741255      -0.03911904       0.02258520       0.03079658
Sb       0.03116297       4.84816705      22.86735373       0.00791571      -0.00457007      -0.03802907
Cr       2.13671952       3.63252392      15.62801519       0.04971896      -0.02870543      -0.01808763
61
Lattice="8.42843558953249 0.0 0.0 -4.21421779476624 7.29923593142487 0.0 0.0 0.0 31.03344084160948" Properties=species:S:1:pos:R:3:forces:R:3 repair_mode=unwrap repair_image_index=2 migrant_element=Cr energy=-227.2254835515413 mlff_rel_energy_eV=-3.381018411145078 mlff_fmax_eV_A=0.7371835823186689 calculator_label=/home/ycao73/.cache/mace/20231203mace128L1_epoch199model neb_image=2 neb_protocol=mlff_pre_neb pbc="T T T"
Te       2.11032941       1.21722570       3.77030593       0.00350011       0.00047298      -0.02691185
Te       4.21523541       4.86302817       3.77030588       0.00134042      -0.00326785      -0.02691160
Te       6.31137800       1.22228527       3.77164041       0.00213143      -0.00123059      -0.02274225
Te      -0.00554660       4.86936175       3.78406946       0.00171203      -0.00098863      -0.02408363
Te      -0.01582191       0.00913581       6.49928008       0.00761783      -0.00439826       0.02789935
Te       2.11839004       3.64310567       6.54441876       0.00283863      -0.00163869       0.03077974
Te       4.19638876       0.00936923       6.58164847       0.00602396      -0.00649590       0.02106479
Te      -2.12413658       3.66037508       6.58164857       0.00863748      -0.00196883       0.02106448
Te      -0.00309126       0.00178632       0.03149375       0.00063353      -0.00036589       0.00736611
Te       2.11104653       3.64734610       0.01933691      -0.00173881       0.00100390       0.00424117
Te       4.21711785      -0.00550503       0.02152676       0.00201504      -0.00343531      -0.00108171
Te      -2.10089004       3.64986125       0.02152679       0.00398251      -0.00002748      -0.00108171
Te      -0.02268220       2.43531807      14.10024834      -0.01430053       0.00430795      -0.06810545
Te       2.09383020       6.10122313      14.10024852      -0.01088109       0.01023076      -0.06810584
Te       4.16934945       2.45898573      13.95636466      -0.01155587       0.00667166      -0.10025525
Te      -2.03095382       6.03873057      14.01974736      -0.00779449       0.00450024      -0.03748306
Te       1.89873740       0.96417809      16.88012389      -0.00089520       0.01238323      -0.02161304
Te       4.32858504       5.17279422      16.88012378      -0.01117179      -0.00541665      -0.02161301
Te       6.10549474       1.34115059      16.86903170      -0.05078465       0.02932085      -0.01681605
Te       0.09701668       4.81014562      16.98743232      -0.02144902       0.01238372       0.00444698
Te       2.10217786       1.22198402      10.34904846      -0.00494857       0.01455286      -0.02671943
Te       4.20703830       4.86770750      10.34904833      -0.01507752      -0.00299073      -0.02671956
Te       6.35068886       1.19958855      10.29355147      -0.00725491       0.00418857      -0.00294830
Te      -0.01815058       4.87663808      10.25265177       0.00968631      -0.00559219      -0.05412317
Te       0.07937974      -0.04582796      24.50715965      -0.02498668       0.01442603      -0.05908828
Te       2.12154551       3.64128478      24.56191077      -0.02651058       0.01530572      -0.03480826
Te       4.27824822       0.05520805      24.55478448      -0.03593573      -0.02803815      -0.02163978
Te      -2.12290387       3.56656488      24.55478454       0.00631395       0.04514020      -0.02163956
Te       0.00859749       2.41728537      27.30532944      -0.00467873      -0.00260163       0.02814720
Te       2.12508583       6.08314898      27.30532947      -0.00008615       0.00535281       0.02814727
Te       4.20940690       2.43585716      27.32286395       0.00423308      -0.00244384       0.03677975
Te      -2.08828484       6.07182949      27.30097996      -0.00322474       0.00186182       0.03177632
Te       0.05210856       2.51474311      20.79424414      -0.03282633      -0.02868077       0.01397420
Te       2.06244055       5.99673912      20.79424416       0.00842514       0.04276884       0.01397430
Te       4.29205450       2.38814105      20.73191521      -0.02400443       0.01385906       0.00560845
Te      -2.15596579       6.11090525      20.75161781      -0.04977391       0.02873695      -0.00294812
Sb       0.00196851       2.42039373       8.25622036       0.00432748      -0.01403170      -0.00778013
Sb       2.11907967       6.08733601       8.25622014       0.01431546       0.00326830      -0.00778023
Sb       4.20613401       2.43774696       8.34007559       0.00701384      -0.00404956      -0.01428665
Sb      -2.15731093       6.11168184       8.29770114       0.00339051      -0.00195732      -0.02402859
Sb      -0.00131228       2.43875440       2.04023280       0.00167892       0.00223999       0.01913453
Sb       2.10153902       6.08099796       2.04023273      -0.00110050      -0.00257387       0.01913445
Sb       4.21234922       2.43415929       2.02640460       0.00402694      -0.00232503       0.00846120
Sb      -2.10516428       6.08157569       2.03304792       0.00242316      -0.00139885       0.01815521
Sb      -0.11677178       0.06741886      19.14676232      -0.00469652       0.00271158      -0.05723435
Sb       2.27533596       3.55249343      18.60174079      -0.06373176       0.03679544      -0.00718140
Sb       4.16846254      -0.01355678      18.66856864      -0.03907999      -0.01471147      -0.00576495
Sb       6.31019109       3.69602303      18.66856899      -0.00679942       0.04119981      -0.00576506
Sb       0.01798892      -0.01038416      12.38650067      -0.01573939       0.00908698       0.00384752
Sb       2.01499219       3.70280325      12.32390660      -0.00885331       0.00511160      -0.01468202
Sb       4.24350431      -0.07670655      12.25207346      -0.00685640      -0.01472182       0.00486422
Sb      -2.02603399       3.66261122      12.25207296       0.00932125       0.01329886       0.00486416
Sb       2.10578130       1.20261444      29.05283407      -0.00212051      -0.00029374      -0.00946379
Sb       4.22561436       4.87427129      29.05283419      -0.00080594       0.00198325      -0.00946399
Sb       6.32570287       1.21401395      29.04465097       0.00674139      -0.00389224       0.00065024
Sb       0.01112136       4.85973756      29.03917450      -0.00026221       0.00015141      -0.01918413
Sb       2.16402763       1.23139726      22.77970262      -0.02276347      -0.00308074       0.00672457
Sb       4.22981105       4.80943775      22.77970264      -0.00871381       0.02125418       0.00672436
Sb       6.41772166       1.16088742      22.74554819      -0.03901874       0.02252739       0.00438131
Sb      -0.02263584       4.87922756      22.95011828      -0.00626337       0.00361628      -0.00806195
Cr       3.70768329       2.72552704      16.45131604       0.46435466      -0.26809555       0.50590430
61
Lattice="8.42843558953249 0.0 0.0 -4.21421779476624 7.29923593142487 0.0 0.0 0.0 31.03344084160948" Properties=species:S:1:pos:R:3:forces:R:3 repair_mode=unwrap repair_image_index=3 migrant_element=Cr energy=-227.921767799271 mlff_rel_energy_eV=-4.0773026588748 mlff_fmax_eV_A=0.13813763840176455 calculator_label=/home/ycao73/.cache/mace/20231203mace128L1_epoch199model neb_image=3 neb_protocol=mlff_pre_neb pbc="T T T"
Te       2.10405380       1.21784051       3.73599518      -0.00656959       0.00258295      -0.05310591
Te       4.21156514       4.86815564       3.73599520      -0.00552175       0.00439770      -0.05310561
Te       6.30788667       1.22430094       3.75140230       0.00106140      -0.00061287      -0.06064257
Te      -0.00689374       4.87013952       3.72964274      -0.00479691       0.00276929      -0.04271939
Te      -0.02047252       0.01182085       6.46268006      -0.00264385       0.00152624       0.04753430
Te       2.08968681       3.65967740       6.47314536       0.00737271      -0.00425619       0.03378272
Te       4.19681911      -0.00786090       6.46518551      -0.00238611       0.02291149       0.04313424
Te      -2.10899958       3.66861737       6.46518535      -0.02103517      -0.00938893       0.04313399
Te      -0.01353632       0.00781675      -0.02124568      -0.00296917       0.00171413      -0.00208623
Te       2.09256886       3.65801411       0.00061910       0.00050627      -0.00029228      -0.01790235
Te       4.20732900       0.00277971      -0.02036450      -0.00496978       0.00614567      -0.00419549
Te      -2.11295925       3.65419620      -0.02036451      -0.00780732       0.00123108      -0.00419545
Te      -0.03660612       2.45010669      13.97040800      -0.00146293       0.00478248      -0.02570795
Te       2.07406109       6.10588763      13.97040777      -0.00487354      -0.00112428      -0.02570824
Te       4.16024240       2.46424376      13.93970725       0.01258130      -0.00726414      -0.02426369
Te      -2.13048299       6.09619384      13.98123172      -0.01870945       0.01080208      -0.02624688
Te       2.02366424       1.26848135      16.79926811      -0.00604108      -0.00566978       0.05475495
Te       4.12751313       4.91245331      16.79926783       0.00188958       0.00806648       0.05475510
Te       6.19636063       1.28868933      16.76313429       0.01802620      -0.01040746       0.08057265
Te      -0.07682114       4.91051084      16.86336235       0.00718376      -0.00414745      -0.11945730
Te       2.08859953       1.23505731      10.21080821      -0.00503806      -0.00140343       0.01086680
Te       4.18892732       4.87293016      10.21080846      -0.00130366       0.00506493       0.01086640
Te       6.30210713       1.22763729      10.22505765      -0.00083795       0.00048370      -0.00488303
Te      -0.03314028       4.88529242      10.20063442       0.00119193      -0.00068802       0.00875812
Te      -0.06365615       0.03675385      24.47588962      -0.00073616       0.00042479      -0.00778018
Te       2.00285481       3.70981090      24.44927233       0.01270036      -0.00733267      -0.05870652
Te       4.13611773       0.04662424      24.47626106      -0.01133233      -0.01097245      -0.06248812
Te      -2.18653480       3.69394540      24.47626089       0.00383597       0.01530015      -0.06248776
Te      -0.01611998       2.43915854      27.25196984      -0.00513674       0.01615718       0.03714539
Te       2.09378434       6.09361822      27.25196981      -0.01656070      -0.00362982       0.03714563
Te       4.18346264       2.45083607      27.25325690      -0.00195317       0.00112788       0.03300279
Te      -2.13233263       6.09726036      27.27180547       0.00842205      -0.00486240       0.02840166
Te      -0.08915123       2.46135795      20.68825704      -0.01052234      -0.01608864      -0.02001685
Te       2.03804415       6.14576608      20.68825670       0.00867187       0.01715704      -0.02001669
Te       4.13937137       2.47629248      20.72569874      -0.00858616       0.00495712       0.00034162
Te      -2.25019394       6.16530780      20.64818598       0.00732232      -0.00422739       0.00607044
Sb      -0.01548722       2.43758877       8.21699412      -0.00460580       0.00811743      -0.00328834
Sb       2.09546050       6.09385548       8.21699387      -0.00933292      -0.00006963      -0.00328834
Sb       4.20896420       2.43611308       8.17626588      -0.01077497       0.00622078       0.03510773
Sb      -2.13727572       6.10011433       8.21508026       0.00571071      -0.00329664      -0.00702155
Sb      -0.00936341       2.42869332       2.00649290      -0.00112494       0.00815789      -0.01403872
Sb       2.10622666       6.09300096       2.00649286      -0.00762768      -0.00310464      -0.01403900
Sb       4.20972094       2.43567681       1.99294574      -0.00417787       0.00241179      -0.00355437
Sb      -2.11484965       6.08716751       1.98490774      -0.00199893       0.00115433      -0.00274816
Sb      -0.13279681       0.07667134      18.56776516       0.02562076      -0.01479237       0.06440064
Sb       1.89916731       3.76967376      18.75124755      -0.02665528       0.01538968      -0.04594817
Sb       4.11198356      -0.07508192      18.72532999       0.00972474      -0.04968223      -0.03077755
Sb       6.33523307       3.77569737      18.72532932       0.04788849       0.01641951      -0.03077747
Sb      -0.02191537       0.01265497      12.22146034       0.00187551      -0.00108321       0.04320872
Sb       2.06197399       3.67567833      12.22790764       0.00775425      -0.00447651       0.00919774
Sb       4.18226213       0.01854888      12.24269244       0.00533196       0.00468051       0.00230424
Sb      -2.13914860       3.66802088      12.24269221      -0.00138792      -0.00695778       0.00230422
Sb       2.09447441       1.22874060      29.01004241      -0.00025095      -0.00024542      -0.00859155
Sb       4.19733491       4.87100015      29.01004263       0.00008695       0.00034013      -0.00859195
Sb       6.30396208       1.22656589      28.97951749      -0.00612910       0.00353849       0.01149901
Sb      -0.00842384       4.87102193      28.99120323      -0.00934664       0.00539647       0.00314585
Sb       2.01890716       1.26834971      22.73409065      -0.01110160      -0.01347833       0.02572027
Sb       4.12524923       4.91663946      22.73409079       0.00612161       0.01635341       0.02572009
Sb       6.24925222       1.25815321      22.75997709       0.01788434      -0.01032578       0.01672600
Sb      -0.11287510       4.93132755      22.72555008       0.01545405      -0.00892233      -0.03865037
Cr       4.11044940       2.49299027      17.97093428       0.01208950      -0.00697973       0.13743047
61
Lattice="8.42843558953249 0.0 0.0 -4.21421779476624 7.29923593142487 0.0 0.0 0.0 31.03344084160948" Properties=species:S:1:pos:R:3:forces:R:3 repair_mode=unwrap repair_image_index=4 migrant_element=Cr energy=-223.85224320526925 mlff_rel_energy_eV=-0.007778064873036783 mlff_fmax_eV_A=1.282310985367223 calculator_label=/home/ycao73/.cache/mace/20231203mace128L1_epoch199model neb_image=4 neb_protocol=mlff_pre_neb pbc="T T T"
Te       2.07681118       1.19904749       3.41874951       0.06815396       0.03935701       1.12282373
Te       4.21421783       4.90114442       3.41874951      -0.00000009      -0.07870063       1.12281780
Te       6.35162447       1.19904749       3.41874951      -0.06815406       0.03935696       1.12282383
Te      -0.00000000       4.86615959       3.44214538       0.00000001      -0.00000279       0.98809752
Te       0.00000000       0.00000000       6.91110412       0.00000001       0.00000543      -1.13270071
Te       2.16533053       3.61600542       6.92505787      -0.07310421       0.04220361      -0.97716099
Te       4.21421783       0.06722856       6.92505787      -0.00000008      -0.08440804      -0.97716788
Te      -2.16533053       3.61600542       6.92505787       0.07310432       0.04220366      -0.97716109
Te       0.00000000       0.00000000      -0.01585640       0.00000008       0.00000736      -0.00570418
Te       2.13183918       3.63534166      -0.00539679       0.01563109      -0.00902576       0.02454014
Te       4.21421783       0.02855607      -0.00539679      -0.00000008       0.01805679       0.02453980
Te      -2.13183918       3.63534166      -0.00539679      -0.01563097      -0.00902574       0.02454014
Te       0.00000000       2.49282831      13.88098103       0.00000006      -0.30344744       0.74421755
Te       2.05536521       6.05282524      13.88098103       0.26279554       0.15171942       0.74422411
Te       4.21421783       2.43307980      13.79989804      -0.00000012       0.00000344       0.97522120
Te      -2.05536521       6.05282524      13.88098103      -0.26279542       0.15171949       0.74422402
Te       1.96138091       1.13240375      17.15032516       0.59263322       0.34216004      -0.86778567
Te       4.21421783       5.03443189      17.15032516      -0.00000005      -0.68432123      -0.86779247
Te       6.46705474       1.13240375      17.15032516      -0.59263330       0.34216005      -0.86778579
Te      -0.00000000       4.86615959      16.23850217       0.00000002      -0.00000114       0.92307228
Te       2.07052235       1.19541663      10.38043244      -0.09288845      -0.05362286       0.10136096
Te       4.21421783       4.90840613      10.38043244      -0.00000011       0.10725217       0.10136002
Te       6.35791330       1.19541663      10.38043244       0.09288834      -0.05362289       0.10136096
Te      -0.00000000       4.86615959      10.35109097       0.00000005      -0.00000659      -0.01176560
Te       0.00000000       0.00000000      24.37414111       0.00000011       0.00000598       0.93430113
Te       2.06440396       3.67427542      24.10437237       0.12652264      -0.07304705       1.17378777
Te       4.21421783      -0.04931145      24.10437237      -0.00000006       0.14610320       1.17379407
Te      -2.06440396       3.67427542      24.10437237      -0.12652255      -0.07304706       1.17378789
Te       0.00000000       2.48047182      27.59663590       0.00000012      -0.07632698      -1.01817960
Te       2.06606623       6.05900348      27.59663590       0.06609986       0.03815592      -1.01818481
Te       4.21421783       2.43307980      27.57130687      -0.00000006      -0.00000101      -1.02965401
Te      -2.06606623       6.05900348      27.59663590      -0.06609977       0.03815599      -1.01818491
Te      -0.00000000       2.44919457      20.67789053       0.00000010       0.01662821      -0.21742864
Te       2.09315313       6.07464211      20.67789053      -0.01440112      -0.00831953      -0.21742806
Te       4.21421783       2.43307980      21.01492299      -0.00000006      -0.00000070      -0.18510698
Te      -2.09315313       6.07464211      20.67789053       0.01440121      -0.00831950      -0.21742807
Sb      -0.00000000       2.43246271       8.46789382       0.00000008       0.08203560       0.18531610
Sb       2.10764333       6.08300804       8.46789382      -0.07104391      -0.04102395       0.18531985
Sb       4.21421783       2.43307980       8.62437001      -0.00000013       0.00000169       0.08958792
Sb      -2.10764333       6.08300804       8.46789382       0.07104402      -0.04102383       0.18531981
Sb      -0.00000000       2.43434111       1.84055693       0.00000012       0.07307365      -0.19991272
Sb       2.10601658       6.08206883       1.84055693      -0.06327974      -0.03654500      -0.19991207
Sb       4.21421783       2.43307980       1.87858587      -0.00000011       0.00000465      -0.13824712
Sb      -2.10601658       6.08206883       1.84055693       0.06327986      -0.03654487      -0.19991212
Sb       0.00000000       0.00000000      18.93507092       0.00000007       0.00000974       0.60547356
Sb       1.97526166       3.72574175      18.57680326      -0.47035315       0.27155452       0.12415852
Sb       4.21421783      -0.15224410      18.57680326      -0.00000005      -0.54311415       0.12415657
Sb       6.45317400       3.72574175      18.57680326       0.47035315       0.27155456       0.12415854
Sb       0.00000000       0.00000000      12.37598846       0.00000008       0.00000640      -0.20870475
Sb       2.10086875       3.65322246      12.20931014       0.05117479      -0.02954712      -0.16178237
Sb       4.21421783      -0.00720553      12.20931014      -0.00000013       0.05909824      -0.16178583
Sb      -2.10086875       3.65322246      12.20931014      -0.05117468      -0.02954704      -0.16178236
Sb       2.10847988       1.21733143      29.16138514      -0.02884475      -0.01664517       0.09711688
Sb       4.21421783       4.86457654      29.16138514      -0.00000018       0.03330062       0.09711474
Sb       6.31995578       1.21733143      29.16138514       0.02884464      -0.01664526       0.09711686
Sb      -0.00000000       4.86615959      29.23540596       0.00000007      -0.00000663       0.13499738
Sb       2.03423865       1.17446823      22.63158697      -0.14733142      -0.08505615      -0.26123558
Sb       4.21421783       4.95030294      22.63158697      -0.00000013       0.17011599      -0.26123743
Sb       6.39419701       1.17446823      22.63158697       0.14733134      -0.08505617      -0.26123565
Sb      -0.00000000       4.86615959      22.48200101       0.00000003      -0.00000861      -0.26605321
Cr       4.21421783       2.43307980      18.58850245      -0.00000002       0.00000046      -1.28231099
