61
Lattice="8.42843558953 0 0 -4.21421779477 7.29923593142 0 0 0 31.0334408416" Properties=species:S:1:pos:R:3:forces:R:3 energy=-133599.800318 ionic_step=0 pbc="T T T"
Te 1.7745586054 1.0245417989 3.218651531 7.12195634547e-05 3.3681454197e-05 -0.00350030013311
Te 4.2142178275 5.2501557939 3.218651531 2.57110337382e-05 -8.09897562752e-05 -0.003535267139
Te 6.6538770497 1.0245417989 3.218651531 -6.83913497435e-05 6.55631360323e-05 -0.0035290964909
Te 0 4.8661595943 3.0234570355 -5.11649571389e-05 -2.10830476653e-05 -0.00422689394655
Te 0 0 6.8779535799 -0.000105158127989 -6.81342394061e-05 -0.00494346045684
Te 2.6259068829 3.3500914094 7.6897713358 -0.000163779284912 0.000229856641619 -0.0113552780505
Te 4.2142178275 0.5990565727 7.6897713358 0.000125984065317 -0.000240912386127 -0.0113545067194
Te -2.6259068829 3.3500914094 7.6897713358 0.000179205905155 8.6903294035e-05 -0.011370961781
Te 0 0 -0.414685295 6.9419791093e-06 -4.88509641025e-06 -0.00266623419865
Te 2.4546806272 3.4489489804 -0.0692581536 0.00274696684459 -0.00161953801517 -0.00497739902137
Te 4.2142178275 0.4013414308 -0.0692581536 -2.57110337382e-07 0.00320976545187 -0.00498305544879
Te -2.4546806272 3.4489489804 -0.0692581536 -0.00275005216863 -0.00160951071201 -0.00495708730472
Te -0 2.8084022144 13.8368643022 4.85938537651e-05 -0.00840339426698 0.00102998401155
Te 1.7820703147 5.8950382843 13.8368643022 0.00736903937969 0.00425491897333 0.00113848457393
Te 4.2142178275 2.4330797971 13.7874534109 1.38839582186e-05 -1.28555168691e-05 0.000588782672604
Te -1.7820703147 5.8950382843 13.8368643022 -0.00731761731222 0.00425723296637 0.00105260972124
Te 1.5268972385 0.8815543664 17.5112018187 -0.0100324453646 -0.0058050371974 0.00975862285532
Te 4.2142178275 5.5361306587 17.5112018187 -0.000390036381808 0.0116005613123 0.00971491409796
Te 6.9015384166 0.8815543664 17.5112018187 0.00988614958266 -0.00612591089845 0.00975039532452
Te 0 4.8661595943 16.0597534207 0.000311360618569 0.00019540385641 0.0106299697887
Te 1.5796807726 0.9120289777 10.7761871371 -0.0044734627601 -0.0025978428489 -0.0152972937432
Te 4.2142178275 5.4751814361 10.7761871371 -0.000151952209393 0.00513115100313 -0.0153109205911
Te 6.8487548824 0.9120289777 10.7761871371 0.00438141725932 -0.00270660052162 -0.0153168341288
Te 0 4.8661595943 10.3186917949 9.43594938191e-05 6.60773567071e-05 -0.0173701172832
Te -0 0 23.9570724432 4.62798607287e-06 -4.60227503913e-05 0.00435879154963
Te 2.484150657 3.4319344353 23.8609631548 0.00213144469689 -0.00121381790278 0.0048524433974
Te 4.2142178275 0.4353705209 23.8609631548 -3.44527852091e-05 0.00244769041187 0.00484627274931
Te -2.484150657 3.4319344353 23.8609631548 -0.00220652091541 -0.00126961084599 0.00487326933473
Te 0 2.9495648802 27.7282981002 7.48191081781e-05 -0.00150049592896 0.00602255254283
Te 1.6598199164 5.8244569514 27.7282981002 0.00129609321074 0.000786757632388 0.00601458212237
Te 4.2142178275 2.4330797971 27.1903827088 -7.25051151416e-05 -5.57929432118e-05 0.00812237266822
Te -1.6598199164 5.8244569514 27.7282981002 -0.00127809548712 0.000820181976247 0.00603257984599
Te 0 2.9618132266 20.5730833125 0.000129326499703 -0.00238161305517 0.0078202680218
Te 1.649212554 5.8183327781 20.5730833125 0.00213041625554 0.00122924452302 0.00761843640696
Te 4.2142178275 2.4330797971 20.625481318 -3.05961301484e-05 -2.31399303643e-05 0.0210370249149
Te -1.649212554 5.8183327781 20.5730833125 -0.00202268702418 0.00130303518985 0.00778787211929
Sb -0 2.4220716923 8.4491868017 -8.22753079621e-05 -0.00483804521851 -0.0141084155431
Sb 2.1166422084 6.0882035453 8.4491868017 0.00421866641576 0.00240243899249 -0.0140464519518
Sb 4.2142178275 2.4330797971 9.8199358727 2.54539234008e-05 5.6564274224e-05 -0.0155549183013
Sb -2.1166422084 6.0882035453 8.4491868017 -0.00422689394655 0.00232453456027 -0.0141179286256
Sb 0 2.4238174955 1.4037560596 -9.25597214574e-05 -0.00160488272594 -0.00603643650105
Sb 2.1151302988 6.0873306437 1.4037560596 0.0014141068556 0.000861576740566 -0.00608914412021
Sb 4.2142178275 2.4330797971 2.2145800094 3.47098955465e-05 -9.7701928205e-06 -0.00613748086364
Sb -2.1151302988 6.0873306437 1.4037560596 -0.00145190207519 0.000764389033036 -0.00607885970671
Sb -0 -0 19.8974263537 -0.000239112613765 -0.000131383382402 0.00451871417948
Sb 2.0132423027 3.7038135988 18.044032134 -0.00666764237932 0.00414153331454 0.0105754623972
Sb 4.2142178275 -0.108387806 18.044032134 0.000214944242051 -0.00787246142029 0.0105345818535
Sb 6.4151933523 3.7038135988 18.044032134 0.00674760369424 0.00393378816194 0.0105916603484
Sb 0 -0 14.1960608427 -0.000165321946936 -0.000129840720378 0.00366485074904
Sb 2.2238991966 3.5821907623 11.9720219617 0.00180105791336 -0.000811440224776 -0.00983678439788
Sb 4.2142178275 0.134857867 11.9720219617 0.000117499424183 0.00195095324005 -0.0097763634686
Sb -2.2238991966 3.5821907623 11.9720219617 -0.00179283038256 -0.00100118765376 -0.00983447040485
Sb 2.1436565663 1.2376407055 28.8265833321 0.00318868240421 0.00180208635471 0.00371678703719
Sb 4.2142178275 4.8239579805 28.8265833321 -4.4480088367e-05 -0.0036075151438 0.00369184733446
Sb 6.2847790888 1.2376407055 28.8265833321 -0.00313906010909 0.00176454824545 0.00369133311379
Sb 0 4.8661595943 29.8538660485 8.74175147098e-05 4.47371987044e-05 0.00126678263228
Sb 1.9752264564 1.1403975077 22.1143375464 0.00126446863924 0.000713481186234 0.00385896905376
Sb 4.2142178275 5.0184443759 22.1143375464 -0.000111585886424 -0.00134005907843 0.00381423185506
Sb 6.4532091986 1.1403975077 22.1143375464 -0.00119479173781 0.00056461430089 0.00378312150423
Sb 0 4.8661595943 23.4254231318 0.000217515345425 0.000126498285992 0.00406619998569
Cr 4.2142178275 2.4330797972 18.2170390305 -0.000213401580027 -8.27895286369e-05 0.0110246341566
