61
Lattice="8.42843558953249 0.0 0.0 -4.21421779476624 7.29923593142487 0.0 0.0 0.0 31.03344084160948" Properties=species:S:1:pos:R:3 repair_mode=unwrap repair_image_index=0 migrant_element=Cr pbc="T T T"
Te       2.10710960       1.21462736       3.47415502
Te       4.21587447       4.86711527       3.47415502
Te       6.32132606       1.21654029       3.46466275
Te      -0.00165665       4.86711606       3.47415503
Te      -0.02695353       0.01556163       6.87246688
Te       2.10710848       3.64961994       6.92340891
Te       4.24117136       0.01556114       6.87246669
Te      -2.10710848       3.61849668       6.87246669
Te       0.00000000      -0.00000000      -0.00000000
Te       2.10710891       3.64961970       0.00000000
Te       4.21421783      -0.00000000      -0.00000000
Te      -2.10710891       3.64961970      -0.00000000
Te       0.04989991       2.46188979      13.94767274
Te       2.10710870       6.02507988      13.94767274
Te       4.16431791       2.46188954      13.94767313
Te      -2.10710870       6.08269937      13.89721196
Te       2.10710913       1.27415951      17.08576449
Te       4.16431791       4.83734960      17.08576449
Te       6.32132652       1.21654002      17.13622527
Te       0.04989991       4.83734985      17.08576410
Te       2.10710868       1.19979071      10.38957074
Te       4.22872293       4.87453439      10.38957074
Te       6.32132698       1.21653976      10.39367857
Te      -0.01450510       4.87453412      10.38957116
Te       0.02695353      -0.01556163      24.16097035
Te       2.10710934       3.64961945      24.11002832
Te       4.18726430      -0.01556114      24.16097054
Te      -2.10710934       3.68074272      24.16097054
Te      -0.00165665       2.43212412      27.55928221
Te       2.10710823       6.08461203      27.55928221
Te       4.21587447       2.43212333      27.55928220
Te      -2.10710823       6.08269910      27.56877447
Te      -0.01450510       2.42470500      20.64386649
Te       2.10710915       6.09944868      20.64386649
Te       4.22872293       2.42470527      20.64386606
Te      -2.10710915       6.08269963      20.63975866
Sb      -0.03010179       2.41569882       8.46835666
Sb       2.10711038       6.11745891       8.46835666
Sb       4.24431962       2.41570051       8.46835705
Sb      -2.10711038       6.08270034       8.40236640
Sb       0.00023601       2.43321348       1.88274910
Sb       2.10711114       6.08242826       1.88274910
Sb       4.21398182       2.43321606       1.88274939
Sb      -2.10711114       6.08270078       1.88196358
Sb      -0.05024943       0.02901154      18.75537477
Sb       2.10710819       3.64962011      18.71413272
Sb       4.26446726       0.02901070      18.75537502
Sb       6.32132747       3.59159704      18.75537502
Sb       0.05024943      -0.02901154      12.27806246
Sb       2.10710964       3.64961928      12.31930450
Sb       4.16396839      -0.02901070      12.27806221
Sb      -2.10710964       3.70764235      12.27806221
Sb       2.10710669       1.21681113      29.15068812
Sb       4.21398182       4.86602591      29.15068812
Sb       6.32132897       1.21653861      29.15147365
Sb       0.00023601       4.86602333      29.15068783
Sb       2.10710745       1.18178048      22.56508056
Sb       4.24431962       4.88354057      22.56508056
Sb       6.32132821       1.21653905      22.63107083
Sb      -0.03010179       4.88353888      22.56508018
Cr       2.10710891       3.64961970      15.51671861
61
Lattice="8.42843558953249 0.0 0.0 -4.21421779476624 7.29923593142487 0.0 0.0 0.0 31.03344084160948" Properties=species:S:1:pos:R:3 repair_mode=unwrap repair_image_index=1 migrant_element=Cr pbc="T T T"
Te       2.10710960       1.22577734       3.49550851
Te       4.20621831       4.86154028       3.49550851
Te       6.32132606       1.21654029       3.49661668
Te       0.00799952       4.86154107       3.49550852
Te       0.08657344      -0.04998322       6.84607645
Te       2.10710848       3.64961994       6.85313289
Te       4.12764438      -0.04998372       6.84607626
Te      -2.10710848       3.74958639       6.84607626
Te       0.00475239      -0.00274380       0.00092796
Te       2.10710891       3.64961970      -0.00284764
Te       4.20946543      -0.00274380       0.00092796
Te      -2.10710891       3.65510729       0.00092796
Te      -0.34531335       2.23371320      13.76566876
Te       2.10710870       6.48143307      13.76566876
Te       4.55953118       2.23371295      13.76566915
Te      -2.10710870       6.08269937      13.78769913
Te       2.10710913       1.22669761      17.19519858
Te       4.20542110       4.86108055      17.19519858
Te       6.32132652       1.21654002      17.24112858
Te       0.00879673       4.86108080      17.19519819
Te       2.10710868       1.37197179      10.40452199
Te       4.07960980       4.78844385      10.40452199
Te       6.32132698       1.21653976      10.26474460
Te       0.13460802       4.78844358      10.40452242
Te       0.00497997      -0.00287519      24.16796344
Te       2.10710934       3.64961945      24.16496997
Te       4.20923786      -0.00287469      24.16796363
Te      -2.10710934       3.65536982      24.16796363
Te      -0.00594146       2.42965028      27.55400504
Te       2.10710823       6.08955971      27.55400504
Te       4.22015929       2.42964949      27.55400503
Te      -2.10710823       6.08269910      27.54546756
Te      -0.00473116       2.43034799      20.68739982
Te       2.10710915       6.08816270      20.68739982
Te       4.21894898       2.43034826      20.68739939
Te      -2.10710915       6.08269963      20.69027710
Sb       0.02110924       2.44526554       8.46233487
Sb       2.10711038       6.05832547       8.46233487
Sb       4.19310858       2.44526723       8.46233526
Sb      -2.10711038       6.08270034       8.53831106
Sb       0.00272026       2.43464777       1.89127411
Sb       2.10711114       6.07955969       1.89127411
Sb       4.21149757       2.43465034       1.89127440
Sb      -2.10711114       6.08270078       1.90382391
Sb       0.00140500      -0.00081118      18.80149101
Sb       2.10710819       3.64962011      18.79123216
Sb       4.21281283      -0.00081202      18.80149126
Sb       6.32132747       3.65124247      18.80149126
Sb       0.01962771      -0.01133207      12.12299682
Sb       2.10710964       3.64961928      13.99752396
Sb       4.19459011      -0.01133123      12.12299658
Sb      -2.10710964       3.67228342      12.12299658
Sb       2.10710669       1.21182571      29.14391527
Sb       4.21829932       4.86851862      29.14391527
Sb       6.32132897       1.21653861      29.15690047
Sb      -0.00408149       4.86851604      29.14391498
Sb       2.10710745       1.21270292      22.57514258
Sb       4.21754001       4.86807935      22.57514258
Sb       6.32132821       1.21653905      22.57652147
Sb      -0.00332218       4.86807766      22.57514219
Cr       2.10710897       3.64961966      12.58902861
61
Lattice="8.42843558953249 0.0 0.0 -4.21421779476624 7.29923593142487 0.0 0.0 0.0 31.03344084160948" Properties=species:S:1:pos:R:3 repair_mode=unwrap repair_image_index=2 migrant_element=Cr pbc="T T T"
Te       2.10710960       1.19795435       3.50429740
Te       4.23031371       4.87545178       3.50429740
Te       6.32132606       1.21654029       3.54449439
Te      -0.01609588       4.87545257       3.50429741
Te      -0.00569821       0.00328987       6.77130659
Te       2.10710848       3.64961994       6.47614113
Te       4.21991604       0.00328937       6.77130640
Te      -2.10710848       3.64304021       6.77130640
Te       0.00244568      -0.00141201       0.01504406
Te       2.10710891       3.64961970      -0.01825374
Te       4.21177214      -0.00141201       0.01504406
Te      -2.10710891       3.65244372       0.01504406
Te      -0.01480466       2.42453257      13.82381135
Te       2.10710870       6.09979433      13.82381135
Te       4.22902249       2.42453232      13.82381174
Te      -2.10710870       6.08269937      13.73514012
Te       2.10710913       1.21779128      17.19450226
Te       4.21313421       4.86553371      17.19450226
Te       6.32132652       1.21654002      17.20032012
Te       0.00108362       4.86553397      17.19450188
Te       2.10710868       1.21664887      10.34804712
Te       4.21412334       4.86610531      10.34804712
Te       6.32132698       1.21653976      10.50130834
Te       0.00009449       4.86610504      10.34804754
Te      -0.00250045       0.00144363      24.17186693
Te       2.10710934       3.64961945      24.17608956
Te       4.21671827       0.00144413      24.17186711
Te      -2.10710934       3.64673218      24.17186711
Te      -0.00636103       2.42940805      27.54895434
Te       2.10710823       6.09004418      27.54895434
Te       4.22057886       2.42940726      27.54895433
Te      -2.10710823       6.08269910      27.49316037
Te      -0.00050044       2.43279059      20.68712217
Te       2.10710915       6.08327749      20.68712217
Te       4.21471827       2.43279087      20.68712175
Te      -2.10710915       6.08269963      20.68813918
Sb      -0.14054898       2.35193208       8.47872874
Sb       2.10711038       6.24499239       8.47872874
Sb       4.35476680       2.35193377       8.47872913
Sb      -2.10711038       6.08270034       8.42659126
Sb      -0.00649352       2.42932820       1.93705845
Sb       2.10711114       6.09019882       1.93705845
Sb       4.22071135       2.42933078       1.93705874
Sb      -2.10711114       6.08270078       1.90796714
Sb       0.00105583      -0.00060959      18.79526009
Sb       2.10710819       3.64962011      18.79514194
Sb       4.21316199      -0.00061042      18.79526033
Sb       6.32132747       3.65083929      18.79526033
Sb      -0.02032495       0.01173462      12.26283241
Sb       2.10710964       3.64961928      12.31611231
Sb       4.23454278       0.01173546      12.26283217
Sb      -2.10710964       3.62615003      12.26283217
Sb       2.10710669       1.20574335      29.12790055
Sb       4.22356681       4.87155980      29.12790055
Sb       6.32132897       1.21653861      29.17351382
Sb      -0.00934898       4.87155722      29.12790027
Sb       2.10710745       1.21651113      22.58947381
Sb       4.21424201       4.86617525      22.58947381
Sb       6.32132821       1.21653905      22.57663718
Sb      -0.00002418       4.86617355      22.58947342
Cr       2.10710917       3.64961955       8.87335054
61
Lattice="8.42843558953249 0.0 0.0 -4.21421779476624 7.29923593142487 0.0 0.0 0.0 31.03344084160948" Properties=species:S:1:pos:R:3 repair_mode=unwrap repair_image_index=3 migrant_element=Cr pbc="T T T"
Te       2.10710960       1.36174505       3.67050778
Te       4.08846687       4.79355643       3.67050778
Te       6.32132606       1.21654029       3.55693418
Te       0.12575096       4.79355722       3.67050779
Te      -0.01899364       0.01096599       6.83698785
Te       2.10710848       3.64961994       7.30085390
Te       4.23321147       0.01096549       6.83698766
Te      -2.10710848       3.62768797       6.83698766
Te       0.06029378      -0.03481064       0.05384378
Te       2.10710891       3.64961970      -0.05359188
Te       4.15392405      -0.03481064       0.05384378
Te      -2.10710891       3.71924098       0.05384378
Te       0.02649269       2.44837562      13.82583200
Te       2.10710870       6.05210823      13.82583200
Te       4.18772513       2.44837537      13.82583239
Te      -2.10710870       6.08269937      13.96407326
Te       2.10710913       1.20661124      17.20391641
Te       4.22281640       4.87112373      17.20391641
Te       6.32132652       1.21654002      17.20349973
Te      -0.00859857       4.87112398      17.20391602
Te       2.10710868       1.17656821      10.33843763
Te       4.24883419       4.88614564      10.33843763
Te       6.32132698       1.21653976      10.49417993
Te      -0.03461636       4.88614537      10.33843806
Te      -0.00862568       0.00498004      24.17318919
Te       2.10710934       3.64961945      24.20499880
Te       4.22284351       0.00498054      24.17318937
Te      -2.10710934       3.63965936      24.17318937
Te      -0.10920306       2.37003215      27.59575938
Te       2.10710823       6.20879597      27.59575938
Te       4.32342088       2.37003136      27.59575937
Te      -2.10710823       6.08269910      27.45261910
Te       0.00613653       2.43662246      20.69127167
Te       2.10710915       6.07561377      20.69127167
Te       4.20808129       2.43662273      20.69127125
Te      -2.10710915       6.08269963      20.69971535
Sb      -0.15632601       2.34282320       8.50897127
Sb       2.10711038       6.26321015       8.50897127
Sb       4.37054384       2.34282489       8.50897166
Sb      -2.10711038       6.08270034       8.44154619
Sb      -0.03946809       2.41029033       1.90165452
Sb       2.10711114       6.12827457       1.90165452
Sb       4.25368592       2.41029290       1.90165481
Sb      -2.10711114       6.08270078       1.87628576
Sb       0.00038098      -0.00021996      18.79575624
Sb       2.10710819       3.64962011      18.77783860
Sb       4.21383685      -0.00022079      18.79575648
Sb       6.32132747       3.65006003      18.79575648
Sb       0.05664435      -0.03270365      12.26742677
Sb       2.10710964       3.64961928      12.22134315
Sb       4.15757348      -0.03270281      12.26742653
Sb      -2.10710964       3.71502657      12.26742653
Sb       2.10710669       1.20149555      29.08191441
Sb       4.22724552       4.87368370      29.08191441
Sb       6.32132897       1.21653861      29.29233361
Sb      -0.01302769       4.87368113      29.08191412
Sb       2.10710745       1.21673288      22.59637178
Sb       4.21404997       4.86606437      22.59637178
Sb       6.32132821       1.21653905      22.56499559
Sb       0.00016786       4.86606268      22.59637139
Cr       2.10710926       3.64961949       4.67368208
61
Lattice="8.42843558953249 0.0 0.0 -4.21421779476624 7.29923593142487 0.0 0.0 0.0 31.03344084160948" Properties=species:S:1:pos:R:3 repair_mode=unwrap repair_image_index=4 migrant_element=Cr pbc="T T T"
Te       2.10710960       1.13425048       3.64861162
Te       4.28548284       4.90730371       3.64861162
Te       6.32132606       1.21654029       4.21566554
Te      -0.07126502       4.90730450       3.64861163
Te      -0.02766651       0.01597327       6.76777276
Te       2.10710848       3.64961994       6.81409457
Te       4.24188433       0.01597277       6.76777258
Te      -2.10710848       3.61767340       6.76777258
Te       0.01726803      -0.00996970       0.01915004
Te       2.10710891       3.64961970      -0.32428345
Te       4.19694979      -0.00996970       0.01915004
Te      -2.10710891       3.66955910       0.01915004
Te       0.00903879       2.43829860      13.86706574
Te       2.10710870       6.07226226      13.86706574
Te       4.20517903       2.43829835      13.86706613
Te      -2.10710870       6.08269937      13.85564805
Te       2.10710913       1.20064149      17.18457284
Te       4.22798636       4.87410861      17.18457284
Te       6.32132652       1.21654002      17.16476326
Te      -0.01376853       4.87410886      17.18457246
Te       2.10710868       1.21049506      10.34893359
Te       4.21945269       4.86918222      10.34893359
Te       6.32132698       1.21653976      10.34253598
Te      -0.00523487       4.86918195      10.34893401
Te      -0.02352793       0.01358386      24.21928783
Te       2.10710934       3.64961945      24.21350115
Te       4.23774576       0.01358436      24.21928802
Te      -2.10710934       3.62245172      24.21928802
Te      -0.04848459       2.40508799      27.54273495
Te       2.10710823       6.13868430      27.54273495
Te       4.26270242       2.40508720      27.54273494
Te      -2.10710823       6.08269910      27.22259082
Te       0.01296630       2.44056563      20.69074500
Te       2.10710915       6.06772743      20.69074500
Te       4.20125152       2.44056590      20.69074458
Te      -2.10710915       6.08269963      20.69580375
Sb      -0.00583960       2.42970661       8.42373455
Sb       2.10711038       6.08944332       8.42373455
Sb       4.22005742       2.42970830       8.42373494
Sb      -2.10711038       6.08270034       8.34217953
Sb      -0.11823573       2.36481380       2.02204818
Sb       2.10711114       6.21922763       2.02204818
Sb       4.33245356       2.36481637       2.02204847
Sb      -2.10711114       6.08270078       1.95492345
Sb       0.00027821      -0.00016063      18.77953867
Sb       2.10710819       3.64962011      18.78218146
Sb       4.21393961      -0.00016146      18.77953892
Sb       6.32132747       3.64994137      18.77953892
Sb      -0.00014456       0.00008346      12.27074799
Sb       2.10710964       3.64961928      12.20739149
Sb       4.21436239       0.00008430      12.27074774
Sb      -2.10710964       3.64945235      12.27074774
Sb       2.10710669       1.15010466      29.03381549
Sb       4.27175132       4.89937915      29.03381549
Sb       6.32132897       1.21653861      29.18787885
Sb      -0.05753350       4.89937657      29.03381521
Sb       2.10710745       1.21441909      22.61367564
Sb       4.21605377       4.86722127      22.61367564
Sb       6.32132821       1.21653905      22.58644052
Sb      -0.00183594       4.86721958      22.61367526
Cr       2.10710940       3.64961942       2.14592841
