81
Properties=species:S:1:pos:R:3:forces:R:3 energy=-265.8738272548451 mlff_rel_energy_eV=0.0 mlff_fmax_eV_A=2.3495349175970333 calculator_label=/data/pclancy3/yi/flare-data/1-Cr-Sb2Te3/3.fine-tuning/2-layer/MACE-omat/MACE-matpes-pbe-omat-ft.model neb_image=0 neb_protocol=mlff_pre_neb pbc="F F F"
Te      12.87069694       7.42166744      15.00737408      -1.00735311      -0.78036871       0.86781824
Te       2.17413293       3.72106994      15.00789873      -0.61609519       0.02703893       0.44274955
Te       0.04045997       7.42132171      15.00789887      -0.98904484      -0.86227382       1.08005736
Te      15.00641112       3.72050201      15.00286039      -1.22755797      -0.52848400       0.98215953
Te       0.04626037       2.49060717      22.29485645       0.84002941       0.49785144      -0.14259752
Te       2.18863155       6.19471945      22.27838225       0.18945396      -0.82899309      -0.16494950
Te       4.33090129       2.49733313      22.29524437       0.09718469      -0.93607346      -0.01090519
Te      -2.09040000       6.19603950      22.29485660       0.51483728      -0.26611155       0.29613424
Te       2.18477047       1.25981192      25.04037057      -0.32336982      -1.11721092       0.28367672
Te       4.31568190       4.99432986      25.05482533      -0.04427280      -0.23689315      -0.24431031
Te       6.48437682       1.23334299      25.05482508      -0.15777410      -0.89761570       0.18012691
Te       0.03385944       4.95221612      25.15649122      -0.76481441      -0.56680157      -0.22306554
Te       2.17839232       1.25613084      18.63945364      -0.04939045      -0.40740928      -0.15679526
Te       4.31935274       4.95418639      18.64476859       0.10808075      -0.50217300      -0.26568432
Te       6.45147525       1.25662352      18.64476854      -0.04509169      -1.18511542       0.59373975
Te       0.04228810       4.95707177      18.64666671      -1.12391540      -0.33926679      -0.89527846
Te       0.06542828       0.03772245      32.37671208       1.10498174       0.80612132      -0.87592986
Te       2.16864381       3.71504106      32.43928045       0.17492348      -0.52843260      -0.39561797
Te       4.30165893       0.01593481      32.43927820       0.02048065       0.49848553      -0.72859892
Te      -2.07818832       3.73433166      32.39053650       1.03343067       0.31866231      -0.74845030
Te       0.08811917       2.49683065      28.74710474      -0.86491087      -0.45575736      -0.65635519
Te       2.10737369       6.14786640      28.61698759       0.41228089      -0.62240382       0.48099047
Te       4.43219129       2.55574573      28.80499476       0.04891025      -0.15794084      -0.14788048
Te      -2.06404955       6.22915710      28.74710548       0.21791056      -1.53287115      -0.71404858
Sb       0.03984002       2.48917619      16.69708991       1.00496786       1.10222209       0.62416452
Sb       2.18510398       6.19269186      16.69816498       0.09057659       0.34767211      -0.77960253
Sb       4.32070089       2.49145856      16.69777344      -0.20755071       0.47264401       0.58549615
Sb      -2.09486202       6.19121378      16.69709009       2.02773090       0.26019809      -0.47698525
Sb       0.07881977       0.04545102      26.80186029       0.73628109       1.00671148      -0.00683851
Sb       2.18638776       3.72251975      26.79366018       0.10315646       1.24830462       0.10550965
Sb       4.31701204       0.02755505      26.79366021      -0.17217536       0.94272345      -0.47236642
Sb       6.48351674       3.73860932      26.65598275      -0.02611673       1.30727068      -0.27764750
Sb      12.88168097       7.42799298      20.58634966      -1.08570242      -1.25281937       0.34627700
Sb       2.18056184       3.72229303      20.58915507      -1.02773008       0.34903966       1.36273241
Sb       4.31390243       0.02261919      20.58915503       0.04281880       1.32771442      -0.19450097
Sb      15.01918856       3.72786063      20.59679084      -0.81329457      -0.67170988      -0.76178940
Sb       2.23094977       1.28643469      30.71640462      -0.66955924      -0.95677618       1.91312591
Sb       4.18821987       5.06642621      30.73901896      -0.63227512       0.53708546      -0.20727950
Sb       6.48293020       1.08690357      30.73901447      -0.09632232      -1.18763025       1.13119594
Sb       0.04087317       4.95625326      30.71168398      -1.41476337      -0.07854625       0.03760497
Te       4.31651702       7.42173674      15.00929589       0.02980968      -0.50778965       0.55518101
Te      10.72669597       3.72090034      15.00706577      -0.18321382       0.34382484       0.43644168
Te       8.59374413       7.41990185      15.00706601       0.00919713      -0.58403359       0.76250167
Te       6.44880057       3.71859293      15.00516454       0.10903081       0.39203032       0.20178378
Te       8.61561993       2.49724680      22.28280212       0.03706113      -0.89979876       0.25588415
Te      10.75269221       6.20034696      22.28128229       1.09662770       0.41927739      -0.61027743
Te      12.87897807       2.49374440      22.28412279       0.71633585      -0.37087851       0.17140994
Te       6.47718833       6.20574964      22.28280194       0.00409916      -1.03653159      -0.18943289
Te      10.73789110       1.25913469      25.11540744      -0.22838544      -1.00079669       0.39262515
Te      12.86528024       4.94057019      25.13200444      -0.96268871      -0.58182753       0.26395186
Te      14.98979391       1.25620118      25.13200516      -1.36873855      -0.69598735       0.96898273
Te       8.64164127       4.98305658      25.04941087      -0.19427963      -0.36383513       0.14555269
Te      10.72944055       1.25425570      18.63539169      -0.05851793      -1.04068504       0.78050679
Te      12.87642300       4.95808496      18.63673820       0.82485293       0.02894647       0.75705853
Te      15.01053863       1.25706595      18.63673822      -0.44851426       0.27950946       1.30801245
Te       8.59737564       4.95752595      18.63836563      -0.00235304      -0.64283371       0.06060171
Te       8.65642538       0.05888711      32.50731637      -0.02866015       0.45355326      -0.59557078
Te      10.76898042       3.72213402      32.41596097       0.73461415      -0.14931692      -0.47580026
Te      12.88515550       0.05222736      32.41596043       0.87733989       0.82527361      -1.13423576
Te       6.44887391       3.71862532      32.89711989       0.06224471       0.10690773       0.81420304
Te       8.51213501       2.53304683      28.81465493       0.06520941      -0.04810964       0.04459459
Te      10.85565643       6.25972580      28.68454272       0.38379170      -0.89152163       0.97297534
Te      12.85512736       2.47999751      28.76392551       1.12919450      -0.29688913       0.50727744
Te       6.45632894       6.09825717      28.81465582       0.08557514      -0.66865463       0.18661377
Sb       8.59505912       2.49222101      16.70015501       0.06328101       0.87878357       0.00725913
Sb      10.73717718       6.19140788      16.70732973       0.43303066       0.97627181      -1.97108771
Sb      12.87275784       2.49016472      16.69441565       1.46967916       0.86386310      -1.04324454
Sb       6.46253467       6.19048163      16.70015537      -0.02460511       0.47171517      -1.24181329
Sb       8.56852710       0.00820584      26.76873862       0.12750861       0.83209479      -0.44506526
Sb      10.74873520       3.74581450      26.79443130       0.53619185       1.50281351      -0.87287769
Sb      12.89550309       0.02285245      26.79443253       0.95593022       1.31943214      -1.13929624
Sb      -2.11171015       3.71500883      26.86398010       1.39872574       1.69115879       0.83896518
Sb       8.60071707       0.02676135      20.58272875       0.03372569       1.20267992      -0.18791599
Sb      10.74495752       3.72726705      20.58418478      -0.07558465       0.58992975      -0.40766017
Sb      12.87756480       0.02886430      20.58418491       0.24840322       1.15202506      -0.66309643
Sb       6.46318025       3.72687638      20.59306917      -0.05270329       1.36385265       0.39599433
Sb      10.71715947       1.24717400      30.75060389      -0.06850698      -0.41268968       0.86301119
Sb      12.89131425       4.97108185      30.69817153      -1.37536982      -0.25003444      -0.66288655
Sb      15.02924801       1.26343974      30.69816999      -1.93448177      -0.26552803       0.46559242
Sb       8.74808667       5.04443068      30.68727664       0.13329104       0.56950899      -0.26236092
Cr       6.45233080       3.72062042      30.52415299       0.03289659       0.29422192      -2.02044053
81
Properties=species:S:1:pos:R:3:forces:R:3 energy=-281.78084815036846 mlff_rel_energy_eV=-15.907020895523374 mlff_fmax_eV_A=0.04177569750208976 calculator_label=/data/pclancy3/yi/flare-data/1-Cr-Sb2Te3/3.fine-tuning/2-layer/MACE-omat/MACE-matpes-pbe-omat-ft.model neb_image=1 neb_protocol=mlff_pre_neb pbc="F F F"
Te      12.99728794       6.59482135      14.73003427      -0.00247343      -0.00958661      -0.00410028
Te       2.14305962       3.83385229      15.58636458      -0.00269026       0.00119283       0.00963780
Te       0.15413846       7.29464766      15.02766191       0.00267796       0.00113826       0.00031312
Te      14.58824488       4.37641764      15.14660867      -0.00448938       0.00503915       0.00325570
Te       0.03088910       2.68832884      23.03255444      -0.00394713      -0.00155965       0.00450765
Te       2.26836350       6.30303148      22.39378290      -0.00395628       0.00153036       0.00183674
Te       4.24086837       2.43393031      22.58917796      -0.00293647       0.00266498       0.00495655
Te      -3.71560607       5.75897970      24.89444128      -0.02001598      -0.01018948       0.03522420
Te       2.19035719       0.76799532      24.95951488      -0.00125417      -0.00683805      -0.00293831
Te       4.41547898       5.34499528      24.67422715       0.00295597       0.00716042      -0.00506917
Te       6.46701693       1.19803014      25.01174580       0.00196987      -0.00046494      -0.00491888
Te       0.17234564       4.90445265      24.65417319      -0.00438912      -0.00222585      -0.00558235
Te       2.07525933       1.11764944      19.03342595      -0.00321075      -0.00213033       0.00653057
Te       4.27615104       4.97286379      19.07923706      -0.00104229      -0.00033756       0.00648645
Te       6.40391462       0.77699850      19.09696206      -0.00152876      -0.00343931       0.00877784
Te      -0.01090193       5.54155062      19.14302200      -0.00047052       0.01108417       0.00767787
Te      -0.02945761       0.92649865      32.50039401       0.00351610       0.01294591       0.00248372
Te       2.38656427       3.85141582      31.86200367       0.00395737       0.00212672      -0.00941523
Te       4.27445729       0.02708400      32.52290181       0.00237621       0.00136102      -0.00194110
Te      -1.81352659       2.75984399      31.57028516       0.00579824      -0.01467169      -0.01085741
Te       0.29372682       2.31386156      28.25318856       0.00301095      -0.00259181      -0.00798578
Te       2.08455708       6.09371423      28.16538069      -0.00257525      -0.00082632      -0.00947109
Te       4.31493480       2.41211109      28.51649031      -0.00150586       0.00051435      -0.00745479
Te      -2.16235480       5.75873638      28.29874456      -0.00354348      -0.01060151      -0.00697559
Sb      -0.16136388       3.41819685      17.26600227      -0.00468348       0.01295899       0.00997442
Sb       2.44661679       6.53551671      16.61076088       0.00282062       0.00413258       0.00116172
Sb       4.14105207       2.63720961      17.45291619      -0.00348528       0.00064237       0.01011323
Sb      -1.56459232       5.89804951      16.70185119       0.00481402       0.00265957       0.00334445
Sb       1.25288057      -0.38830764      27.40008345       0.01358688      -0.00599403       0.00445276
Sb       2.29241030       3.71761142      26.48318112      -0.00052431      -0.00104355      -0.00688051
Sb       4.11023851      -0.07194336      26.95698411       0.00009100       0.00037008      -0.00255351
Sb       6.44720349       3.96330187      26.24141937       0.00141189       0.00192547      -0.00741924
Sb      13.62529375       6.76602090      21.19242739       0.01021451      -0.00508900       0.00679905
Sb       2.01816480       3.85875516      21.09606164      -0.00420356       0.00212858       0.00535381
Sb       4.07948828       0.21281362      20.79839050      -0.00412405       0.00337129       0.00628524
Sb      14.89883003       4.21456879      20.83426849       0.00213301       0.00403042       0.00378687
Sb       2.28751713       1.24384899      30.75499830       0.00329554      -0.00129373      -0.00155021
Sb       4.10050055       5.43621309      30.11450187      -0.00186411       0.00499414      -0.01128274
Sb       6.46750475       0.76993434      30.89671325       0.00046936      -0.00229908      -0.00398471
Sb      -0.11288235       4.63427179      30.04007037      -0.00155885      -0.00467071      -0.00806006
Te       4.43702452       7.24255463      14.74249839       0.00186420      -0.00438915      -0.00264095
Te      10.50342468       3.51663701      15.25117018      -0.00246927      -0.00382921       0.00724505
Te       8.59323203       7.29275448      14.83139433       0.00086764      -0.00305859       0.00136813
Te       6.36649073       3.72396941      15.40514279      -0.00024583      -0.00243244       0.00872502
Te       8.75424440       2.44377198      22.56699434       0.00222026       0.00178281       0.00401552
Te      11.37766389       6.06311398      22.73925232       0.01056079       0.00016562       0.00764337
Te      13.26569376       2.40397961      22.40429742       0.00647080      -0.00029377       0.00403805
Te       6.24243868       6.11409051      22.52112688      -0.00150926       0.00199297       0.00389849
Te      10.78157275       1.05623488      25.18413449      -0.00227012       0.00177483      -0.00203577
Te      12.80278828       5.12294832      24.96988374       0.00259288       0.00156240       0.00264439
Te      14.82382117       0.43517536      25.63846317      -0.00407674      -0.01568917      -0.00796098
Te       8.67391326       5.12852431      24.90547962       0.00272303       0.00417633      -0.00196703
Te      10.87674087       1.04000611      18.96485288       0.00274571      -0.00186126       0.00704653
Te      13.01150148       4.92425726      18.78193036       0.00310676       0.00044076       0.00371622
Te      15.21754041       1.39971631      18.57697245       0.00358604       0.00148018       0.00226867
Te       8.65495929       4.96028213      18.95584036       0.00095983       0.00051993       0.00746143
Te       8.69497747       0.04015134      32.54396148      -0.00153553       0.00257521      -0.00155124
Te      10.51913379       3.71708396      32.06179423      -0.00393203       0.00230801      -0.00964449
Te      12.92485856      -0.01863347      32.03521315      -0.00470082       0.01348151       0.00923778
Te       6.39597172       3.52937764      31.64393190      -0.00219191      -0.00113734      -0.01653385
Te       8.57293836       2.48722123      28.56744803      -0.00040118      -0.00092363      -0.00516341
Te      10.67877321       6.26727195      28.55135329      -0.00267737       0.00094723      -0.00676896
Te      13.20044355       2.86289679      28.59311065       0.01254425      -0.00059031      -0.00087480
Te       6.54462205       6.64740287      28.31162808       0.00099514       0.00475653      -0.01099355
Sb       8.47282811       2.71653510      17.12897328      -0.00072880       0.00123586       0.01002448
Sb      10.67052881       6.11516871      16.38632598      -0.00033044      -0.00256095       0.00054686
Sb      13.05984186       2.64318652      16.84158593       0.00219885       0.00115540       0.00508491
Sb       6.49845247       6.34341646      16.51502044       0.00027488       0.00009240       0.00115420
Sb       8.51317422       0.28566778      26.71352141      -0.00050543       0.00152585      -0.00283730
Sb      10.68033343       3.89501268      26.54394966       0.00016055      -0.00180672      -0.00431308
Sb      12.80718280       0.00354595      27.26656980       0.00551724      -0.00431290      -0.00179377
Sb      -2.17696113       3.96786364      26.15551942      -0.00502890       0.00089963      -0.00745132
Sb       8.70270653       0.21787012      20.77857686       0.00122838       0.00234419       0.00522042
Sb      10.84779714       3.66370571      20.68593017       0.00311103       0.00021749       0.00471027
Sb      13.40977863       0.34189216      20.38842047       0.00698213       0.00317042       0.00114597
Sb       6.42284557       3.78397101      20.89643268      -0.00127613       0.00090502       0.00464938
Sb      10.58693590       1.15309011      30.76305014      -0.00262921       0.00056589      -0.00262147
Sb      12.42808391       4.99465197      30.43705256      -0.00456943       0.00116449      -0.00866085
Sb      14.44221529       0.56713047      29.82388126      -0.01092894      -0.01741672      -0.00576280
Sb       8.37559844       5.67760206      30.26170399      -0.00283265       0.00744194      -0.00879590
Cr       6.41299866       4.06577987      28.99503445      -0.00049716       0.00350079      -0.01799242
81
Properties=species:S:1:pos:R:3:forces:R:3 energy=-282.28029643125734 mlff_rel_energy_eV=-16.40646917641226 mlff_fmax_eV_A=0.10583526512807974 calculator_label=/data/pclancy3/yi/flare-data/1-Cr-Sb2Te3/3.fine-tuning/2-layer/MACE-omat/MACE-matpes-pbe-omat-ft.model neb_image=2 neb_protocol=mlff_pre_neb pbc="F F F"
Te      12.73871820       6.11133824      14.31291230      -0.00091971       0.00509130      -0.00403259
Te       1.90083778       4.02862070      16.25881781       0.00025278      -0.00034193       0.00077659
Te       0.16706522       7.58240852      15.51322268      -0.00080456      -0.00030741       0.00103464
Te      14.37524311       3.95629561      14.83542456      -0.00416795       0.00063002      -0.00756192
Te       0.09583146       2.74074526      22.80989388      -0.00214201       0.00211294      -0.00071724
Te       2.23765964       6.58857042      23.23679995       0.00470018      -0.00085252      -0.00094226
Te       4.39026023       2.95680475      23.02585122       0.00123582      -0.00228308      -0.00038500
Te      -4.47159397       5.06541255      26.01477452      -0.00338317       0.00009912      -0.00005681
Te       2.29334577       0.39361380      24.83569254      -0.00084632       0.00168818       0.00089020
Te       4.70328626       6.23213691      24.64179300       0.00439185      -0.00565961       0.00066486
Te       6.76996825       1.01019765      24.76380115       0.01563976      -0.00169727       0.00278884
Te      -0.50465101       4.73561021      24.64424630      -0.00010251       0.00605626       0.00188125
Te       1.93598243       1.49646525      19.87063325       0.00204441      -0.00243676      -0.00046227
Te       4.45059375       5.26666172      19.39197630       0.00258048       0.00100833       0.00202291
Te       6.23650650       0.91286789      19.56772708      -0.00238186       0.00134793      -0.00342804
Te       0.11639415       6.18433851      19.78133039       0.00275690      -0.00089134       0.00115328
Te      -0.02355517       0.62161372      31.72871203       0.00088783      -0.00120294      -0.01119025
Te       2.28509374       4.08267032      31.09836431       0.00020000       0.00256185      -0.00171234
Te       4.07237041      -0.08624291      32.03109253       0.00021902      -0.00823926      -0.00700413
Te      -1.67434510       2.83555132      31.05804315       0.00534709       0.00453601       0.00270928
Te       0.35255415       2.28806689      27.64432840      -0.00042671       0.00345310       0.00193890
Te       2.37010968       6.20035467      27.25125488       0.00178081       0.00205457       0.00020281
Te       4.29652389       2.59964745      27.84113607       0.00310394       0.00016022      -0.00270143
Te      -3.24547332       4.15543232      28.53058690       0.00298637       0.00688987      -0.00125329
Sb      -0.32040801       3.94703595      18.10160899       0.00100507      -0.00187184       0.00074660
Sb       2.48783756       6.77158000      17.02939441      -0.00058479       0.00032124       0.00170446
Sb       4.00214903       2.82011339      17.98644708       0.00051260       0.00124513       0.00040002
Sb      -1.54681969       6.47762550      17.39342930      -0.00022135      -0.00086474       0.00245580
Sb       1.62298825      -0.58822808      27.45507925       0.00374073      -0.00006283       0.00469647
Sb       2.20594964       3.65050802      25.84605883      -0.00415463       0.00130872      -0.00176587
Sb       4.43087349      -0.09001596      26.68858639      -0.00119063      -0.00096860       0.00198431
Sb       6.70790951       3.92803038      25.82939642      -0.00348405      -0.00232343       0.00118590
Sb      13.98470646       6.44363224      21.01468936      -0.05101370      -0.01060656       0.03400614
Sb       2.19788189       4.30950188      21.45141265       0.00205151      -0.00111550       0.00037615
Sb       4.02085133       0.54994266      21.57096432       0.00190462      -0.00180868      -0.00092464
Sb      15.13074748       3.85840560      20.49579114       0.00919566      -0.00200192      -0.00973849
Sb       2.29832278       1.21289071      30.19793632       0.00384653       0.00274712      -0.00804838
Sb       4.20967168       5.64713177      29.37224868      -0.00159378       0.00077633       0.00277644
Sb       6.29437594       0.73465131      30.48036280       0.00215913      -0.00534734       0.00135048
Sb      -0.04907580       4.54486371      29.45435129       0.00029434       0.00394161      -0.00175287
Te       4.39136121       7.19699831      14.99774077      -0.00272873       0.00379782      -0.00002282
Te      10.22381082       3.22487114      15.34465380      -0.00932964       0.00509773      -0.01041365
Te       8.54031704       7.03379138      14.81102820      -0.00330836       0.00630579      -0.00159966
Te       6.15016893       3.62990131      15.79420639      -0.00133754       0.00310827      -0.00069657
Te       8.98967101       2.51596257      22.59511559       0.01085766      -0.01410653      -0.00217111
Te      11.79434103       5.83800760      22.63711472       0.00663248       0.00970806      -0.10518017
Te      13.51566381       2.05990877      22.07477453      -0.00568437      -0.01410415      -0.02397403
Te       6.66174019       6.48179563      22.59293824       0.00611423      -0.00292994       0.00346097
Te      11.00430359       0.87435175      25.03286918       0.01499132      -0.00064704       0.02132895
Te      13.28784747       4.33725948      24.82560856       0.01016617      -0.00290498       0.03452351
Te      14.85562043       2.09077849      25.85816146      -0.02350680      -0.02339128       0.01633255
Te       9.15862045       5.07262375      24.87619449       0.00357530       0.00357862       0.00063732
Te      10.79478777       0.86511332      18.96197750       0.00408677      -0.00764038      -0.00140083
Te      13.16389694       4.70980597      18.57237665       0.00342326      -0.00915788      -0.00931621
Te      15.20181149       1.05125304      18.15291621      -0.00751396       0.00083845      -0.00797563
Te       8.77440856       4.95931639      19.08461531       0.00104807      -0.00523967      -0.00381757
Te       8.25031372      -0.00951098      32.39414494      -0.00102657      -0.00163139       0.00479684
Te       9.93948647       3.82219015      31.92445755      -0.00827697      -0.00135665       0.01248575
Te      12.38651816       0.60348989      32.92559431      -0.02028897      -0.00879451       0.02840850
Te       6.15009248       3.50722300      31.13397272      -0.00537559      -0.00731456       0.00174264
Te       8.60480264       2.35172627      28.34262289       0.02070484       0.01857733      -0.00774977
Te      10.88344640       6.11803582      28.43707232       0.00561307      -0.00336738       0.01638643
Te      13.25491482       2.56676841      29.03045005       0.00272247      -0.01631684      -0.02115547
Te       6.64668352       6.61508615      27.65793704       0.00524765      -0.00494067       0.00040850
Sb       8.33154570       2.61430023      17.43452049      -0.00295632      -0.00031654      -0.00673036
Sb      10.65597733       5.85616107      16.29911040      -0.00105672       0.00450117      -0.00241562
Sb      12.90811597       2.37293585      16.71541260      -0.00564409      -0.00217590      -0.01423359
Sb       6.52229176       6.31151908      16.69667786      -0.00195024       0.00332782       0.00103064
Sb       8.69597318       0.07233538      26.56826540       0.00925646       0.00086389      -0.00080430
Sb      10.98129339       3.71598796      26.62003294      -0.00964226       0.00225869       0.01399643
Sb      13.10358070       0.21537666      26.86206275       0.02058666       0.06422342      -0.00886943
Sb      -2.50117294       3.09034788      25.96599332       0.00445136      -0.00300033      -0.00101390
Sb       8.68829079       0.21552834      20.94414180       0.00437392      -0.00429889      -0.00534060
Sb      11.05220438       3.55246857      20.62062851       0.00524227       0.01657081       0.01583199
Sb      13.45580619       0.02422285      20.04199148       0.00339570      -0.00870943      -0.01123469
Sb       6.58387422       3.98822783      21.13126808       0.00426063      -0.00089954       0.00113152
Sb      10.36563561       1.14357864      30.91459045      -0.01322035      -0.00021251       0.02014824
Sb      12.37452306       4.71133357      30.80933016      -0.00977085       0.00313338       0.01766535
Sb      14.12170880       2.41892397      31.78582241      -0.00509697       0.00295235       0.02496916
Sb       8.43948376       5.65266265      29.84948449      -0.00912560       0.00275887       0.00471885
Cr       6.49329270       4.08524248      28.53832707       0.00467095      -0.00529172       0.00204332
81
Properties=species:S:1:pos:R:3:forces:R:3 energy=-282.4700917447718 mlff_rel_energy_eV=-16.59626448992674 mlff_fmax_eV_A=0.07410088532424952 calculator_label=/data/pclancy3/yi/flare-data/1-Cr-Sb2Te3/3.fine-tuning/2-layer/MACE-omat/MACE-matpes-pbe-omat-ft.model neb_image=3 neb_protocol=mlff_pre_neb pbc="F F F"
Te      12.82061025       5.86283532      14.34803100       0.00188873      -0.01071782       0.00062506
Te       2.11973605       3.74292904      16.42511347       0.00565979      -0.00805886       0.00418803
Te       0.29009535       7.21743777      15.49189386       0.00335126      -0.00979609      -0.00240893
Te      14.43846368       3.73042348      15.02246362       0.00054599      -0.01093286       0.00534577
Te       0.28314912       2.98337949      23.24752163       0.00169783       0.00810368       0.00915085
Te       2.24418363       6.85204438      22.96084904      -0.00071369       0.00844503      -0.00533225
Te       4.51289869       3.14196108      23.26403487       0.00257720       0.00528561       0.00725627
Te      -3.30137018       6.92816203      25.42211443       0.03302929       0.05002058      -0.01481943
Te       2.40227349      -0.05572707      24.93380448       0.00339704      -0.01178784       0.00212514
Te       4.01795160       6.35652737      25.05626691      -0.01650688       0.00357670       0.01115806
Te       6.72291122       0.55511707      24.73554062      -0.00157043      -0.01537507      -0.00273671
Te      -0.72368275       5.30078337      24.64276863      -0.00507749       0.01498929       0.00174214
Te       2.19726360       1.41349516      20.17695494       0.00453599       0.00009473       0.00982586
Te       4.62711747       5.19449394      19.52366029       0.00370297       0.00027950       0.00412263
Te       6.49038827       0.81472577      19.97093302       0.00598367      -0.00066029       0.01214071
Te       0.12586740       5.94734675      19.75635199       0.00106795      -0.00500448      -0.00149719
Te       0.29013049      -0.05812278      31.56679630       0.00982891      -0.02097251      -0.00675897
Te       2.18213681       3.38525891      31.72400500      -0.00194919      -0.01866716       0.01537857
Te       4.26648827      -0.37848386      30.95117365       0.00736129      -0.00826469      -0.03041976
Te      -1.72405918       1.71298548      31.13209187       0.00091842      -0.03138944       0.00103418
Te      -0.26213042       2.22265226      26.85918799      -0.01352416      -0.00232628      -0.02324785
Te       1.63962093       5.82402960      28.28155963      -0.01941256      -0.01101387       0.02509817
Te       4.13849850       2.65081776      27.55623496      -0.00310825       0.00091320      -0.00926805
Te      -2.74403188       4.89041743      29.06027424       0.01294379       0.01682613       0.01652147
Sb      -0.18921516       3.63455173      18.14579870       0.00317134      -0.00714955       0.00097340
Sb       2.56796445       6.53029983      17.12460963       0.00216781      -0.00640773       0.00065696
Sb       4.19825607       2.65558224      18.25957872       0.00416705      -0.00290470       0.00900024
Sb      -1.47431400       6.09317101      17.31201886       0.00230492      -0.00887109      -0.00288432
Sb       0.87334360      -0.29559414      27.31482786      -0.01995640       0.00732480      -0.00384378
Sb       2.00133201       4.29796834      25.88532406      -0.00134822       0.01744172      -0.00199326
Sb       4.70656576      -0.06577096      26.65887206       0.00824059      -0.00014908      -0.00184392
Sb       6.67602600       4.43324174      25.80987856       0.00212190       0.01303442      -0.00195729
Sb      13.91824413       6.71717858      20.83371407       0.00049518       0.00619831      -0.00497289
Sb       2.27530435       4.27933515      21.57772075       0.00135084       0.00081509       0.00418932
Sb       4.29337779       0.61657679      21.99319535       0.00579064       0.00259350       0.01162981
Sb      15.13457488       4.11898528      20.64808769      -0.00058079       0.00495037       0.00463172
Sb       2.21107727       1.13793772      29.76688962      -0.00065063      -0.00312198      -0.01299003
Sb       3.84178979       5.13058006      30.30176332      -0.00949638      -0.01417836       0.02284637
Sb       6.33911983       0.88857320      29.48337804       0.00206419       0.00358149      -0.03042007
Sb      -0.16018067       3.63641886      29.48024664      -0.00115505      -0.02531339      -0.00020246
Te       4.42810666       6.96889811      15.04832505       0.00163210      -0.00719984      -0.00031977
Te      10.31325544       2.96237009      15.41933102       0.00083160      -0.00870789       0.00424289
Te       8.56711041       6.78862366      14.74814904       0.00050095      -0.00918194      -0.00207532
Te       6.23482411       3.40500464      15.89352190       0.00142054      -0.00657112       0.00482982
Te       9.10260593       2.75979208      23.01111863       0.00201851       0.00915674       0.01242500
Te      11.70946975       6.27566726      22.50440775      -0.00119597       0.01204315      -0.00307589
Te      13.61423355       2.47383296      22.45356602       0.00168121       0.01100201       0.01178469
Te       7.15890475       6.54080354      22.42375595       0.01167048       0.00332010      -0.00233674
Te      11.05846260       0.82935623      25.62242670       0.00271018       0.00032737       0.01456777
Te      13.15695071       5.44429950      24.76939531      -0.00185383       0.03091630      -0.00086962
Te      14.97411559       0.90380523      26.12992663       0.00102000      -0.02687214       0.00423236
Te       8.78153453       6.11323020      24.73991434      -0.00924960       0.03055395      -0.00425868
Te      10.89195405       0.87364264      19.42957606       0.00099008      -0.00011590       0.01476251
Te      13.12801066       4.66554494      18.65573402      -0.00107537      -0.00206890       0.00248130
Te      15.24805711       1.10564649      18.56537540      -0.00034782      -0.00079933       0.01238808
Te       8.83001977       4.78518309      19.10506255       0.00153224      -0.00292257       0.00181357
Te       8.33452570       0.21605632      31.38680845       0.00161879       0.00476190      -0.02959842
Te      10.24473736       3.74490005      31.56219840       0.00658637      -0.00268550      -0.00937502
Te      12.51676649       0.48899187      31.66668936       0.00195485      -0.00282592      -0.03291998
Te       6.16020239       3.84459370      31.75893279      -0.00075561       0.00908734       0.01623904
Te       8.41941879       2.97579580      27.81711806      -0.00340064       0.01646678      -0.01608186
Te      10.45177716       6.42536986      28.16220471      -0.01249076       0.00881745      -0.00609484
Te      13.25998365       3.43490480      28.21222889       0.00044440       0.02621990      -0.02061086
Te       6.06180153       6.18117226      27.95409817      -0.01434732      -0.01313496       0.00607288
Sb       8.42827001       2.39982625      17.52215254       0.00157090      -0.00533413       0.00574208
Sb      10.67748761       5.65145568      16.26257764       0.00029420      -0.00690057      -0.00087666
Sb      12.95770555       2.20635575      16.94575246      -0.00107129      -0.00625477       0.00814220
Sb       6.59305366       6.11708500      16.70542340       0.00165554      -0.00528347       0.00022227
Sb       8.57499829       0.20177713      26.91960286      -0.00157630       0.00294593       0.00691082
Sb      10.95467688       4.33511535      26.17491058       0.00038084       0.01870969      -0.01192599
Sb      13.01523274      -0.61882399      27.21646438       0.00035104      -0.01791376       0.01209419
Sb      -2.97312084       4.37915640      26.29600114      -0.01218167       0.03287396       0.01046376
Sb       8.84602812       0.32902839      21.58373351       0.00212632       0.00481743       0.02051715
Sb      11.09104271       3.64344792      20.81114514       0.00087549       0.00258426       0.00572074
Sb      13.56611762       0.25531453      20.60029918       0.00081284       0.00538568       0.01732747
Sb       6.77435960       3.94209333      21.29420920       0.00425624       0.00116280       0.00523497
Sb      10.45540908       1.33859195      29.93533419       0.00137715       0.00538564      -0.02758299
Sb      12.21182049       5.29002108      30.11797505      -0.00577311       0.01650155      -0.01763512
Sb      14.18580903       0.95747882      29.40661636       0.00030346      -0.04029756      -0.06218485
Sb       8.09936221       5.37192181      30.27045234      -0.01025194      -0.00739283       0.01296193
Cr       6.07087659       3.68289175      29.10433577      -0.01035953      -0.01198784       0.01460156
81
Properties=species:S:1:pos:R:3:forces:R:3 energy=-283.30430794517247 mlff_rel_energy_eV=-17.430480690327386 mlff_fmax_eV_A=0.12781762699561555 calculator_label=/data/pclancy3/yi/flare-data/1-Cr-Sb2Te3/3.fine-tuning/2-layer/MACE-omat/MACE-matpes-pbe-omat-ft.model neb_image=4 neb_protocol=mlff_pre_neb pbc="F F F"
Te      13.11136747       6.19321469      15.22214410       0.01253307      -0.00114644       0.01236518
Te       2.39602754       3.47274918      16.36508069       0.00029009      -0.00344215      -0.00567489
Te       0.36929973       6.81324524      15.38015416      -0.00078293      -0.00500831      -0.00373613
Te      14.51230460       3.81871324      15.46068377      -0.00897222      -0.01259639       0.02250656
Te       0.47669707       2.84430533      23.71725585       0.00662030      -0.00263192       0.01282227
Te       2.11711247       6.70089910      22.90980367      -0.00242262      -0.00220198      -0.00077036
Te       4.51611645       3.03153561      23.34555697      -0.00425030      -0.00529305       0.00248800
Te      -2.58374649       7.56407350      25.77084608       0.00920163       0.00734327       0.00858018
Te       2.35580531      -0.19263809      24.83236106      -0.00301840      -0.00150213      -0.00290426
Te       3.58273501       6.28391696      25.21879589      -0.01248997      -0.00269356       0.00526974
Te       6.71747460      -0.18969790      24.70475475       0.00379738      -0.00378155       0.00034188
Te      -0.75079006       5.39565532      24.73374548      -0.00037345       0.00372880       0.00314240
Te       2.36670875       1.23882442      20.15951134       0.00101296      -0.00018992      -0.00287948
Te       4.54715743       5.07408240      19.61633055      -0.00592033       0.00119856      -0.00141703
Te       6.65354905       0.78229302      20.23809023       0.00892459      -0.00421317      -0.00845285
Te       0.10519678       5.48410828      19.66650660       0.00087256      -0.00524519      -0.00250197
Te       0.12906388      -0.01941428      30.84698636      -0.00506345       0.00042448      -0.01405345
Te       2.42695758       3.11979443      31.90374634       0.00505433      -0.00637715       0.00292525
Te       4.25760545      -0.43098826      30.55147835       0.00138611      -0.00436783      -0.00921020
Te      -1.39108328       2.29325821      30.01163048       0.01130442       0.01056783      -0.03231039
Te      -0.59860050       2.07002737      26.90516520      -0.01124108      -0.00007757       0.00117160
Te       1.55592064       5.81210343      28.80200212      -0.00400749       0.00025594       0.01581239
Te       4.29201376       2.67692999      27.13109278       0.00202352       0.00132631      -0.00777413
Te      -2.73805432       5.04089040      29.26780109       0.00051501       0.00009064       0.00876873
Sb       0.05154394       3.18320347      18.00357907       0.00463863      -0.00478566      -0.00329243
Sb       2.63901370       6.27948077      17.09997648       0.00243877      -0.00303527      -0.00872619
Sb       4.39526822       2.49905561      18.34422533       0.00777426       0.00175884      -0.01061444
Sb      -1.36908935       5.55516604      17.13017830       0.00223951      -0.00594367      -0.00317318
Sb       0.78856433      -0.34790197      27.21705458       0.00184905      -0.00536672      -0.00476499
Sb       1.61116044       4.18511682      26.22806694      -0.01116741      -0.00503923       0.00942890
Sb       4.60277116      -0.18074850      26.63483474       0.00699217      -0.00510079      -0.00620181
Sb       6.52808229       4.89873173      25.49010490      -0.00518714       0.01147046      -0.01117487
Sb      12.20194208       7.50169528      19.37313472      -0.04803928       0.01108579      -0.03897966
Sb       2.23158892       4.04733571      21.67128695      -0.00084579      -0.00482047       0.00087007
Sb       4.41471472       0.48750158      22.09051127      -0.00907512      -0.00359848       0.00385733
Sb      15.25215414       3.42982519      21.13804589       0.00046787       0.02235212       0.05377230
Sb       2.24843999       1.17237237      29.39957541       0.00271762      -0.00117081      -0.00627552
Sb       4.03686036       5.00299228      30.51436619       0.00648582      -0.00511417       0.00600072
Sb       6.40160463       0.90036200      29.24728588       0.00521479      -0.00233729      -0.00607524
Sb       0.09546145       4.60034225      30.89681405       0.00166647       0.03179798       0.03225280
Te       4.65883176       6.83136020      15.22150142      -0.00944893       0.00348595      -0.00888816
Te      10.73090635       2.89366439      15.94697986       0.01188847      -0.00154490       0.03678304
Te       8.88284264       7.10630931      15.50335204       0.00755162      -0.00332039       0.01319229
Te       6.61521777       3.38360425      16.06494196       0.01147928      -0.01045555       0.01877296
Te       8.92542731       3.09733006      23.36458737      -0.00336631      -0.00038230       0.00846028
Te      10.69025929       7.07770441      21.69172194      -0.01159079       0.01512235      -0.01897781
Te      13.30312729       2.84385131      23.20059131      -0.03819800      -0.03996903      -0.00090930
Te       6.66554984       6.62467269      22.55959506      -0.01772499       0.00285338       0.00573265
Te      10.94341633       0.65822313      25.06273751       0.00321756      -0.00260336      -0.01033868
Te      12.52623758       6.31397395      23.72210052      -0.01693084       0.04340742      -0.01953756
Te      15.06151664      -0.35705125      24.69504670      -0.04177818      -0.08202215      -0.02984215
Te       8.57206106       6.84302433      24.79751796      -0.00821484       0.01891646       0.00359811
Te      10.91810341       1.07241354      20.04044285       0.02082448      -0.01866595      -0.00486195
Te      13.34350455       4.68674425      19.22741607      -0.00024006      -0.00933772       0.00221606
Te      15.24737770       0.82183796      20.18131188       0.00126881      -0.08777406       0.03943857
Te       8.86379776       4.73915107      19.34540552      -0.01361190       0.00519461      -0.00523243
Te       8.41701314       0.27693791      31.13560519       0.00274106       0.00264085      -0.00711503
Te      10.55643622       3.78391603      31.16313072       0.00702428      -0.00004597      -0.00815878
Te      12.55565827      -0.06467473      30.63190353      -0.00168280      -0.01215278      -0.05931017
Te       6.60347961       3.86486931      31.56553233       0.00774639      -0.00333783      -0.00371588
Te       8.32220947       3.20259553      27.41781410      -0.00036240       0.00522198      -0.01137891
Te      10.89906684       6.68135530      27.86125035       0.00439566       0.00541802      -0.00489394
Te      12.75239016       3.05112674      27.46726450      -0.00818809      -0.00732230      -0.01371521
Te       5.88234061       6.21057824      27.99571598      -0.00635596      -0.00292173       0.00060913
Sb       8.67230214       2.27537561      17.87189171      -0.01189697       0.02433478       0.00812552
Sb      10.90839275       5.88876704      17.06764563       0.00919354       0.01196473       0.01664566
Sb      13.08349074       2.30978177      17.40115822       0.00413666       0.01856024       0.00073641
Sb       6.71878029       6.04264072      17.07411561      -0.00545180      -0.00398974      -0.00549682
Sb       8.62699437       0.22439299      26.83621067       0.00355676       0.00230917      -0.00273246
Sb      10.75854061       4.96091600      25.53513341       0.00053680       0.01896440      -0.02079767
Sb      12.87288505      -1.04658882      26.33465980       0.08414407       0.02098434      -0.05471321
Sb      -3.09019070       4.98024866      26.51455803       0.00083476       0.00911134       0.00379117
Sb       8.90816097       0.51879532      22.11389534      -0.00571390       0.01587200       0.01236446
Sb      11.08581818       3.76371481      21.20950898       0.02104314       0.03231274       0.02897269
Sb      13.38890059       0.11391160      22.35014843       0.02466818       0.04541905       0.11690140
Sb       6.69013797       3.95737255      21.45172413      -0.00910753       0.00669509       0.00124421
Sb      10.40499401       1.40078855      29.45993666       0.01970258      -0.00480914      -0.00402994
Sb      12.56421697       5.02002943      29.51801888       0.00785156       0.00044689      -0.00922966
Sb      14.08501961       0.66342269      28.40377026      -0.01639616      -0.00845747      -0.01282518
Sb       8.29873870       5.29492179      29.69575099       0.00252732      -0.00179179      -0.01167257
Cr       5.96900619       3.62810409      28.97327787      -0.00323649      -0.00465177      -0.00062398
81
Properties=species:S:1:pos:R:3:forces:R:3 energy=-284.4074748878803 mlff_rel_energy_eV=-18.53364763303523 mlff_fmax_eV_A=0.05663441172791111 calculator_label=/data/pclancy3/yi/flare-data/1-Cr-Sb2Te3/3.fine-tuning/2-layer/MACE-omat/MACE-matpes-pbe-omat-ft.model neb_image=5 neb_protocol=mlff_pre_neb pbc="F F F"
Te      13.33996826       6.09718309      15.59428746      -0.00459697      -0.00672000       0.00319802
Te       2.59534635       3.30797550      16.25252274       0.00128318       0.00123754       0.00847392
Te       0.69095890       6.68362453      15.02612292       0.00055758       0.00265566       0.00606262
Te      14.65326457       3.69681530      15.87017694      -0.00570082      -0.00219167      -0.00567362
Te      -0.03243216       3.24347372      22.87957085       0.00021162       0.00831749       0.00900837
Te       3.06359313       7.02688604      22.66085757       0.05196426       0.00801230      -0.00724272
Te       4.54885307       3.23142077      23.59011278      -0.00227813       0.01633619       0.00279656
Te      -1.97015383       6.85626416      27.08601128      -0.01656016       0.00630431       0.00068198
Te       1.77112902       1.17798232      24.91316928       0.00008827      -0.02317518      -0.02329962
Te       3.06202950       6.79113033      25.40904275      -0.00388320       0.01454949      -0.00163759
Te       6.96246270      -0.84256896      24.49631144      -0.00169561       0.03776930       0.04216706
Te      -0.85545480       5.36042632      24.69672510      -0.00272508       0.01643618       0.00307092
Te       2.36123390       1.42488028      20.34035293       0.00052914       0.00500975       0.01771298
Te       4.65861585       4.99518496      19.56957705       0.00525718      -0.00898659       0.00457014
Te       6.48761779       0.76245135      20.51979045      -0.00445356       0.01952905       0.02261483
Te       0.35321993       5.55819455      19.41360328       0.00057263       0.00098518       0.00636744
Te       0.15308774      -0.20105123      31.11431277      -0.00324806      -0.00620389      -0.00564859
Te       2.12943142       3.36565512      31.66542601      -0.00160544      -0.00475748      -0.00821713
Te       4.44595850       0.45544744      30.81096018      -0.00666258      -0.01925702      -0.01252689
Te      -1.67421544       1.78580166      31.57788856      -0.00069062      -0.00310953      -0.00739328
Te      -0.62402725       2.59604759      27.97155543       0.00475842      -0.00017704      -0.00884268
Te       1.25396066       6.25627858      28.52958843       0.00329941       0.00125949      -0.01317924
Te       4.01069906       3.39164706      28.06311204       0.00019433       0.00342140       0.00255127
Te      -3.50347244       4.70528878      30.30955811      -0.00643500      -0.00901957      -0.00647075
Sb       0.19103222       3.22107557      17.83309175      -0.00035433       0.00249473       0.00441385
Sb       2.89285072       6.15630714      16.81372527       0.00055133       0.00112383       0.00611705
Sb       4.48434924       2.39478785      18.39143131       0.00179327      -0.00798502       0.00559599
Sb      -1.10237646       5.61997730      16.84828313       0.00065512       0.00245169       0.00500964
Sb       2.71420268      -0.46129682      26.94801926      -0.00539884      -0.01395734      -0.00793129
Sb       1.27810676       4.24119461      26.37208567      -0.00050699       0.01074212      -0.00557901
Sb       5.35703402       0.75059649      26.71384740      -0.01083732      -0.00821318      -0.01885853
Sb       5.61950732       5.36504071      26.14026110      -0.00655295       0.00580899       0.00105201
Sb      11.97504186       7.60604325      19.41135348      -0.01127069      -0.00017266      -0.00559020
Sb       2.34550068       4.27562349      21.62827417      -0.00127676       0.00082473      -0.00102563
Sb       4.19978502       0.63060008      22.47081641      -0.02594007       0.00866580       0.04523246
Sb      15.28321338       3.39680981      21.36471925      -0.00380086      -0.00622432      -0.00518509
Sb       1.98095027       1.23596440      29.37813208      -0.00339148      -0.00438755      -0.00738969
Sb       3.68294375       5.37168833      30.13334944       0.00530802       0.00258090      -0.00019685
Sb       6.18169459      -0.94963061      28.98459074       0.00624785      -0.00120291      -0.02215457
Sb      -0.40900565       4.19258221      30.41570578       0.00002433      -0.00316230      -0.00848970
Te       4.99243588       6.59886076      15.00638412       0.00353887      -0.00556173       0.00560441
Te      10.88971063       2.71558852      16.22691892      -0.00804916      -0.01394767       0.00445738
Te       9.09208314       6.86196187      15.47234527      -0.00320898       0.00605993       0.00509544
Te       6.77075248       3.16567421      16.15883828      -0.00561135      -0.00348862       0.00618733
Te       8.83167861       2.81759388      23.51623743       0.00937227      -0.00785302       0.00921423
Te      10.18724988       7.42773838      21.51829281      -0.00729194      -0.00300956       0.00275485
Te      13.34916655       2.63784611      23.38163105       0.00352380      -0.00283313      -0.00243730
Te       6.38640150       6.70637061      22.44359533      -0.00720144       0.00674398      -0.00315621
Te      11.05595734       0.27357611      24.91628819       0.01846268      -0.02227298      -0.00770352
Te      11.88904125       6.09854906      23.37894714       0.00112208       0.00148901      -0.00067061
Te      15.25767600      -0.94909915      24.33694359       0.01707171      -0.00189591      -0.00652242
Te       7.93846083       6.91337704      24.80617644      -0.00233410       0.00982200      -0.00346207
Te      11.00132722       0.90517379      20.16186689       0.00779107      -0.00090126       0.00652547
Te      13.29727340       4.73358992      19.60237145      -0.00253470       0.00517747      -0.00228474
Te      15.46021108       0.79187602      20.35526914      -0.00202017      -0.00346565      -0.00924994
Te       8.92180222       4.62726933      19.50102024       0.00192653      -0.00389478       0.00466972
Te       8.11899542       0.63681864      30.40990906      -0.00789615       0.01743612      -0.00988400
Te      10.37594025       3.57414925      30.66939525       0.00538375       0.00614396       0.00995463
Te      12.13412471      -0.16704222      29.70968764      -0.00336714       0.00212046      -0.02046649
Te       6.18034353       3.81523706      31.17435754      -0.00997086      -0.01331763      -0.01297652
Te       7.74177340       3.40912544      27.51533890      -0.00194820      -0.00057177      -0.00940430
Te      10.48430680       6.85337806      27.74099324       0.00180285       0.00687405       0.00480845
Te      12.56930377       3.26017505      27.01558400      -0.01099577      -0.00407720      -0.01005711
Te       5.80028532       7.09200251      28.38822697       0.00219521      -0.00011651       0.00904897
Sb       8.76979045       2.13403896      18.08870751      -0.01081827      -0.00343058       0.00759125
Sb      10.99157357       5.74875740      17.24404010      -0.00561996      -0.00745392       0.00003758
Sb      13.15106334       2.29073176      17.88948965      -0.00137599      -0.00117533       0.00734102
Sb       6.91072512       5.87146298      17.02838169       0.00259526      -0.00056263       0.00627615
Sb       8.96370334      -0.85233680      26.52141406       0.04134789      -0.00447932       0.01378796
Sb      10.18274247       5.05127025      25.48541981      -0.00361078       0.01355019       0.00053867
Sb      13.20007308      -1.18958012      26.20338615       0.03480594       0.00244259      -0.00673074
Sb      -3.07194326       4.40487562      27.61808340      -0.00313880      -0.00085224      -0.00632321
Sb       8.77665241       0.23678834      22.28526391      -0.00726016      -0.00435399       0.01338980
Sb      11.06814678       3.53571975      21.48851595       0.00125487      -0.00107037       0.00318411
Sb      13.43391378      -0.02587195      22.28866821       0.01119810      -0.00239238       0.00394802
Sb       6.66446153       3.89774772      21.58175486       0.00537711      -0.01256984       0.00214946
Sb      10.08683990       1.53449253      28.43621350       0.00299335       0.01397929      -0.00765464
Sb      12.23738489       5.11155392      29.20648745      -0.00093832      -0.00034982      -0.00728569
Sb      14.03857658       0.93191773      28.02877776      -0.00932387       0.00076940       0.01131380
Sb       8.03704109       5.39929535      29.58870976       0.00120512      -0.00665306      -0.00274760
Cr       6.06619323       1.97328144      29.20968640      -0.01188278      -0.00767040      -0.02302602
81
Properties=species:S:1:pos:R:3:forces:R:3 energy=-283.18463455045963 mlff_rel_energy_eV=-17.310807295614552 mlff_fmax_eV_A=0.10261395072192724 calculator_label=/data/pclancy3/yi/flare-data/1-Cr-Sb2Te3/3.fine-tuning/2-layer/MACE-omat/MACE-matpes-pbe-omat-ft.model neb_image=6 neb_protocol=mlff_pre_neb pbc="F F F"
Te      13.14372897       6.49160557      15.55668869       0.01308473      -0.01096089      -0.00533620
Te       2.56295135       3.44352905      16.08253040      -0.00003120      -0.00376436       0.00285248
Te       0.51243197       6.80383763      15.12023395      -0.00078722      -0.00681457      -0.00100741
Te      14.56226751       4.13183516      15.73943035       0.01942555      -0.00856446       0.00158218
Te      -0.02888989       2.86997517      23.30050637       0.00415660       0.00498435       0.01284996
Te       2.32166768       6.49981996      22.60807040      -0.00409531       0.00537214       0.00138905
Te       4.33980726       2.80995806      23.23627544       0.00099877       0.00086272       0.00816075
Te      -0.80827932       7.86635442      26.61695530       0.00497725       0.00834075       0.01931681
Te       2.13917671       0.51419305      24.81982838       0.00823660      -0.00639699      -0.00150889
Te       3.59502556       5.97969612      25.01073118      -0.00507715       0.00395123       0.00368148
Te       6.56421271       0.37489086      24.83380382       0.00618000       0.00162241      -0.00231139
Te      -0.54985390       5.42807354      24.71641801       0.00503631       0.01161023       0.00185019
Te       2.36554407       1.06817225      19.84150736       0.00500566       0.00231967       0.00559018
Te       4.44140841       4.91279920      19.53603174      -0.00027041       0.00214553      -0.00061981
Te       6.61613429       0.68958619      20.15407685      -0.00410176       0.00697811       0.00013710
Te       0.10691501       5.30603082      19.35528317       0.00437184       0.00267236       0.00101708
Te      -0.69752667       0.15984505      32.09868675      -0.00341186       0.00567738      -0.00998830
Te       2.33938703       2.96458052      31.60971606      -0.00459866      -0.00317937      -0.00145981
Te       4.65844220       0.07832751      31.11566908      -0.00257296      -0.00493021      -0.00969190
Te      -1.92227316       2.62101391      31.96340908       0.00982042      -0.02081958      -0.00111100
Te      -0.07872711       1.93627331      28.15529759      -0.00619168      -0.00156236      -0.00703211
Te       1.63770102       5.98514027      28.36019523       0.00301823       0.00287933       0.00433714
Te       4.22548569       2.61628365      27.58553105      -0.00268861      -0.00057802      -0.00124593
Te      -2.82590326       4.47536976      28.76832417      -0.00252325      -0.00095753       0.00929362
Sb       0.14491578       3.07703863      17.59892795      -0.00170267      -0.00163708       0.00318756
Sb       2.69695833       6.23813620      16.92542349       0.00414911      -0.00128183      -0.00535410
Sb       4.45951844       2.41647149      18.14137213       0.00426116       0.00174024       0.00218255
Sb      -1.27053341       5.46641243      16.76802566      -0.00296957      -0.00256707       0.00047488
Sb       1.13283445      -0.61668877      27.20185130       0.00023821      -0.00310131      -0.00279204
Sb       1.67091572       3.99940298      26.24151889      -0.00473284      -0.00222027       0.00215811
Sb       4.24677818      -0.12743312      26.70237225      -0.00060905       0.00030772       0.00608662
Sb       6.26136022       4.40156906      25.79455801      -0.00872366       0.01164581       0.00513007
Sb      12.01661265       7.78072337      19.40855736      -0.00008006       0.00875237      -0.00221837
Sb       2.03119813       3.81241741      21.51506719      -0.00260245       0.00203463       0.00258491
Sb       4.28037352       0.32283713      21.86919750       0.00426914       0.00491438      -0.00174401
Sb      15.20779093       3.33356134      21.25559925      -0.00039703      -0.00110209      -0.00642749
Sb       1.48897710       0.53836000      30.34064971       0.00163088      -0.00684325      -0.00352753
Sb       4.09312881       5.32810504      29.92621887      -0.00378059      -0.00026295       0.00373016
Sb       6.62738402       0.84447997      29.23312929       0.00310170       0.00361170       0.00249117
Sb      -0.21024535       4.17856749      30.14703573       0.00193055      -0.00667713      -0.00070317
Te       4.82680116       6.94416797      15.24437973       0.00535210      -0.01259936      -0.00842299
Te      10.85566509       2.98512295      16.11301079       0.00137283      -0.00517675       0.00556400
Te       8.88614222       7.35164653      15.77120780       0.00300088      -0.01556715      -0.01058584
Te       6.79505173       3.48593901      16.09008635      -0.01758731      -0.00601515      -0.01036089
Te       8.74264956       2.91070983      23.38260482       0.01554569       0.01280435      -0.00272442
Te      10.22705889       7.60934711      21.50139973       0.01013188      -0.00027129       0.00624802
Te      13.29642064       2.73137902      23.34917843      -0.00642723       0.00104655      -0.00259141
Te       6.43827062       6.56005003      22.37979030      -0.00379209       0.00590243       0.00114458
Te      10.93270309       0.47758574      24.98218965      -0.00241923       0.00498061      -0.00111190
Te      11.95457541       6.16530328      23.25957479       0.01350545      -0.02336483       0.00306709
Te      15.07420603      -0.94045179      24.46358293       0.06511092       0.03124336      -0.01805746
Te       8.07367867       6.50286769      24.72843298      -0.00290705       0.00546963      -0.00052431
Te      10.91510108       1.01935474      20.10059707       0.00554526      -0.00757467       0.01991233
Te      13.26999053       4.84243534      19.56047882      -0.00744344       0.00663429      -0.00651930
Te      15.21795529       0.70279921      20.31732529       0.01004406       0.01973577      -0.02352295
Te       8.86483908       4.77587452      19.51551879      -0.00093691       0.00252929      -0.00475140
Te       8.75201854       0.32178907      31.03558845       0.00128882      -0.00456570       0.00261655
Te      10.71335346       3.78558774      30.91595395      -0.00578574      -0.00015684       0.00085129
Te      12.94749927       0.10534727      30.37642022      -0.00607518       0.00292147       0.00339313
Te       6.52862935       3.87967035      31.44938308       0.00304712      -0.00918870      -0.00225509
Te       8.43927409       3.07580494      27.44911868      -0.00217238       0.00654369       0.00150329
Te      10.72030307       6.71210456      27.63635543       0.00067546       0.00401849       0.00502983
Te      12.87670021       3.21490792      27.17958747      -0.00061301       0.00398472      -0.00289788
Te       5.88369806       6.38303175      27.89980453      -0.00382390       0.00668747       0.00791329
Sb       8.77089475       2.35048033      17.98269655      -0.00484177      -0.00336494       0.00110429
Sb      10.86591820       6.03408739      17.28127604       0.01056493      -0.00731351       0.00267234
Sb      13.17165202       2.57256993      17.66968627      -0.00443148      -0.01085792       0.00799950
Sb       6.74167972       6.09442382      17.22027714       0.00858974       0.00199168       0.01092932
Sb       8.64538234      -0.09667908      26.67856028       0.00697845      -0.00880490      -0.00583902
Sb      10.48162251       4.82679845      25.44863378      -0.00944844      -0.00618534       0.01243366
Sb      12.99093202      -1.08567802      26.31103516      -0.08729643       0.00335124       0.05383053
Sb      -2.82289010       6.01577351      26.48220661      -0.00414187       0.00446248       0.00309063
Sb       8.84704559       0.38183999      22.06247754       0.00984562       0.00121304      -0.00245316
Sb      11.06908950       3.70142774      21.46054337       0.01258337      -0.02352697      -0.00279019
Sb      13.30381086       0.00287042      22.39829401      -0.03113288       0.01470469      -0.08435082
Sb       6.55311794       3.84911554      21.40238203      -0.00300074       0.00446088      -0.00005320
Sb      10.64103188       1.41240099      29.24241935      -0.00402013       0.00233602      -0.00369060
Sb      12.55383649       5.17875776      29.23389677      -0.00343656      -0.00131988       0.00032509
Sb      14.31508023       0.86326673      28.07581190      -0.00817777       0.00221963       0.00674703
Sb       8.25912084       5.16689431      29.48667511      -0.00167983       0.00068757       0.00171169
Cr       4.59824900       2.61650438      30.20457059      -0.00353591      -0.00227714      -0.00058926
81
Properties=species:S:1:pos:R:3:forces:R:3 energy=-281.9501997199097 mlff_rel_energy_eV=-16.076372465064594 mlff_fmax_eV_A=0.016537654742849198 calculator_label=/data/pclancy3/yi/flare-data/1-Cr-Sb2Te3/3.fine-tuning/2-layer/MACE-omat/MACE-matpes-pbe-omat-ft.model neb_image=7 neb_protocol=mlff_pre_neb pbc="F F F"
Te      13.14988941       6.92171012      15.70457365       0.00003920      -0.00296367      -0.00156433
Te       2.45863246       3.81497000      15.81703660       0.00293781      -0.00176604       0.00005474
Te       0.47180201       7.28768494      15.23940960       0.00191097      -0.00246597      -0.00361093
Te      14.49283276       4.52571094      15.37115843       0.00171086      -0.00314870       0.00506420
Te      -0.04822643       2.38426897      22.91164480       0.00033046       0.00049573      -0.00179044
Te       2.20619965       6.14977586      22.62166512      -0.00198421       0.00271005       0.00006402
Te       4.26254710       2.34647554      22.86092907      -0.00016192       0.00485186       0.00144589
Te      -0.87819185       7.32734515      26.24087011      -0.00337446      -0.00281925       0.00283047
Te       1.96775842       0.87887767      25.07983121       0.00500057       0.00108259      -0.00053958
Te       3.81111380       5.33401525      24.83656811      -0.00309903       0.00462494       0.00170086
Te       6.51177967       0.81608289      25.21451923      -0.00784599      -0.00422510       0.00190249
Te      -0.48711507       4.71880011      24.55592515      -0.00043455      -0.00114057       0.00008242
Te       2.30038042       1.01893247      19.20273809       0.00086425       0.00144082       0.00214381
Te       4.43100985       4.85956066      19.39387120       0.00077969       0.00180668      -0.00022558
Te       6.57542558       0.59795447      19.47865160       0.00152518       0.00127575       0.00695279
Te       0.10525590       5.38573240      19.29371080       0.00044257       0.00028730      -0.00252110
Te      -0.06454771      -0.88844812      32.32300515      -0.00014810      -0.00301556       0.00237523
Te       1.68099099       3.14104207      31.90671297       0.00293724      -0.00057352      -0.00137434
Te       4.40328711       0.61387442      31.74844092       0.00318603      -0.00144067      -0.00304880
Te      -2.43746517       4.82426159      31.75849009       0.01054981       0.00882102       0.00903230
Te      -0.46849361       2.01720597      28.37493283      -0.00046918      -0.00701300      -0.00297373
Te       1.77834811       6.30104289      28.38097345      -0.00301612      -0.00220417       0.00526598
Te       4.09605377       2.62786723      28.24478076       0.00232458       0.00236012      -0.00196975
Te      -2.43885147       5.84393007      27.88757839      -0.00175739      -0.00793153       0.00092500
Sb       0.04701218       3.34038071      17.32286786       0.00209447      -0.00112395      -0.00102179
Sb       2.66994760       6.50353620      16.92962697       0.00126098      -0.00071931      -0.00184264
Sb       4.38046547       2.56036504      17.70673751       0.00178872       0.00000644       0.00224132
Sb      -1.32543888       5.82978512      16.77175907       0.00157042      -0.00190653      -0.00353299
Sb       0.92514061      -0.46197257      27.40319327       0.00570159       0.00072703      -0.00105486
Sb       1.88473662       3.94255538      26.53183644      -0.00078560      -0.00001787       0.00040960
Sb       3.81073152      -0.04164857      27.11818869       0.01184646       0.00359151      -0.00562550
Sb       6.25658151       3.88485200      26.22253402      -0.00083949       0.00633119      -0.00140943
Sb      11.99998421       7.52750818      19.78625293      -0.00190740       0.00344921      -0.00325860
Sb       2.01858862       3.63084515      21.25316473      -0.00033985       0.00260145      -0.00004922
Sb       4.20608473       0.09535444      21.10176956      -0.00020263       0.00275085       0.00410239
Sb      15.15661430       3.21624056      20.94259719      -0.00084914       0.00266370       0.00513267
Sb       1.47666648       0.46590076      30.73021415       0.00418182       0.00160940      -0.00405134
Sb       3.98315692       5.73341136      30.04560632       0.00065109      -0.00022622       0.00175509
Sb       6.84032632       1.10526087      30.08761149       0.00071717      -0.00053841      -0.00305503
Sb      -0.36299517       4.51259163      30.17083018       0.00120538      -0.00338786      -0.00128470
Te       4.74778688       7.31552778      15.21400937       0.00190125      -0.00093637      -0.00123507
Te      10.79670654       3.40396971      15.67964118       0.00132924      -0.00393254       0.00186353
Te       8.89225265       7.67008009      15.87000384       0.00110310      -0.00242744      -0.00355242
Te       6.69426991       3.83395888      15.66461429       0.00130316      -0.00146958       0.00080180
Te       8.84764855       2.44689956      22.94489615      -0.00391055       0.00700224       0.00839421
Te      10.54573182       6.54181118      22.00023258      -0.00785637       0.01077252      -0.00474305
Te      13.18480010       2.20719208      22.85930674       0.00131761       0.00121017       0.00619318
Te       6.50914314       6.13512419      22.47754229      -0.00288504       0.00498269       0.00048224
Te      10.91787127       0.56836873      25.37953866      -0.00341306      -0.00126103      -0.00374277
Te      12.42154991       5.69301904      23.98125830      -0.00577300       0.00040330      -0.01181662
Te      15.07298334       0.38736318      25.46918717      -0.00249396      -0.01581657      -0.00413648
Te       8.15834283       5.68295702      24.76942401      -0.00212833       0.01054768       0.00140832
Te      10.93943568       0.87480611      19.38155609      -0.00205511       0.00451246       0.01165372
Te      13.32367176       4.76468704      19.25912281      -0.00369885       0.00102369       0.00492010
Te      15.22659523       0.75118415      19.56153707      -0.00078756       0.00212074       0.00685000
Te       8.74789966       4.63126407      19.25670387       0.00163882      -0.00124531       0.00070825
Te       9.12372545       0.07065288      31.40728481      -0.00068568      -0.00229364      -0.00270849
Te      10.82841029       3.87178022      31.20122994      -0.00057720      -0.00124538      -0.00355955
Te      13.24483679       0.56868453      31.09693237      -0.00083818      -0.00153144      -0.00415972
Te       6.67964241       3.53348417      31.60393714       0.00314728      -0.00027866      -0.00272909
Te       8.54175454       2.93518244      27.96577845       0.00082300       0.00062228      -0.00579585
Te      10.50386045       6.40121238      27.67096575       0.00405872       0.00083203      -0.00260670
Te      13.31630004       3.38741868      27.45635165      -0.00471910      -0.00463794      -0.00540233
Te       6.00784870       6.28386453      28.11948957      -0.00135354       0.00080484      -0.00140325
Sb       8.63010470       2.49743596      17.32814902       0.00048654      -0.00186507       0.00174326
Sb      10.85436651       6.21232160      17.30908251       0.00000386      -0.00100118      -0.00072669
Sb      13.15119923       2.71115208      17.08094542      -0.00028253      -0.00097587       0.00560910
Sb       6.68158121       6.32458399      17.08091818       0.00153620      -0.00056541      -0.00075886
Sb       8.58632053       0.04401403      26.92489902      -0.00235945      -0.00125881      -0.00163996
Sb      10.68292323       4.21689990      25.73646735      -0.00384060       0.00291047      -0.00551081
Sb      13.03241174      -0.84197993      26.82007640      -0.00772066      -0.00496199      -0.00117275
Sb      -2.22828628       3.40181933      26.47047568       0.00018833      -0.00552340      -0.00307061
Sb       8.81422085       0.11964163      21.27511118      -0.00211185       0.00437315       0.01245554
Sb      10.94740498       3.57319247      21.03735627      -0.00023151       0.00376285       0.00723064
Sb      13.03271406      -0.11165912      21.16618235       0.00019591       0.00082743       0.00801422
Sb       6.50132887       3.59386846      21.19163260      -0.00007268       0.00397867       0.00199141
Sb      10.95226221       1.40419488      29.70927584      -0.00149432      -0.00211265      -0.00330385
Sb      12.53571830       5.32102621      29.42303198       0.00242733      -0.00421905      -0.00373704
Sb      14.54097294       0.98226414      28.55368561      -0.00317259      -0.00366772      -0.00599919
Sb       8.35200305       5.26495997      29.75743381       0.00218603      -0.00114935      -0.00327480
Cr       4.12288597       3.13720165      30.87419257       0.00247307      -0.00117050      -0.00121015
81
Properties=species:S:1:pos:R:3:forces:R:3 energy=-281.54659236566147 mlff_rel_energy_eV=-15.672765110816385 mlff_fmax_eV_A=0.16039741105693103 calculator_label=/data/pclancy3/yi/flare-data/1-Cr-Sb2Te3/3.fine-tuning/2-layer/MACE-omat/MACE-matpes-pbe-omat-ft.model neb_image=8 neb_protocol=mlff_pre_neb pbc="F F F"
Te      13.04668529       6.56731945      14.69134798      -0.00719733      -0.00637274      -0.01010978
Te       2.24535422       3.77999772      15.71072485      -0.00011409       0.00267132       0.01691968
Te       0.21043051       7.25099394      15.18906050       0.00293731      -0.00111211       0.00029290
Te      14.64894795       4.35547634      15.10116845      -0.00394919       0.00590766       0.00330132
Te       0.14787126       2.68046589      23.00603120       0.00105428      -0.00745141      -0.00626746
Te       2.59685071       6.24220297      22.75503543       0.03093538       0.00223956      -0.00085033
Te       4.45498291       2.42381408      22.73926530      -0.00458541       0.00562976       0.00899408
Te      -3.75222148       5.91151795      24.70161563      -0.00415430      -0.07549713       0.12033697
Te       2.17596381       0.94407263      25.11611070      -0.00231010       0.00645037      -0.00214472
Te       4.12059937       5.21445096      24.93602056       0.01143193       0.00883677       0.00889968
Te       6.66484293       0.99950206      25.24695492      -0.00027699      -0.00631042       0.00053496
Te      -0.05285358       4.86180658      24.67152277      -0.02662432      -0.00977382      -0.00400151
Te       2.19919758       1.17322953      19.28000981      -0.00263507      -0.00240595       0.02196448
Te       4.45760365       4.99554739      19.21041024       0.01451102       0.00448272       0.00340622
Te       6.53171462       0.70907125      19.13146199       0.00272992      -0.01264923       0.01260127
Te       0.09709460       5.41810967      19.28979876       0.00314279       0.01660709       0.02436312
Te      -0.63452827      -0.17860976      32.29412583      -0.01331499       0.00244640      -0.00027944
Te       1.79964766       3.38903237      32.13911356      -0.01049966      -0.01156565      -0.00699111
Te       4.35553556       0.45369281      32.08217078      -0.00340803       0.00707117      -0.01173956
Te      -2.91238938       3.86670536      31.63322510      -0.01370110      -0.01267351      -0.01641110
Te      -0.14960405       2.31627864      28.41742758      -0.01171071      -0.00707370      -0.01162229
Te       2.06965960       6.27046551      28.48007960      -0.00813019       0.00454012       0.00190765
Te       4.21298747       2.49602418      28.49561437      -0.01217546       0.00356494       0.00197538
Te      -1.74658186       6.20417404      28.02539797      -0.01880157      -0.06106811      -0.05291534
Sb      -0.06648734       3.33943230      17.37381510      -0.00445104       0.01335569       0.01279789
Sb       2.52232147       6.48386193      16.73240040       0.00530252       0.00582902       0.00523133
Sb       4.25124190       2.64235492      17.60583893      -0.00110936       0.00148648       0.01379487
Sb      -1.48057622       5.82508701      16.86233706       0.00455447      -0.00504706       0.00146896
Sb       0.82083758      -0.23339929      27.33668762       0.00976379      -0.00941788       0.00899381
Sb       2.06211937       3.93514304      26.68575232       0.00024046       0.01278370      -0.00860057
Sb       3.69112084      -0.11083383      27.32563685      -0.00832259       0.00158530       0.01273616
Sb       6.42975074       3.80662417      26.47336273      -0.00006874       0.00303156      -0.00807631
Sb      13.45605958       6.80681721      21.10426365       0.01014966      -0.00968461       0.00899515
Sb       2.23086148       3.84496370      21.21284236       0.00936235      -0.00701944      -0.00190077
Sb       4.28791161       0.21443050      20.94273829      -0.00147830       0.00513717       0.01447001
Sb      14.88154521       4.32501607      20.79758454       0.00066674       0.00930723       0.00873520
Sb       1.22003547       0.90716871      30.81337366      -0.02372600      -0.01449340       0.00688574
Sb       4.10047351       5.58499368      30.25460852      -0.00415094       0.01114768      -0.00597644
Sb       6.71995185       0.99106864      30.53842372       0.00641425      -0.00541602      -0.00054629
Sb      -0.80074123       4.62462656      30.29495499      -0.02873341       0.00049729       0.00430280
Te       4.44181052       7.21974587      14.80369738       0.00326835      -0.00341760      -0.00478006
Te      10.54470036       3.46658778      15.16119246      -0.00658134      -0.00480680       0.00705745
Te       8.59979971       7.23715387      14.75906514       0.00223696      -0.00130735      -0.00486069
Te       6.36018405       3.66770920      15.42438552      -0.00241883      -0.00369882       0.01183484
Te       8.92194657       2.30422217      22.58556214       0.00570119      -0.00193089       0.00910299
Te      11.21553175       6.03496468      22.63354765       0.00912906       0.00039483       0.00470715
Te      13.32947648       2.43827320      22.34609875       0.01267569      -0.00233408       0.00116211
Te       6.90722252       6.06232141      22.52310557       0.00378015       0.00233742       0.00223628
Te      10.98545695       0.85288122      25.64419678       0.01181514      -0.00426549      -0.00665542
Te      12.78991982       5.21042645      24.82643984      -0.00450578       0.00323260      -0.01245743
Te      14.92764766       1.01100915      25.69145915      -0.00732358      -0.02911385       0.00744730
Te       8.45727584       5.18716285      24.84468173      -0.00294687       0.00579989      -0.00631316
Te      10.96347872       0.97173157      18.89831503       0.00451248      -0.00494468       0.00886390
Te      13.01627729       4.92648198      18.70446358      -0.00082459      -0.00320128       0.00131956
Te      15.29851742       1.46015658      18.51213180       0.01095030       0.00723435      -0.00689480
Te       8.71159274       4.86456776      18.89307974       0.00399039      -0.00179019       0.01044764
Te       9.02656042      -0.13181739      31.81989300       0.00762649      -0.00204766      -0.00248126
Te      10.79490620       3.58245372      31.80265475       0.01088865       0.00512915      -0.01079586
Te      13.14527418       0.15178020      31.45049857       0.00870838       0.00219254      -0.01315976
Te       6.60768761       3.41426639      32.08462239       0.00586880      -0.01093481      -0.01114319
Te       8.52925385       2.81989575      28.47524901       0.00549624      -0.00165825      -0.00457184
Te      10.57430732       6.34319094      28.43096113      -0.00448018       0.00009609      -0.01776877
Te      13.41620553       3.35492844      28.14510623       0.00481258       0.00855167      -0.01347250
Te       6.26858666       6.22590582      28.53042943      -0.00427949       0.00193837      -0.00449636
Sb       8.54049646       2.64047656      17.05505735      -0.00084838       0.00098715       0.00996032
Sb      10.69226139       6.06367135      16.29713184      -0.00127136      -0.00816512      -0.00514326
Sb      13.12529352       2.61856274      16.78836209       0.00231341       0.00210566       0.00312241
Sb       6.55218807       6.30172755      16.50095255       0.00166107       0.00186605       0.00414771
Sb       8.62735845       0.15681247      27.03213071       0.00829512       0.00350710      -0.01046525
Sb      10.75585046       4.05396979      26.50217359      -0.00262657       0.00293340      -0.01312859
Sb      13.17416123      -0.63278621      26.92703214       0.00817787       0.00130650       0.00392435
Sb      -2.41471735       4.14833373      26.23629352      -0.00122516       0.14520034      -0.06813729
Sb       8.85798309       0.11697660      20.76759339       0.00616408       0.00205272       0.01013872
Sb      10.88297760       3.60507566      20.64349231       0.00193592      -0.00497844       0.00386555
Sb      13.50822942       0.37419588      20.32844878       0.01384666       0.00691640      -0.00091419
Sb       6.64405955       3.72495118      20.97293726       0.00640684       0.00309619       0.00652616
Sb      10.85486759       1.22541515      30.16390222       0.00168613       0.00382263      -0.00551920
Sb      12.52254523       5.16770744      30.18210466      -0.00470103       0.00511094      -0.02069510
Sb      14.52195638       0.83003648      29.07997543      -0.00835142      -0.00611442      -0.02615095
Sb       8.36790871       5.15683420      30.31768729      -0.00138801       0.00131408      -0.01310331
Cr       4.14996204       2.94441280      31.11784104      -0.00574334       0.00800684       0.00176721
81
Properties=species:S:1:pos:R:3:forces:R:3 energy=-265.56471245681064 mlff_rel_energy_eV=0.3091147980344431 mlff_fmax_eV_A=2.2252591137838227 calculator_label=/data/pclancy3/yi/flare-data/1-Cr-Sb2Te3/3.fine-tuning/2-layer/MACE-omat/MACE-matpes-pbe-omat-ft.model neb_image=9 neb_protocol=mlff_pre_neb pbc="F F F"
Te      12.86903301       7.42071067      15.00559167      -1.00667520      -0.77883436       0.86252343
Te       2.17579766       3.71923286      15.00906200      -0.61828082       0.03559630       0.44672465
Te       0.03970209       7.42368463      15.00906208      -0.98354560      -0.86525613       1.08348029
Te      15.00402383       3.71912755      15.00382406      -1.22311715      -0.52871172       0.98132542
Te       0.04273490       2.48094847      22.28101909       0.78205154       0.57331214      -0.05338245
Te       2.17928580       6.18933278      22.29772983       0.19589086      -0.85560831      -0.17829576
Te       4.32785081       2.49557764      22.29528013       0.09209642      -0.94284881       0.01686263
Te      -2.10052472       6.19782966      22.28102229       0.60681035      -0.32891452       0.45440633
Te       2.14744236       1.23829240      25.13661060      -0.43631457      -1.15955731       0.11778922
Te       4.32447019       4.97811998      25.10181531       0.00345118      -0.23602742      -0.20734980
Te       6.47474771       1.24907693      25.10181006      -0.00318344      -0.87254988       0.14391613
Te      -0.06829524       4.89328870      25.01852527      -0.86053040      -0.50771060      -0.36709759
Te       2.17944826       1.25674186      18.63439456      -0.07041590      -0.40345594      -0.14263928
Te       4.31728322       4.95710586      18.64633900       0.10649445      -0.50288009      -0.26071450
Te       6.45296571       1.25337110      18.64633931      -0.05395227      -1.18504979       0.59937086
Te       0.03886003       4.95509893      18.64655062      -1.12436997      -0.33703379      -0.89383679
Te      -0.23690700      -0.13661467      32.62460105       0.99426104       0.78278040      -0.72793751
Te       2.29232380       3.75461792      32.49624828       0.33938693      -0.85162343      -0.14360633
Te       4.39786789       0.10313391      32.49625655       0.05904658       0.68531805      -0.53509894
Te      -2.05507812       3.74765381      32.44982405       1.06493491       0.30962919      -0.77251234
Te       0.12224817       2.49799117      28.85833771      -0.79073214      -0.35985432      -0.76798145
Te       2.15529510       6.17547598      28.74267736       0.25846879      -0.65713225       0.27170509
Te       4.32923743       2.49636603      28.44445037      -0.01172639      -0.79852558      -0.79362680
Te      -2.04593742       6.25810226      28.85833883       0.36699701      -1.55637409      -0.69374185
Sb       0.04148037       2.48922429      16.69760066       1.00608175       1.09332386       0.62482277
Sb       2.18348181       6.19175885      16.70176836       0.08554007       0.34485670      -0.79105419
Sb       4.31878390       2.49035581      16.70552639      -0.19483127       0.47351320       0.57322184
Sb      -2.09399722       6.19260776      16.69760205       2.02565040       0.25984003      -0.47718377
Sb       0.02016211       0.01162939      26.93247312       0.78972082       1.05398382      -0.06020722
Sb       2.13111730       3.74703764      26.74181786      -0.13600026       1.48090492       0.18965603
Sb       4.31054437      -0.03257165      26.74180929      -0.11688818       0.79657090      -0.33629992
Sb       6.55216881       3.77819719      26.74887751      -0.01218257       1.48169231      -0.23474690
Sb      12.87895892       7.42642592      20.57823109      -1.10041016      -1.25812139       0.37615606
Sb       2.18276594       3.72481757      20.59390255      -1.01112823       0.38570827       1.33508142
Sb       4.31719118       0.02326375      20.59390237       0.05223217       1.32319596      -0.19843300
Sb      15.01073364       3.72298654      20.58201200      -0.81045875      -0.67099288      -0.74276397
Sb       2.22160570       1.28102413      30.88197315      -1.22757897      -0.90208969       1.17431419
Sb       4.29663171       5.14793590      30.66492888       0.01468911       1.59507395      -0.87348081
Sb       6.60783278       1.13979335      30.66487463       0.75021850      -0.81006128       0.67666683
Sb       0.05084659       4.96200176      30.74301215      -1.47573648       0.00339551      -0.07526545
Te       4.31059186       7.41832084      15.00773332       0.03697807      -0.50625309       0.55535723
Te      10.72375164       3.71491817      15.00537523      -0.18381848       0.34985074       0.42898705
Te       8.58708928       7.42035402      15.00537580       0.01841511      -0.57924957       0.75473792
Te       6.44983059       3.71918705      15.00637800       0.10530104       0.38658748       0.20750660
Te       8.60644779       2.49846415      22.29326580       0.04287016      -0.88423204       0.26690547
Te      10.75887514       6.20391364      22.29190602       1.09310368       0.40856333      -0.66616608
Te      12.88166406       2.49529426      22.29015093       0.70350658      -0.38069073       0.12298479
Te       6.47364700       6.19720070      22.29326635       0.00056550      -1.04935258      -0.18578105
Te      10.74482699       1.26313017      25.14435205      -0.15017484      -0.96958979       0.29390687
Te      12.90660692       4.96531967      25.20984521      -0.97919442      -0.66569564       0.30027188
Te      15.03191801       1.27956313      25.20984889      -1.42413841      -0.69043863       0.96316282
Te       8.68470852       5.00788602      25.08355658      -0.12966168      -0.38047070       0.17162633
Te      10.72781437       1.25331842      18.64685214      -0.05964056      -1.03913401       0.78474234
Te      12.86884565       4.95266468      18.63307645       0.81837601       0.03221224       0.77028370
Te      15.00205093       1.25322710      18.63307817      -0.42970164       0.26924465       1.31129864
Te       8.59601017       4.95673974      18.64123078      -0.00035399      -0.64510893       0.04654405
Te       8.71132706       0.09069101      32.55643076      -0.26230309       0.49026122      -0.61560361
Te      10.72044273       3.69602251      32.44264286       0.75278777      -0.07228104      -0.30476756
Te      12.83823426       0.02330532      32.44264705       1.00381589       0.74978096      -1.00142286
Te       6.44723026       3.71784446      32.54091305      -0.22093176      -0.57713901      -0.20123695
Te       8.57907840       2.50076771      28.77842521       0.01754463      -0.28261952       0.09135328
Te      10.74455360       6.19565552      28.81168888       0.68627247      -0.85326429       0.89553720
Te      12.87154530       2.48946032      28.79203648       1.16617481      -0.36476572       0.57854808
Te       6.46192853       6.17236941      28.77841415       0.04042899      -0.61041584       0.19202555
Sb       8.59351243       2.48970491      16.69840763       0.06635641       0.88441008       0.02093576
Sb      10.73501208       6.19016053      16.69726523       0.41933358       0.97029874      -1.95817717
Sb      12.87304590       2.49033300      16.69765424       1.44819807       0.85005557      -1.04790829
Sb       6.45958165       6.19040540      16.69840853      -0.02335691       0.46430666      -1.23268089
Sb       8.61230046       0.03344614      26.79260066       0.00194469       0.78792557      -0.40866417
Sb      10.77506320       3.72846574      26.86056741       0.65129413       1.84449825      -0.87970543
Sb      12.89367024       0.05431802      26.86057310       1.02182012       1.34567035      -1.09197756
Sb      -2.06155583       3.74392278      26.92180053       1.25679237       1.55276084       0.80106956
Sb       8.59619103       0.02415324      20.59907207       0.03503941       1.21737597      -0.19533860
Sb      10.73792796       3.72716231      20.59316125      -0.07127709       0.60166658      -0.39150998
Sb      12.87395109       0.02283445      20.59316171       0.23863203       1.18869850      -0.65527079
Sb       6.46134699       3.72582110      20.59420774      -0.05135695       1.36694306       0.41372527
Sb      10.74519430       1.26334498      30.78225535      -0.02742588      -0.40825792       0.66748867
Sb      12.84952248       4.99883093      30.81831489      -1.59528537      -0.21700799      -0.85066245
Sb      15.03233080       1.21337170      30.81831313      -1.95214666      -0.23294715       0.36179078
Sb       8.50574794       4.90469743      30.79709435      -0.05730598       0.68866704      -1.00065790
Cr       4.50517369       2.59772448      30.88489746      -0.33344197      -0.35034560       2.08597491
