61
Lattice="8.42843558953 0 0 -4.21421779477 7.29923593142 0 0 0 31.0334408416" Properties=species:S:1:pos:R:3:forces:R:3 energy=-133596.341144 ionic_step=0 pbc="T T T"
Te 2.1071096 1.22577734 3.49550851 -2.57110337382e-07 -0.00129557899007 -0.0171600581375
Te 4.20621831 4.86154028 3.49550851 0.00112202951233 0.000647660939864 -0.0171600581375
Te 6.32132606 1.21654029 3.49661668 2.57110337382e-07 0 -0.00673551950839
Te 0.00799952 4.86154107 3.49550852 -0.00112202951233 0.000647403829527 -0.0171600581375
Te 0.08657344 -0.04998322 6.84607645 -0.0219425675232 0.0126688547641 0.0210174845293
Te 2.10710848 3.64961994 6.85313289 2.57110337382e-07 -5.14220674763e-07 0.00946808817408
Te 4.12764438 -0.04998372 6.84607626 0.0219425675232 0.0126691118745 0.0210177416396
Te -2.10710848 3.74958639 6.84607626 -2.57110337382e-07 -0.0253374524179 0.0210177416396
Te 0.00475239 -0.0027438 0.00092796 -0.00109657558893 0.000633262760971 0.00185145153949
Te 2.10710891 3.6496197 -0.00284764 -0 -2.57110337382e-07 0.00117010914542
Te 4.20946543 -0.0027438 0.00092796 0.00109657558893 0.000633262760971 0.00185145153949
Te -2.10710891 3.65510729 0.00092796 0 -0.0012662684116 0.00185145153949
Te -0.34531335 2.2337132 13.76566876 0.012384490731 0.00715023848258 0.00864096421872
Te 2.1071087 6.48143307 13.76566876 0 -0.0143002198548 0.00864096421872
Te 4.55953118 2.23371295 13.76566915 -0.012384490731 0.00715023848258 0.00864070710838
Te -2.1071087 6.08269937 13.78769913 -0 -2.57110337382e-07 -0.0100131620893
Te 2.10710913 1.22669761 17.19519858 -0 -0.0110593440521 0.00601329657068
Te 4.2054211 4.86108055 17.19519858 0.00957787428814 0.00552967202607 0.00601329657068
Te 6.32132652 1.21654002 17.24112858 0 2.57110337382e-07 0.0159660377307
Te 0.00879673 4.8610808 17.19519819 -0.00957787428814 0.00552967202607 0.00601329657068
Te 2.10710868 1.37197179 10.40452199 0 -0.0504645885799 -0.0169075757862
Te 4.0796098 4.78844385 10.40452199 0.0437038722585 0.0252320371796 -0.0169073186759
Te 6.32132698 1.21653976 10.2647446 -0 2.57110337382e-07 -0.0200548634261
Te 0.13460802 4.78844358 10.40452242 -0.0437036151481 0.0252320371796 -0.0169073186759
Te 0.00497997 -0.00287519 24.16796344 -0.00183319670553 0.001058523259 -0.010372602341
Te 2.10710934 3.64961945 24.16496997 -2.57110337382e-07 -2.57110337382e-07 -0.00960667064593
Te 4.20923786 -0.00287469 24.16796363 0.00183319670553 0.001058523259 -0.0103728594513
Te -2.10710934 3.65536982 24.16796363 2.57110337382e-07 -0.002117046518 -0.0103728594513
Te -0.00594146 2.42965028 27.55400504 0.00190030250359 0.00109708980961 0.00969665926401
Te 2.10710823 6.08955971 27.55400504 2.57110337382e-07 -0.00219443672955 0.00969665926401
Te 4.22015929 2.42964949 27.55400503 -0.00190030250359 0.00109734691994 0.00969665926401
Te -2.10710823 6.0826991 27.54546756 -2.57110337382e-07 -0 0.0112097535995
Te -0.00473116 2.43034799 20.68739982 0.00268268926024 0.00154934689306 -0.000852834989095
Te 2.10710915 6.0881627 20.68739982 -0 -0.00309792245511 -0.000852834989095
Te 4.21894898 2.43034826 20.68739939 -0.00268268926024 0.00154908978272 -0.000852834989095
Te -2.10710915 6.08269963 20.6902771 0 -2.57110337382e-07 -0.0038805663221
Sb 0.02110924 2.44526554 8.46233487 0.00866204726639 0.00500131028275 0.0019733218394
Sb 2.10711038 6.05832547 8.46233487 -2.57110337382e-07 -0.0100021063448 0.0019733218394
Sb 4.19310858 2.44526723 8.46233526 -0.00866204726639 0.00500131028275 0.0019733218394
Sb -2.10711038 6.08270034 8.53831106 2.57110337382e-07 -0 -0.02633735452
Sb 0.00272026 2.43464777 1.89127411 0.00035738336896 0.000206716711255 0.0115565954446
Sb 2.10711114 6.07955969 1.89127411 -2.57110337382e-07 -0.000412662091498 0.0115565954446
Sb 4.21149757 2.43465034 1.8912744 -0.00035738336896 0.000206459600917 0.0115563383343
Sb -2.10711114 6.08270078 1.90382391 2.57110337382e-07 -2.57110337382e-07 0.0117509708597
Sb 0.001405 -0.00081118 18.80149101 -0.00155063244475 0.000895258194763 -0.0179617281695
Sb 2.10710819 3.64962011 18.79123216 0 -2.57110337382e-07 -0.0178205745943
Sb 4.21281283 -0.00081202 18.80149126 0.00155063244475 0.000895258194763 -0.0179614710591
Sb 6.32132747 3.65124247 18.80149126 -0 -0.00179051638953 -0.0179614710591
Sb 0.01962771 -0.01133207 12.12299682 -0.00614210884971 0.0035463228835 0.0227995162777
Sb 2.10710964 3.64961928 13.99752396 -0 -0 -0.0305246534746
Sb 4.19459011 -0.01133123 12.12299658 0.00614210884971 0.00354606577317 0.0227995162777
Sb -2.10710964 3.67228342 12.12299658 2.57110337382e-07 -0.00709238865667 0.0227992591673
Sb 2.10710669 1.21182571 29.14391527 2.57110337382e-07 0.000171235484696 -0.01121772402
Sb 4.21829932 4.86851862 29.14391527 -0.000148095554332 -8.58748526855e-05 -0.0112174669096
Sb 6.32132897 1.21653861 29.15690047 -2.57110337382e-07 2.57110337382e-07 -0.0116535260418
Sb -0.00408149 4.86851604 29.14391498 0.000148095554332 -8.56177423481e-05 -0.0112174669096
Sb 2.10710745 1.21270292 22.57514258 2.57110337382e-07 0.000592896438002 0.011535512397
Sb 4.21754001 4.86807935 22.57514258 -0.000513449343751 -0.000296705329338 0.0115357695073
Sb 6.32132821 1.21653905 22.57652147 -2.57110337382e-07 2.57110337382e-07 0.0116036466364
Sb -0.00332218 4.86807766 22.57514219 0.000513449343751 -0.000296448219001 0.0115357695073
Cr 2.10710897 3.64961966 12.58902861 -2.57110337382e-07 -2.57110337382e-07 0.0136196487918
61
Lattice="8.42843558953 0 0 -4.21421779477 7.29923593142 0 0 0 31.0334408416" Properties=species:S:1:pos:R:3:forces:R:3 energy=-133593.49007 ionic_step=1 pbc="T T T"
Te 2.1071096 1.2260374367 3.4930132735 -2.57110337382e-07 -0.00144341743406 -0.0166874893374
Te 4.2059930597 4.8614102316 3.4930132735 0.00125007046035 0.00072170871703 -0.0166874893374
Te 6.32132606 1.21654029 3.4939648218 2.57110337382e-07 0 -0.00589039782941
Te 0.0082247703 4.8614110216 3.4930132835 -0.00125007046035 0.000721451606693 -0.0166874893374
Te 0.0874784562 -0.0505057316 6.8487815462 -0.0221749952682 0.0128030663603 0.0206863264147
Te 2.10710848 3.64961994 6.8523254421 2.57110337382e-07 -5.14220674763e-07 0.00977353525489
Te 4.1267393638 -0.0505062316 6.8487813562 0.0221749952682 0.0128030663603 0.0206865835251
Te -2.10710848 3.7506314132 6.8487813562 -2.57110337382e-07 -0.0256056184998 0.0206865835251
Te 0.0048348058 -0.0027913828 0.0012260318 -0.00111740152626 0.000645346946828 0.00177611821063
Te 2.10710891 3.6496197 -0.0026940016 -0 -2.57110337382e-07 0.00108140607903
Te 4.2093830142 -0.0027913828 0.0012260318 0.00111740152626 0.000645346946828 0.00177611821063
Te -2.10710891 3.6552024556 0.0012260318 0 -0.00129069389366 0.00177611821063
Te -0.3436647854 2.2346649996 13.7593907689 0.01172834515 0.00677151495562 0.0107029891245
Te 2.1071087 6.4795294707 13.7593907689 0 -0.0135425156906 0.0107029891245
Te 4.5578826154 2.2346647496 13.7593911589 -0.01172834515 0.00677151495562 0.0107027320142
Te -2.1071087 6.08269937 13.7814153588 -0 -2.57110337382e-07 -0.00854994715929
Te 2.10710913 1.2260513262 17.1981872674 -0 -0.01316867726 0.00705947853349
Te 4.2059807979 4.8614036919 17.1981872674 0.0114046432352 0.00658433863001 0.00705947853349
Te 6.32132652 1.21654002 17.2442863466 0 2.57110337382e-07 0.0155348636949
Te 0.0082370321 4.8614039419 17.1981868774 -0.0114046432352 0.00658433863001 0.00705947853349
Te 2.10710868 1.3743942899 10.4044029228 0 -0.04528252973 -0.00941512344458
Te 4.0775118546 4.7872326001 10.4044029228 0.0392160113195 0.0226408791995 -0.00941486633424
Te 6.32132698 1.21653976 10.2627475687 -0 2.57110337382e-07 -0.0203711091411
Te 0.1367059654 4.7872323301 10.4044033528 -0.0392160113195 0.0226411363098 -0.00941486633424
Te 0.0050685313 -0.0029263209 24.1657058757 -0.0018653354977 0.00107703520329 -0.00983729861856
Te 2.10710934 3.64961945 24.1628527308 -2.57110337382e-07 -2.57110337382e-07 -0.00908190844733
Te 4.2091492987 -0.0029258209 24.1657060657 0.0018653354977 0.00107703520329 -0.0098375557289
Te -2.10710934 3.6554720818 24.1657060657 2.57110337382e-07 -0.00215407040658 -0.0098375557289
Te -0.0060270851 2.4296008443 27.556360547 0.0019244708753 0.00111097376783 0.00917163995508
Te 2.10710823 6.0896585814 27.556360547 2.57110337382e-07 -0.00222220464599 0.00917163995508
Te 4.2202449151 2.4296000543 27.556360537 -0.0019244708753 0.00111123087816 0.00917189706541
Te -2.10710823 6.0826991 27.5479396868 -2.57110337382e-07 -0 0.0106826774079
Te -0.0047331249 2.4303468556 20.6873878035 0.00279118982261 0.00161182470505 -0.0010035016468
Te 2.10710915 6.0881649689 20.6873878035 -0 -0.00322313518942 -0.0010035016468
Te 4.2189509449 2.4303471256 20.6873873735 -0.00279118982261 0.00161182470505 -0.0010035016468
Te -2.10710915 6.08269963 20.690398611 0 -2.57110337382e-07 -0.00389573583201
Sb 0.0198719927 2.4445512146 8.4628611424 0.00900477534612 0.00519928524253 0.00160976782235
Sb 2.10711038 6.0597541208 8.4628611424 -2.57110337382e-07 -0.0103977991541 0.00160951071201
Sb 4.1943458273 2.4445529046 8.4628615324 -0.00900477534612 0.00519902813219 0.00160976782235
Sb -2.10711038 6.08270034 8.5498006359 2.57110337382e-07 -0 -0.0265510132104
Sb 0.0027433414 2.4346610961 1.8897295945 0.000360725803346 0.000208773593954 0.0116964634682
Sb 2.10711114 6.0795330379 1.8897295945 -2.57110337382e-07 -0.000416775856896 0.0116964634682
Sb 4.2114744886 2.4346636661 1.8897298845 -0.000360725803346 0.000208516483617 0.0116962063578
Sb -2.10711114 6.08270078 1.9026209631 2.57110337382e-07 -2.57110337382e-07 0.0118587000911
Sb 0.0021019157 -0.0012135447 18.8026771646 -0.00160745382931 0.000928168317948 -0.0182347793478
Sb 2.10710819 3.64962011 18.7927523943 0 -2.57110337382e-07 -0.0146293210867
Sb 4.2121159143 -0.0012143847 18.8026774146 0.00160745382931 0.000928168317948 -0.0182345222374
Sb 6.32132747 3.6520471994 18.8026774146 -0 -0.00185607952556 -0.0182345222374
Sb 0.0201100162 -0.0116105297 12.1161999466 -0.00640796093856 0.00369981775492 0.0249985809933
Sb 2.10710964 3.64961928 14.1134866605 -0 -0 -0.0573258350433
Sb 4.1941078038 -0.0116096897 12.1161997066 0.00640796093856 0.00369956064458 0.0249983238829
Sb -2.10710964 3.6728403395 12.1161997066 2.57110337382e-07 -0.00739937839951 0.0249983238829
Sb 2.10710669 1.211950348 29.1455350896 2.57110337382e-07 0.000149638216356 -0.0113349663338
Sb 4.2181913804 4.868456301 29.1455350896 -0.000129326499703 -7.50762185154e-05 -0.0113349663338
Sb 6.32132897 1.21653861 29.1584645909 -2.57110337382e-07 2.57110337382e-07 -0.0117879947483
Sb -0.0039735504 4.868453721 29.1455347996 0.000129326499703 -7.48191081781e-05 -0.0113347092235
Sb 2.10710745 1.2130148153 22.5733801942 2.57110337382e-07 0.000553301446045 0.0115874486851
Sb 4.2172699009 4.8679234024 22.5733801942 -0.000478996558542 -0.00027690783336 0.0115877057955
Sb 6.32132821 1.21653905 22.5749412396 -2.57110337382e-07 2.57110337382e-07 0.0115895055678
Sb -0.0030520709 4.8679217124 22.5733798042 0.000478996558542 -0.000276650723023 0.0115877057955
Cr 2.10710897 3.64961966 12.497985585 -2.57110337382e-07 -2.57110337382e-07 -0.000764646143373
61
Lattice="8.42843558953 0 0 -4.21421779477 7.29923593142 0 0 0 31.0334408416" Properties=species:S:1:pos:R:3:forces:R:3 energy=-133596.289364 ionic_step=2 pbc="T T T"
Te 2.1071096 1.225813242 3.4951640841 -2.57110337382e-07 -0.00131640492739 -0.0170944950015
Te 4.2061872179 4.861522329 3.4951640841 0.00114002723595 0.000658202463697 -0.0170944950015
Te 6.32132606 1.21654029 3.4962506351 2.57110337382e-07 0 -0.00661827719454
Te 0.0080306121 4.861523119 3.4951640941 -0.00114002723595 0.00065794535336 -0.0170944950015
Te 0.0866983624 -0.050055344 6.8464498435 -0.0219747063153 0.0126873667084 0.0209701762272
Te 2.10710848 3.64961994 6.8530214353 2.57110337382e-07 -5.14220674763e-07 0.00950691183502
Te 4.1275194576 -0.050055844 6.8464496535 0.0219747063153 0.0126876238188 0.0209701762272
Te -2.10710848 3.7497306381 6.8464496535 -2.57110337382e-07 -0.0253744763065 0.0209701762272
Te 0.0047637661 -0.002750368 0.0009691038 -0.00109940380264 0.000635062533333 0.00184065290532
Te 2.10710891 3.6496197 -0.0028264328 -0 -2.57110337382e-07 0.00115802495957
Te 4.2094540539 -0.002750368 0.0009691038 0.00109940380264 0.000635062533333 0.00184065290532
Te -2.10710891 3.655120426 0.0009691038 0 -0.00126986795633 0.00184065290532
Te -0.3450857931 2.2338445801 13.7648021878 0.01229990143 0.00710138751848 0.00892044315546
Te 2.1071087 6.4811703098 13.7648021878 0 -0.014202775037 0.00892044315546
Te 4.5593036231 2.2338443301 13.7648025778 -0.01229990143 0.00710164462882 0.00892044315546
Te -2.1071087 6.08269937 13.7868317599 -0 -2.57110337382e-07 -0.00981235891583
Te 2.10710913 1.2266084013 17.1956111186 -0 -0.011413642097 0.00625009519141
Te 4.205498357 4.8611251544 17.1956111186 0.00988460692064 0.00570682104852 0.00625009519141
Te 6.32132652 1.21654002 17.2415644571 0 2.57110337382e-07 0.0159061310221
Te 0.008719473 4.8611254044 17.1956107286 -0.00988460692064 0.00570682104852 0.00625009519141
Te 2.10710868 1.3723061758 10.4045055548 0 -0.0497282245737 -0.0158575371683
Te 4.0793202135 4.7882766571 10.4045055548 0.0430662386218 0.0248638551765 -0.015857280058
Te 6.32132698 1.21653976 10.2644689431 -0 2.57110337382e-07 -0.0200924015354
Te 0.1348976065 4.7882763871 10.4045059848 -0.0430662386218 0.0248638551765 -0.015857280058
Te 0.0049921944 -0.0028822478 24.1676518208 -0.00183756758127 0.00106109436237 -0.0103003543362
Te 2.10710934 3.64961945 24.1646777204 -2.57110337382e-07 -2.57110337382e-07 -0.00953519397214
Te 4.2092256356 -0.0028817478 24.1676520108 0.00183756758127 0.00106083725204 -0.0103006114465
Te -2.10710934 3.6553839355 24.1676520108 2.57110337382e-07 -0.00212193161441 -0.0103006114465
Te -0.0059532791 2.4296434562 27.5543301785 0.00190338782764 0.00109888958197 0.00962389703853
Te 2.10710823 6.0895733576 27.5543301785 2.57110337382e-07 -0.00219777916394 0.00962389703853
Te 4.2201711091 2.4296426662 27.5543301685 -0.00190338782764 0.00109914669231 0.00962389703853
Te -2.10710823 6.0826991 27.545808796 -2.57110337382e-07 -0 0.011137762705
Te -0.0047314312 2.4303478334 20.6873981613 0.00269708743913 0.00155757442386 -0.000871346933386
Te 2.10710915 6.0881630132 20.6873981613 -0 -0.00311463462704 -0.000871346933386
Te 4.2189492512 2.4303481034 20.6873977313 -0.00269708743913 0.00155731731352 -0.000871346933386
Te -2.10710915 6.08269963 20.6902938726 0 -2.57110337382e-07 -0.00388133765311
Sb 0.0209384586 2.4451669393 8.4624075132 0.00871912576129 0.00503447751627 0.00194349704027
Sb 2.10711038 6.0585226715 8.4624075132 -2.57110337382e-07 -0.0100681837015 0.00194323992993
Sb 4.1932793614 2.4451686293 8.4624079032 -0.00871912576129 0.00503422040593 0.00194349704027
Sb -2.10711038 6.08270034 8.5398970048 2.57110337382e-07 -0 -0.0263715501949
Sb 0.002723446 2.4346496094 1.8910609153 0.000357640479298 0.000206973821592 0.0115769071613
Sb 2.10711114 6.0795560111 1.8910609153 -2.57110337382e-07 -0.000413176312172 0.0115769071613
Sb 4.211494384 2.4346521794 1.8910612053 -0.000357640479298 0.000206716711255 0.0115766500509
Sb -2.10711114 6.08270078 1.9036578632 2.57110337382e-07 -2.57110337382e-07 0.0117669117006
Sb 0.0015011976 -0.0008667197 18.8016547389 -0.00155834575487 0.000899629070498 -0.0179997804994
Sb 2.10710819 3.64962011 18.791442003 0 -2.57110337382e-07 -0.0174770751835
Sb 4.2127166324 -0.0008675597 18.8016549889 0.00155834575487 0.000899886180836 -0.0179997804994
Sb 6.32132747 3.6513535495 18.8016549889 -0 -0.00179951525133 -0.0179995233891
Sb 0.0196942843 -0.0113705067 12.1220586247 -0.00617938984863 0.00356792015184 0.0231008495931
Sb 2.10710964 3.64961928 14.0135306812 -0 -0 -0.03444584323
Sb 4.1945235357 -0.0113696667 12.1220583847 0.00617938984863 0.00356766304151 0.0231005924827
Sb -2.10710964 3.6723602935 12.1220583847 2.57110337382e-07 -0.00713558319335 0.0231005924827
Sb 2.10710669 1.2118429142 29.1441388591 2.57110337382e-07 0.000168150160648 -0.0112328935299
Sb 4.2182844207 4.8685100179 29.1441388591 -0.000145524450958 -8.43321906612e-05 -0.0112328935299
Sb 6.32132897 1.21653861 29.1571163709 -2.57110337382e-07 2.57110337382e-07 -0.0116720379861
Sb -0.0040665907 4.8685074379 29.1441385691 0.000145524450958 -8.40750803238e-05 -0.0112326364195
Sb 2.10710745 1.212745972 22.574899312 2.57110337382e-07 0.000586982900242 0.0115432257071
Sb 4.2175027259 4.868057824 22.574899312 -0.000508307137003 -0.00029362000529 0.0115432257071
Sb 6.32132821 1.21653905 22.5763033455 -2.57110337382e-07 2.57110337382e-07 0.0116023610847
Sb -0.0032848959 4.868056134 22.574898922 0.000508307137003 -0.00029362000529 0.0115434828174
Cr 2.10710897 3.64961966 12.5764616353 -2.57110337382e-07 -2.57110337382e-07 0.0115884771265
61
Lattice="8.42843558953 0 0 -4.21421779477 7.29923593142 0 0 0 31.0334408416" Properties=species:S:1:pos:R:3:forces:R:3 energy=-133596.366668 ionic_step=3 pbc="T T T"
Te 2.1071096 1.2257906862 3.4953804733 -2.57110337382e-07 -0.00130329230019 -0.0171358897658
Te 4.2062067519 4.8615336069 3.4953804733 0.00112871438111 0.000651774705262 -0.0171356326555
Te 6.32132606 1.21654029 3.4964806067 2.57110337382e-07 0 -0.00669206786137
Te 0.0080110781 4.8615343969 3.4953804833 -0.00112871438111 0.000651260484588 -0.0171358897658
Te 0.0866198786 -0.0500100313 6.8462152551 -0.021954651709 0.0126757967433 0.020999743916
Te 2.10710848 3.64961994 6.8530914579 2.57110337382e-07 -5.14220674763e-07 0.00948248635297
Te 4.1275979414 -0.0500105313 6.8462150651 0.021954651709 0.0126757967433 0.0210000010263
Te -2.10710848 3.7496400127 6.8462150651 -2.57110337382e-07 -0.0253510792658 0.0210000010263
Te 0.004756619 -0.0027462416 0.0009432548 -0.00109760403028 0.000634034091983 0.00184733777409
Te 2.10710891 3.6496197 -0.0028397564 -0 -2.57110337382e-07 0.00116573826969
Te 4.209461201 -0.0027462416 0.0009432548 0.00109760403028 0.000634034091983 0.00184733777409
Te -2.10710891 3.6551121732 0.0009432548 0 -0.00126755396329 0.00184733777409
Te -0.3452287581 2.2337620392 13.765346621 0.0123533803802 0.00713224075897 0.00874432257435
Te 2.1071087 6.4813353917 13.765346621 0 -0.0142644815179 0.00874432257435
Te 4.5594465881 2.2337617892 13.765347011 -0.0123533803802 0.0071324978693 0.00874432257435
Te -2.1071087 6.08269937 13.7873766944 -0 -2.57110337382e-07 -0.00993860009149
Te 2.10710913 1.2266644476 17.1953519368 -0 -0.0111932985379 0.00610482785079
Te 4.2054498195 4.8610971312 17.1953519368 0.00969408816064 0.00559677782412 0.00610482785079
Te 6.32132652 1.21654002 17.2412906127 0 2.57110337382e-07 0.0159436691314
Te 0.0087680105 4.8610973812 17.1953515468 -0.00969408816064 0.00559652071379 0.00610508496113
Te 2.10710868 1.3720960944 10.4045158804 0 -0.0501905089603 -0.0165172822941
Te 4.0795021493 4.7883816978 10.4045158804 0.0434665594171 0.0250949973698 -0.0165170251837
Te 6.32132698 1.21653976 10.2646421275 -0 2.57110337382e-07 -0.020068490274
Te 0.1347156707 4.7883814278 10.4045163104 -0.0434663023067 0.0250949973698 -0.0165170251837
Te 0.0049845143 -0.0028778137 24.1678475989 -0.00183473936756 0.00105955170035 -0.0103458628659
Te 2.10710934 3.64961945 24.1648613293 -2.57110337382e-07 -2.57110337382e-07 -0.00958018828118
Te 4.2092333157 -0.0028773137 24.1678477889 0.00183473936756 0.00105929459001 -0.0103461199762
Te -2.10710934 3.6553750673 24.1678477889 2.57110337382e-07 -0.00211884629036 -0.0103461199762
Te -0.0059458536 2.4296477433 27.5541259068 0.00190158805527 0.00109786114062 0.00966991978892
Te 2.10710823 6.0895647833 27.5541259068 2.57110337382e-07 -0.00219572228124 0.00966991978892
Te 4.2201636836 2.4296469533 27.5541258968 -0.00190158805527 0.00109811825096 0.00966991978892
Te -2.10710823 6.0826991 27.5455944108 -2.57110337382e-07 -0 0.0111830141244
Te -0.0047312608 2.4303479318 20.6873992034 0.00268808857732 0.00155243221711 -0.000859519857867
Te 2.10710915 6.0881628164 20.6873992034 -0 -0.00310409310321 -0.000859519857867
Te 4.2189490808 2.4303482018 20.6873987734 -0.00268808857732 0.00155217510677 -0.000859519857867
Te -2.10710915 6.08269963 20.690283335 0 -2.57110337382e-07 -0.00388082343244
Sb 0.0210457538 2.4452288862 8.4623618743 0.00868364453473 0.00501390868928 0.00196278031557
Sb 2.10711038 6.0583987776 8.4623618743 -2.57110337382e-07 -0.0100270460475 0.00196278031557
Sb 4.1931720662 2.4452305762 8.4623622643 -0.00868364453473 0.00501365157894 0.00196278031557
Sb -2.10711038 6.08270034 8.5389006181 2.57110337382e-07 -0 -0.0263502100369
Sb 0.0027214444 2.4346484538 1.8911948572 0.00035738336896 0.000206716711255 0.0115640516444
Sb 2.10711114 6.0795583224 1.8911948572 -2.57110337382e-07 -0.000412919201835 0.0115643087548
Sb 4.2114963856 2.4346510238 1.8911951472 -0.00035738336896 0.000206459600917 0.0115640516444
Sb -2.10711114 6.08270078 1.9037621839 2.57110337382e-07 -2.57110337382e-07 0.0117568843974
Sb 0.0014407604 -0.0008318263 18.8015518745 -0.00155346065846 0.000896800856787 -0.017975869238
Sb 2.10710819 3.64962011 18.7913101669 0 -2.57110337382e-07 -0.0176963903013
Sb 4.2127770696 -0.0008326663 18.8015521245 0.00155346065846 0.000897057967125 -0.0179756121277
Sb 6.32132747 3.6512837626 18.8015521245 -0 -0.00179385882391 -0.0179756121277
Sb 0.0196524583 -0.0113463584 12.1226480559 -0.00615599280793 0.0035545504143 0.0229113592744
Sb 2.10710964 3.64961928 14.0034742885 -0 -0 -0.031987354184
Sb 4.1945653617 -0.0113455184 12.1226478159 0.00615599280793 0.00355429330396 0.0229111021641
Sb -2.10710964 3.6723119969 12.1226478159 2.57110337382e-07 -0.00710858660793 0.0229111021641
Sb 2.10710669 1.2118321055 29.1439983869 2.57110337382e-07 0.000170207043347 -0.0112236375577
Sb 4.2182937814 4.8685154223 29.1439983869 -0.000147067112982 -8.53606320107e-05 -0.0112236375577
Sb 6.32132897 1.21653861 29.1569807289 -2.57110337382e-07 2.57110337382e-07 -0.0116604680209
Sb -0.0040759514 4.8685128423 29.1439980969 0.000147067112982 -8.51035216733e-05 -0.0112233804474
Sb 2.10710745 1.2127189241 22.5750521477 2.57110337382e-07 0.000590582444966 0.0115383406107
Sb 4.21752615 4.8680713479 22.5750521477 -0.000511392461052 -0.000295676887989 0.011538597721
Sb 6.32132821 1.21653905 22.5764403845 -2.57110337382e-07 2.57110337382e-07 0.0116031324157
Sb -0.00330832 4.8680696579 22.5750517577 0.000511392461052 -0.000295419777651 0.011538597721
Cr 2.10710897 3.64961966 12.5843569707 -2.57110337382e-07 -2.57110337382e-07 0.0128634872895
61
Lattice="8.42843558953 0 0 -4.21421779477 7.29923593142 0 0 0 31.0334408416" Properties=species:S:1:pos:R:3:forces:R:3 energy=-133596.411687 ionic_step=4 pbc="T T T"
Te 2.1071096 1.2260536646 3.4928360386 -2.57110337382e-07 -0.00145113074418 -0.0166952026475
Te 4.205979006 4.8614021177 3.4928360386 0.00125675532912 0.000725565372091 -0.0166952026475
Te 6.32132606 1.21654029 3.4937767563 2.57110337382e-07 0 -0.00579989499065
Te 0.008238824 4.8614029077 3.4928360486 -0.00125675532912 0.000725308261754 -0.0166952026475
Te 0.0881011055 -0.0508652185 6.8491480945 -0.0223164059537 0.0128845703372 0.0204425858149
Te 2.10710848 3.64961994 6.8523336461 2.57110337382e-07 -5.14220674763e-07 0.00907882312328
Te 4.1261167145 -0.0508657185 6.8491479045 0.0223161488434 0.0128848274475 0.0204428429252
Te -2.10710848 3.751350387 6.8491479045 -2.57110337382e-07 -0.0257688835641 0.0204428429252
Te 0.004843782 -0.0027965652 0.0012206664 -0.0011197155193 0.000646632498515 0.00178228885873
Te 2.10710891 3.6496197 -0.0026876399 -0 -2.57110337382e-07 0.00108500562375
Te 4.209374038 -0.0027965652 0.0012206664 0.0011197155193 0.000646632498515 0.00178228885873
Te -2.10710891 3.6552128204 0.0012206664 0 -0.00129326499703 0.00178228885873
Te -0.3442556174 2.2343238825 13.7589610398 0.0126505999302 0.007303733354 0.00971337143594
Te 2.1071087 6.480211705 13.7589610398 0 -0.014607466708 0.00971337143594
Te 4.5584734474 2.2343236325 13.7589614298 -0.0126505999302 0.00730399046434 0.0097131143256
Te -2.1071087 6.08269937 13.7810063359 -0 -2.57110337382e-07 -0.008721953975
Te 2.10710913 1.2260278162 17.1984224255 -0 -0.0111799288004 0.00509284156286
Te 4.2060011582 4.8614154469 17.1984224255 0.00968226108512 0.00559009295535 0.00509309867319
Te 6.32132652 1.21654002 17.2445427529 0 2.57110337382e-07 0.0152083335665
Te 0.0082166718 4.8614156969 17.1984220355 -0.00968226108512 0.00558983584501 0.00509309867319
Te 2.10710868 1.3752355887 10.4045611711 0 -0.0503077512741 -0.0168078169753
Te 4.0767832687 4.7868119507 10.4045611711 0.0435681180003 0.0251536185267 -0.016807559865
Te 6.32132698 1.21653976 10.262636605 -0 2.57110337382e-07 -0.019919109168
Te 0.1374345513 4.7868116807 10.4045616011 -0.0435681180003 0.0251536185267 -0.016807559865
Te 0.0050870297 -0.002937001 24.1654868057 -0.00187176325614 0.00108089185835 -0.00977533502725
Te 2.10710934 3.64961945 24.162652044 -2.57110337382e-07 -2.57110337382e-07 -0.009018402194
Te 4.2091308003 -0.002936501 24.1654869957 0.00187176325614 0.00108089185835 -0.00977533502725
Te -2.10710934 3.6554934419 24.1654869957 2.57110337382e-07 -0.00216152660637 -0.00977533502725
Te -0.0060345196 2.429596552 27.5565320867 0.00192601353733 0.00111200220918 0.00912278899097
Te 2.10710823 6.089667166 27.5565320867 2.57110337382e-07 -0.00222400441835 0.00912278899097
Te 4.2202523496 2.429595762 27.5565320767 -0.00192601353733 0.00111225931951 0.00912278899097
Te -2.10710823 6.0826991 27.5481249247 -2.57110337382e-07 -0 0.0106325408921
Te -0.0047478721 2.4303383413 20.6873519077 0.00272614090726 0.00157428659579 -0.000765417474385
Te 2.10710915 6.0881819975 20.6873519077 -0 -0.0031480589709 -0.000765417474385
Te 4.2189656921 2.4303386113 20.6873514777 -0.00272614090726 0.00157428659579 -0.000765417474385
Te -2.10710915 6.08269963 20.6903849635 0 -2.57110337382e-07 -0.00374584050531
Sb 0.0198601928 2.4445444019 8.4628630297 0.00890913030061 0.00514400651999 0.0015475471207
Sb 2.10711038 6.0597677461 8.4628630297 -2.57110337382e-07 -0.0102874988193 0.0015475471207
Sb 4.1943576272 2.4445460919 8.4628634197 -0.00890913030061 0.00514400651999 0.0015475471207
Sb -2.10711038 6.08270034 8.5498600255 2.57110337382e-07 -0 -0.0267428175221
Sb 0.0027724971 2.4346779291 1.889580728 0.000358668920647 0.000207488042267 0.0116946636958
Sb 2.10711114 6.0794993718 1.889580728 -2.57110337382e-07 -0.000414461863859 0.0116946636958
Sb 4.2114453329 2.4346804991 1.889581018 -0.000358668920647 0.00020723093193 0.0116944065855
Sb -2.10711114 6.08270078 1.9024998213 2.57110337382e-07 -2.57110337382e-07 0.0118607569738
Sb 0.0021114049 -0.0012190233 18.8028103709 -0.00161336736707 0.000931510752334 -0.0180907975588
Sb 2.10710819 3.64962011 18.7929343326 0 -2.57110337382e-07 -0.0176470251165
Sb 4.2121064251 -0.0012198633 18.8028106209 0.00161336736707 0.000931510752334 -0.0180907975588
Sb 6.32132747 3.6520581565 18.8028106209 -0 -0.00186302150467 -0.0180905404485
Sb 0.0202680849 -0.0117017908 12.1158279287 -0.00641156048329 0.00370187463762 0.0237086584306
Sb 2.10710964 3.64961928 14.0156030964 -0 -0 -0.034759774952
Sb 4.1939497351 -0.0117009508 12.1158276887 0.00641156048329 0.00370161752728 0.0237084013203
Sb -2.10710964 3.6730228616 12.1158276887 2.57110337382e-07 -0.0074034921649 0.0237084013203
Sb 2.10710669 1.2119494788 29.1456863819 2.57110337382e-07 0.000148095554332 -0.0113455078576
Sb 4.2181921331 4.8684567356 29.1456863819 -0.000128040948016 -7.43048875033e-05 -0.0113452507473
Sb 6.32132897 1.21653861 29.1586134052 -2.57110337382e-07 2.57110337382e-07 -0.0117957080584
Sb -0.0039743031 4.8684541556 29.1456860919 0.000128040948016 -7.40477771659e-05 -0.011344993637
Sb 2.10710745 1.2130331542 22.573215733 2.57110337382e-07 0.000549187680647 0.0116530118211
Sb 4.217254019 4.8679142329 22.573215733 -0.000475654124156 -0.000274850950661 0.0116530118211
Sb 6.32132821 1.21653905 22.5747780029 -2.57110337382e-07 2.57110337382e-07 0.0116329572148
Sb -0.003036189 4.8679125429 22.573215343 0.000475654124156 -0.000274593840324 0.0116532689315
Cr 2.10710897 3.64961966 12.5972338428 -2.57110337382e-07 -2.57110337382e-07 0.0148167545226
61
Lattice="8.42843558953 0 0 -4.21421779477 7.29923593142 0 0 0 31.0334408416" Properties=species:S:1:pos:R:3:forces:R:3 energy=-133596.460238 ionic_step=5 pbc="T T T"
Te 2.1071096 1.2263397148 3.4900885938 -2.57110337382e-07 -0.00161208181538 -0.0162059216755
Te 4.2057312794 4.8612590926 3.4900885938 0.00139636624232 0.000806040907691 -0.0162056645652
Te 6.32132606 1.21654029 3.4908544466 2.57110337382e-07 0 -0.00480307821263
Te 0.0084865506 4.8612598826 3.4900886038 -0.00139636624232 0.000805783797354 -0.0162059216755
Te 0.0897869291 -0.0518385297 6.8524508224 -0.0227267540522 0.0131216260683 0.0198070090609
Te 2.10710848 3.64961994 6.8516016954 2.57110337382e-07 -5.14220674763e-07 0.00861576740566
Te 4.1244308909 -0.0518390297 6.8524506324 0.0227267540522 0.0131216260683 0.0198072661712
Te -2.10710848 3.7532970094 6.8524506324 -2.57110337382e-07 -0.0262427379159 0.0198072661712
Te 0.004941887 -0.0028532062 0.0015300779 -0.00114491233236 0.000661287787746 0.00171415461932
Te 2.10710891 3.6496197 -0.0025281893 -0 -2.57110337382e-07 0.00100324453646
Te 4.209275933 -0.0028532062 0.0015300779 0.00114491233236 0.000661287787746 0.00171415461932
Te -2.10710891 3.6553261024 0.0015300779 0 -0.00132231846515 0.00171415461932
Te -0.3431118137 2.2349842581 13.751868713 0.0129761016173 0.00749168101063 0.0107893781979
Te 2.1071087 6.4788909537 13.751868713 0 -0.0149833620213 0.0107893781979
Te 4.5573296437 2.2349840081 13.751869103 -0.0129761016173 0.00749193812096 0.0107893781979
Te -2.1071087 6.08269937 13.7739186458 -0 -2.57110337382e-07 -0.00737161048307
Te 2.10710913 1.2253355123 17.201765709 -0 -0.0111706728282 0.00397312604356
Te 4.2066007106 4.8617615988 17.201765709 0.00967429066466 0.00558546496928 0.00397312604356
Te 6.32132652 1.21654002 17.2480996776 0 2.57110337382e-07 0.0143511277016
Te 0.0076171194 4.8617618488 17.201765319 -0.00967429066466 0.00558520785894 0.0039733831539
Te 2.10710868 1.3786786694 10.4045027212 0 -0.050406738754 -0.0170878101327
Te 4.0738014748 4.7850904103 10.4045027212 0.0436537357427 0.0252029837115 -0.0170875530224
Te 6.32132698 1.21653976 10.2603946836 -0 2.57110337382e-07 -0.0197409317042
Te 0.1404163452 4.7850901403 10.4045031512 -0.0436537357427 0.0252032408218 -0.0170875530224
Te 0.0051838034 -0.0029928733 24.1629110052 -0.00190853003438 0.00110223201636 -0.00914464336965
Te 2.10710934 3.64961945 24.1602599627 -2.57110337382e-07 -2.57110337382e-07 -0.00839953761192
Te 4.2090340266 -0.0029923733 24.1629111952 0.00190853003438 0.00110197490602 -0.00914490047999
Te -2.10710934 3.6556051866 24.1629111952 2.57110337382e-07 -0.00220394981204 -0.00914490047999
Te -0.0061294499 2.4295417439 27.559175386 0.00195121035039 0.00112640038807 0.00851780836712
Te 2.10710823 6.0897767822 27.559175386 2.57110337382e-07 -0.00225305788648 0.00851780836712
Te 4.2203472799 2.4295409539 27.559175376 -0.00195121035039 0.00112665749841 0.00851780836712
Te -2.10710823 6.0826991 27.5508886567 -2.57110337382e-07 -0 0.0100239607235
Te -0.0047570161 2.4303330619 20.687319261 0.00276650723023 0.00159768363649 -0.00066771554618
Te 2.10710915 6.0881925561 20.687319261 -0 -0.0031948530523 -0.00066771554618
Te 4.2189748361 2.4303333319 20.687318831 -0.00276650723023 0.00159742652615 -0.00066771554618
Te -2.10710915 6.08269963 20.690532992 0 -2.57110337382e-07 -0.00360494404043
Sb 0.0186282238 2.443833124 8.4633092563 0.00914618603168 0.00528078921948 0.00108757672712
Sb 2.10711038 6.0611903021 8.4633092563 -2.57110337382e-07 -0.0105610642183 0.00108757672712
Sb 4.1955895962 2.443834814 8.4633096463 -0.00914618603168 0.00528078921948 0.00108757672712
Sb -2.10711038 6.08270034 8.5619756462 2.57110337382e-07 -0 -0.0270883738155
Sb 0.0028190708 2.4347048185 1.8878043983 0.000361497134359 0.000209030704291 0.0118401881468
Sb 2.10711114 6.079445593 1.8878043983 -2.57110337382e-07 -0.000417547187908 0.0118404452571
Sb 4.2113987592 2.4347073885 1.8878046883 -0.000361497134359 0.000208773593954 0.0118401881468
Sb -2.10711114 6.08270078 1.9011060445 2.57110337382e-07 -2.57110337382e-07 0.0119774850669
Sb 0.002824165 -0.0016305357 18.8042427885 -0.00167635939973 0.000967763309904 -0.0182196098379
Sb 2.10710819 3.64962011 18.7947409892 0 -2.57110337382e-07 -0.0175794050978
Sb 4.211393665 -0.0016313757 18.8042430385 0.00167635939973 0.000968020420242 -0.0182193527275
Sb 6.32132747 3.6528811813 18.8042430385 -0 -0.00193578373015 -0.0182193527275
Sb 0.0209181569 -0.0120771102 12.1083033905 -0.00668204055821 0.00385819772275 0.0245540372199
Sb 2.10710964 3.64961928 14.029126765 -0 -0 -0.0378630967242
Sb 4.1932996631 -0.0120762702 12.1083031505 0.00668229766855 0.00385794061241 0.0245537801096
Sb -2.10710964 3.6737735005 12.1083031505 2.57110337382e-07 -0.00771613833516 0.0245537801096
Sb 2.10710669 1.2120760583 29.1475656091 2.57110337382e-07 0.000124441403293 -0.0114817763365
Sb 4.2180825122 4.8683934459 29.1475656091 -0.000107472121026 -6.24778119837e-05 -0.0114815192261
Sb 6.32132897 1.21653861 29.1604378713 -2.57110337382e-07 2.57110337382e-07 -0.011942518061
Sb -0.0038646822 4.8683908659 29.1475653191 0.000107472121026 -6.22207016464e-05 -0.0114812621158
Sb 2.10710745 1.2133804678 22.5711786533 2.57110337382e-07 0.000503936261268 0.0117823383209
Sb 4.2169532367 4.8677405761 22.5711786533 -0.000436316242537 -0.000252225240971 0.0117823383209
Sb 6.32132821 1.21653905 22.5729486941 -2.57110337382e-07 2.57110337382e-07 0.0116733235378
Sb -0.0027354067 4.8677388861 22.5711782633 0.000436316242537 -0.000251968130634 0.0117825954312
Cr 2.10710897 3.64961966 12.611398402 -2.57110337382e-07 -2.57110337382e-07 0.0169713391499
61
Lattice="8.42843558953 0 0 -4.21421779477 7.29923593142 0 0 0 31.0334408416" Properties=species:S:1:pos:R:3:forces:R:3 energy=-133596.531652 ionic_step=6 pbc="T T T"
Te 2.1071096 1.2267448012 3.4861777583 -2.57110337382e-07 -0.00184168134666 -0.0154795849724
Te 4.2053804644 4.8610565494 3.4861777583 0.00159511253312 0.000920712118164 -0.0154795849724
Te 6.32132606 1.21654029 3.4866934529 2.57110337382e-07 0 -0.00330772449041
Te 0.0088373656 4.8610573394 3.4861777683 -0.00159511253312 0.000920455007826 -0.0154795849724
Te 0.0924255595 -0.0533619443 6.8574648902 -0.023370558337 0.0134934076161 0.0188140489379
Te 2.10710848 3.64961994 6.85077572 2.57110337382e-07 -5.14220674763e-07 0.00788043184075
Te 4.1217922605 -0.0533624443 6.8574647002 0.023370558337 0.0134934076161 0.0188143060482
Te -2.10710848 3.7563438387 6.8574647002 -2.57110337382e-07 -0.0269863010116 0.0188143060482
Te 0.0050927033 -0.0029402801 0.0019865037 -0.00118245044162 0.000682885056086 0.00162030934618
Te 2.10710891 3.6496197 -0.0023312665 -0 -2.57110337382e-07 0.000898600629149
Te 4.2091251167 -0.0029402801 0.0019865037 0.00118245044162 0.000682885056086 0.00162030934618
Te -2.10710891 3.6555002501 0.0019865037 0 -0.00136577011217 0.00162030934618
Te -0.3412226196 2.2360749854 13.7413920016 0.0134646112583 0.00777373105073 0.0123469526217
Te 2.1071087 6.4767094992 13.7413920016 0 -0.0155474621015 0.0123469526217
Te 4.5554404496 2.2360747354 13.7413923916 -0.0134646112583 0.00777373105073 0.0123466955114
Te -2.1071087 6.08269937 13.7632978521 -0 -2.57110337382e-07 -0.00536820673419
Te 2.10710913 1.2243471684 17.2064989997 -0 -0.0111863565588 0.00234716026996
Te 4.2074566411 4.8622557708 17.2064989997 0.00968791751254 0.0055931782794 0.00234716026996
Te 6.32132652 1.21654002 17.2531773921 0 2.57110337382e-07 0.0130102972922
Te 0.0067611889 4.8622560208 17.2064986097 -0.00968791751254 0.0055931782794 0.00234716026996
Te 2.10710868 1.3836367856 10.4040667925 0 -0.0504702450073 -0.0173732026072
Te 4.0695076222 4.7826113522 10.4040667925 0.0437087573549 0.0252348653933 -0.0173726883865
Te 6.32132698 1.21653976 10.2570068963 -0 2.57110337382e-07 -0.0194413981611
Te 0.1447101978 4.7826110822 10.4040672225 -0.0437087573549 0.0252348653933 -0.0173726883865
Te 0.0052716323 -0.0030435814 24.1592152138 -0.00194606814364 0.0011238292847 -0.00822521680318
Te 2.10710934 3.64961945 24.1568964816 -2.57110337382e-07 -2.57110337382e-07 -0.00750479363783
Te 4.2089461977 -0.0030430814 24.1592154038 0.00194606814364 0.00112357217436 -0.00822547391351
Te -2.10710934 3.6557066027 24.1592154038 2.57110337382e-07 -0.00224740145905 -0.00822547391351
Te -0.006260368 2.4294661583 27.5630163663 0.00198334914256 0.0011451694427 0.00764029078563
Te 2.10710823 6.0899279534 27.5630163663 2.57110337382e-07 -0.0022903388854 0.00764029078563
Te 4.220478198 2.4294653683 27.5630163563 -0.00198334914256 0.00114542655304 0.00764029078563
Te -2.10710823 6.0826991 27.5548701196 -2.57110337382e-07 -0 0.00913307340447
Te -0.0047432721 2.4303409971 20.6872912655 0.00282024329074 0.00162853687698 -0.000542759922213
Te 2.10710915 6.0881766858 20.6872912655 -0 -0.00325681664361 -0.000542759922213
Te 4.2189610921 2.4303412671 20.6872908355 -0.00282024329074 0.00162853687698 -0.000542759922213
Te -2.10710915 6.08269963 20.6908231514 0 -2.57110337382e-07 -0.00342342414224
Sb 0.0170425845 2.4429176543 8.463620317 0.00946063197429 0.00546230911767 0.000405205891713
Sb 2.10711038 6.0630212415 8.463620317 -2.57110337382e-07 -0.0109241040147 0.000405205891713
Sb 4.1971752355 2.4429193443 8.463620707 -0.00946063197429 0.00546230911767 0.000405205891713
Sb -2.10711038 6.08270034 8.5798147618 2.57110337382e-07 -0 -0.0273997344341
Sb 0.0028554654 2.4347258309 1.8851831304 0.000370495996167 0.000214430021376 0.0120610459266
Sb 2.10711114 6.0794035682 1.8851831304 -2.57110337382e-07 -0.000427831601403 0.0120610459266
Sb 4.2113623646 2.4347284009 1.8851834204 -0.000370495996167 0.000213915800702 0.0120607888162
Sb -2.10711114 6.08270078 1.899028411 2.57110337382e-07 -2.57110337382e-07 0.0121569480824
Sb 0.0037847752 -0.0021851445 18.8064324839 -0.00176172003174 0.00101712849468 -0.0184168134666
Sb 2.10710819 3.64962011 18.7973865056 0 -2.57110337382e-07 -0.0174331093158
Sb 4.2104330548 -0.0021859845 18.8064327339 0.00176172003174 0.00101712849468 -0.0184165563563
Sb 6.32132747 3.6539903989 18.8064327339 -0 -0.00203425698936 -0.0184165563563
Sb 0.0217858248 -0.0125780587 12.0972617697 -0.00705022256134 0.00407057086143 0.0257323738962
Sb 2.10710964 3.64961928 14.049836847 -0 -0 -0.0426702887022
Sb 4.1924319952 -0.0125772187 12.0972615297 0.00705022256134 0.00407057086143 0.0257323738962
Sb -2.10710964 3.6747753975 12.0972615297 2.57110337382e-07 -0.00814114172285 0.0257321167858
Sb 2.10710669 1.2122518145 29.1503806414 2.57110337382e-07 9.20455007826e-05 -0.0116890072684
Sb 4.2179303028 4.8683055677 29.1503806414 -7.94470942509e-05 -4.62798607287e-05 -0.011688750158
Sb 6.32132897 1.21653861 29.1631916442 -2.57110337382e-07 2.57110337382e-07 -0.012174945806
Sb -0.0037124728 4.8683029877 29.1503803514 7.94470942509e-05 -4.60227503913e-05 -0.0116884930477
Sb 2.10710745 1.2138894002 22.5681512836 2.57110337382e-07 0.000439144456248 0.0119779992876
Sb 4.2165124885 4.8674861099 22.5681512836 -0.000380266188987 -0.000219829338461 0.0119779992876
Sb 6.32132821 1.21653905 22.5702746774 -2.57110337382e-07 2.57110337382e-07 0.011751999301
Sb -0.0022946585 4.8674844199 22.5681508936 0.000380266188987 -0.000219572228124 0.0119779992876
Cr 2.10710897 3.64961966 12.6326452409 -2.57110337382e-07 -2.57110337382e-07 0.0202345835519
61
Lattice="8.42843558953 0 0 -4.21421779477 7.29923593142 0 0 0 31.0334408416" Properties=species:S:1:pos:R:3:forces:R:3 energy=-133596.63941 ionic_step=7 pbc="T T T"
Te 2.1071096 1.227357704 3.4802586722 -2.57110337382e-07 -0.0021954651709 -0.0143608978945
Te 4.2048496753 4.860750098 3.4802586722 0.00190133094494 0.00109760403028 -0.0143608978945
Te 6.32132606 1.21654029 3.480395256 2.57110337382e-07 0 -0.00101558583266
Te 0.0093681547 4.860750888 3.4802586822 -0.00190133094494 0.00109734691994 -0.0143611550048
Te 0.0963893139 -0.0556504201 6.8650180793 -0.0243126106131 0.0140371959797 0.0173004403817
Te 2.10710848 3.64961994 6.849505767 2.57110337382e-07 -5.14220674763e-07 0.00678231358979
Te 4.1178285061 -0.0556509201 6.8650178893 0.0243126106131 0.0140371959797 0.0173004403817
Te -2.10710848 3.7609207901 6.8650178893 -2.57110337382e-07 -0.0280738777387 0.0173004403817
Te 0.0053195561 -0.0030712537 0.0026808151 -0.00123695783314 0.000714252517246 0.00148018421231
Te 2.10710891 3.6496197 -0.0020248101 -0 -2.57110337382e-07 0.00073944933031
Te 4.2088982639 -0.0030712537 0.0026808151 0.00123695783314 0.000714252517246 0.00148018421231
Te -2.10710891 3.6557621973 0.0026808151 0 -0.00142850503449 0.00148018421231
Te -0.3384008917 2.2377041115 13.7255659147 0.0141238421634 0.0081545114604 0.0147506771659
Te 2.1071087 6.4734512469 13.7255659147 0 -0.0163087658105 0.0147506771659
Te 4.5526187217 2.2377038615 13.7255663047 -0.0141238421634 0.0081545114604 0.0147506771659
Te -2.1071087 6.08269937 13.747289321 -0 -2.57110337382e-07 -0.00230576550564
Te 2.10710913 1.2228521086 17.2136675929 -0 -0.0111835283451 -0.000176377691444
Te 4.2087514004 4.8630033007 17.2136675929 0.00968534640917 0.00559189272771 -0.000176377691444
Te 6.32132652 1.21654002 17.2608679147 0 2.57110337382e-07 0.0107901495289
Te 0.0054664296 4.8630035507 17.2136672029 -0.00968534640917 0.00559163561738 -0.000176377691444
Te 2.10710868 1.391136151 10.4034630938 0 -0.0504944133791 -0.0178025768706
Te 4.0630129843 4.7788616695 10.4034630938 0.0437298404025 0.0252469495792 -0.0178023197603
Te 6.32132698 1.21653976 10.2519138357 -0 2.57110337382e-07 -0.0189991683808
Te 0.1512048357 4.7788613995 10.4034635238 -0.0437295832922 0.0252472066895 -0.0178023197603
Te 0.0054102347 -0.0031236035 24.153629999 -0.00200443219023 0.00115751073889 -0.00681368105095
Te 2.10710934 3.64961945 24.1518061857 -2.57110337382e-07 -2.57110337382e-07 -0.00613285287756
Te 4.2088075953 -0.0031231035 24.153630189 0.00200443219023 0.00115725362855 -0.00681368105095
Te -2.10710934 3.6558666471 24.153630189 2.57110337382e-07 -0.00231476436745 -0.00681368105095
Te -0.0064588595 2.4293515591 27.5688305887 0.00203271432734 0.00117370869015 0.0062920041764
Te 2.10710823 6.0901571518 27.5688305887 2.57110337382e-07 -0.00234741738029 0.0062920041764
Te 4.2206766895 2.4293507691 27.5688305787 -0.00203271432734 0.00117396580048 0.0062920041764
Te -2.10710823 6.0826991 27.5608969651 -2.57110337382e-07 -0 0.00776190397521
Te -0.0047270494 2.4303503633 20.6872503688 0.00290200437803 0.00167584517905 -0.000360211582672
Te 2.10710915 6.0881579534 20.6872503688 -0 -0.00335143324777 -0.000360211582672
Te 4.2189448694 2.4303506333 20.6872499388 -0.00290200437803 0.00167584517905 -0.000360211582672
Te -2.10710915 6.08269963 20.6912560773 0 -2.57110337382e-07 -0.00314471653651
Sb 0.0146207206 2.4415193898 8.4641428744 0.00992780145732 0.00573227497192 -0.000618093251065
Sb 2.10711038 6.0658177704 8.4641428744 -2.57110337382e-07 -0.0114640357232 -0.000618093251065
Sb 4.1995970994 2.4415210798 8.4641432644 -0.00992805856765 0.00573201786159 -0.000618093251065
Sb -2.10711038 6.08270034 8.6067570601 2.57110337382e-07 -0 -0.027455270267
Sb 0.0029136168 2.4347594047 1.8812288098 0.000380780409662 0.000220343559136 0.0123970891375
Sb 2.10711114 6.0793364207 1.8812288098 -2.57110337382e-07 -0.00043991578726 0.0123970891375
Sb 4.2113042132 2.4347619747 1.8812290998 -0.000380780409662 0.000219829338461 0.0123968320272
Sb -2.10711114 6.08270078 1.8958974317 2.57110337382e-07 -2.57110337382e-07 0.0124299992607
Sb 0.0052450687 -0.0030282457 18.8097355067 -0.00189181786245 0.0010922047132 -0.018715061458
Sb 2.10710819 3.64962011 18.8013900111 0 -2.57110337382e-07 -0.0171410319726
Sb 4.2089727613 -0.0030290857 18.8097357567 0.00189181786245 0.00109246182353 -0.018715061458
Sb 6.32132747 3.6556766015 18.8097357567 -0 -0.00218466653673 -0.0187148043477
Sb 0.0231071426 -0.0133409223 12.0805920229 -0.00754284596776 0.00435493489457 0.027370680966
Sb 2.10710964 3.64961928 14.0808864557 -0 -0 -0.0497583064831
Sb 4.1911106774 -0.0133400823 12.0805917829 0.00754284596776 0.00435493489457 0.0273704238556
Sb -2.10710964 3.6763011246 12.0805917829 2.57110337382e-07 -0.00870986978914 0.0273704238556
Sb 2.10710669 1.2125185592 29.1546344235 2.57110337382e-07 4.34516470175e-05 -0.0120037103213
Sb 4.2176992952 4.8681721954 29.1546344235 -3.72809989203e-05 -2.18543786774e-05 -0.012003453211
Sb 6.32132897 1.21653861 29.1673503126 -2.57110337382e-07 2.57110337382e-07 -0.0125277011889
Sb -0.0034814652 4.8681696154 29.1546341335 3.72809989203e-05 -2.15972683401e-05 -0.0120031961007
Sb 2.10710745 1.2146572989 22.5635883802 2.57110337382e-07 0.000341956748718 0.0122721335136
Sb 4.215847469 4.8671021605 22.5635883802 -0.000296191108664 -0.000171235484696 0.0122723906239
Sb 6.32132821 1.21653905 22.5662414317 -2.57110337382e-07 2.57110337382e-07 0.0118674418425
Sb -0.001629639 4.8671004705 22.5635879902 0.000296191108664 -0.000170978374359 0.0122723906239
Cr 2.10710897 3.64961966 12.6645154992 -2.57110337382e-07 -2.57110337382e-07 0.0250698005567
61
Lattice="8.42843558953 0 0 -4.21421779477 7.29923593142 0 0 0 31.0334408416" Properties=species:S:1:pos:R:3:forces:R:3 energy=-133596.789917 ionic_step=8 pbc="T T T"
Te 2.1071096 1.228251191 3.4714654889 -2.57110337382e-07 -0.00273051178299 -0.0126518854819
Te 4.2040758932 4.8603033545 3.4714654889 0.00236490088324 0.0013652558915 -0.0126518854819
Te 6.32132606 1.21654029 3.4710265854 2.57110337382e-07 0 0.00247674388
Te 0.0101419368 4.8603041445 3.4714654989 -0.00236490088324 0.00136499878116 -0.0126518854819
Te 0.1023656907 -0.0591008844 6.8763181339 -0.0256871224768 0.0148306384808 0.0149789911455
Te 2.10710848 3.64961994 6.84769072 2.57110337382e-07 -5.14220674763e-07 0.00513295077549
Te 4.1118521293 -0.0591013844 6.8763179439 0.0256871224768 0.0148308955912 0.0149792482559
Te -2.10710848 3.7678217188 6.8763179439 -2.57110337382e-07 -0.0296612769617 0.0149792482559
Te 0.0056606414 -0.0032681794 0.0036847446 -0.00132231846515 0.000763617702023 0.00126909662532
Te 2.10710891 3.6496197 -0.0016134195 -0 -2.57110337382e-07 0.000504964702618
Te 4.2085571786 -0.0032681794 0.0036847446 0.00132231846515 0.000763617702023 0.00126909662532
Te -2.10710891 3.6561560489 0.0036847446 0 -0.00152723540405 0.00126909662532
Te -0.3340576367 2.2402116921 13.7021486638 0.0149831049109 0.0086504773012 0.0183422514688
Te 2.1071087 6.4684360857 13.7021486638 0 -0.0173009546024 0.0183422514688
Te 4.5482754667 2.2402114421 13.7021490538 -0.0149831049109 0.00865073441154 0.0183419943585
Te -2.1071087 6.08269937 13.7235447143 -0 -2.57110337382e-07 0.00229625242316
Te 2.10710913 1.2206254506 17.2242907014 -0 -0.0111423906911 -0.00400526483573
Te 4.2106797418 4.8641166297 17.2242907014 0.00964986518261 0.00557132390072 -0.00400526483573
Te 6.32132652 1.21654002 17.2722017893 0 2.57110337382e-07 0.0070774762571
Te 0.0035380882 4.8641168797 17.2242903114 -0.00964986518261 0.00557106679039 -0.00400500772539
Te 2.10710868 1.4021980674 10.4023835849 0 -0.0503488889281 -0.0183445654618
Te 4.0534330882 4.7733307113 10.4023835849 0.0436035992269 0.0251741873537 -0.0183443083515
Te 6.32132698 1.21653976 10.2443110626 -0 2.57110337382e-07 -0.0183214255315
Te 0.1607847318 4.7733304413 10.4023840149 -0.0436035992269 0.0251741873537 -0.0183443083515
Te 0.0055944048 -0.0032299343 24.1454069062 -0.00208285084313 0.00120276215827 -0.00469483476059
Te 2.10710934 3.64961945 24.1443341008 -2.57110337382e-07 -2.57110337382e-07 -0.00407956972323
Te 4.2086234252 -0.0032294343 24.1454070962 0.00208285084313 0.00120250504793 -0.00469483476059
Te -2.10710934 3.6560793086 24.1454070962 2.57110337382e-07 -0.00240526720621 -0.00469483476059
Te -0.006758095 2.4291787953 27.5773734544 0.00210521944248 0.0012153605648 0.00426880293155
Te 2.10710823 6.0905026793 27.5773734544 2.57110337382e-07 -0.00243097823994 0.00426880293155
Te 4.220975925 2.4291780053 27.5773734444 -0.00210521944248 0.00121587478548 0.00426880293155
Te -2.10710823 6.0826991 27.5697930129 -2.57110337382e-07 -0 0.00568908043524
Te -0.0046935459 2.4303697065 20.6871769787 0.00301950380221 0.00174372230812 -0.000104643907314
Te 2.10710915 6.0881192669 20.6871769787 -0 -0.00348693039557 -0.000104643907314
Te 4.2189113659 2.4303699765 20.6871765487 -0.00301950380221 0.00174372230812 -0.000104643907314
Te -2.10710915 6.08269963 20.6919170313 0 -2.57110337382e-07 -0.00273385421738
Sb 0.0111131174 2.4394942733 8.4647392817 0.0105857468107 0.00611202694024 -0.00211061875957
Sb 2.10711038 6.0698680035 8.4647392817 -2.57110337382e-07 -0.0122235396598 -0.00211061875957
Sb 4.2031047026 2.4394959633 8.4647396717 -0.0105857468107 0.0061117698299 -0.00211061875957
Sb -2.10711038 6.08270034 8.6465661752 0 -0 -0.0265774955751
Sb 0.0029873144 2.434801954 1.8753535444 0.000399292353954 0.000231142193306 0.0128992256264
Sb 2.10711114 6.079251322 1.8753535444 -2.57110337382e-07 -0.0004615130556 0.0128992256264
Sb 4.2112305156 2.434804524 1.8753538344 -0.000399292353954 0.000230627972631 0.0128989685161
Sb -2.10711114 6.08270078 1.8912331716 2.57110337382e-07 -2.57110337382e-07 0.0128421471315
Sb 0.0073718142 -0.0042561234 18.8146640799 -0.00208105107077 0.00120173371692 -0.0191668043208
Sb 2.10710819 3.64962011 18.8073137739 0 -2.57110337382e-07 -0.0165247384939
Sb 4.2068460158 -0.0042569634 18.8146643299 0.00208105107077 0.00120173371692 -0.0191665472105
Sb 6.32132747 3.6581323567 18.8146643299 -0 -0.00240321032351 -0.0191665472105
Sb 0.0250338258 -0.0144532939 12.0558676033 -0.00811748757181 0.00468686434013 0.0294514749264
Sb 2.10710964 3.64961928 14.1275919696 -0 -0 -0.0601170248659
Sb 4.1891839942 -0.0144524539 12.0558673633 0.00811748757181 0.00468660722979 0.0294514749264
Sb -2.10710964 3.6785258678 12.0558673633 2.57110337382e-07 -0.00937347156992 0.0294514749264
Sb 2.10710669 1.212908912 29.1609272898 2.57110337382e-07 -2.98247991363e-05 -0.012472165356
Sb 4.21736124 4.867977019 29.1609272898 2.62252544129e-05 1.46552892308e-05 -0.0124719082457
Sb 6.32132897 1.21653861 29.1735111455 -2.57110337382e-07 2.57110337382e-07 -0.0130468069601
Sb -0.00314341 4.867974439 29.1609269998 -2.62252544129e-05 1.49123995681e-05 -0.0124719082457
Sb 2.10710745 1.2157925461 22.5568006171 2.57110337382e-07 0.000200803173495 0.0127102495285
Sb 4.2148643166 4.866534537 22.5568006171 -0.00017380658807 -0.000100530141916 0.0127105066388
Sb 6.32132821 1.21653905 22.5602602017 -2.57110337382e-07 2.57110337382e-07 0.0120435624236
Sb -0.0006464866 4.866532847 22.5568002271 0.00017380658807 -0.000100530141916 0.0127105066388
Cr 2.10710897 3.64961966 12.7123208867 -2.57110337382e-07 -2.57110337382e-07 0.0322274952391
61
Lattice="8.42843558953 0 0 -4.21421779477 7.29923593142 0 0 0 31.0334408416" Properties=species:S:1:pos:R:3:forces:R:3 energy=-133596.995009 ionic_step=9 pbc="T T T"
Te 2.1071096 1.2295505192 3.4581422288 -2.57110337382e-07 -0.00355789284869 -0.00988152159659
Te 4.2029506425 4.8596536904 3.4581422288 0.00308121028318 0.00177894642434 -0.00988152159659
Te 6.32132606 1.21654029 3.4568222537 2.57110337382e-07 0 0.0080994898482
Te 0.0112671875 4.8596544804 3.4581422388 -0.00308121028318 0.00177868931401 -0.00988152159659
Te 0.1121614246 -0.0647564567 6.8945199182 -0.0278159960703 0.0160598830039 0.0111493326702
Te 2.10710848 3.64961994 6.8455177374 2.57110337382e-07 -2.57110337382e-07 0.00248034342472
Te 4.1020563954 -0.0647569567 6.8945197282 0.0278159960703 0.0160598830039 0.0111495897806
Te -2.10710848 3.7791328634 6.8945197282 -2.57110337382e-07 -0.0321192517871 0.0111495897806
Te 0.0062109986 -0.0035859285 0.0053842846 -0.00145858694397 0.000842293465262 0.00092893964896
Te 2.10710891 3.6496197 -0.0009085286 -0 -2.57110337382e-07 0.000147581333657
Te 4.2080068214 -0.0035859285 0.0053842846 0.00145858694397 0.000842293465262 0.00092893964896
Te -2.10710891 3.656791547 0.0053842846 0 -0.00168432982019 0.00092893964896
Te -0.3264641792 2.2445957789 13.6662917907 0.0161053915336 0.00929839535141 0.0238048176968
Te 2.1071087 6.4596679122 13.6662917907 0 -0.0185967907028 0.0238048176968
Te 4.5406820092 2.2445955289 13.6662921807 -0.0161053915336 0.00929839535141 0.0238048176968
Te -2.1071087 6.08269937 13.6868224684 -0 -2.57110337382e-07 0.00938761263848
Te 2.10710913 1.2172240133 17.2405249255 -0 -0.0109804111786 -0.00994682762228
Te 4.2136254716 4.8658173484 17.2405249255 0.0095094829384 0.00549033414445 -0.00994682762228
Te 6.32132652 1.21654002 17.2895578335 0 2.57110337382e-07 0.000453542635141
Te 0.0005923584 4.8658175984 17.2405245355 -0.0095094829384 0.00549007703411 -0.00994682762228
Te 2.10710868 1.4190222451 10.3997887259 0 -0.0497588207038 -0.0189258919347
Te 4.0388629296 4.7649186225 10.3997887259 0.0430924638762 0.0248790246864 -0.0189256348243
Te 6.32132698 1.21653976 10.2324307126 -0 2.57110337382e-07 -0.0171513163861
Te 0.1753548904 4.7649183525 10.3997891559 -0.0430924638762 0.0248792817967 -0.0189256348243
Te 0.0057564702 -0.0033235028 24.133066433 -0.00216512615109 0.00125032757069 -0.00139765179401
Te 2.10710934 3.64961945 24.1332781836 -2.57110337382e-07 -2.57110337382e-07 -0.000905028387583
Te 4.2084613598 -0.0033230028 24.133066623 0.00216512615109 0.00125007046035 -0.00139765179401
Te -2.10710934 3.6562664456 24.133066623 2.57110337382e-07 -0.0025001409207 -0.00139765179401
Te -0.0072301311 2.428906265 27.5904818195 0.00221603399789 0.00127938103881 0.00113257103617
Te 2.10710823 6.0910477399 27.5904818195 2.57110337382e-07 -0.00255876207762 0.00113257103617
Te 4.2214479611 2.428905475 27.5904818095 -0.00221603399789 0.00127963814915 0.00113257103617
Te -2.10710823 6.0826991 27.5834218469 -2.57110337382e-07 -0 0.00244151976378
Te -0.0045588996 2.4304474446 20.6872264269 0.0031776266597 0.00183499647789 0.00023859839309
Te 2.10710915 6.0879637907 20.6872264269 -0 -0.00366947873511 0.00023859839309
Te 4.2187767196 2.4304477146 20.6872259969 -0.0031776266597 0.00183499647789 0.00023859839309
Te -2.10710915 6.08269963 20.6932788981 0 -2.57110337382e-07 -0.00214764264815
Sb 0.0062602536 2.4366924697 8.4647465535 0.0115105726942 0.00664604511098 -0.00427137403492
Sb 2.10711038 6.0754716106 8.4647465535 -2.57110337382e-07 -0.0132913188909 -0.00427137403492
Sb 4.2079575664 2.4366941597 8.4647469435 -0.0115105726942 0.00664578800064 -0.00427137403492
Sb -2.10711038 6.08270034 8.7074312805 0 -0 -0.0230185742851
Sb 0.0030395016 2.4348320843 1.8664481164 0.000436316242537 0.000252482351309 0.0136898399139
Sb 2.10711114 6.0791910613 1.8664481164 -2.57110337382e-07 -0.000503936261268 0.0136898399139
Sb 4.2111783284 2.4348346543 1.8664484064 -0.000436316242537 0.000251968130634 0.0136895828035
Sb -2.10711114 6.08270078 1.8841459578 2.57110337382e-07 -2.57110337382e-07 0.013508577126
Sb 0.010434111 -0.0060241421 18.8226391082 -0.00235127403536 0.00135754258138 -0.0198643446661
Sb 2.10710819 3.64962011 18.8165600339 0 -2.57110337382e-07 -0.0152504996618
Sb 4.203783719 -0.0060249821 18.8226393582 0.00235127403536 0.00135779969171 -0.0198643446661
Sb 6.32132747 3.6616683942 18.8226393582 -0 -0.00271534227309 -0.0198640875558
Sb 0.0278666314 -0.0160888157 12.0178204522 -0.00861113941959 0.00497174259395 0.0316821642135
Sb 2.10710964 3.64961928 14.1980472217 -0 -0 -0.074709322064
Sb 4.1863511886 -0.0160879757 12.0178202122 0.00861113941959 0.00497148548361 0.0316821642135
Sb -2.10710964 3.6817969114 12.0178202122 2.57110337382e-07 -0.0099434851879 0.0316821642135
Sb 2.10710669 1.2134830737 29.1708845457 2.57110337382e-07 -0.000135240037463 -0.0131969593971
Sb 4.2168640016 4.8676899381 29.1708845457 0.000117242313846 6.7362908394e-05 -0.0131969593971
Sb 6.32132897 1.21653861 29.1833039207 -2.57110337382e-07 2.57110337382e-07 -0.0138546476401
Sb -0.0026461716 4.8676873581 29.1708842557 -0.000117242313846 6.76200187314e-05 -0.0131967022868
Sb 2.10710745 1.2175464669 22.5463434572 2.57110337382e-07 -1.20841858569e-05 0.0133908205915
Sb 4.2133453773 4.8656575765 22.5463434572 1.079863417e-05 5.91353775978e-06 0.0133910777018
Sb 6.32132821 1.21653905 22.5511409924 -2.57110337382e-07 2.57110337382e-07 0.0123590368076
Sb 0.0008724527 4.8656558865 22.5463430672 -1.079863417e-05 6.17064809716e-06 0.0133910777018
Cr 2.10710897 3.64961966 12.7840289679 -2.57110337382e-07 -2.57110337382e-07 0.0425599883675
61
Lattice="8.42843558953 0 0 -4.21421779477 7.29923593142 0 0 0 31.0334408416" Properties=species:S:1:pos:R:3:forces:R:3 energy=-133597.237836 ionic_step=10 pbc="T T T"
Te 2.1071096 1.2314433413 3.4382556355 -2.57110337382e-07 -0.00485887115584 -0.00553224312944
Te 4.2013114112 4.8587072794 3.4382556355 0.00420786778159 0.00242943557792 -0.00553224312944
Te 6.32132606 1.21654029 3.4356875921 2.57110337382e-07 0 0.0167049728404
Te 0.0129064188 4.8587080694 3.4382556455 -0.00420786778159 0.00242892135724 -0.00553224312944
Te 0.1275260344 -0.0736272224 6.9224282044 -0.0307632518677 0.0177614392167 0.00519902813219
Te 2.10710848 3.64961994 6.8423673777 2.57110337382e-07 -2.57110337382e-07 -0.0014842979777
Te 4.0866917856 -0.0736277224 6.9224280144 0.0307632518677 0.017761696327 0.00519928524253
Te -2.10710848 3.7968743948 6.9224280144 -2.57110337382e-07 -0.035522621323 0.00519928524253
Te 0.0070606141 -0.0040764544 0.0079202878 -0.00166787475859 0.000963135323832 0.000440687118272
Te 2.10710891 3.6496197 0.0001151024 -0 -2.57110337382e-07 -0.000369467554817
Te 4.2071572059 -0.0040764544 0.0079202878 0.00166787475859 0.000963135323832 0.000440687118272
Te -2.10710891 3.6577725988 0.0079202878 0 -0.00192627064766 0.000440687118272
Te -0.3143932775 2.2515649205 13.6131697211 0.0172047953362 0.0099332007744 0.0314893314605
Te 2.1071087 6.445729629 13.6131697211 0 -0.0198664015488 0.0314893314605
Te 4.5286111075 2.2515646705 13.6131701111 -0.0172047953362 0.0099332007744 0.0314893314605
Te -2.1071087 6.08269937 13.6315255547 -0 -2.57110337382e-07 0.0201808474914
Te 2.10710913 1.2121471908 17.2646198053 -0 -0.0104821313447 -0.0186955210724
Te 4.2180221268 4.8683557596 17.2646198053 0.00907805179227 0.00524119422752 -0.0186955210724
Te 6.32132652 1.21654002 17.3151916845 0 2.57110337382e-07 -0.0109896671507
Te -0.0038042968 4.8683560096 17.2646194153 -0.00907805179227 0.00524093711719 -0.018695263962
Te 2.10710868 1.4441482808 10.3952980412 0 -0.0481894192044 -0.0197437599179
Te 4.0171031545 4.7523556046 10.3952980412 0.0417336357431 0.024094581047 -0.0197435028075
Te 6.32132698 1.21653976 10.2145913237 -0 2.57110337382e-07 -0.0153811117132
Te 0.1971146655 4.7523553346 10.3952984712 -0.0417333786328 0.024094581047 -0.0197435028075
Te 0.0059139418 -0.0034144191 24.114785447 -0.00225742876221 0.00130354941052 0.00362782686045
Te 2.10710934 3.64961945 24.1170127653 -2.57110337382e-07 -2.57110337382e-07 0.00391501910731
Te 4.2083038882 -0.0034139191 24.114785637 0.00225742876221 0.00130329230019 0.00362756975012
Te -2.10710934 3.6564482782 24.114785637 2.57110337382e-07 -0.00260684171071 0.00362756975012
Te -0.0079697652 2.4284792369 27.6099830179 0.00238495548955 0.00137708296702 -0.00364659591508
Te 2.10710823 6.0919017962 27.6099830179 2.57110337382e-07 -0.00275416593403 -0.00364659591508
Te 4.2221875952 2.4284784469 27.6099830079 -0.00238495548955 0.00137734007735 -0.00364659591508
Te -2.10710823 6.0826991 27.603640046 -2.57110337382e-07 -0 -0.00255413409155
Te -0.0043066478 2.4305930823 20.6873165287 0.0033977131085 0.00196200898456 0.000633262760971
Te 2.10710915 6.0876725153 20.6873165287 -0 -0.00392350374844 0.000633262760971
Te 4.2185244678 2.4305933523 20.6873160987 -0.0033977131085 0.00196200898456 0.000633519871308
Te -2.10710915 6.08269963 20.6955163689 0 -2.57110337382e-07 -0.00135754258138
Sb -0.0006596817 2.4326972413 8.4640759221 0.0128079514567 0.00739500752377 -0.00708056158115
Sb 2.10711038 6.0834620673 8.4640759221 -2.57110337382e-07 -0.0147895008269 -0.00708056158115
Sb 4.2148775017 2.4326989313 8.4640763121 -0.0128079514567 0.00739475041343 -0.00708056158115
Sb -2.10711038 6.08270034 8.7979596492 0 -0 -0.0138824155566
Sb 0.003104159 2.4348694143 1.8531814152 0.000493394737435 0.000285392474494 0.0148581492869
Sb 2.10711114 6.0791164014 1.8531814152 -2.57110337382e-07 -0.000570013617975 0.0148581492869
Sb 4.211113671 2.4348719843 1.8531817052 -0.000493394737435 0.000284878253819 0.0148578921766
Sb -2.10711114 6.08270078 1.8735705329 2.57110337382e-07 -2.57110337382e-07 0.0145218489657
Sb 0.014875169 -0.0085881893 18.8347942551 -0.00273899642413 0.00158148568523 -0.0208835300435
Sb 2.10710819 3.64962011 18.8304071143 0 -2.57110337382e-07 -0.012572695498
Sb 4.199342661 -0.0085890293 18.8347945051 0.00273899642413 0.00158148568523 -0.0208835300435
Sb 6.32132747 3.6667964886 18.8347945051 -0 -0.00316271426013 -0.0208832729331
Sb 0.0320669622 -0.018513879 11.9606185704 -0.00855174693165 0.00493754691908 0.03308932909
Sb 2.10710964 3.64961928 14.3039974333 -0 -0 -0.0926826201987
Sb 4.1821508578 -0.018513039 11.9606183304 0.00855174693165 0.00493728980874 0.0330890719797
Sb -2.10710964 3.6866470379 11.9606183304 2.57110337382e-07 -0.00987483672782 0.03308932909
Sb 2.10710669 1.2143247914 29.1858205645 2.57110337382e-07 -0.000289249129554 -0.0142608819732
Sb 4.216135053 4.8672690793 29.1858205645 0.000250682578947 0.000144496009608 -0.0142606248629
Sb 6.32132897 1.21653861 29.1979671705 -2.57110337382e-07 2.57110337382e-07 -0.0150275849993
Sb -0.001917223 4.8672664993 29.1858202745 -0.000250682578947 0.000144753119946 -0.0142603677525
Sb 2.10710745 1.2201580011 22.5307655142 2.57110337382e-07 -0.00032113081139 0.0143806953904
Sb 4.2110837234 4.8643518094 22.5307655142 0.000278193385047 0.000160436850526 0.0143806953904
Sb 6.32132821 1.21653905 22.5375665436 -2.57110337382e-07 2.57110337382e-07 0.0128370049248
Sb 0.0031341066 4.8643501194 22.5307651242 -0.000278193385047 0.000160436850526 0.0143809525008
Cr 2.10710897 3.64961966 12.8915910897 -2.57110337382e-07 -2.57110337382e-07 0.0565133663772
61
Lattice="8.42843558953 0 0 -4.21421779477 7.29923593142 0 0 0 31.0334408416" Properties=species:S:1:pos:R:3:forces:R:3 energy=-133597.424434 ionic_step=11 pbc="T T T"
Te 2.1071096 1.2342852707 3.408116159 -2.57110337382e-07 -0.00699083007341 0.00156631617533
Te 4.1988502294 4.8572863147 3.408116159 0.00605417711433 0.0034954150367 0.00156631617533
Te 6.32132606 1.21654029 3.4037457583 2.57110337382e-07 0 0.0298435681909
Te 0.0153676006 4.8572871047 3.408116169 -0.00605417711433 0.00349515792637 0.00156631617533
Te 0.1540403786 -0.0889352933 6.9680226212 -0.034570798854 0.0199597326013 -0.00436110554267
Te 2.10710848 3.64961994 6.8384338637 2.57110337382e-07 -2.57110337382e-07 -0.00773130784507
Te 4.0601774414 -0.0889357933 6.9680224312 0.0345705417437 0.0199597326013 -0.00436084843233
Te -2.10710848 3.8274905367 6.9680224312 -2.57110337382e-07 -0.0399189509819 -0.00436084843233
Te 0.0084558145 -0.0048819741 0.0119458875 -0.00200391796955 0.00115725362855 -0.000228313979595
Te 2.10710891 3.6496197 0.0017465336 -0 -2.57110337382e-07 -0.0010880909478
Te 4.2057620055 -0.0048819741 0.0119458875 0.00200391796955 0.00115725362855 -0.000228313979595
Te -2.10710891 3.6593836382 0.0119458875 0 -0.00231425014677 -0.000228313979595
Te -0.2936120849 2.2635629533 13.5344950032 0.0180758851593 0.0104361085943 0.0407602160058
Te 2.1071087 6.4217335635 13.5344950032 0 -0.0208722171886 0.0407602160058
Te 4.5078299149 2.2635627033 13.5344953932 -0.0180758851593 0.0104361085943 0.0407602160058
Te -2.1071087 6.08269937 13.5450827755 -0 -2.57110337382e-07 0.0381466894263
Te 2.10710913 1.2043542739 17.3013133025 -0 -0.00903948524166 -0.0306539799743
Te 4.2247709876 4.872252218 17.3013133025 0.00782875266293 0.00451974262083 -0.0306539799743
Te 6.32132652 1.21654002 17.3536846015 0 2.57110337382e-07 -0.0295648605852
Te -0.0105531576 4.872252468 17.3013129125 -0.00782875266293 0.00451974262083 -0.030653722864
Te 2.10710868 1.4841749639 10.3860857196 0 -0.0441131919156 -0.0207529179921
Te 3.9824390463 4.7323422631 10.3860857196 0.0382035108109 0.0220564674026 -0.0207526608818
Te 6.32132698 1.21653976 10.1867149198 -0 2.57110337382e-07 -0.0126760538536
Te 0.2317787737 4.7323419931 10.3860861496 -0.0382032537005 0.0220564674026 -0.0207526608818
Te 0.0058409595 -0.0033722828 24.0871553014 -0.00229599531282 0.00132591800988 0.011392301939
Te 2.10710934 3.64961945 24.092910317 -2.57110337382e-07 -2.57110337382e-07 0.0113143975068
Te 4.2083768705 -0.0033717828 24.0871554914 0.00229599531282 0.00132566089954 0.0113920448287
Te -2.10710934 3.6563640055 24.0871554914 2.57110337382e-07 -0.00265132179908 0.0113920448287
Te -0.0092167552 2.4277592866 27.6399063997 0.00267009085371 0.00154163358294 -0.011028747922
Te 2.10710823 6.0933416969 27.6399063997 2.57110337382e-07 -0.00308326716588 -0.011028747922
Te 4.2234345852 2.4277584966 27.6399063897 -0.00267009085371 0.00154189069328 -0.0110284908116
Te -2.10710823 6.0826991 27.6345015795 -2.57110337382e-07 -0 -0.0103836580855
Te -0.0037211089 2.4309311435 20.6876049477 0.00367102139713 0.00211987473171 0.000938452731443
Te 2.10710915 6.0869963929 20.6876049477 -0 -0.00423897813241 0.000938452731443
Te 4.2179389289 2.4309314135 20.6876045177 -0.00367102139713 0.00211961762137 0.000938452731443
Te -2.10710915 6.08269963 20.6997999162 0 -2.57110337382e-07 -0.000378466416626
Sb -0.0097250193 2.4274633638 8.4607647554 0.0145925543084 0.00842524864566 -0.0101206342104
Sb 2.10711038 6.0939298224 8.4607647554 -2.57110337382e-07 -0.0168499830706 -0.0101206342104
Sb 4.2239428393 2.4274650538 8.4607651454 -0.0145925543084 0.00842524864566 -0.0101206342104
Sb -2.10711038 6.08270034 8.9345737282 0 -0 0.00218903741247
Sb 0.00314898 2.4348952917 1.8330844984 0.000594439100026 0.000343756521079 0.0165378511211
Sb 2.10711114 6.0790646465 1.8330844984 -2.57110337382e-07 -0.000686741711146 0.0165378511211
Sb 4.21106885 2.4348978617 1.8330847884 -0.000594439100026 0.000343242300404 0.0165375940107
Sb -2.10711114 6.08270078 1.8574308811 2.57110337382e-07 -2.57110337382e-07 0.0160727385207
Sb 0.0211685837 -0.0122216957 18.8544966431 -0.00327018638116 0.00188796120739 -0.0222999508921
Sb 2.10710819 3.64962011 18.8520020709 0 -2.57110337382e-07 -0.00769196996345
Sb 4.1930492463 -0.0122225357 18.8544968931 0.00327018638116 0.00188821831773 -0.0222999508921
Sb 6.32132747 3.6740635013 18.8544968931 -0 -0.00377617952512 -0.0222999508921
Sb 0.0386027399 -0.0222873137 11.8714883806 -0.00723174245953 0.00417521476874 0.0316538820764
Sb 2.10710964 3.64961928 14.4647828816 0 -0 -0.108247308693
Sb 4.1756150801 -0.0222864737 11.8714881406 0.00723174245953 0.00417521476874 0.0316538820764
Sb -2.10710964 3.6941939074 11.8714881406 0 -0.00835068664782 0.0316538820764
Sb 2.10710669 1.2155246513 29.2089770735 2.57110337382e-07 -0.000504964702618 -0.0157927453633
Sb 4.2150959444 4.8666691494 29.2089770735 0.000437601794224 0.000252225240971 -0.015792488253
Sb 6.32132897 1.21653861 29.2208287918 -2.57110337382e-07 2.57110337382e-07 -0.0166939170959
Sb -0.0008781144 4.8666665694 29.2089767835 -0.000437601794224 0.000252482351309 -0.0157922311427
Sb 2.10710745 1.2241544592 22.5070848562 2.57110337382e-07 -0.000767217246747 0.0157822038395
Sb 4.2076226908 4.8623535804 22.5070848562 0.000664373111794 0.000383351513036 0.0157824609498
Sb 6.32132821 1.21653905 22.5170086019 -2.57110337382e-07 2.57110337382e-07 0.0136163063574
Sb 0.0065951392 4.8623518904 22.5070844662 -0.000664373111794 0.000383608623373 0.0157824609498
Cr 2.10710897 3.64961966 13.0529342725 -0 -2.57110337382e-07 0.0730915838212
61
Lattice="8.42843558953 0 0 -4.21421779477 7.29923593142 0 0 0 31.0334408416" Properties=species:S:1:pos:R:3:forces:R:3 energy=-133597.456635 ionic_step=12 pbc="T T T"
Te 2.1071096 1.2347804444 3.4027178276 -2.57110337382e-07 -0.00743254563303 0.00322262096874
Te 4.1984213965 4.8570387278 3.4027178276 0.00643675729635 0.00371627281651 0.00322262096874
Te 6.32132606 1.21654029 3.3981347646 2.57110337382e-07 0 0.0330690173734
Te 0.0157964335 4.8570395178 3.4027178376 -0.00643675729635 0.00371601570618 0.00322262096874
Te 0.1639562072 -0.0946602023 6.9810480587 -0.0355776429352 0.0205410590741 -0.00680365374779
Te 2.10710848 3.64961994 6.8389772448 2.57110337382e-07 -2.57110337382e-07 -0.00969100283659
Te 4.0502616128 -0.0946607023 6.9810478687 0.0355776429352 0.0205410590741 -0.00680339663746
Te -2.10710848 3.8389403546 6.9810478687 -2.57110337382e-07 -0.0410818610378 -0.00680339663746
Te 0.0088624656 -0.0051167544 0.0129026348 -0.00211036164923 0.00121870299919 -0.000360982913684
Te 2.10710891 3.6496197 0.0021489316 -0 -2.57110337382e-07 -0.00123078718505
Te 4.2053553544 -0.0051167544 0.0129026348 0.00211036164923 0.00121870299919 -0.000360982913684
Te -2.10710891 3.6598531988 0.0129026348 0 -0.00243714888804 -0.000360982913684
Te -0.2867077631 2.2675491672 13.5229973432 0.0186078464473 0.0107433554475 0.0420036015974
Te 2.1071087 6.4137611356 13.5229973432 0 -0.0214864537846 0.0420036015974
Te 4.5009255931 2.2675489172 13.5229977332 -0.0186078464473 0.0107433554475 0.0420036015974
Te -2.1071087 6.08269937 13.5255581155 -0 -2.57110337382e-07 0.0415588007137
Te 2.10710913 1.2027588391 17.307958433 -0 -0.00876514851168 -0.0324162142267
Te 4.226152674 4.8730499354 17.307958433 0.00759092560086 0.00438244570067 -0.0324162142267
Te 6.32132652 1.21654002 17.3606832353 0 2.57110337382e-07 -0.0326072472074
Te -0.011934844 4.8730501854 17.307958043 -0.00759092560086 0.00438244570067 -0.0324162142267
Te 2.10710868 1.4966702572 10.380799173 0 -0.0424574013428 -0.0200484356677
Te 3.9716178099 4.7260946164 10.380799173 0.0367693493489 0.0212285721163 -0.0200481785573
Te 6.32132698 1.21653976 10.1800606733 -0 2.57110337382e-07 -0.0119481744885
Te 0.2426000101 4.7260943464 10.380799603 -0.0367693493489 0.0212285721163 -0.0200481785573
Te 0.0053216196 -0.0030724416 24.0823596136 -0.00216101238569 0.00124801357765 0.0127945817191
Te 2.10710934 3.64961945 24.0894173367 -2.57110337382e-07 -2.57110337382e-07 0.0125762950427
Te 4.2088962104 -0.0030719416 24.0823598036 0.00216101238569 0.00124775646731 0.0127943246088
Te -2.10710934 3.6557643232 24.0823598036 2.57110337382e-07 -0.00249551293463 0.0127943246088
Te -0.009576513 2.4275515802 27.6456866318 0.00274928083762 0.00158714211266 -0.0123376966496
Te 2.10710823 6.0937571097 27.6456866318 2.57110337382e-07 -0.00317454133565 -0.0123376966496
Te 4.223794343 2.4275507902 27.6456866218 -0.00274928083762 0.00158739922299 -0.0123376966496
Te -2.10710823 6.0826991 27.6404457757 -2.57110337382e-07 -0 -0.0118985521933
Te -0.0033070264 2.4311702143 20.6878485699 0.00364711013576 0.00210599077349 0.000914284359729
Te 2.10710915 6.0865182513 20.6878485699 -0 -0.00421146732631 0.000914284359729
Te 4.2175248464 2.4311704843 20.6878481399 -0.00364711013576 0.00210599077349 0.000914284359729
Te -2.10710915 6.08269963 20.7019489721 0 -2.57110337382e-07 -0.000342470969392
Sb -0.008911498 2.4279330508 8.456928098 0.014777416641 0.00853194943567 -0.0106628799119
Sb 2.10711038 6.0929904485 8.456928098 -2.57110337382e-07 -0.017063641761 -0.0106631370222
Sb 4.223129318 2.4279347408 8.456928488 -0.014777416641 0.00853194943567 -0.0106628799119
Sb -2.10711038 6.08270034 8.9586738742 0 -0 0.00432819541948
Sb 0.0030940468 2.434863576 1.8295346907 0.000650232043238 0.000375895313252 0.0168468977466
Sb 2.10711114 6.079128078 1.8295346907 -2.57110337382e-07 -0.000751276405829 0.0168468977466
Sb 4.2111237832 2.434866146 1.8295349807 -0.000650232043238 0.000375638202915 0.0168466406363
Sb -2.10711114 6.08270078 1.8543869836 2.57110337382e-07 -2.57110337382e-07 0.0163974688769
Sb 0.0216343107 -0.0124905834 18.8599749091 -0.00330129673198 0.00190621604135 -0.0225619463259
Sb 2.10710819 3.64962011 18.8566959057 0 -2.57110337382e-07 -0.0069460928747
Sb 4.1925835193 -0.0124914234 18.8599751591 0.00330129673198 0.00190621604135 -0.0225619463259
Sb 6.32132747 3.6746012768 18.8599751591 -0 -0.00381217497236 -0.0225619463259
Sb 0.0399501956 -0.023065268 11.8520364368 -0.00687641597327 0.00397029782985 0.0307673656331
Sb 2.10710964 3.64961928 14.4934489304 0 -0 -0.109497379153
Sb 4.1742676244 -0.023064428 11.8520361968 0.00687667308361 0.00397004071951 0.0307671085228
Sb -2.10710964 3.6957498161 11.8520361968 0 -0.00794059565969 0.0307671085228
Sb 2.10710669 1.2156200587 29.2139055155 2.57110337382e-07 -0.000519105771174 -0.0160789091688
Sb 4.2150133191 4.8666214456 29.2139055155 0.000449943090418 0.000259424330418 -0.0160786520585
Sb 6.32132897 1.21653861 29.2260933207 -2.57110337382e-07 2.57110337382e-07 -0.0170101628108
Sb -0.0007954891 4.8666188656 29.2139052255 -0.000449943090418 0.000259681440755 -0.0160786520585
Sb 2.10710745 1.2249463169 22.5026990238 2.57110337382e-07 -0.000833037493116 0.0160976782235
Sb 4.2069369222 4.8619576516 22.5026990238 0.00072170871703 0.000416261636221 0.0160979353338
Sb 6.32132821 1.21653905 22.5133762577 -2.57110337382e-07 2.57110337382e-07 0.0139814030365
Sb 0.0072809078 4.8619559616 22.5026986338 -0.00072170871703 0.000416518746558 0.0160979353338
Cr 2.10710897 3.64961966 13.0795649397 -0 -2.57110337382e-07 0.0751309830173
61
Lattice="8.42843558953 0 0 -4.21421779477 7.29923593142 0 0 0 31.0334408416" Properties=species:S:1:pos:R:3:forces:R:3 energy=-133597.521388 ionic_step=13 pbc="T T T"
Te 2.1071096 1.2352608714 3.3970875744 -2.57110337382e-07 -0.00799844548561 0.0055553830598
Te 4.1980053348 4.8567985143 3.3970875744 0.0069268095994 0.00399909418763 0.0055553830598
Te 6.32132606 1.21654029 3.392534186 2.57110337382e-07 0 0.0379181183364
Te 0.0162124952 4.8567993043 3.3970875844 -0.0069268095994 0.0039988370773 0.00555512594947
Te 0.1832938406 -0.1058247953 7.0028548034 -0.036918730455 0.0213152182999 -0.0105438378257
Te 2.10710848 3.64961994 6.8408703481 2.57110337382e-07 -2.57110337382e-07 -0.0129604178867
Te 4.0309239794 -0.1058252953 7.0028546134 0.036918730455 0.0213154754103 -0.0105438378257
Te -2.10710848 3.8612695407 7.0028546134 -0 -0.0426301794896 -0.0105438378257
Te 0.0095598573 -0.0055193938 0.0143219589 -0.00229753797484 0.00132668934089 -0.000532475508717
Te 2.10710891 3.6496197 0.0027130423 -0 -2.57110337382e-07 -0.00139225247692
Te 4.2046579627 -0.0055193938 0.0143219589 0.00229753797484 0.00132668934089 -0.000532475508717
Te -2.10710891 3.6606584776 0.0143219589 0 -0.00265312157144 -0.000532475508717
Te -0.2746380454 2.2745176251 13.5137579925 0.0197833549098 0.0114218696278 0.0432618995885
Te 2.1071087 6.3998242197 13.5137579925 0 -0.0228437392557 0.0432616424782
Te 4.4888558754 2.2745173751 13.5137583825 -0.0197833549098 0.0114221267382 0.0432616424782
Te -2.1071087 6.08269937 13.4975774282 -0 -2.57110337382e-07 0.0452557902549
Te 2.10710913 1.2005883087 17.315209702 -0 -0.00846895740301 -0.0340984871642
Te 4.2280324076 4.8741352006 17.315209702 0.00733458659449 0.00423460725668 -0.0340984871642
Te 6.32132652 1.21654002 17.368250574 0 2.57110337382e-07 -0.0355809853696
Te -0.0138145776 4.8741354506 17.315209312 -0.00733458659449 0.00423435014634 -0.0340982300539
Te 2.10710868 1.5186694235 10.3691847242 0 -0.0391342502322 -0.0181118806065
Te 3.9525659819 4.7150950332 10.3691847242 0.0338915133426 0.0195668680058 -0.0181116234962
Te 6.32132698 1.21653976 10.1692600373 -0 2.57110337382e-07 -0.010777294012
Te 0.2616518381 4.7150947632 10.3691851542 -0.0338915133426 0.0195671251161 -0.0181116234962
Te 0.0039055873 -0.0022548946 24.0774889847 -0.00177688954164 0.00102612735649 0.0143056191719
Te 2.10710934 3.64961945 24.0871043888 -2.57110337382e-07 -2.57110337382e-07 0.0138289366064
Te 4.2103122427 -0.0022543946 24.0774891747 0.00177688954164 0.00102587024615 0.0143053620616
Te -2.10710934 3.6541292292 24.0774891747 2.57110337382e-07 -0.00205199760264 0.0143053620616
Te -0.0101944296 2.4271948257 27.6525315077 0.0028832353234 0.00166453232421 -0.0137104087409
Te 2.10710823 6.0944706185 27.6525315077 2.57110337382e-07 -0.00332932175875 -0.0137104087409
Te 4.2244122596 2.4271940357 27.6525314977 -0.0028832353234 0.00166478943455 -0.0137104087409
Te -2.10710823 6.0826991 27.6473511735 -2.57110337382e-07 -0 -0.013676213066
Te -0.0023028892 2.4317499535 20.6885238054 0.00349052994029 0.00201574504507 0.00078650052205
Te 2.10710915 6.0853587731 20.6885238054 -0 -0.00403071875913 0.00078650052205
Te 4.2165207092 2.4317502235 20.6885233754 -0.00349052994029 0.00201548793473 0.00078650052205
Te -2.10710915 6.08269963 20.70652107 0 -2.57110337382e-07 -0.000480024999892
Sb -0.0042157083 2.4306441675 8.4470387563 0.0147625042414 0.00852346479454 -0.0115257422041
Sb 2.10711038 6.0875682151 8.4470387563 -2.57110337382e-07 -0.0170464153684 -0.0115259993145
Sb 4.2184335283 2.4306458575 8.4470391463 -0.0147625042414 0.0085232076842 -0.0115257422041
Sb -2.10711038 6.08270034 8.9853231169 0 -0 0.00586185858196
Sb 0.002939258 2.4347742086 1.8258242925 0.000771588122482 0.00044582932502 0.0172166224117
Sb 2.10711114 6.0793068127 1.8258242925 -2.57110337382e-07 -0.000891144429365 0.0172166224117
Sb 4.211278572 2.4347767786 1.8258245825 -0.000771588122482 0.000445572214682 0.0172163653014
Sb -2.10711114 6.08270078 1.8509224232 2.57110337382e-07 -2.57110337382e-07 0.0168430410915
Sb 0.0211251699 -0.0121966307 18.8689729707 -0.0032367620373 0.00186893504243 -0.0228722785031
Sb 2.10710819 3.64962011 18.8628821128 0 -2.57110337382e-07 -0.00629920326585
Sb 4.1930926601 -0.0121974707 18.8689732207 0.0032367620373 0.00186893504243 -0.0228722785031
Sb 6.32132747 3.6740133714 18.8689732207 -0 -0.00373761297452 -0.0228722785031
Sb 0.040986018 -0.0236633006 11.825343592 -0.00632799962364 0.00365353789419 0.029279725221
Sb 2.10710964 3.64961928 14.524981584 0 -0 -0.11036384099
Sb 4.173231802 -0.0236624606 11.825343352 0.00632799962364 0.00365328078386 0.029279725221
Sb -2.10710964 3.6969458812 11.825343352 0 -0.00730707578839 0.029279725221
Sb 2.10710669 1.2155539762 29.2204884598 2.57110337382e-07 -0.000508821357678 -0.0164283221173
Sb 4.2150705482 4.8666544869 29.2204884598 0.000440687118272 0.000254025013333 -0.0164283221173
Sb 6.32132897 1.21653861 29.2337197917 -2.57110337382e-07 2.57110337382e-07 -0.0173994278616
Sb -0.0008527182 4.8666519069 29.2204881698 -0.000440687118272 0.000254539234008 -0.016428065007
Sb 2.10710745 1.2259335277 22.4978910036 2.57110337382e-07 -0.000885488001942 0.0165617623824
Sb 4.2060819729 4.8614640461 22.4978910036 0.000766960136409 0.000442486890634 0.0165620194928
Sb 6.32132821 1.21653905 22.5095603135 -2.57110337382e-07 2.57110337382e-07 0.0147445065178
Sb 0.0081358571 4.8614623561 22.4978906136 -0.000766960136409 0.000442744000971 0.0165620194928
Cr 2.10710897 3.64961966 13.1086741655 -0 -2.57110337382e-07 0.0770449123688
61
Lattice="8.42843558953 0 0 -4.21421779477 7.29923593142 0 0 0 31.0334408416" Properties=species:S:1:pos:R:3:forces:R:3 energy=-133597.600628 ionic_step=14 pbc="T T T"
Te 2.1071096 1.2358414135 3.390222748 -2.57110337382e-07 -0.00884562404728 0.0087625774083
Te 4.1975025708 4.8565082433 3.390222748 0.00766060250229 0.00442281202364 0.0087625774083
Te 6.32132606 1.21654029 3.3859917501 2.57110337382e-07 0 0.0441669279761
Te 0.0167152592 4.8565090333 3.390222758 -0.00766060250229 0.0044225549133 0.00876232029797
Te 0.2132744836 -0.1231341358 7.0350843006 -0.0374002981169 0.0215931545747 -0.0157004427522
Te 2.10710848 3.64961994 6.8421762028 2.57110337382e-07 -2.57110337382e-07 -0.0170780399399
Te 4.0009433364 -0.1231346358 7.0350841106 0.0374000410065 0.021593411685 -0.0157001856419
Te -2.10710848 3.8958882215 7.0350841106 -0 -0.043186052039 -0.0157001856419
Te 0.0105902803 -0.0061143091 0.016251195 -0.0025765026909 0.00148764041209 -0.000740991992334
Te 2.10710891 3.6496197 0.0034019227 -0 -2.57110337382e-07 -0.00158379967827
Te 4.2036275397 -0.0061143091 0.016251195 0.0025765026909 0.00148764041209 -0.000740991992334
Te -2.10710891 3.6618483083 0.016251195 0 -0.00297528082418 -0.000740991992334
Te -0.2583178917 2.2839400747 13.5026435254 0.0211822922555 0.0122297103079 0.0447485115592
Te 2.1071087 6.3809793206 13.5026435254 0 -0.0244591635055 0.0447485115592
Te 4.4725357217 2.2839398247 13.5026439154 -0.0211822922555 0.0122297103079 0.0447485115592
Te -2.1071087 6.08269937 13.45847842 -0 -2.57110337382e-07 0.0503380902939
Te 2.10710913 1.197263208 17.3244613363 -0 -0.00779944208447 -0.0361322299329
Te 4.230912028 4.875797751 17.3244613363 0.00675454567335 0.00389959248707 -0.0361322299329
Te 6.32132652 1.21654002 17.3775787128 0 2.57110337382e-07 -0.0390442616141
Te -0.016694198 4.875798001 17.3244609463 -0.00675480278369 0.00389959248707 -0.0361319728226
Te 2.10710868 1.5511971227 10.3517459508 0 -0.033340783 -0.0155353779156
Te 3.9243961812 4.6988311836 10.3517459508 0.0288740051086 0.0166702629448 -0.0155351208053
Te 6.32132698 1.21653976 10.15165526 -0 2.57110337382e-07 -0.00922717578795
Te 0.2898216388 4.6988309136 10.3517463808 -0.0288740051086 0.0166702629448 -0.0155351208053
Te 0.0016411623 -0.0009475276 24.0714751091 -0.00115159720113 0.000665144442806 0.016174297104
Te 2.10710934 3.64961945 24.0849699965 -2.57110337382e-07 -2.57110337382e-07 0.0153579717828
Te 4.2125766677 -0.0009470276 24.0714752991 0.00115159720113 0.000664887332469 0.016174297104
Te -2.10710934 3.6515144952 24.0714752991 2.57110337382e-07 -0.00132977466494 0.016174297104
Te -0.0111468696 2.426644934 27.6613692552 0.00309586557241 0.00178743106548 -0.0154042516435
Te 2.10710823 6.0955704021 27.6613692552 2.57110337382e-07 -0.00357486213095 -0.0154042516435
Te 4.2253646996 2.426644144 27.6613692452 -0.00309586557241 0.00178768817581 -0.0154042516435
Te -2.10710823 6.0826991 27.6560749095 -2.57110337382e-07 -0 -0.0159598670826
Te -0.0006110464 2.4327267398 20.6896290148 0.00318842529387 0.00184116712599 0.000546102356599
Te 2.10710915 6.0834052004 20.6896290148 -0 -0.0036818200313 0.000546102356599
Te 4.2148288664 2.4327270098 20.6896285848 -0.00318842529387 0.00184116712599 0.000546102356599
Te -2.10710915 6.08269963 20.7133540884 0 -2.57110337382e-07 -0.000691626807557
Sb 0.0032717851 2.4349670758 8.4307300606 0.0145976965152 0.00842833396971 -0.012763214258
Sb 2.10711038 6.0789223984 8.4307300606 -2.57110337382e-07 -0.0168558966084 -0.0127634713683
Sb 4.2109460349 2.4349687658 8.4307304506 -0.0145976965152 0.00842807685937 -0.012763214258
Sb -2.10711038 6.08270034 9.0212715178 2.57110337382e-07 -0 0.00673037730164
Sb 0.0027673132 2.4346749362 1.8212821487 0.000952850910336 0.000550473232334 0.0176709363779
Sb 2.10711114 6.0795053576 1.8212821487 -2.57110337382e-07 -0.00110043224399 0.0176709363779
Sb 4.2114505168 2.4346775062 1.8212824387 -0.000952850910336 0.000550216121997 0.0176706792676
Sb -2.10711114 6.08270078 1.8465361751 2.57110337382e-07 -2.57110337382e-07 0.0174138260405
Sb 0.0201453978 -0.0116309587 18.8816720109 -0.00311514884772 0.00179874392032 -0.0232186061276
Sb 2.10710819 3.64962011 18.8707325482 0 -2.57110337382e-07 -0.00542168568437
Sb 4.1940724322 -0.0116317987 18.8816722609 0.00311514884772 0.00179874392032 -0.0232186061276
Sb 6.32132747 3.6728820275 18.8816722609 -0 -0.00359748784064 -0.0232183490172
Sb 0.0411383971 -0.0237512768 11.7880849151 -0.00540908727783 0.00312286215784 0.0273313430843
Sb 2.10710964 3.64961928 14.5677933105 0 -0 -0.110486996842
Sb 4.1730794229 -0.0237504368 11.7880846751 0.00540908727783 0.00312286215784 0.027331085974
Sb -2.10710964 3.6971218336 11.7880846751 0 -0.00624598142601 0.027331085974
Sb 2.10710669 1.2154105596 29.2292280531 2.57110337382e-07 -0.000481567661916 -0.0168690092356
Sb 4.2151947506 4.8667261952 29.2292280531 0.00041729007757 0.000240655275789 -0.0168690092356
Sb 6.32132897 1.21653861 29.24423302 -2.57110337382e-07 2.57110337382e-07 -0.0178807384132
Sb -0.0009769206 4.8667236152 29.2292277631 -0.00041729007757 0.000240912386127 -0.0168687521253
Sb 2.10710745 1.2272800583 22.4922582209 2.57110337382e-07 -0.000935881628069 0.0171528590481
Sb 4.2049158438 4.8607907809 22.4922582209 0.000810668893764 0.000467683703697 0.0171528590481
Sb 6.32132821 1.21653905 22.5048647067 -2.57110337382e-07 2.57110337382e-07 0.0158305405829
Sb 0.0093019862 4.8607890909 22.4922578309 -0.000810411783427 0.000467940814035 0.0171531161584
Cr 2.10710897 3.64961966 13.150280065 -0 -2.57110337382e-07 0.0794676630779
61
Lattice="8.42843558953 0 0 -4.21421779477 7.29923593142 0 0 0 31.0334408416" Properties=species:S:1:pos:R:3:forces:R:3 energy=-133597.694762 ionic_step=15 pbc="T T T"
Te 2.1071096 1.2361366986 3.3861866364 -2.57110337382e-07 -0.00992317347124 0.0123770345312
Te 4.1972468465 4.8563606007 3.3861866364 0.00859365591664 0.00496145818045 0.0123770345312
Te 6.32132606 1.21654029 3.3831271933 2.57110337382e-07 0 0.0509253303045
Te 0.0169709835 4.8563613907 3.3861866464 -0.00859365591664 0.00496120107012 0.0123770345312
Te 0.26062154 -0.1504699842 7.0803025606 -0.0349112129407 0.020156164899 -0.0219171135998
Te 2.10710848 3.64961994 6.8411846505 2.57110337382e-07 -2.57110337382e-07 -0.0212056892962
Te 3.95359628 -0.1504704842 7.0803023706 0.0349112129407 0.0201564220094 -0.0219171135998
Te -2.10710848 3.9505599185 7.0803023706 -0 -0.0403120726877 -0.0219171135998
Te 0.0120253271 -0.0069428341 0.0186348406 -0.00297373816216 0.00171698283303 -0.000923797442212
Te 2.10710891 3.6496197 0.0041769724 -0 -2.57110337382e-07 -0.00171621150202
Te 4.2021924929 -0.0069428341 0.0186348406 0.00297373816216 0.00171698283303 -0.000923797442212
Te -2.10710891 3.6635053583 0.0186348406 0 -0.00343396566607 -0.000923797442212
Te -0.2381221242 2.2956001119 13.5004709126 0.022757093072 0.0131388524609 0.0457319585997
Te 2.1071087 6.3576592462 13.5004709126 0 -0.0262774478114 0.0457319585997
Te 4.4523399542 2.2955998619 13.5004713026 -0.022757093072 0.0131388524609 0.0457319585997
Te -2.1071087 6.08269937 13.4111724336 -0 -2.57110337382e-07 0.054490679353
Te 2.10710913 1.1926907349 17.331870586 -0 -0.00681522371297 -0.0373743299728
Te 4.234871904 4.8780839875 17.331870586 0.00590248201527 0.00340774041166 -0.0373743299728
Te 6.32132652 1.21654002 17.3840385793 0 2.57110337382e-07 -0.0408154947283
Te -0.020654074 4.8780842375 17.331870196 -0.00590248201527 0.00340748330132 -0.0373743299728
Te 2.10710868 1.596874373 10.3253835179 0 -0.0239387721826 -0.0118257899679
Te 3.8848385405 4.6759925585 10.3253835179 0.0207315778341 0.0119692575361 -0.0118255328575
Te 6.32132698 1.21653976 10.1236460525 -0 2.57110337382e-07 -0.00701422711411
Te 0.3293792795 4.6759922885 10.3253839479 -0.0207315778341 0.0119692575361 -0.0118255328575
Te -0.0022621231 0.0013060363 24.0679469866 -5.34789501754e-05 3.11103508232e-05 0.0174763038525
Te 2.10710934 3.64961945 24.0872984373 -2.57110337382e-07 -2.57110337382e-07 0.0162396031297
Te 4.2164799531 0.0013065363 24.0679471766 5.34789501754e-05 3.08532404858e-05 0.0174763038525
Te -2.10710934 3.6470073674 24.0679471766 2.57110337382e-07 -6.1963591309e-05 0.0174763038525
Te -0.0125819572 2.4258163853 27.6692052709 0.00342419547325 0.00197692138413 -0.0165255098249
Te 2.10710823 6.0972274993 27.6692052709 2.57110337382e-07 -0.00395409987859 -0.0165255098249
Te 4.2267997872 2.4258155953 27.6692052609 -0.00342419547325 0.00197717849446 -0.0165255098249
Te -2.10710823 6.0826991 27.6632346063 -2.57110337382e-07 -0 -0.0179380740184
Te 0.0024138778 2.4344731814 20.6917151563 0.0025255948441 0.00145858694397 9.20455007826e-05
Te 2.10710915 6.0799123171 20.6917151563 -0 -0.00291665966726 9.20455007826e-05
Te 4.2118039422 2.4344734514 20.6917147263 -0.0025255948441 0.00145832983363 9.20455007826e-05
Te -2.10710915 6.08269963 20.723879999 0 -2.57110337382e-07 -0.00114234122899
Sb 0.0167389195 2.4427423331 8.4016643934 0.0138510480954 0.00799741704426 -0.0146252073213
Sb 2.10711038 6.0633718838 8.4016643934 -2.57110337382e-07 -0.0159940627575 -0.0146252073213
Sb 4.1974789005 2.4427440231 8.4016647834 -0.0138513052058 0.00799715993392 -0.0146252073213
Sb -2.10711038 6.08270034 9.0559553809 2.57110337382e-07 -0 0.00538003380971
Sb 0.0025715704 2.434561924 1.8186067129 0.00123541517112 0.000713738296571 0.0180432321464
Sb 2.10711114 6.079731382 1.8186067129 -2.57110337382e-07 -0.00142670526213 0.0180432321464
Sb 4.2116462596 2.434564494 1.8186070029 -0.00123541517112 0.000713481186234 0.0180429750361
Sb -2.10711114 6.08270078 1.843241987 2.57110337382e-07 -2.57110337382e-07 0.0180152071197
Sb 0.0173832082 -0.0100362071 18.8982952904 -0.00280841621522 0.00162159489787 -0.0234137528737
Sb 2.10710819 3.64962011 18.8780854368 0 -2.57110337382e-07 -0.00471026138083
Sb 4.1968346218 -0.0100370471 18.8982955404 0.00280841621522 0.00162159489787 -0.0234134957633
Sb 6.32132747 3.6696925242 18.8982955404 -0 -0.00324318979573 -0.0234134957633
Sb 0.0388581743 -0.0224347889 11.7439559147 -0.00408574037133 0.00235873023514 0.0253292248872
Sb 2.10710964 3.64961928 14.6069590955 0 -0 -0.109697153885
Sb 4.1753596457 -0.0224339489 11.7439556747 0.00408574037133 0.00235873023514 0.0253292248872
Sb -2.10710964 3.6944888579 11.7439556747 0 -0.00471771758062 0.0253292248872
Sb 2.10710669 1.2149424323 29.2383218607 2.57110337382e-07 -0.000398006802267 -0.017277814672
Sb 4.2156001605 4.8669602588 29.2383218607 0.000344784962429 0.000198746290796 -0.0172775575617
Sb 6.32132897 1.21653861 29.2565629214 -2.57110337382e-07 2.57110337382e-07 -0.0183242537452
Sb -0.0013823305 4.8669576788 29.2383215707 -0.000344784962429 0.000199003401133 -0.0172775575617
Sb 2.10710745 1.2286988365 22.4893486322 2.57110337382e-07 -0.000911970366693 0.0178102901808
Sb 4.2036871464 4.8600813917 22.4893486322 0.000789842956436 0.00045559951784 0.0178105472911
Sb 6.32132821 1.21653905 22.501888992 -2.57110337382e-07 2.57110337382e-07 0.0174158829232
Sb 0.0105306836 4.8600797017 22.4893482422 -0.000789842956436 0.000455856628178 0.0178105472911
Cr 2.10710897 3.64961966 13.1876255851 -0 -2.57110337382e-07 0.0811653626356
61
Lattice="8.42843558953 0 0 -4.21421779477 7.29923593142 0 0 0 31.0334408416" Properties=species:S:1:pos:R:3:forces:R:3 energy=-133597.746294 ionic_step=16 pbc="T T T"
Te 2.1071096 1.2357323623 3.3891892067 -2.57110337382e-07 -0.0108006910527 0.0141739786792
Te 4.1975970118 4.8565627688 3.3891892067 0.00935367407394 0.00540034552636 0.0141739786792
Te 6.32132606 1.21654029 3.3875807649 2.57110337382e-07 0 0.054916711182
Te 0.0166208182 4.8565635588 3.3891892167 -0.00935367407394 0.00540008841603 0.0141739786792
Te 0.3067009538 -0.1770739586 7.1182172827 -0.0298032018679 0.0172071093293 -0.0261352657948
Te 2.10710848 3.64961994 6.8322286058 2.57110337382e-07 -2.57110337382e-07 -0.0224241351851
Te 3.9075168662 -0.1770744586 7.1182170927 0.0298032018679 0.0172071093293 -0.0261350086845
Te -2.10710848 4.0037678672 7.1182170927 -0 -0.0344137044379 -0.0261352657948
Te 0.0131737194 -0.007605859 0.0203873838 -0.00329846851827 0.00190467337932 -0.000929196759297
Te 2.10710891 3.6496197 0.0045714805 -0 -2.57110337382e-07 -0.00158817055401
Te 4.2010441006 -0.007605859 0.0203873838 0.00329846851827 0.00190467337932 -0.000929196759297
Te -2.10710891 3.6648314081 0.0203873838 0 -0.00380908964831 -0.000929196759297
Te -0.2257565228 2.3027393985 13.5095089759 0.0235520782352 0.0135977944131 0.0453318949148
Te 2.1071087 6.3433806729 13.5095089759 0 -0.0271955888262 0.0453318949148
Te 4.4399743528 2.3027391485 13.5095093659 -0.0235520782352 0.0135977944131 0.0453318949148
Te -2.1071087 6.08269937 13.3773782115 -0 -2.57110337382e-07 0.0559492662969
Te 2.10710913 1.1882667103 17.3326410628 -0 -0.00583743309991 -0.0372311195149
Te 4.2387032199 4.8802959998 17.3326410628 0.00505556056393 0.00291871654996 -0.0372311195149
Te 6.32132652 1.21654002 17.3822739158 0 2.57110337382e-07 -0.0395836791019
Te -0.0244853899 4.8802962498 17.3326406728 -0.00505581767427 0.00291871654996 -0.0372308624045
Te 2.10710868 1.633451567 10.3030171582 0 -0.0156958147661 -0.00883251142007
Te 3.8531617761 4.6577039615 10.3030171582 0.0135929093167 0.0078477788279 -0.00883225430973
Te 6.32132698 1.21653976 10.0922828643 -0 2.57110337382e-07 -0.00460741724588
Te 0.3610560439 4.6577036915 10.3030175882 -0.0135929093167 0.0078477788279 -0.00883225430973
Te -0.0063942623 0.0036917292 24.0702190772 0.0011369419119 -0.000656145580998 0.017251846528
Te 2.10710934 3.64961945 24.0949426791 -2.57110337382e-07 -2.57110337382e-07 0.0157531503714
Te 4.2206120923 0.0036922292 24.0702192672 -0.0011369419119 -0.000656402691335 0.017251846528
Te -2.10710934 3.6422359817 24.0702192672 2.57110337382e-07 0.00131254827233 0.017251846528
Te -0.0139209361 2.4250433252 27.6712073022 0.00374429784329 0.0021617837167 -0.0162072072272
Te 2.10710823 6.0987736196 27.6712073022 2.57110337382e-07 -0.00432356743341 -0.0162069501169
Te 4.2281387661 2.4250425352 27.6712072922 -0.00374429784329 0.00216204082704 -0.0162069501169
Te -2.10710823 6.0826991 27.6639391352 -2.57110337382e-07 -0 -0.0183566496477
Te 0.0059122302 2.436492957 20.694473126 0.00163470752507 0.000944109158865 -0.000454571076491
Te 2.10710915 6.0758727659 20.694473126 -0 -0.00188796120739 -0.000454571076491
Te 4.2083055898 2.436493227 20.694472696 -0.00163470752507 0.000944109158865 -0.000454571076491
Te -2.10710915 6.08269963 20.7336935683 0 -2.57110337382e-07 -0.00162108067719
Sb 0.0283943424 2.4494715978 8.3685259583 0.0128136078841 0.00739834995816 -0.0166026429261
Sb 2.10711038 6.0499133545 8.3685259583 -2.57110337382e-07 -0.0147959285853 -0.0166026429261
Sb 4.1858234776 2.4494732878 8.3685263483 -0.0128136078841 0.00739809284782 -0.0166026429261
Sb -2.10711038 6.08270034 9.078092288 2.57110337382e-07 -0 0.00317171312194
Sb 0.0023930501 2.4344588552 1.8203651208 0.00151206589414 0.000873403816085 0.0181329636542
Sb 2.10711114 6.0799375196 1.8203651208 -2.57110337382e-07 -0.00174603630116 0.0181332207645
Sb 4.2118247799 2.4344614252 1.8203654108 -0.00151206589414 0.000873146705748 0.0181329636542
Sb -2.10711114 6.08270078 1.8437277873 2.57110337382e-07 -2.57110337382e-07 0.018310369787
Sb 0.0141755765 -0.0081842792 18.9107320026 -0.00244409086715 0.00141127864189 -0.0232810839396
Sb 2.10710819 3.64962011 18.8797814153 0 -2.57110337382e-07 -0.0042106959953
Sb 4.2000422535 -0.0081851192 18.9107322526 0.00244409086715 0.00141127864189 -0.0232808268292
Sb 6.32132747 3.6659886684 18.9107322526 -0 -0.00282255728378 -0.0232808268292
Sb 0.0339354943 -0.0195926769 11.7132451946 -0.00286009539303 0.00165116258666 0.0244141691964
Sb 2.10710964 3.64961928 14.623721364 0 -0 -0.109052064049
Sb 4.1802823257 -0.0195918369 11.7132449546 0.00286009539303 0.00165116258666 0.0244141691964
Sb -2.10710964 3.6888046339 11.7132449546 0 -0.003302839394 0.0244141691964
Sb 2.10710669 1.2143518043 29.2424979272 2.57110337382e-07 -0.00029362000529 -0.0174300239918
Sb 4.2161116592 4.8672555729 29.2424979272 0.000254539234008 0.000146552892308 -0.0174300239918
Sb 6.32132897 1.21653861 29.2644280641 -2.57110337382e-07 2.57110337382e-07 -0.0185070591951
Sb -0.0018938292 4.8672529929 29.2424976372 -0.000254539234008 0.000146810002645 -0.0174297668814
Sb 2.10710745 1.2294915687 22.4928279609 2.57110337382e-07 -0.000791385618461 0.0181954414662
Sb 4.2030006205 4.8596850257 22.4928279609 0.000685456159459 0.000395435698893 0.0181954414662
Sb 6.32132821 1.21653905 22.5030005282 -2.57110337382e-07 2.57110337382e-07 0.0187520853466
Sb 0.0112172095 4.8596833357 22.4928275709 -0.000685456159459 0.00039569280923 0.0181956985765
Cr 2.10710897 3.64961966 13.2049992479 -0 -0 0.081905583297
61
Lattice="8.42843558953 0 0 -4.21421779477 7.29923593142 0 0 0 31.0334408416" Properties=species:S:1:pos:R:3:forces:R:3 energy=-133597.811189 ionic_step=17 pbc="T T T"
Te 2.1071096 1.2346881066 3.3980145512 -2.57110337382e-07 -0.0108459424721 0.0125163883341
Te 4.1985013634 4.8570848967 3.3980145512 0.00939301195556 0.00542297123605 0.0125163883341
Te 6.32132606 1.21654029 3.3967105394 2.57110337382e-07 0 0.0551751070711
Te 0.0157164666 4.8570856867 3.3980145612 -0.00939275484523 0.00542271412572 0.0125163883341
Te 0.3195503947 -0.1844925902 7.1222339364 -0.0282767377949 0.0163257350927 -0.0257380303236
Te 2.10710848 3.64961994 6.8170518739 2.57110337382e-07 -2.57110337382e-07 -0.020299375357
Te 3.8946674253 -0.1844930902 7.1222337464 0.0282764806846 0.0163257350927 -0.0257377732133
Te -2.10710848 4.0186051304 7.1222337464 -0 -0.0326509559648 -0.0257377732133
Te 0.0132107704 -0.0076272505 0.0202159014 -0.00330669604907 0.0019093013654 -0.000713738296571
Te 2.10710891 3.6496197 0.0041957394 -0 -2.57110337382e-07 -0.00119761995152
Te 4.2010070496 -0.0076272505 0.0202159014 0.00330669604907 0.0019093013654 -0.000713738296571
Te -2.10710891 3.664874191 0.0202159014 0 -0.00381834562045 -0.000713738296571
Te -0.2309681393 2.2997304689 13.5229645361 0.0234561760793 0.0135425156906 0.0436581066184
Te 2.1071087 6.3493985321 13.5229645361 0 -0.0270847742708 0.0436581066184
Te 4.4451859693 2.2997302189 13.5229649261 -0.0234561760793 0.0135425156906 0.0436581066184
Te -2.1071087 6.08269937 13.3794436263 -0 -2.57110337382e-07 0.0548858579415
Te 2.10710913 1.1864531527 17.3257477691 -0 -0.00550164699929 -0.0360005894402
Te 4.2402738061 4.8812027786 17.3257477691 0.00476476877236 0.00275082349965 -0.0360005894402
Te 6.32132652 1.21654002 17.3724856303 0 2.57110337382e-07 -0.0359180570219
Te -0.0260559761 4.8812030286 17.3257473791 -0.00476476877236 0.00275082349965 -0.0360005894402
Te 2.10710868 1.633436148 10.3009224158 0 -0.0151486839682 -0.00775264800307
Te 3.8531751294 4.657711671 10.3009224158 0.0131190549649 0.00757421342893 -0.00775239089273
Te 6.32132698 1.21653976 10.076870325 -0 2.57110337382e-07 -0.00362551286742
Te 0.3610426906 4.657711401 10.3009228458 -0.0131190549649 0.00757421342893 -0.00775239089273
Te -0.0081453319 0.0047027101 24.0771769411 0.00168458693052 -0.000972391295977 0.0155870570934
Te 2.10710934 3.64961945 24.1031984132 -2.57110337382e-07 -2.57110337382e-07 0.014186834196
Te 4.2223631619 0.0047032101 24.0771771311 -0.00168458693052 -0.000972648406315 0.0155867999831
Te -2.10710934 3.6402140198 24.0771771311 2.57110337382e-07 0.00194503970229 0.0155867999831
Te -0.0143277712 2.4248084387 27.6656546752 0.00386616814321 0.00223223194915 -0.0145768705779
Te 2.10710823 6.0992433926 27.6656546752 2.57110337382e-07 -0.00446446389829 -0.0145768705779
Te 4.2285456013 2.4248076487 27.6656546652 -0.00386616814321 0.00223248905948 -0.0145768705779
Te -2.10710823 6.0826991 27.6572626594 -2.57110337382e-07 -0 -0.0168535826154
Te 0.0077883938 2.4375761611 20.6964529792 0.00103229800459 0.000596495982725 -0.000836894148177
Te 2.10710915 6.0737063578 20.6964529792 -0 -0.00119222063444 -0.000836894148177
Te 4.2064294262 2.4375764311 20.6964525492 -0.00103229800459 0.000596238872388 -0.000836894148177
Te -2.10710915 6.08269963 20.7362208394 0 -2.57110337382e-07 -0.00181185654753
Sb 0.0288656328 2.4497436976 8.3521998932 0.0124744793491 0.00720268899141 -0.0175845473045
Sb 2.10711038 6.0493691549 8.3521998932 -2.57110337382e-07 -0.0144046066518 -0.0175845473045
Sb 4.1853521872 2.4497453876 8.3522002832 -0.0124747364594 0.00720243188107 -0.0175845473045
Sb -2.10711038 6.08270034 9.0782519421 2.57110337382e-07 -0 0.00264026605457
Sb 0.0022551379 2.4343792315 1.8258421952 0.00161516713943 0.000932796304021 0.0179069636676
Sb 2.10711114 6.080096767 1.8258421952 -2.57110337382e-07 -0.00186507838737 0.0179069636676
Sb 4.2119626921 2.4343818015 1.8258424852 -0.00161516713943 0.000932539193683 0.0179067065573
Sb -2.10711114 6.08270078 1.8482334752 2.57110337382e-07 -2.57110337382e-07 0.0180961968759
Sb 0.0131384929 -0.0075855184 18.9101451619 -0.00229239576809 0.00132360401684 -0.0229231863499
Sb 2.10710819 3.64962011 18.873837406 0 -2.57110337382e-07 -0.00395641387163
Sb 4.2010793371 -0.0075863584 18.9101454119 0.00229239576809 0.00132360401684 -0.0229229292396
Sb 6.32132747 3.6647911469 18.9101454119 -0 -0.00264720803368 -0.0229229292396
Sb 0.0292384869 -0.0168808572 11.7165483247 -0.00250168358272 0.00144418876507 0.0242573318906
Sb 2.10710964 3.64961928 14.6094896175 0 -0 -0.109591481537
Sb 4.1849793331 -0.0168800172 11.7165480847 0.00250168358272 0.00144418876507 0.0242573318906
Sb -2.10710964 3.6833809944 11.7165480847 0 -0.00288863464048 0.0242573318906
Sb 2.10710669 1.2140748453 29.2385888553 2.57110337382e-07 -0.000241169496464 -0.0171939967021
Sb 4.2163515126 4.8673940524 29.2385888553 0.000209287814629 0.000120327637895 -0.0171939967021
Sb 6.32132897 1.21653861 29.2623516636 -2.57110337382e-07 2.57110337382e-07 -0.0183113982283
Sb -0.0021336826 4.8673914724 29.2385885653 -0.000209287814629 0.000120584748232 -0.0171937395917
Sb 2.10710745 1.2292013361 22.5009472591 2.57110337382e-07 -0.000638404967719 0.01803834705
Sb 4.2032519692 4.8598301419 22.5009472591 0.000553044335708 0.000319073928691 0.01803834705
Sb 6.32132821 1.21653905 22.5074577656 -2.57110337382e-07 2.57110337382e-07 0.0189235779416
Sb 0.0109658608 4.8598284519 22.5009468691 -0.000553044335708 0.000319331039028 0.0180386041604
Cr 2.10710897 3.64961966 13.1937784383 -0 -0 0.0817248347298
61
Lattice="8.42843558953 0 0 -4.21421779477 7.29923593142 0 0 0 31.0334408416" Properties=species:S:1:pos:R:3:forces:R:3 energy=-133597.873397 ionic_step=18 pbc="T T T"
Te 2.1071096 1.2336918741 3.4059691409 -2.57110337382e-07 -0.0109377308626 0.0108616262027
Te 4.1993641256 4.8575830129 3.4059691409 0.00947245904981 0.00546873687611 0.0108616262027
Te 6.32132606 1.21654029 3.4048969776 2.57110337382e-07 0 0.0554694984074
Te 0.0148537044 4.8575838029 3.4059691509 -0.00947245904981 0.00546847976577 0.0108616262027
Te 0.3325100214 -0.1919748377 7.1260492092 -0.0266358596217 0.0153782834995 -0.0254433818769
Te 2.10710848 3.64961994 6.7990832281 2.57110337382e-07 -2.57110337382e-07 -0.0179871820929
Te 3.8817077986 -0.1919753377 7.1260490192 0.0266358596217 0.0153785406098 -0.0254433818769
Te -2.10710848 4.0335696254 7.1260490192 -0 -0.0307563098886 -0.0254433818769
Te 0.0132376586 -0.0076427744 0.0202455251 -0.00330643893873 0.0019093013654 -0.000495194509797
Te 2.10710891 3.6496197 0.0039200186 -0 -2.57110337382e-07 -0.000785214970363
Te 4.2009801614 -0.0076427744 0.0202455251 0.00330643893873 0.0019093013654 -0.000495194509797
Te -2.10710891 3.6649052388 0.0202455251 0 -0.00381834562045 -0.000495194509797
Te -0.2369707774 2.2962648426 13.5320241538 0.0231322170542 0.013355339365 0.0420943615465
Te 2.1071087 6.3563297847 13.5320241538 0 -0.0267106787299 0.0420943615465
Te 4.4511886074 2.2962645926 13.5320245438 -0.0231322170542 0.0133555964753 0.0420943615465
Te -2.1071087 6.08269937 13.3783791311 -0 -2.57110337382e-07 0.0553669113828
Te 2.10710913 1.1839753215 17.3202820922 -0 -0.00485912826618 -0.0351899205464
Te 4.2424196699 4.8824416942 17.3202820922 0.00420838200226 0.00242969268826 -0.0351899205464
Te 6.32132652 1.21654002 17.3641488888 0 2.57110337382e-07 -0.0327476294516
Te -0.0282018399 4.8824419442 17.3202817022 -0.00420838200226 0.00242943557792 -0.0351899205464
Te 2.10710868 1.6335615962 10.2996245891 0 -0.0145033370214 -0.00705176522337
Te 3.8530664881 4.6576489469 10.2996245891 0.0125603542018 0.00725153995551 -0.00705150811303
Te 6.32132698 1.21653976 10.0594314488 -0 2.57110337382e-07 -0.00270197253554
Te 0.3611513319 4.6576486769 10.2996250191 -0.0125600970914 0.00725153995551 -0.00705150811303
Te -0.0098698942 0.0056983871 24.0832767465 0.0022332603905 -0.00128915123163 0.0141678080311
Te 2.10710934 3.64961945 24.1105776315 -2.57110337382e-07 -2.57110337382e-07 0.0129007682885
Te 4.2240877242 0.0056988871 24.0832769365 -0.0022332603905 -0.00128940834197 0.0141678080311
Te -2.10710934 3.6382226658 24.0832769365 2.57110337382e-07 0.0025785595736 0.0141678080311
Te -0.0147624439 2.4245574802 27.6610892025 0.0039988370773 0.00230859371935 -0.0131789616735
Te 2.10710823 6.0997453096 27.6610892025 2.57110337382e-07 -0.00461770165937 -0.0131787045632
Te 4.2289802739 2.4245566902 27.6610891925 -0.0039988370773 0.00230910794002 -0.0131787045632
Te -2.10710823 6.0826991 27.6515263016 -2.57110337382e-07 -0 -0.0155634029424
Te 0.0097415014 2.4387037888 20.6986177882 0.00041831851892 0.000241940827476 -0.00124852779833
Te 2.10710915 6.0714511023 20.6986177882 -0 -0.00048311032394 -0.00124852779833
Te 4.2044763186 2.4387040588 20.6986173582 -0.00041831851892 0.000241683717139 -0.00124852779833
Te -2.10710915 6.08269963 20.7386277991 0 -2.57110337382e-07 -0.001883847442
Sb 0.0281653324 2.4493393788 8.3358319654 0.0122158263497 0.00705330788539 -0.0185546246075
Sb 2.10711038 6.0501777925 8.3358319654 -2.57110337382e-07 -0.0141058444398 -0.0185546246075
Sb 4.1860524876 2.4493410688 8.3358323554 -0.0122158263497 0.00705305077505 -0.0185546246075
Sb -2.10711038 6.08270034 9.0887747822 2.57110337382e-07 -0 0.00235307380772
Sb 0.0021942154 2.4343440578 1.8310157648 0.00171132640561 0.000988589247232 0.0176956189703
Sb 2.10711114 6.0801671143 1.8310157648 -2.57110337382e-07 -0.00197640716345 0.0176956189703
Sb 4.2120236146 2.4343466278 1.8310160548 -0.00171132640561 0.000988075026558 0.01769536186
Sb -2.10711114 6.08270078 1.8525048613 2.57110337382e-07 -2.57110337382e-07 0.0178779101995
Sb 0.0126126714 -0.0072819351 18.9093988267 -0.00216975413716 0.00125289867406 -0.0225380350645
Sb 2.10710819 3.64962011 18.8678327236 0 -2.57110337382e-07 -0.0033385777309
Sb 4.2016051586 -0.0072827751 18.9093990767 0.00216975413716 0.00125289867406 -0.0225377779542
Sb 6.32132747 3.6641839802 18.9093990767 -0 -0.00250579734812 -0.0225377779542
Sb 0.0245294851 -0.0141621125 11.7171445892 -0.00205045494062 0.00118373599331 0.0240457300829
Sb 2.10710964 3.64961928 14.6032918172 0 -0 -0.109744205077
Sb 4.1896883349 -0.0141612725 11.7171443492 0.00205045494062 0.00118373599331 0.0240457300829
Sb -2.10710964 3.677943505 11.7171443492 0 -0.00236772909695 0.0240457300829
Sb 2.10710669 1.2139142323 29.235021645 2.57110337382e-07 -0.000200803173495 -0.0169589978537
Sb 4.2164906074 4.8674743588 29.235021645 0.000174320808745 0.000100273031579 -0.0169589978537
Sb 6.32132897 1.21653861 29.260644548 -2.57110337382e-07 2.57110337382e-07 -0.0181069955101
Sb -0.0022727774 4.8674717788 29.235021355 -0.000174320808745 0.000100530141916 -0.0169587407434
Sb 2.10710745 1.2290623099 22.5089137645 2.57110337382e-07 -0.000496737171821 0.0178203174839
Sb 4.2033723694 4.8598996551 22.5089137645 0.000430402704777 0.000248111475573 0.0178203174839
Sb 6.32132821 1.21653905 22.5111452239 -2.57110337382e-07 2.57110337382e-07 0.0189865699743
Sb 0.0108454606 4.8598979651 22.5089133745 -0.000430402704777 0.000248368585911 0.0178203174839
Cr 2.10710897 3.64961966 13.189505749 -0 -0 0.0818245935407
61
Lattice="8.42843558953 0 0 -4.21421779477 7.29923593142 0 0 0 31.0334408416" Properties=species:S:1:pos:R:3:forces:R:3 energy=-133597.950538 ionic_step=19 pbc="T T T"
Te 2.1071096 1.2324074357 3.4155175421 -2.57110337382e-07 -0.0111503611116 0.00896800856787
Te 4.2004764814 4.8582252321 3.4155175421 0.00965655005138 0.00557518055578 0.00896800856787
Te 6.32132606 1.21654029 3.4147371843 2.57110337382e-07 0 0.0561346428502
Te 0.0137413486 4.8582260221 3.4155175521 -0.00965655005138 0.00557492344545 0.00896800856787
Te 0.3533154407 -0.2039868577 7.1340006584 -0.0237953046143 0.0137384337676 -0.0254873477446
Te 2.10710848 3.64961994 6.7721302595 2.57110337382e-07 -2.57110337382e-07 -0.0149692209527
Te 3.8609023793 -0.2039873577 7.1340004684 0.0237953046143 0.0137384337676 -0.0254873477446
Te -2.10710848 4.0575936654 7.1340004684 -0 -0.027476610425 -0.0254873477446
Te 0.0133420986 -0.0077030729 0.0206571589 -0.00332032289695 0.00191727178585 -0.000217258235087
Te 2.10710891 3.6496197 0.0037196307 -0 -2.57110337382e-07 -0.000223428883185
Te 4.2008757214 -0.0077030729 0.0206571589 0.00332032289695 0.00191727178585 -0.000217258235087
Te -2.10710891 3.6650258358 0.0206571589 0 -0.00383428646137 -0.000217258235087
Te -0.2441053683 2.2921456827 13.54011896 0.0225434343816 0.0130154394989 0.0401786324226
Te 2.1071087 6.3645681045 13.54011896 0 -0.0260308789979 0.0401786324226
Te 4.4583231983 2.2921454327 13.54011935 -0.0225434343816 0.0130156966093 0.0401786324226
Te -2.1071087 6.08269937 13.3707840553 -0 -2.57110337382e-07 0.0576665062403
Te 2.10710913 1.1796969837 17.3147760785 -0 -0.00363682572226 -0.0345808261572
Te 4.2461248174 4.8845808632 17.3147760785 0.00314985874326 0.0018185414163 -0.0345805690468
Te 6.32132652 1.21654002 17.3548738658 0 2.57110337382e-07 -0.0291316296667
Te -0.0319069874 4.8845811132 17.3147756885 -0.00314985874326 0.00181828430596 -0.0345805690468
Te 2.10710868 1.6372415148 10.2967688931 0 -0.0128223496356 -0.00637942169111
Te 3.8498795866 4.6558089876 10.2967688931 0.0111045954715 0.00641104626261 -0.00637942169111
Te 6.32132698 1.21653976 10.032872151 -0 2.57110337382e-07 -0.00126909662532
Te 0.3643382334 4.6558087176 10.2967693231 -0.0111045954715 0.00641104626261 -0.00637942169111
Te -0.0124704347 0.0071998105 24.0905013872 0.00305755613214 -0.00176506246612 0.0125752666013
Te 2.10710934 3.64961945 24.1199809596 -2.57110337382e-07 -2.57110337382e-07 0.0114725203643
Te 4.2266882647 0.0072003105 24.0905015772 -0.00305755613214 -0.00176531957646 0.012575009491
Te -2.10710934 3.6352198189 24.0905015772 2.57110337382e-07 0.00353038204259 0.012575009491
Te -0.0154457169 2.4241629922 27.6564282268 0.00420015447147 0.00242480759185 -0.0115851346921
Te 2.10710823 6.1005342857 27.6564282268 2.57110337382e-07 -0.00484987229403 -0.0115851346921
Te 4.2296635469 2.4241622022 27.6564282168 -0.00420015447147 0.00242506470218 -0.0115848775817
Te -2.10710823 6.0826991 27.6452101858 -2.57110337382e-07 -0 -0.0141613802726
Te 0.0126456178 2.440380482 20.7018174353 -0.000459199062564 -0.000264566537166 -0.00184759488442
Te 2.10710915 6.0680977159 20.7018174353 -0 0.000529904405344 -0.00184759488442
Te 4.2015722022 2.440380752 20.7018170053 0.000459199062564 -0.000264823647503 -0.00184759488442
Te -2.10710915 6.08269963 20.7424922607 0 -2.57110337382e-07 -0.00189258919347
Sb 0.0273702195 2.4488803199 8.31191134 0.0118317035056 0.00683142166423 -0.019923737154
Sb 2.10711038 6.0510959102 8.31191134 -2.57110337382e-07 -0.0136623291078 -0.019923737154
Sb 4.1868476005 2.4488820099 8.31191173 -0.0118317035056 0.00683116455389 -0.019923737154
Sb -2.10711038 6.08270034 9.1142195327 2.57110337382e-07 -0 0.00189361763482
Sb 0.002153792 2.4343207194 1.837519049 0.00185505108421 0.00107137877587 0.0174518783705
Sb 2.10711114 6.0802137912 1.837519049 -2.57110337382e-07 -0.00214224333106 0.0174521354808
Sb 4.212064038 2.4343232894 1.837519339 -0.00185505108421 0.00107112166553 0.0174516212601
Sb -2.10711114 6.08270078 1.8577968044 2.57110337382e-07 -2.57110337382e-07 0.0176236280758
Sb 0.0121521219 -0.0070160366 18.9093823037 -0.00200777462461 0.00115931051125 -0.0220161010797
Sb 2.10710819 3.64962011 18.8602444389 0 -2.57110337382e-07 -0.0021425004414
Sb 4.2020657081 -0.0070168766 18.9093825537 0.00200777462461 0.00115931051125 -0.0220158439693
Sb 6.32132747 3.6636521832 18.9093825537 -0 -0.00231862102251 -0.0220158439693
Sb 0.0182009935 -0.0105083544 11.7124772633 -0.00128400902488 0.000741249102671 0.0236850042796
Sb 2.10710964 3.64961928 14.6048603259 0 -0 -0.109555228979
Sb 4.1960168265 -0.0105075144 11.7124770233 0.00128426613522 0.000741249102671 0.0236850042796
Sb -2.10710964 3.6706359889 11.7124770233 0 -0.00148301242602 0.0236850042796
Sb 2.10710669 1.2137755076 29.2311432093 2.57110337382e-07 -0.000151952209393 -0.0166658920691
Sb 4.2166107465 4.8675437212 29.2311432093 0.000131897603077 7.58475495276e-05 -0.0166658920691
Sb 6.32132897 1.21653861 29.2595211851 -2.57110337382e-07 2.57110337382e-07 -0.0178516849451
Sb -0.0023929165 4.8675411412 29.2311429193 -0.000131897603077 7.6104659865e-05 -0.0166656349587
Sb 2.10710745 1.2290984815 22.5191971377 2.57110337382e-07 -0.000313674611606 0.0175076713137
Sb 4.2033410439 4.8598815693 22.5191971377 0.000271765626612 0.000156580195465 0.017507928424
Sb 6.32132821 1.21653905 22.5150855446 -2.57110337382e-07 2.57110337382e-07 0.0190793868061
Sb 0.0108767861 4.8598798793 22.5191967477 -0.000271765626612 0.000156837305803 0.017507928424
Cr 2.10710897 3.64961966 13.1926278256 -0 -0 0.0823352146707
61
Lattice="8.42843558953 0 0 -4.21421779477 7.29923593142 0 0 0 31.0334408416" Properties=species:S:1:pos:R:3:forces:R:3 energy=-133598.041931 ionic_step=20 pbc="T T T"
Te 2.1071096 1.23063611 3.4277942927 -2.57110337382e-07 -0.0113035988726 0.00652546036275
Te 4.2020104938 4.859110895 3.4277942927 0.00978921898547 0.00565179943632 0.00652546036275
Te 6.32132606 1.21654029 3.4273233793 2.57110337382e-07 0 0.0568753777322
Te 0.0122073362 4.859111685 3.4277943027 -0.00978921898547 0.00565154232599 0.00652546036275
Te 0.3797669291 -0.2192586388 7.1432510451 -0.020066947612 0.0115859060231 -0.0254336116841
Te 2.10710848 3.64961994 6.7334777083 2.57110337382e-07 -2.57110337382e-07 -0.010880138147
Te 3.8344508909 -0.2192591388 7.1432508551 0.020066947612 0.0115859060231 -0.0254333545738
Te -2.10710848 4.0881372275 7.1432508551 -0 -0.0231712978255 -0.0254336116841
Te 0.0133967123 -0.0077346042 0.021359356 -0.00331132403514 0.00191187246877 0.000152980650742
Te 2.10710891 3.6496197 0.0035608506 -0 -2.57110337382e-07 0.000566156962914
Te 4.2008211077 -0.0077346042 0.021359356 0.00331132403514 0.00191187246877 0.000152980650742
Te -2.10710891 3.6650888983 0.021359356 0 -0.00382374493754 0.000152980650742
Te -0.2539666599 2.2864522607 13.5483830256 0.021529391211 0.0124299992607 0.0376347827446
Te 2.1071087 6.3759549485 13.5483830256 0 -0.0248599985214 0.0376347827446
Te 4.4681844899 2.2864520107 13.5483834156 -0.021529391211 0.0124302563711 0.0376345256342
Te -2.1071087 6.08269937 13.3590978057 -0 -2.57110337382e-07 0.0616280623187
Te 2.10710913 1.1734157891 17.308175014 -0 -0.00178357441042 -0.0340102983185
Te 4.251564489 4.8877214605 17.308175014 0.00154497601733 0.000891915760377 -0.0340102983185
Te 6.32132652 1.21654002 17.3436294094 0 2.57110337382e-07 -0.0245923466602
Te -0.037346659 4.8877217105 17.308174624 -0.00154497601733 0.000891658650039 -0.0340102983185
Te 2.10710868 1.6419774312 10.2938400307 0 -0.0105674919767 -0.00594773343465
Te 3.8457781645 4.6534410294 10.2938400307 0.0091518424591 0.00528361743319 -0.00594773343465
Te 6.32132698 1.21653976 9.9974195597 -0 2.57110337382e-07 0.00081015467309
Te 0.3684396555 4.6534407594 10.2938404607 -0.00915158534876 0.00528361743319 -0.00594773343465
Te -0.0160221186 0.0092503771 24.0999284848 0.0041893558373 -0.00241837983341 0.010544866267
Te 2.10710934 3.64961945 24.1323557742 -2.57110337382e-07 -2.57110337382e-07 0.00966812001656
Te 4.2302399486 0.0092508771 24.0999286748 -0.0041893558373 -0.00241863694375 0.0105446091567
Te -2.10710934 3.6311186857 24.0999286748 2.57110337382e-07 0.0048372738875 0.0105446091567
Te -0.0163154768 2.4236608358 27.6506650749 0.00445726480885 0.00257341736685 -0.00953365131011
Te 2.10710823 6.1015385983 27.6506650749 2.57110337382e-07 -0.00514683473371 -0.00953365131011
Te 4.2305333068 2.4236600458 27.6506650649 -0.00445726480885 0.00257367447719 -0.00953365131011
Te -2.10710823 6.0826991 27.6372001759 -2.57110337382e-07 -0 -0.0123520948285
Te 0.0165740786 2.442648581 20.7061841031 -0.00163727862845 -0.000944880489877 -0.00265620689549
Te 2.10710915 6.0635615181 20.7061841031 -0 0.00189027520043 -0.00265620689549
Te 4.1976437414 2.442648851 20.7061836731 0.00163727862845 -0.000944880489877 -0.00265620689549
Te -2.10710915 6.08269963 20.7474716776 0 -2.57110337382e-07 -0.00176737645916
Sb 0.0259806998 2.4480780799 8.2804145965 0.0112874009214 0.00651723283195 -0.0216085811949
Sb 2.10711038 6.0527003901 8.2804145965 -2.57110337382e-07 -0.0130336943329 -0.0216085811949
Sb 4.1882371202 2.4480797699 8.2804149865 -0.0112874009214 0.00651697572161 -0.0216085811949
Sb -2.10711038 6.08270034 9.1546489857 2.57110337382e-07 -0 0.00126112620486
Sb 0.0021476958 2.4343171998 1.8462845215 0.0020427416305 0.00117987933824 0.0171137782768
Sb 2.10711114 6.0802208305 1.8462845215 -2.57110337382e-07 -0.00235873023514 0.0171137782768
Sb 4.2120701342 2.4343197698 1.8462848115 -0.0020427416305 0.00117936511757 0.0171135211665
Sb -2.10711114 6.08270078 1.86486428 2.57110337382e-07 -2.57110337382e-07 0.0172487612039
Sb 0.0118049198 -0.0068155793 18.908810843 -0.00179565859627 0.00103692599066 -0.021296192135
Sb 2.10710819 3.64962011 18.8497183637 0 -2.57110337382e-07 -0.000297990881025
Sb 4.2024129102 -0.0068164193 18.908811093 0.00179565859627 0.00103692599066 -0.0212959350246
Sb 6.32132747 3.6632512685 18.908811093 -0 -0.00207359487098 -0.0212959350246
Sb 0.0101255759 -0.0058460078 11.7055705404 -0.000271251405938 0.000156580195465 0.0231515003295
Sb 2.10710964 3.64961928 14.6113645714 0 -0 -0.109076746641
Sb 4.2040922441 -0.0058451678 11.7055703004 0.000271251405938 0.000156580195465 0.0231515003295
Sb -2.10710964 3.6613112955 11.7055703004 0 -0.000313160390931 0.0231515003295
Sb 2.10710669 1.2136903779 29.2257741793 2.57110337382e-07 -9.25597214574e-05 -0.0162347180333
Sb 4.216684471 4.8675862861 29.2257741793 8.02184252631e-05 4.60227503913e-05 -0.016234460923
Sb 6.32132897 1.21653861 29.2578718352 -2.57110337382e-07 2.57110337382e-07 -0.0174662765493
Sb -0.002466641 4.8675837061 29.2257738893 -8.02184252631e-05 4.62798607287e-05 -0.0162342038126
Sb 2.10710745 1.2291849943 22.5329478931 2.57110337382e-07 -7.19908944669e-05 0.0169888226528
Sb 4.2032661216 4.8598383129 22.5329478931 6.24778119837e-05 3.5738336896e-05 0.0169888226528
Sb 6.32132821 1.21653905 22.5196897753 -2.57110337382e-07 2.57110337382e-07 0.0190986700814
Sb 0.0109517084 4.8598366229 22.5329475031 -6.24778119837e-05 3.59954472334e-05 0.0169888226528
Cr 2.10710897 3.64961966 13.1999629861 -0 -0 0.0831021748071
61
Lattice="8.42843558953 0 0 -4.21421779477 7.29923593142 0 0 0 31.0334408416" Properties=species:S:1:pos:R:3:forces:R:3 energy=-133598.132802 ionic_step=21 pbc="T T T"
Te 2.1071096 1.2283099085 3.4420172253 -2.57110337382e-07 -0.0113524498367 0.00420709645058
Te 4.2040250424 4.8602739958 3.4420172253 0.00983164219114 0.00567622491837 0.00420709645058
Te 6.32132606 1.21654029 3.441902214 2.57110337382e-07 0 0.0579128179435
Te 0.0101927876 4.8602747858 3.4420172353 -0.00983164219114 0.00567596780804 0.00420709645058
Te 0.4159054904 -0.2401232566 7.1580463105 -0.0148236965017 0.00855868891076 -0.0258529586444
Te 2.10710848 3.64961994 6.6821487163 2.57110337382e-07 -2.57110337382e-07 -0.00632902806499
Te 3.7983123296 -0.2401237566 7.1580461205 0.0148234393914 0.00855868891076 -0.0258529586444
Te -2.10710848 4.1298664632 7.1580461205 -0 -0.0171168636008 -0.0258529586444
Te 0.0134924768 -0.0077898938 0.022677077 -0.0033048962767 0.00190827292405 0.000610894161619
Te 2.10710891 3.6496197 0.0035976304 -0 -2.57110337382e-07 0.00160925360167
Te 4.2007253432 -0.0077898938 0.022677077 0.0033048962767 0.00190827292405 0.000610894161619
Te -2.10710891 3.6651994777 0.022677077 0 -0.00381654584809 0.000610894161619
Te -0.2639993305 2.2806598929 13.5547876889 0.0201399669478 0.0116278150081 0.0346312197833
Te 2.1071087 6.3875396841 13.5547876889 0 -0.0232556300162 0.0346312197833
Te 4.4782171605 2.2806596429 13.5547880789 -0.0201399669478 0.0116280721184 0.0346312197833
Te -2.1071087 6.08269937 13.3373021361 -0 -2.57110337382e-07 0.0675346580994
Te 2.10710913 1.1643641235 17.301780112 -0 0.000921997669851 -0.0337781276838
Te 4.2594034576 4.8922472932 17.301780112 -0.00079832759757 -0.000460998834925 -0.0337781276838
Te 6.32132652 1.21654002 17.331995585 0 2.57110337382e-07 -0.0197563583244
Te -0.0451856276 4.8922475432 17.301779722 0.00079832759757 -0.000461255945263 -0.0337778705735
Te 2.10710868 1.6525083526 10.2885860846 0 -0.00668898253732 -0.00590865266337
Te 3.8366581234 4.6481755687 10.2885860846 0.00579295301155 0.00334423415832 -0.00590839555303
Te 6.32132698 1.21653976 9.9506633093 -0 2.57110337382e-07 0.00397261182288
Te 0.3775596966 4.6481752987 10.2885865146 -0.00579295301155 0.00334449126866 -0.00590839555303
Te -0.0209927727 0.012120187 24.110836198 0.0057623568814 -0.00332675065538 0.00833500291724
Te 2.10710934 3.64961945 24.147531005 -2.57110337382e-07 -2.57110337382e-07 0.0077040541493
Te 4.2352106027 0.012120687 24.110836388 -0.0057623568814 -0.00332675065538 0.00833500291724
Te -2.10710934 3.625379066 24.110836388 2.57110337382e-07 0.00665350131076 0.00833500291724
Te -0.0174691572 2.4229947578 27.6450879423 0.00479125113711 0.00276625011989 -0.00725796771395
Te 2.10710823 6.1028707543 27.6450879423 2.57110337382e-07 -0.00553275735012 -0.00725796771395
Te 4.2316869872 2.4229939678 27.6450879323 -0.00479125113711 0.00276650723023 -0.00725796771395
Te -2.10710823 6.0826991 27.6287602734 -2.57110337382e-07 -0 -0.0104566774213
Te 0.021848822 2.4456939569 20.7118681036 -0.0031714560116 -0.00183062560216 -0.00370187463762
Te 2.10710915 6.0574707661 20.7118681036 -0 0.00366176542499 -0.00370187463762
Te 4.192368998 2.4456942269 20.7118676736 0.0031714560116 -0.00183062560216 -0.00370187463762
Te -2.10710915 6.08269963 20.7544721206 0 -2.57110337382e-07 -0.00148352664669
Sb 0.025258977 2.4476613929 8.2394778815 0.0104507638836 0.00603412250801 -0.0235973296545
Sb 2.10711038 6.0535337642 8.2394778815 -2.57110337382e-07 -0.0120677307953 -0.0235975867649
Sb 4.188958843 2.4476630829 8.2394782715 -0.0104507638836 0.00603386539767 -0.0235975867649
Sb -2.10711038 6.08270034 9.2152931651 2.57110337382e-07 -2.57110337382e-07 0.000282307150445
Sb 0.0021501934 2.4343186417 1.8568702924 0.00230165174024 0.00132926044426 0.0167396827359
Sb 2.10711114 6.0802179465 1.8568702924 -2.57110337382e-07 -0.00265774955751 0.0167396827359
Sb 4.2120676366 2.4343212117 1.8568705824 -0.00230165174024 0.00132900333393 0.0167394256256
Sb -2.10711114 6.08270078 1.8732058548 2.57110337382e-07 -2.57110337382e-07 0.0168204153818
Sb 0.0114559473 -0.0066140998 18.9091831989 -0.00151232300448 0.000873146705748 -0.0204307587394
Sb 2.10710819 3.64962011 18.8370712581 0 -2.57110337382e-07 0.00223223194915
Sb 4.2027618827 -0.0066149398 18.9091834489 0.00151232300448 0.000873403816085 -0.0204307587394
Sb 6.32132747 3.6628483097 18.9091834489 -0 -0.00174655052183 -0.020430501629
Sb 0.0004458091 -0.0002573892 11.6912685928 0.00109477581657 -0.000632234319621 0.0225172091272
Sb 2.10710964 3.64961928 14.6293326594 0 -0 -0.107945204046
Sb 4.2137720109 -0.0002565492 11.6912683528 -0.00109477581657 -0.000632234319621 0.0225169520169
Sb -2.10710964 3.6501340583 11.6912683528 0 0.00126395441857 0.0225169520169
Sb 2.10710669 1.213660982 29.2200253274 2.57110337382e-07 -1.79977236167e-05 -0.0157073847313
Sb 4.2167099286 4.867600984 29.2200253274 1.59408409177e-05 8.74175147098e-06 -0.0157073847313
Sb 6.32132897 1.21653861 29.2571036497 -2.57110337382e-07 2.57110337382e-07 -0.0169960217423
Sb -0.0024920986 4.867598404 29.2200250374 -1.59408409177e-05 9.25597214574e-06 -0.015707127621
Sb 2.10710745 1.2294981234 22.5492731704 2.57110337382e-07 0.000221114890148 0.0163072231484
Sb 4.202994944 4.8596817483 22.5492731704 -0.000191290091012 -0.000110814555411 0.0163074802588
Sb 6.32132821 1.21653905 22.5239479797 -2.57110337382e-07 2.57110337382e-07 0.0191588339003
Sb 0.011222886 4.8596800583 22.5492727804 0.000191290091012 -0.000110557445074 0.0163074802588
Cr 2.10710897 3.64961966 13.2181229661 -0 -0 0.0843987822386
61
Lattice="8.42843558953 0 0 -4.21421779477 7.29923593142 0 0 0 31.0334408416" Properties=species:S:1:pos:R:3:forces:R:3 energy=-133598.21166 ionic_step=22 pbc="T T T"
Te 2.1071096 1.2244418997 3.4623738613 -2.57110337382e-07 -0.0107045317865 0.0015922843194
Te 4.2073748347 4.8622080002 3.4623738613 0.00927062743497 0.00535226589327 0.0015922843194
Te 6.32132606 1.21654029 3.4624148885 2.57110337382e-07 0 0.0590947541645
Te 0.0068429953 4.8622087902 3.4623738713 -0.00927062743497 0.00535200878294 0.0015922843194
Te 0.4664069036 -0.2692802747 7.1776170888 -0.0077948140984 0.00450071645587 -0.0263023875141
Te 2.10710848 3.64961994 6.6030189209 2.57110337382e-07 -2.57110337382e-07 -0.000391064823157
Te 3.7478109164 -0.2692807747 7.1776168988 0.0077948140984 0.00450071645587 -0.0263021304038
Te -2.10710848 4.1881804994 7.1776168988 -0 -0.00900066158072 -0.0263021304038
Te 0.0133784905 -0.0077240837 0.0249586192 -0.00321747876199 0.00185787929792 0.00125804088081
Te 2.10710891 3.6496197 0.0040240371 -0 -2.57110337382e-07 0.00323033427886
Te 4.2008393295 -0.0077240837 0.0249586192 0.00321747876199 0.00185787929792 0.00125804088081
Te -2.10710891 3.6650678575 0.0249586192 0 -0.0037155014855 0.00125804088081
Te -0.277067735 2.2731148426 13.5618456555 0.0179540148594 0.0103659174722 0.0302585442754
Te 2.1071087 6.4026297849 13.5618456555 0 -0.0207315778341 0.0302585442754
Te 4.491285565 2.2731145926 13.5618460455 -0.0179540148594 0.0103659174722 0.0302585442754
Te -2.1071087 6.08269937 13.3029879057 -0 -2.57110337382e-07 0.0742562936495
Te 2.10710913 1.1499006586 17.2931036311 -0 0.00517768797419 -0.0336048353165
Te 4.2719291798 4.8994790257 17.2931036311 -0.00448400428394 -0.0025888439871 -0.0336048353165
Te 6.32132652 1.21654002 17.3170261304 0 2.57110337382e-07 -0.0132308979617
Te -0.0577113498 4.8994792757 17.2931032411 0.00448400428394 -0.0025888439871 -0.0336045782061
Te 2.10710868 1.6687434669 10.281833527 0 -0.000709624531173 -0.00682653656782
Te 3.8225981085 4.6400580116 10.281833527 0.000614493706342 0.000354555155249 -0.00682627945748
Te 6.32132698 1.21653976 9.8843264597 -0 2.57110337382e-07 0.00915724177618
Te 0.3916197115 4.6400577416 10.281833957 -0.000614493706342 0.000354555155249 -0.00682627945748
Te -0.028865955 0.016665773 24.1269710924 0.00824167186477 -0.00475808390358 0.00517434553981
Te 2.10710934 3.64961945 24.1700668974 -2.57110337382e-07 -2.57110337382e-07 0.00490283702353
Te 4.243083785 0.016666273 24.1269712824 -0.00824167186477 -0.00475808390358 0.00517434553981
Te -2.10710934 3.6162878939 24.1269712824 2.57110337382e-07 0.00951642491751 0.00517434553981
Te -0.0190384356 2.4220887341 27.6374196789 0.00525456396507 0.00303364487077 -0.00395178588556
Te 2.10710823 6.1046828018 27.6374196789 2.57110337382e-07 -0.00606754685187 -0.00395178588556
Te 4.2332562656 2.4220879441 27.6374196689 -0.00525456396507 0.0030339019811 -0.00395178588556
Te -2.10710823 6.0826991 27.6169975576 -2.57110337382e-07 -0 -0.00773824982417
Te 0.0298323609 2.4503032574 20.7201995624 -0.00544765382844 -0.00314471653651 -0.00521676874547
Te 2.10710915 6.0482521652 20.7201995624 -0 0.00629020440404 -0.00521676874547
Te 4.1843854591 2.4503035274 20.7201991324 0.00544765382844 -0.00314497364685 -0.00521676874547
Te -2.10710915 6.08269963 20.7645958612 0 -2.57110337382e-07 -0.000788300294412
Sb 0.0247535713 2.4473695967 8.1814150784 0.00901788797332 0.00520699855265 -0.0259766287167
Sb 2.10711038 6.0541173567 8.1814150784 -2.57110337382e-07 -0.0104132257743 -0.0259766287167
Sb 4.1894642487 2.4473712867 8.1814154684 -0.00901788797332 0.00520674144232 -0.0259766287167
Sb -2.10711038 6.08270034 9.3062594343 2.57110337382e-07 -2.57110337382e-07 -0.000151695099055
Sb 0.0021646791 2.4343270051 1.8728366849 0.00269837299082 0.00155834575487 0.0162033505721
Sb 2.10711114 6.0802012198 1.8728366849 -2.57110337382e-07 -0.00311592017873 0.0162033505721
Sb 4.2120531509 2.4343295751 1.8728369749 -0.00269837299082 0.00155808864453 0.0162030934618
Sb -2.10711114 6.08270078 1.885552964 2.57110337382e-07 -2.57110337382e-07 0.0161488431806
Sb 0.0110451031 -0.0063768987 18.9087808168 -0.00106983611384 0.000617579030391 -0.0191817167204
Sb 2.10710819 3.64962011 18.8177492836 0 -2.57110337382e-07 0.00589219760177
Sb 4.2031727269 -0.0063777387 18.9087810668 0.00106983611384 0.000617836140728 -0.0191817167204
Sb 6.32132747 3.6623739074 18.9087810668 -0 -0.00123541517112 -0.01918145961
Sb -0.0127977357 0.0073887785 11.6706212324 0.00294879845943 -0.00170258465414 0.0216929133856
Sb 2.10710964 3.64961928 14.6595570228 0 -0 -0.105677490871
Sb 4.2270155557 0.0073896185 11.6706209924 -0.00294879845943 -0.00170258465414 0.0216929133856
Sb -2.10710964 3.634841723 11.6706209924 0 0.00340491219794 0.0216929133856
Sb 2.10710669 1.2137664093 29.2112534308 2.57110337382e-07 8.92172870714e-05 -0.0148481219838
Sb 4.2166186259 4.8675482703 29.2112534308 -7.71331012145e-05 -4.49943090418e-05 -0.0148481219838
Sb 6.32132897 1.21653861 29.2557638465 -2.57110337382e-07 2.57110337382e-07 -0.0162133778753
Sb -0.0024007959 4.8675456903 29.2112531408 7.71331012145e-05 -4.4480088367e-05 -0.0148478648735
Sb 2.10710745 1.2299287285 22.5727682407 2.57110337382e-07 0.000644575615816 0.0151299149136
Sb 4.2026220292 4.8594664458 22.5727682407 -0.000558186542456 -0.000322673473414 0.0151301720239
Sb 6.32132821 1.21653905 22.5286202122 -2.57110337382e-07 2.57110337382e-07 0.0191243811151
Sb 0.0115958008 4.8594647558 22.5727678507 0.000558186542456 -0.000322416363077 0.0151301720239
Cr 2.10710897 3.64961966 13.2468501164 -0 -0 0.0861805568766
61
Lattice="8.42843558953 0 0 -4.21421779477 7.29923593142 0 0 0 31.0334408416" Properties=species:S:1:pos:R:3:forces:R:3 energy=-133598.234688 ionic_step=23 pbc="T T T"
Te 2.1071096 1.2215691968 3.4744914866 -2.57110337382e-07 -0.00938272754207 -0.000753333288528
Te 4.2098626672 4.8636443516 3.4744914866 0.00812571510261 0.00469123521587 -0.000753076178191
Te 6.32132606 1.21654029 3.4740056496 2.57110337382e-07 0 0.0590119646358
Te 0.0043551628 4.8636451416 3.4744914966 -0.00812571510261 0.00469097810553 -0.000753333288528
Te 0.4743407334 -0.2738608756 7.1724792234 -0.00715460935832 0.00413099179071 -0.0246190861353
Te 2.10710848 3.64961994 6.5582647399 2.57110337382e-07 -2.57110337382e-07 0.00368104870029
Te 3.7398770866 -0.2738613756 7.1724790334 0.00715435224798 0.00413099179071 -0.024618829025
Te -2.10710848 4.1973417012 7.1724790334 -0 -0.00826146936075 -0.0246190861353
Te 0.012535004 -0.0072370964 0.0258475587 -0.00294108514931 0.00169821377841 0.00157814325085
Te 2.10710891 3.6496197 0.0045644607 -0 -2.57110337382e-07 0.00417470054807
Te 4.201682816 -0.0072370964 0.0258475587 0.00294108514931 0.00169821377841 0.00157814325085
Te -2.10710891 3.6640938828 0.0258475587 0 -0.00339642755681 0.00157814325085
Te -0.286238484 2.2678201057 13.5673358383 0.0166306679529 0.00960178554952 0.0281736365496
Te 2.1071087 6.4132192586 13.5673358383 0 -0.0192033139887 0.0281736365496
Te 4.500456314 2.2678198557 13.5673362283 -0.0166306679529 0.00960178554952 0.0281733794393
Te -2.1071087 6.08269937 13.2971925363 -0 -2.57110337382e-07 0.0760804914932
Te 2.10710913 1.1421859637 17.2860957364 -0 0.00730681867805 -0.0329733723278
Te 4.2786102985 4.9033363731 17.2860957364 -0.0063277425133 -0.00365328078386 -0.0329733723278
Te 6.32132652 1.21654002 17.3089845011 0 2.57110337382e-07 -0.00950099829726
Te -0.0643924685 4.9033366231 17.2860953464 0.00632748540296 -0.00365353789419 -0.0329733723278
Te 2.10710868 1.6664680407 10.2851764016 0 0.000222143331498 -0.0084640723066
Te 3.8245686845 4.6411957247 10.2851764016 -0.000192318532361 -0.000111328776086 -0.00846381519627
Te 6.32132698 1.21653976 9.8625414529 -0 2.57110337382e-07 0.0110192348395
Te 0.3896491355 4.6411954547 10.2851768316 0.000192318532361 -0.000111328776086 -0.00846381519627
Te -0.0330553155 0.0190845026 24.1377317665 0.00960409954255 -0.00554458442563 0.00295034112145
Te 2.10710934 3.64961945 24.1831060001 -2.57110337382e-07 -2.57110337382e-07 0.00290534681241
Te 4.2472731455 0.0190850026 24.1377319565 -0.00960409954255 -0.00554484153597 0.00295034112145
Te -2.10710934 3.6114504348 24.1377319565 2.57110337382e-07 0.0110896830719 0.00295034112145
Te -0.0192285746 2.4219789572 27.6309682561 0.00534172436944 0.00308403849689 -0.00164653460059
Te 2.10710823 6.1049023556 27.6309682561 2.57110337382e-07 -0.00616807699379 -0.00164653460059
Te 4.2334464046 2.4219781672 27.6309682461 -0.00534172436944 0.00308429560723 -0.00164653460059
Te -2.10710823 6.0826991 27.6087203032 -2.57110337382e-07 -0 -0.00562660262326
Te 0.0335385732 2.4524430411 20.723791265 -0.00649923510833 -0.00375201115341 -0.00574435915778
Te 2.10710915 6.0439725978 20.723791265 -0 0.00750427941716 -0.00574435915778
Te 4.1806792468 2.4524433111 20.723790835 0.00649923510833 -0.00375201115341 -0.00574435915778
Te -2.10710915 6.08269963 20.7671858312 0 -2.57110337382e-07 7.07053427799e-05
Sb 0.0234033511 2.4465900463 8.1610676533 0.00833834535162 0.00481464817781 -0.0265145035425
Sb 2.10711038 6.0556764574 8.1610676533 -2.57110337382e-07 -0.0096285250246 -0.0265145035425
Sb 4.1908144689 2.4465917363 8.1610680433 -0.00833860246196 0.00481439106747 -0.0265145035425
Sb -2.10711038 6.08270034 9.3381134707 2.57110337382e-07 -2.57110337382e-07 0.000323444804426
Sb 0.0022804342 2.4343938363 1.8834154848 0.00284723987616 0.00164422060756 0.0157436372889
Sb 2.10711114 6.0800675573 1.8834154848 -2.57110337382e-07 -0.0032876698841 0.0157436372889
Sb 4.2119373958 2.4343964063 1.8834157748 -0.00284723987616 0.00164396349722 0.0157433801786
Sb -2.10711114 6.08270078 1.8934975538 2.57110337382e-07 -2.57110337382e-07 0.0154911549376
Sb 0.0110818009 -0.0063980862 18.9026106348 -0.000823781520971 0.000475654124156 -0.0184767201753
Sb 2.10710819 3.64962011 18.8037855395 0 -2.57110337382e-07 0.00773465027945
Sb 4.2031360291 -0.0063989262 18.9026108848 0.000823781520971 0.000475911234493 -0.0184764630649
Sb 6.32132747 3.6624162824 18.9026108848 -0 -0.000951308248312 -0.0184764630649
Sb -0.0185307919 0.0106987616 11.6760212004 0.00341159706672 -0.00196972229468 0.0208598758924
Sb 2.10710964 3.64961928 14.6618338167 0 -0 -0.105438378257
Sb 4.2327486119 0.0106996016 11.6760209604 -0.00341159706672 -0.00196972229468 0.0208598758924
Sb -2.10710964 3.6282217568 11.6760209604 0 0.00393918747902 0.0208598758924
Sb 2.10710669 1.2140507968 29.203141043 2.57110337382e-07 0.000143210457922 -0.0141274417081
Sb 4.2163723392 4.8674060766 29.203141043 -0.000123927182618 -7.19908944669e-05 -0.0141271845978
Sb 6.32132897 1.21653861 29.2509396863 -2.57110337382e-07 2.57110337382e-07 -0.0154721287726
Sb -0.0021545092 4.8674034966 29.203140753 0.000123927182618 -7.14766737921e-05 -0.0141271845978
Sb 2.10710745 1.2295029032 22.5860221237 2.57110337382e-07 0.000879317353845 0.0141040446674
Sb 4.2029908046 4.8596793584 22.5860221237 -0.000761303708987 -0.00043991578726 0.0141043017777
Sb 6.32132821 1.21653905 22.5303169197 -2.57110337382e-07 2.57110337382e-07 0.018585477848
Sb 0.0112270254 4.8596776684 22.5860217337 0.000761303708987 -0.000439658676923 0.0141043017777
Cr 2.10710897 3.64961966 13.2461666603 -0 -0 0.0866862929102
61
Lattice="8.42843558953 0 0 -4.21421779477 7.29923593142 0 0 0 31.0334408416" Properties=species:S:1:pos:R:3:forces:R:3 energy=-133598.250739 ionic_step=24 pbc="T T T"
Te 2.1071096 1.2195973073 3.4782387808 -2.57110337382e-07 -0.00875872075324 -0.000908113711632
Te 4.2115703728 4.8646302964 3.4782387808 0.00758526917343 0.00437936037662 -0.000908113711632
Te 6.32132606 1.21654029 3.4772102986 2.57110337382e-07 0 0.0593415800884
Te 0.0026474572 4.8646310864 3.4782387908 -0.00758526917343 0.00437910326628 -0.000908113711632
Te 0.4819753619 -0.2782687325 7.1765772893 -0.00617013387648 0.00356252083476 -0.0248075480126
Te 2.10710848 3.64961994 6.5319482166 2.57110337382e-07 -2.57110337382e-07 0.0047740247445
Te 3.7322424581 -0.2782692325 7.1765770993 0.00617013387648 0.0035627779451 -0.0248072909023
Te -2.10710848 4.206157415 7.1765770993 -0 -0.00712478455918 -0.0248075480126
Te 0.0119646539 -0.0069078044 0.0272476027 -0.002751851941 0.00158894188502 0.00157248682343
Te 2.10710891 3.6496197 0.0055180334 -0 -2.57110337382e-07 0.00460716013554
Te 4.2022531661 -0.0069078044 0.0272476027 0.002751851941 0.00158894188502 0.00157248682343
Te -2.10710891 3.6634352988 0.0272476027 0 -0.00317788377004 0.00157248682343
Te -0.2835215915 2.269388705 13.5638352642 0.0165499353069 0.00955524857845 0.0284274044526
Te 2.1071087 6.4100820599 13.5638352642 0 -0.0191102400466 0.0284274044526
Te 4.4977394215 2.269388455 13.5638356542 -0.0165499353069 0.00955524857845 0.0284274044526
Te -2.1071087 6.08269937 13.2809158408 -0 -2.57110337382e-07 0.077250857749
Te 2.10710913 1.1358624103 17.2858773185 -0 0.00908705065408 -0.0334819365752
Te 4.2840866538 4.9064981498 17.2858773185 -0.00786937609624 -0.00454339677187 -0.0334819365752
Te 6.32132652 1.21654002 17.3103461377 0 2.57110337382e-07 -0.00998076618682
Te -0.0698688238 4.9064983998 17.2858769285 0.00786937609624 -0.00454365388221 -0.0334819365752
Te 2.10710868 1.6749085594 10.282881817 0 0.00269168812205 -0.00989283445143
Te 3.8172589843 4.6369754653 10.282881817 -0.0023309623187 -0.00134597261619 -0.0098925773411
Te 6.32132698 1.21653976 9.8512496154 -0 2.57110337382e-07 0.0120798149812
Te 0.3969588357 4.6369751953 10.282882247 0.0023309623187 -0.00134597261619 -0.0098925773411
Te -0.0369659674 0.0213423196 24.1417883309 0.0108284589692 -0.00625163785343 0.00235821601446
Te 2.10710934 3.64961945 24.1897689463 -2.57110337382e-07 -2.57110337382e-07 0.00227105561009
Te 4.2511837975 0.0213428196 24.1417885209 -0.0108284589692 -0.00625189496377 0.00235821601446
Te -2.10710934 3.6069348009 24.1417885209 2.57110337382e-07 0.0125035328172 0.00235821601446
Te -0.0193023685 2.4219363523 27.6306856005 0.00535817943103 0.00309355157938 -0.000909142152981
Te 2.10710823 6.1049875654 27.6306856005 2.57110337382e-07 -0.00618710315875 -0.000909142152981
Te 4.2335201985 2.4219355623 27.6306855905 -0.00535817943103 0.00309380868971 -0.000909142152981
Te -2.10710823 6.0826991 27.6074785813 -2.57110337382e-07 -0 -0.0052843887642
Te 0.0362430544 2.4540044748 20.7256605789 -0.00710524417354 -0.00410168121225 -0.0058538881615
Te 2.10710915 6.0408497305 20.7256605789 -0 0.00820387664517 -0.0058538881615
Te 4.1779747656 2.4540047448 20.7256601489 0.00710524417354 -0.00410193832259 -0.0058538881615
Te -2.10710915 6.08269963 20.7702969895 0 -2.57110337382e-07 0.000835351486153
Sb 0.0264774673 2.4483648889 8.1492834734 0.00771459567314 0.00445443659514 -0.0267813840727
Sb 2.10711038 6.0521267721 8.1492834734 -2.57110337382e-07 -0.0089083589696 -0.0267813840727
Sb 4.1877403527 2.4483665789 8.1492838634 -0.00771485278347 0.0044541794848 -0.0267813840727
Sb -2.10711038 6.08270034 9.3613703861 2.57110337382e-07 -2.57110337382e-07 0.000776216108555
Sb 0.0023024667 2.4344065568 1.8881346119 0.00296602485203 0.00171286906764 0.0156757601598
Sb 2.10711114 6.0800421164 1.8881346119 -2.57110337382e-07 -0.00342496680426 0.0156760172702
Sb 4.2119153633 2.4344091268 1.8881349019 -0.00296602485203 0.0017126119573 0.0156757601598
Sb -2.10711114 6.08270078 1.8961298419 2.57110337382e-07 -2.57110337382e-07 0.0153111777014
Sb 0.0108705018 -0.0062760926 18.9020705833 -0.000626835002536 0.000362011355033 -0.0183381377034
Sb 2.10710819 3.64962011 18.7973505325 0 -2.57110337382e-07 0.00867181745921
Sb 4.2033473282 -0.0062769326 18.9020708333 0.000626835002536 0.000362011355033 -0.0183378805931
Sb 6.32132747 3.6621722951 18.9020708333 -0 -0.000724022710067 -0.0183378805931
Sb -0.0204990616 0.0118351432 11.6692599927 0.00374789738801 -0.0021638405994 0.02078942766
Sb 2.10710964 3.64961928 14.6777759983 0 -0 -0.104292180373
Sb 4.2347168816 0.0118359832 11.6692597527 -0.00374789738801 -0.0021638405994 0.02078942766
Sb -2.10710964 3.6259489937 11.6692597527 0 0.00432742408847 0.02078942766
Sb 2.10710669 1.2143633126 29.2013854902 2.57110337382e-07 0.00017972012583 -0.013868274488
Sb 4.2161016927 4.8672498187 29.2013854902 -0.000155294643779 -8.99886180836e-05 -0.013868274488
Sb 6.32132897 1.21653861 29.2513437248 -2.57110337382e-07 2.57110337382e-07 -0.015178251657
Sb -0.0018838627 4.8672472387 29.2013852002 0.000155294643779 -8.97315077462e-05 -0.0138680173777
Sb 2.10710745 1.2295461558 22.5904948757 2.57110337382e-07 0.00101327183962 0.0136620719974
Sb 4.2029533467 4.8596577321 22.5904948757 -0.000877260471146 -0.000506764474979 0.0136623291078
Sb 6.32132821 1.21653905 22.5273975711 -2.57110337382e-07 2.57110337382e-07 0.0185145153949
Sb 0.0112644833 4.8596560421 22.5904944857 0.000877260471146 -0.000506507364642 0.0136623291078
Cr 2.10710897 3.64961966 13.2614405957 -0 -0 0.087368149525
61
Lattice="8.42843558953 0 0 -4.21421779477 7.29923593142 0 0 0 31.0334408416" Properties=species:S:1:pos:R:3:forces:R:3 energy=-133598.273639 ionic_step=25 pbc="T T T"
Te 2.1071096 1.216630277 3.4825897976 -2.57110337382e-07 -0.00761560819324 -0.00143647545495
Te 4.2141398952 4.8661138115 3.4825897976 0.00659539437451 0.00380780409662 -0.00143647545495
Te 6.32132606 1.21654029 3.4806185194 2.57110337382e-07 0 0.0594104856588
Te 7.79348e-05 4.8661146015 3.4825898076 -0.00659539437451 0.00380754698628 -0.00143647545495
Te 0.4803827833 -0.2773492564 7.1749531786 -0.00654320097603 0.00377797929749 -0.0241922829752
Te 2.10710848 3.64961994 6.503000041 2.57110337382e-07 -2.57110337382e-07 0.0059467049933
Te 3.7338350367 -0.2773497564 7.1749529886 0.00654320097603 0.00377797929749 -0.0241922829752
Te -2.10710848 4.2043184627 7.1749529886 -0 -0.0075554443743 -0.0241922829752
Te 0.0107746474 -0.0062207536 0.0289897364 -0.00238007039314 0.0013742547533 0.00145370184756
Te 2.10710891 3.6496197 0.0071575918 -0 -2.57110337382e-07 0.00507124429452
Te 4.2034431726 -0.0062207536 0.0289897364 0.00238007039314 0.0013742547533 0.00145370184756
Te -2.10710891 3.6620611971 0.0289897364 0 -0.00274850950661 0.00145370184756
Te -0.2777602282 2.2727150312 13.561336016 0.0168718374493 0.00974113935238 0.0291665966726
Te 2.1071087 6.4034294075 13.561336016 0 -0.0194820215944 0.0291665966726
Te 4.4919780582 2.2727147812 13.561336406 -0.0168718374493 0.00974113935238 0.0291665966726
Te -2.1071087 6.08269937 13.2669646332 -0 -2.57110337382e-07 0.0777236836595
Te 2.10710913 1.1283103333 17.2848398245 -0 0.0110228343842 -0.0336963665966
Te 4.2906269413 4.9102741883 17.2848398245 -0.00954599260631 -0.00551141719211 -0.0336963665966
Te 6.32132652 1.21654002 17.3136163598 0 2.57110337382e-07 -0.0110107501984
Te -0.0764091113 4.9102744383 17.2848394345 0.00954599260631 -0.00551141719211 -0.0336963665966
Te 2.10710868 1.6817082506 10.2816565026 0 0.00475551280021 -0.011899837745
Te 3.8113702817 4.6335756197 10.2816565026 -0.00411839338418 -0.00237801351044 -0.0118995806347
Te 6.32132698 1.21653976 9.8486334987 -0 2.57110337382e-07 0.0128848274475
Te 0.4028475383 4.6335753497 10.2816569326 0.00411839338418 -0.00237801351044 -0.011899837745
Te -0.0423811434 0.0244687743 24.1472650684 0.0125194736581 -0.00722788580447 0.00146861424712
Te 2.10710934 3.64961945 24.1981266096 -2.57110337382e-07 -2.57110337382e-07 0.0012572695498
Te 4.2565989734 0.0244692743 24.1472652584 -0.0125194736581 -0.00722788580447 0.00146861424712
Te -2.10710934 3.6006818914 24.1472652584 2.57110337382e-07 0.0144560287193 0.00146861424712
Te -0.0188851792 2.4221772167 27.6297080982 0.00523836601381 0.00302438889862 0.000193604084048
Te 2.10710823 6.1045058365 27.6297080982 2.57110337382e-07 -0.00604903490758 0.000193604084048
Te 4.2331030092 2.4221764267 27.6297080882 -0.00523836601381 0.00302464600896 0.000193604084048
Te -2.10710823 6.0826991 27.6056865433 -2.57110337382e-07 -0 -0.00473725796626
Te 0.0393552997 2.4558013312 20.7269620294 -0.00774056381721 -0.00446857766369 -0.00570296439346
Te 2.10710915 6.0372560175 20.7269620294 -0 0.00893766954806 -0.00570296439346
Te 4.1748625203 2.4558016012 20.7269615994 0.00774056381721 -0.00446857766369 -0.00570296439346
Te -2.10710915 6.08269963 20.7730559094 0 -2.57110337382e-07 0.00203554254105
Sb 0.0322439851 2.4516941911 8.1430047898 0.00689441369689 0.00398109646402 -0.0266656844209
Sb 2.10711038 6.0454681678 8.1430047898 -2.57110337382e-07 -0.00796116448668 -0.0266656844209
Sb 4.1819738349 2.4516958811 8.1430051798 -0.00689441369689 0.00398083935368 -0.0266656844209
Sb -2.10711038 6.08270034 9.3706952686 2.57110337382e-07 -2.57110337382e-07 0.000926625655923
Sb 0.0023630672 2.4344415445 1.8943085904 0.00306706921463 0.00177123311422 0.015557746515
Sb 2.10711114 6.0799721409 1.8943085904 -2.57110337382e-07 -0.00354169489743 0.0155580036253
Sb 4.2118547628 2.4344441145 1.8943088804 -0.00306706921463 0.00177097600388 0.015557746515
Sb -2.10711114 6.08270078 1.8989709642 2.57110337382e-07 -2.57110337382e-07 0.0150283563303
Sb 0.0103105752 -0.0059528186 18.899606931 -0.00034658473479 0.00020028895282 -0.0182892867393
Sb 2.10710819 3.64962011 18.7882044636 0 -2.57110337382e-07 0.00954907793035
Sb 4.2039072548 -0.0059536586 18.899607181 0.00034658473479 0.00020028895282 -0.018289029629
Sb 6.32132747 3.6615257473 18.899607181 -0 -0.000400577905641 -0.018289029629
Sb -0.0213959434 0.0123529584 11.6689684171 0.00379854812448 -0.00219315117787 0.0205909384795
Sb 2.10710964 3.64961928 14.6874501042 0 -0 -0.103735279382
Sb 4.2356137634 0.0123537984 11.6689681771 -0.00379854812448 -0.00219315117787 0.0205909384795
Sb -2.10710964 3.6249133632 11.6689681771 0 0.00438604524539 0.0205909384795
Sb 2.10710669 1.2148305567 29.1986539783 2.57110337382e-07 0.000237312841403 -0.013509348457
Sb 4.2156970476 4.8670161966 29.1986539783 -0.000205174049231 -0.00011878497587 -0.013509348457
Sb 6.32132897 1.21653861 29.2505997919 -2.57110337382e-07 2.57110337382e-07 -0.0147187954841
Sb -0.0014792176 4.8670136166 29.1986536883 0.000205174049231 -0.000118527865533 -0.0135090913467
Sb 2.10710745 1.2291886937 22.5948480395 2.57110337382e-07 0.00120893280637 0.0130236670297
Sb 4.2032629178 4.8598364631 22.5948480395 -0.00104669618348 -0.000604723513522 0.0130236670297
Sb 6.32132821 1.21653905 22.5222653467 -2.57110337382e-07 2.57110337382e-07 0.0183275961796
Sb 0.0109549122 4.8598347731 22.5948476495 0.00104669618348 -0.000604466403184 0.0130239241401
Cr 2.10710897 3.64961966 13.2696875009 -0 -0 0.0878515169593
61
Lattice="8.42843558953 0 0 -4.21421779477 7.29923593142 0 0 0 31.0334408416" Properties=species:S:1:pos:R:3:forces:R:3 energy=-133598.302959 ionic_step=26 pbc="T T T"
Te 2.1071096 1.211202851 3.4894399686 -2.57110337382e-07 -0.00546153778666 -0.00216332637873
Te 4.2188401818 4.8688275245 3.4894399686 0.00473005887681 0.00273076889333 -0.00216332637873
Te 6.32132606 1.21654029 3.4859897121 2.57110337382e-07 0 0.0593685766738
Te -0.0046223518 4.8688283145 3.4894399786 -0.00472980176647 0.00273051178299 -0.00216332637873
Te 0.4728997206 -0.2730289061 7.1708794732 -0.00779969919481 0.00450328755924 -0.0229851499412
Te 2.10710848 3.64961994 6.4595777776 2.57110337382e-07 -2.57110337382e-07 0.00709367420836
Te 3.7413180994 -0.2730294061 7.1708792832 0.00779944208447 0.00450328755924 -0.0229851499412
Te -2.10710848 4.1956777622 7.1708792832 -0 -0.00900631800814 -0.0229851499412
Te 0.0084941516 -0.004904108 0.0321578439 -0.00167918761344 0.000969820192604 0.00114954031843
Te 2.10710891 3.6496197 0.0104643597 -0 -2.57110337382e-07 0.00577829772231
Te 4.2057236684 -0.004904108 0.0321578439 0.00167918761344 0.000969820192604 0.00114954031843
Te -2.10710891 3.6594279061 0.0321578439 0 -0.00193938327487 0.00114954031843
Te -0.2649370217 2.2801185164 13.5587457634 0.0177897213538 0.0102707866474 0.0305850744039
Te 2.1071087 6.3886224371 13.5587457634 0 -0.0205415732948 0.0305850744039
Te 4.4791548517 2.2801182664 13.5587461534 -0.0177897213538 0.0102710437577 0.0305848172936
Te -2.1071087 6.08269937 13.2458411694 -0 -2.57110337382e-07 0.0777943890022
Te 2.10710913 1.1157318704 17.2830419959 -0 0.0139523495684 -0.0337765850218
Te 4.3015202047 4.9165634198 17.2830419959 -0.0120829003052 -0.00697617478418 -0.0337765850218
Te 6.32132652 1.21654002 17.3206926104 0 2.57110337382e-07 -0.0131447659986
Te -0.0873023747 4.9165636698 17.2830416059 0.0120829003052 -0.00697617478418 -0.0337763279115
Te 2.10710868 1.6922168127 10.2784172855 0 0.00782258201484 -0.0150725793083
Te 3.8022696043 4.6283213387 10.2784172855 -0.00677460027967 -0.00391141956259 -0.015072322198
Te 6.32132698 1.21653976 9.8505467803 -0 2.57110337382e-07 0.0142392847049
Te 0.4119482157 4.6283210687 10.2784177155 0.00677460027967 -0.00391141956259 -0.015072322198
Te -0.052698617 0.0304255733 24.155992472 0.0156492777951 -0.00903485725559 1.54266202429e-06
Te 2.10710934 3.64961945 24.2120214218 -2.57110337382e-07 -2.57110337382e-07 -0.000503422040593
Te 4.266916447 0.0304260733 24.155992662 -0.0156492777951 -0.00903511436593 1.28555168691e-06
Te -2.10710934 3.5887682934 24.155992662 2.57110337382e-07 0.0180699716215 1.28555168691e-06
Te -0.0177647518 2.4228240961 27.6281719597 0.00491414987838 0.00283721257301 0.0020620249058
Te 2.10710823 6.1032120778 27.6281719597 2.57110337382e-07 -0.00567442514601 0.0020620249058
Te 4.2319825818 2.4228233061 27.6281719497 -0.00491414987838 0.00283746968334 0.0020620249058
Te -2.10710823 6.0826991 27.6030287582 -2.57110337382e-07 -0 -0.00398701000178
Te 0.0449841989 2.4590511792 20.7282679351 -0.00885565135044 -0.0051123819485 -0.00528695986758
Te 2.10710915 6.0307563215 20.7282679351 -0 0.0102252781177 -0.00528695986758
Te 4.1692336211 2.4590514492 20.7282675051 0.00885565135044 -0.0051123819485 -0.00528695986758
Te -2.10710915 6.08269963 20.7777987975 0 -2.57110337382e-07 0.00413613399746
Sb 0.0443552252 2.4586866221 8.1374714008 0.00542708500145 0.00313391790234 -0.0262679347289
Sb 2.10711038 6.0314833059 8.1374714008 -2.57110337382e-07 -0.00626706447368 -0.0262679347289
Sb 4.1698625948 2.4586883121 8.1374717908 -0.00542734211179 0.00313366079201 -0.0262679347289
Sb -2.10711038 6.08270034 9.370075805 2.57110337382e-07 -2.57110337382e-07 0.000552530115033
Sb 0.0024945988 2.4345174844 1.9041977876 0.00321156522423 0.00185453686353 0.0154369046564
Sb 2.10711114 6.0798202612 1.9041977876 -2.57110337382e-07 -0.00370855950639 0.0154369046564
Sb 4.2117232312 2.4345200544 1.9041980776 -0.00321156522423 0.0018542797532 0.0154366475461
Sb -2.10711114 6.08270078 1.902355749 2.57110337382e-07 -2.57110337382e-07 0.0146532323481
Sb 0.0090542721 -0.0052274914 18.8964166939 0.000160693960864 -9.28168317948e-05 -0.0183502218893
Sb 2.10710819 3.64962011 18.7722168651 0 -2.57110337382e-07 0.0107191870758
Sb 4.2051635579 -0.0052283314 18.8964169439 -0.000160693960864 -9.25597214574e-05 -0.0183502218893
Sb 6.32132747 3.6600750928 18.8964169439 -0 0.000185376553252 -0.0183502218893
Sb -0.0219701054 0.0126844511 11.6704046169 0.0037113877201 -0.00214275755174 0.0203091455498
Sb 2.10710964 3.64961928 14.6978499542 0 -0 -0.103298963139
Sb 4.2361879254 0.0126852911 11.6704043769 -0.0037113877201 -0.00214275755174 0.0203091455498
Sb -2.10710964 3.6242503777 11.6704043769 0 0.00428551510348 0.0203091455498
Sb 2.10710669 1.2155893672 29.1951797856 2.57110337382e-07 0.000363811127395 -0.0129933280099
Sb 4.2150398988 4.8666367914 29.1951797856 -0.000314960163292 -0.000182034118866 -0.0129933280099
Sb 6.32132897 1.21653861 29.2497344042 -2.57110337382e-07 2.57110337382e-07 -0.0139762608297
Sb -0.0008220688 4.8666342114 29.1951794956 0.000314960163292 -0.000181777008529 -0.0129930708996
Sb 2.10710745 1.2283870324 22.600839166 2.57110337382e-07 0.00159536964345 0.0120152802865
Sb 4.2039571766 4.8602372938 22.600839166 -0.00138145384275 -0.000797813376895 0.0120155373969
Sb 6.32132821 1.21653905 22.5119323112 -2.57110337382e-07 2.57110337382e-07 0.0181627884533
Sb 0.0102606534 4.8602356038 22.600838776 0.00138145384275 -0.000797813376895 0.0120155373969
Cr 2.10710897 3.64961966 13.2788072199 -0 -0 0.0884210163566
61
Lattice="8.42843558953 0 0 -4.21421779477 7.29923593142 0 0 0 31.0334408416" Properties=species:S:1:pos:R:3:forces:R:3 energy=-133598.319856 ionic_step=27 pbc="T T T"
Te 2.1071096 1.2062821499 3.4952767217 -2.57110337382e-07 -0.00346481890655 -0.0028027597878
Te 4.223101632 4.8712878751 3.4952767217 0.00300073474758 0.00173240945328 -0.0028027597878
Te 6.32132606 1.21654029 3.4910337527 2.57110337382e-07 0 0.0591312638324
Te -0.008883802 4.8712886651 3.4952767317 -0.00300073474758 0.00173215234294 -0.00280301689813
Te 0.4628595095 -0.2672321848 7.1657787169 -0.00934904608787 0.00539777442299 -0.0217836733347
Te 2.10710848 3.64961994 6.4290600971 2.57110337382e-07 -2.57110337382e-07 0.00764826120609
Te 3.7513583105 -0.2672326848 7.1657785269 0.00934904608787 0.00539803153333 -0.0217834162243
Te -2.10710848 4.1840843196 7.1657785269 -0 -0.0107952917356 -0.0217836733347
Te 0.0063553927 -0.0036692945 0.0349609556 -0.00103538332864 0.00059803864475 0.000842293465262
Te 2.10710891 3.6496197 0.0137396588 -0 -2.57110337382e-07 0.00632337163756
Te 4.2078624273 -0.0036692945 0.0349609556 0.00103538332864 0.00059803864475 0.000842293465262
Te -2.10710891 3.656958279 0.0349609556 0 -0.00119582017916 0.000842293465262
Te -0.254220143 2.2863059121 13.5583853203 0.0185520535041 0.0107112166553 0.0315942324781
Te 2.1071087 6.3762476458 13.5583853203 0 -0.0214221762003 0.0315942324781
Te 4.468437973 2.2863056621 13.5583857103 -0.0185520535041 0.0107112166553 0.0315942324781
Te -2.1071087 6.08269937 13.232005629 -0 -2.57110337382e-07 0.0776578634131
Te 2.10710913 1.1055176044 17.2810767188 -0 0.016068367645 -0.0336045782061
Te 4.3103660143 4.9216705528 17.2810767188 -0.0139153256798 -0.0080341838225 -0.0336043210958
Te 6.32132652 1.21654002 17.3268820548 0 2.57110337382e-07 -0.0147252232425
Te -0.0961481843 4.9216708028 17.2810763288 0.0139153256798 -0.0080341838225 -0.0336043210958
Te 2.10710868 1.697070626 10.275341235 0 0.00950074118693 -0.0173541764422
Te 3.7980660805 4.625894432 10.275341235 -0.00822778790655 -0.0047506277038 -0.0173541764422
Te 6.32132698 1.21653976 9.8548852807 -0 2.57110337382e-07 0.0153625997689
Te 0.4161517395 4.625894162 10.275341665 0.00822778790655 -0.0047506277038 -0.0173541764422
Te -0.0626661741 0.0361803477 24.1625473336 0.018542026201 -0.0107050460072 -0.00121587478548
Te 2.10710934 3.64961945 24.223198529 -2.57110337382e-07 -2.57110337382e-07 -0.0019836062529
Te 4.2768840041 0.0361808477 24.1625475236 -0.018542026201 -0.0107053031176 -0.00121613189582
Te -2.10710934 3.5772587445 24.1625475236 2.57110337382e-07 0.0214103491248 -0.00121613189582
Te -0.0163878262 2.4236190648 27.6266248592 0.00451640018645 0.00260735593139 0.00365019545981
Te 2.10710823 6.1016221403 27.6266248592 2.57110337382e-07 -0.00521522608345 0.00365019545981
Te 4.2306056562 2.4236182748 27.6266248492 -0.00451640018645 0.00260787015206 0.00365019545981
Te -2.10710823 6.0826991 27.6006672882 -2.57110337382e-07 -0 -0.00352138318078
Te 0.0504737787 2.4622205911 20.7285727991 -0.00996996755265 -0.00575567201263 -0.00491414987838
Te 2.10710915 6.0244174979 20.7285727991 -0 0.0115118582459 -0.00491414987838
Te 4.1637440413 2.4622208611 20.7285723691 0.00996996755265 -0.00575567201263 -0.00491414987838
Te -2.10710915 6.08269963 20.7818832296 0 -2.57110337382e-07 0.00585645926488
Sb 0.0548835118 2.464765134 8.1366866327 0.00428551510348 0.0024746869973 -0.0259077231463
Sb 2.10711038 6.019326282 8.1366866327 -2.57110337382e-07 -0.00494885977392 -0.0259077231463
Sb 4.1593343082 2.464766824 8.1366870227 -0.00428577221381 0.00247442988696 -0.0259077231463
Sb -2.10711038 6.08270034 9.3555352299 2.57110337382e-07 -2.57110337382e-07 -0.00047231168977
Sb 0.0026790031 2.4346239503 1.9119011009 0.0032876698841 0.00189850273123 0.015414536057
Sb 2.10711114 6.0796073294 1.9119011009 -2.57110337382e-07 -0.00379649124178 0.0154147931674
Sb 4.2115388269 2.4346265203 1.9119013909 -0.0032876698841 0.00189824562089 0.0154142789467
Sb -2.10711114 6.08270078 1.9036939441 2.57110337382e-07 -2.57110337382e-07 0.0144681129051
Sb 0.0081035434 -0.0046785877 18.8950670204 0.000582612024507 -0.000336300321295 -0.0184625791067
Sb 2.10710819 3.64962011 18.7575722668 0 -2.57110337382e-07 0.0115573667756
Sb 4.2061142866 -0.0046794277 18.8950672704 -0.000582612024507 -0.000336300321295 -0.0184625791067
Sb 6.32132747 3.6589772853 18.8950672704 -0 0.00067260064259 -0.0184623219964
Sb -0.0223451663 0.0129009927 11.6729896882 0.00357177680691 -0.00206228201614 0.0201659350919
Sb 2.10710964 3.64961928 14.7011076087 0 -0 -0.103355527414
Sb 4.2365629863 0.0129018327 11.6729894482 -0.00357177680691 -0.00206228201614 0.0201659350919
Sb -2.10710964 3.6238172945 11.6729894482 0 0.00412430692194 0.0201659350919
Sb 2.10710669 1.2161391533 29.1934868367 2.57110337382e-07 0.000508050026666 -0.0126724543089
Sb 4.2145637703 4.8663618984 29.1934868367 -0.000439658676923 -0.00025428212367 -0.0126721971985
Sb 6.32132897 1.21653861 29.2491956062 -2.57110337382e-07 2.57110337382e-07 -0.0134070185428
Sb -0.0003459403 4.8663593184 29.1934865467 0.000439658676923 -0.000254025013333 -0.0126721971985
Sb 2.10710745 1.2275983244 22.6055578456 2.57110337382e-07 0.00199543332842 0.0112508912535
Sb 4.2046402174 4.8606316478 22.6055578456 -0.00172803857754 -0.000997845219378 0.0112508912535
Sb 6.32132821 1.21653905 22.5021457873 -2.57110337382e-07 2.57110337382e-07 0.0181890137077
Sb 0.0095776126 4.8606299578 22.6055574556 0.00172803857754 -0.000997845219378 0.0112511483638
Cr 2.10710897 3.64961966 13.2824388232 -0 -0 0.0886696420528
61
Lattice="8.42843558953 0 0 -4.21421779477 7.29923593142 0 0 0 31.0334408416" Properties=species:S:1:pos:R:3:forces:R:3 energy=-133598.33518 ionic_step=28 pbc="T T T"
Te 2.1071096 1.2013592878 3.5018249246 -2.57110337382e-07 -0.00145164496486 -0.00343653676944
Te 4.2273649537 4.8737493061 3.5018249246 0.00125701243946 0.000725822482428 -0.00343653676944
Te 6.32132606 1.21654029 3.4975938729 2.57110337382e-07 0 0.0588489566819
Te -0.0131471237 4.8737500961 3.5018249346 -0.00125701243946 0.000725565372091 -0.00343653676944
Te 0.454784811 -0.2625702533 7.1616115776 -0.0105919174588 0.00611536937462 -0.0207380055925
Te 2.10710848 3.64961994 6.403349299 2.57110337382e-07 -2.57110337382e-07 0.00813985617117
Te 3.759433009 -0.2625707533 7.1616113876 0.0105916603484 0.00611536937462 -0.0207380055925
Te -2.10710848 4.1747604565 7.1616113876 -0 -0.0122304816389 -0.0207380055925
Te 0.0042617184 -0.0024605105 0.0377556152 -0.000416004525883 0.000240398165452 0.000588011341592
Te 2.10710891 3.6496197 0.0172222097 -0 -2.57110337382e-07 0.00687770152496
Te 4.2099561016 -0.0024605105 0.0377556152 0.000416004525883 0.000240398165452 0.000588011341592
Te -2.10710891 3.6545407109 0.0377556152 0 -0.000480796330904 0.000588011341592
Te -0.2473221553 2.290288469 13.5598862117 0.0189685722507 0.0109516148208 0.0318783394009
Te 2.1071087 6.368282532 13.5598862117 0 -0.0219032296415 0.0318783394009
Te 4.4615399853 2.290288219 13.5598866017 -0.0189685722507 0.0109516148208 0.0318780822906
Te -2.1071087 6.08269937 13.2211321878 -0 -2.57110337382e-07 0.0776725187023
Te 2.10710913 1.0956889084 17.278492799 -0 0.0179113345434 -0.0333006737873
Te 4.3188779108 4.9265849008 17.278492799 -0.0155114666542 -0.00895566727168 -0.0333006737873
Te 6.32132652 1.21654002 17.3314061728 0 2.57110337382e-07 -0.0152870093297
Te -0.1046600808 4.9265851508 17.278492409 0.0155114666542 -0.00895566727168 -0.033300416677
Te 2.10710868 1.6973848267 10.2719244744 0 0.0103877718509 -0.0189693435817
Te 3.7977939749 4.6257373316 10.2719244744 -0.00899603359465 -0.00519414303578 -0.0189690864713
Te 6.32132698 1.21653976 9.8543707688 -0 2.57110337382e-07 0.0167106292678
Te 0.4164238451 4.6257370616 10.2719249044 0.00899603359465 -0.00519414303578 -0.0189690864713
Te -0.0735511093 0.0424647709 24.1680460669 0.0215260487766 -0.012427942378 -0.0023798132828
Te 2.10710934 3.64961945 24.2337632317 -2.57110337382e-07 -2.57110337382e-07 -0.00335837522688
Te 4.2877689393 0.0424652709 24.1680462569 -0.0215260487766 -0.012427942378 -0.00238007039314
Te -2.10710934 3.5646898981 24.1680462569 2.57110337382e-07 0.024855884756 -0.0023798132828
Te -0.0148069584 2.4245317797 27.6247294294 0.00405797245489 0.00234278939422 0.00519054349106
Te 2.10710823 6.0997967106 27.6247294294 2.57110337382e-07 -0.00468583589878 0.00519054349106
Te 4.2290247884 2.4245309897 27.6247294194 -0.00405797245489 0.0023433036149 0.0051908006014
Te -2.10710823 6.0826991 27.5978379213 -2.57110337382e-07 -0 -0.00323007716853
Te 0.0570540571 2.4660197183 20.7286220998 -0.0113804748635 -0.00657019756145 -0.00475114192448
Te 2.10710915 6.0168192433 20.7286220998 -0 0.0131406522332 -0.00475114192448
Te 4.1571637629 2.4660199883 20.7286216698 0.0113804748635 -0.00657019756145 -0.00475114192448
Te -2.10710915 6.08269963 20.786540384 0 -2.57110337382e-07 0.0072996195886
Sb 0.0633640568 2.4696613813 8.1348948325 0.00336583142666 0.00194375415061 -0.0258156776455
Sb 2.10711038 6.0095337875 8.1348948325 -2.57110337382e-07 -0.0038867369702 -0.0258159347558
Sb 4.1508537632 2.4696630713 8.1348952225 -0.00336583142666 0.00194349704027 -0.0258159347558
Sb -2.10711038 6.08270034 9.3367247601 2.57110337382e-07 -2.57110337382e-07 -0.0018735630285
Sb 0.0029276767 2.4347675222 1.9189406192 0.0033303502001 0.00192318532361 0.0154680150072
Sb 2.10711114 6.0793201857 1.9189406192 -2.57110337382e-07 -0.00384559931622 0.0154682721176
Sb 4.2112901533 2.4347700922 1.9189409092 -0.0033303502001 0.00192292821328 0.0154677578969
Sb -2.10711114 6.08270078 1.9039093759 2.57110337382e-07 -2.57110337382e-07 0.0144498580712
Sb 0.0076621462 -0.0044237467 18.8959530189 0.000954907793035 -0.000551244563346 -0.0185088589674
Sb 2.10710819 3.64962011 18.7418758567 0 -2.57110337382e-07 0.0124174008542
Sb 4.2065556838 -0.0044245867 18.8959532689 -0.000954907793035 -0.000551244563346 -0.0185088589674
Sb 6.32132747 3.6584676035 18.8959532689 -0 0.00110248912669 -0.0185088589674
Sb -0.0239526828 0.0138290932 11.6736636348 0.00358386099276 -0.00206922399525 0.0201376529547
Sb 2.10710964 3.64961928 14.7025660478 0 -0 -0.103392294192
Sb 4.2381705028 0.0138299332 11.6736633948 -0.00358386099276 -0.00206922399525 0.0201376529547
Sb -2.10710964 3.6219610936 11.6736633948 0 0.00413819088016 0.0201376529547
Sb 2.10710669 1.2164960757 29.1930601903 2.57110337382e-07 0.000685970380134 -0.0124734509077
Sb 4.2142546666 4.8661834372 29.1930601903 -0.000593667769014 -0.000343242300404 -0.0124731937974
Sb 6.32132897 1.21653861 29.2489802724 -2.57110337382e-07 2.57110337382e-07 -0.0129305930876
Sb -3.68366e-05 4.8661808572 29.1930599003 0.000593667769014 -0.000342985190067 -0.0124729366871
Sb 2.10710745 1.2269669244 22.6114929162 2.57110337382e-07 0.00245900326672 0.0106166000512
Sb 4.2051870255 4.8609473478 22.6114929162 -0.00212938781419 -0.0012297587437 0.0106168571615
Sb 6.32132821 1.21653905 22.4924869568 -2.57110337382e-07 2.57110337382e-07 0.0183962446397
Sb 0.0090308045 4.8609456578 22.6114925262 0.00212938781419 -0.00122950163336 0.0106168571615
Cr 2.10710897 3.64961966 13.2853515908 -0 -0 0.0887411187266
61
Lattice="8.42843558953 0 0 -4.21421779477 7.29923593142 0 0 0 31.0334408416" Properties=species:S:1:pos:R:3:forces:R:3 energy=-133598.355049 ionic_step=29 pbc="T T T"
Te 2.1071096 1.1952895737 3.5103177446 -2.57110337382e-07 0.00101841404637 -0.00411813627384
Te 4.2326214778 4.8767841632 3.5103177446 -0.000882145567556 -0.000509335578353 -0.00411813627384
Te 6.32132606 1.21654029 3.5068719346 2.57110337382e-07 0 0.0585476233665
Te -0.0184036478 4.8767849532 3.5103177546 0.000882145567556 -0.00050959268869 -0.00411813627384
Te 0.4479690667 -0.2586351797 7.1581633323 -0.0116411847456 0.00672112132949 -0.0197573867658
Te 2.10710848 3.64961994 6.3750674211 2.57110337382e-07 -2.57110337382e-07 0.00871038400981
Te 3.7662487532 -0.2586356797 7.1581631423 0.0116409276353 0.00672137843983 -0.0197573867658
Te -2.10710848 4.1668903093 7.1581631423 -0 -0.0134419855486 -0.0197573867658
Te 0.0017240248 -0.0009953717 0.0412637965 0.000327044349149 -0.000188718987638 0.000338614314332
Te 2.10710891 3.6496197 0.0217433954 -0 -2.57110337382e-07 0.00758809738714
Te 4.2124937952 -0.0009953717 0.0412637965 -0.000327044349149 -0.000188718987638 0.000338614314332
Te -2.10710891 3.6516104334 0.0412637965 0 0.000377437975276 0.000338614314332
Te -0.2427213915 2.2929447225 13.5623455434 0.0191359510803 0.0110482883076 0.031629970815
Te 2.1071087 6.3629700251 13.5623455434 0 -0.0220963195049 0.031629970815
Te 4.4569392215 2.2929444725 13.5623459334 -0.0191359510803 0.0110482883076 0.0316297137047
Te -2.1071087 6.08269937 13.2085788682 -0 -2.57110337382e-07 0.0779517405287
Te 2.10710913 1.0833119251 17.2751901398 -0 0.0200263241787 -0.0329749149899
Te 4.3295966878 4.9327733925 17.2751901398 -0.0173431206977 -0.0100131620893 -0.0329749149899
Te 6.32132652 1.21654002 17.3358032079 0 2.57110337382e-07 -0.0151689956848
Te -0.1153788578 4.9327736425 17.2751897498 0.0173431206977 -0.0100131620893 -0.0329749149899
Te 2.10710868 1.6943536418 10.2672808979 0 0.0109765545235 -0.0203721375824
Te 3.8004190568 4.6272529241 10.2672808979 -0.00950588339367 -0.00548853437209 -0.0203718804721
Te 6.32132698 1.21653976 9.8470999884 -0 2.57110337382e-07 0.0185782787585
Te 0.4137987632 4.6272526541 10.2672813279 0.00950614050401 -0.00548853437209 -0.0203718804721
Te -0.0878410392 0.0507150696 24.1734986967 0.0251384490168 -0.0145133643245 -0.00365353789419
Te 2.10710934 3.64961945 24.2461585965 -2.57110337382e-07 -2.57110337382e-07 -0.00484370164593
Te 4.3020588692 0.0507155696 24.1734988867 -0.0251384490168 -0.0145136214349 -0.00365379500453
Te -2.10710934 3.5481893008 24.1734988867 2.57110337382e-07 0.0290269857594 -0.00365353789419
Te -0.0126866918 2.4257559168 27.6225827614 0.00343627965911 0.00198386336324 0.00692758093041
Te 2.10710823 6.0973484364 27.6225827614 2.57110337382e-07 -0.00396772672647 0.00692758093041
Te 4.2269045218 2.4257551268 27.6225827514 -0.00343627965911 0.00198412047357 0.00692758093041
Te -2.10710823 6.0826991 27.5943622261 -2.57110337382e-07 -0 -0.00315140140529
Te 0.0664496634 2.4714442767 20.7285568088 -0.0133949343569 -0.00773310761743 -0.00478199516496
Te 2.10710915 6.0059701265 20.7285568088 -0 0.0154669865659 -0.00478199516496
Te 4.1477681566 2.4714445467 20.7285563788 0.0133949343569 -0.00773336472776 -0.00478199516496
Te -2.10710915 6.08269963 20.7931190134 0 -2.57110337382e-07 0.00881528502747
Sb 0.0714248545 2.4743152871 8.1303075742 0.00246106014942 0.00142130594505 -0.0260239370188
Sb 2.10711038 6.0002259758 8.1303075742 -2.57110337382e-07 -0.00284184055908 -0.0260239370188
Sb 4.1427929655 2.4743169771 8.1303079642 -0.00246106014942 0.00142104883471 -0.0260239370188
Sb -2.10711038 6.08270034 9.3143742733 2.57110337382e-07 -2.57110337382e-07 -0.00367050717646
Sb 0.0032600017 2.4349593902 1.9271197969 0.0033619747716 0.00194144015757 0.0156058261481
Sb 2.10711114 6.0789364497 1.9271197969 -2.57110337382e-07 -0.00388236609446 0.0156058261481
Sb 4.2109578283 2.4349619602 1.9271200869 -0.0033619747716 0.00194118304723 0.0156055690377
Sb -2.10711114 6.08270078 1.9032601239 2.57110337382e-07 -2.57110337382e-07 0.0145776419089
Sb 0.0077476633 -0.0044731201 18.8994207267 0.00137322631196 -0.000792928280485 -0.0184870045888
Sb 2.10710819 3.64962011 18.7216488424 0 -2.57110337382e-07 0.0134754098925
Sb 4.2064701667 -0.0044739601 18.8994209767 -0.00137322631196 -0.000792671170148 -0.0184867474784
Sb 6.32132747 3.6585663501 18.8994209767 -0 0.00158559945063 -0.0184867474784
Sb -0.0272465026 0.0157307819 11.671092047 0.00380189055886 -0.00219495095023 0.0202258418005
Sb 2.10710964 3.64961928 14.7060783818 0 -0 -0.103054965429
Sb 4.2414643226 0.0157316219 11.6710918069 -0.00380189055886 -0.00219520806056 0.0202258418005
Sb -2.10710964 3.6181577163 11.671091807 0 0.00438990190045 0.0202258418005
Sb 2.10710669 1.2167630389 29.1937887951 2.57110337382e-07 0.000940509614142 -0.0123286977878
Sb 4.2140234698 4.8660499556 29.1937887951 -0.000814268438488 -0.000470511917408 -0.0123286977878
Sb 6.32132897 1.21653861 29.2491451173 -2.57110337382e-07 2.57110337382e-07 -0.0124217717299
Sb 0.0001943602 4.8660473756 29.1937885051 0.000814268438488 -0.000470254807071 -0.0123284406774
Sb 2.10710745 1.2264999836 22.6202388482 2.57110337382e-07 0.00305164259438 0.00997896641446
Sb 4.205591408 4.8611808182 22.6202388482 -0.00264283715795 -0.00152594985236 0.00997896641446
Sb 6.32132821 1.21653905 22.4800921722 -2.57110337382e-07 2.57110337382e-07 0.0188029931934
Sb 0.008626422 4.8611791282 22.6202384582 0.00264283715795 -0.00152594985236 0.00997896641446
Cr 2.10710897 3.64961966 13.2909000483 -0 -0 0.0886362177089
61
Lattice="8.42843558953 0 0 -4.21421779477 7.29923593142 0 0 0 31.0334408416" Properties=species:S:1:pos:R:3:forces:R:3 energy=-133598.388825 ionic_step=30 pbc="T T T"
Te 2.1071096 1.1847068678 3.5245648503 -2.57110337382e-07 0.0052334809174 -0.00504476192976
Te 4.2417863657 4.8820755161 3.5245648503 -0.00453234102736 -0.00261686901387 -0.00504476192976
Te 6.32132606 1.21654029 3.5235454563 2.57110337382e-07 0 0.0581087360206
Te -0.0275685357 4.8820763061 3.5245648603 0.00453234102736 -0.00261712612421 -0.00504476192976
Te 0.4395461257 -0.2537721901 7.1542561623 -0.0129136238053 0.00745594267373 -0.0185528248351
Te 2.10710848 3.64961994 6.3326446042 2.57110337382e-07 -2.57110337382e-07 0.00940381058973
Te 3.7746716943 -0.2537726901 7.1542559723 0.012913366695 0.00745594267373 -0.0185525677248
Te -2.10710848 4.1571643303 7.1542559723 -0 -0.0149111140164 -0.0185528248351
Te -0.0027028959 0.0015605134 0.0474995064 0.00161156759471 -0.000930225200647 -3.16245714979e-05
Te 2.10710891 3.6496197 0.0300724581 -0 -2.57110337382e-07 0.00881657057915
Te 4.2169207159 0.0015605134 0.0474995064 -0.00161156759471 -0.000930225200647 -3.16245714979e-05
Te -2.10710891 3.6464986633 0.0474995064 0 0.00186045040129 -3.16245714979e-05
Te -0.2391835081 2.2949873214 13.5658943602 0.019052647331 0.0110002086745 0.030697174511
Te 2.1071087 6.3588848272 13.5658943602 0 -0.0220001602387 0.030697174511
Te 4.4534013381 2.2949870714 13.5658947502 -0.019052647331 0.0110002086745 0.030697174511
Te -2.1071087 6.08269937 13.1862007051 -0 -2.57110337382e-07 0.0788130601589
Te 2.10710913 1.0607830786 17.27019674 -0 0.0232746561811 -0.032666382585
Te 4.349107232 4.9440378157 17.27019674 -0.0201564220094 -0.0116373280906 -0.032666382585
Te 6.32132652 1.21654002 17.3432778132 0 2.57110337382e-07 -0.0143974075624
Te -0.134889402 4.9440380657 17.27019635 0.0201564220094 -0.0116373280906 -0.0326661254747
Te 2.10710868 1.6852925295 10.2583429869 0 0.0114298400483 -0.0218903741247
Te 3.8082662066 4.6317834802 10.2583429869 -0.00989849087886 -0.00571504857932 -0.0218901170143
Te 6.32132698 1.21653976 9.8259430252 -0 2.57110337382e-07 0.0219024583105
Te 0.4059516134 4.6317832102 10.2583434169 0.00989849087886 -0.00571504857932 -0.0218903741247
Te -0.1137844927 0.0656935365 24.1801889406 0.0307439685924 -0.0177498692515 -0.00539983130569
Te 2.10710934 3.64961945 24.2660705754 -2.57110337382e-07 -2.57110337382e-07 -0.00691369697219
Te 4.3280023227 0.0656940365 24.1801891306 -0.0307439685924 -0.0177498692515 -0.00540008841603
Te -2.10710934 3.518232367 24.1801891306 2.57110337382e-07 0.0354999956133 -0.00539983130569
Te -0.0086627851 2.4280791215 27.6200889996 0.00224328769365 0.00129506476939 0.00946397440868
Te 2.10710823 6.092702027 27.6200889996 2.57110337382e-07 -0.00259038664912 0.00946397440868
Te 4.2228806151 2.4280783315 27.6200889896 -0.00224328769365 0.00129532187973 0.00946397440868
Te -2.10710823 6.0826991 27.589421137 -2.57110337382e-07 -0 -0.0036645936387
Te 0.0846530482 2.4819540107 20.728066255 -0.0170302174171 -0.00983189930147 -0.00511803837592
Te 2.10710915 5.9849506586 20.728066255 -0 0.019664569934 -0.00511803837592
Te 4.1295647718 2.4819542807 20.728065825 0.0170302174171 -0.00983215641181 -0.00511803837592
Te -2.10710915 6.08269963 20.8059204004 0 -2.57110337382e-07 0.0110755420034
Sb 0.0821713922 2.4805198064 8.1197460253 0.00125032757069 0.000722480048042 -0.0268178937406
Sb 2.10711038 5.9878169371 8.1197460253 -2.57110337382e-07 -0.00144393165474 -0.0268181508509
Sb 4.1320464278 2.4805214964 8.1197464153 -0.00125032757069 0.000722222937705 -0.0268178937406
Sb -2.10711038 6.08270034 9.2787809357 2.57110337382e-07 -2.57110337382e-07 -0.00667072770337
Sb 0.003813267 2.4352788182 1.9403896304 0.00338125804691 0.00195249590208 0.0159446975727
Sb 2.10711114 6.0782975936 1.9403896304 -2.57110337382e-07 -0.00390447758348 0.0159446975727
Sb 4.210404563 2.4352813882 1.9403899204 -0.00338125804691 0.00195223879174 0.0159444404624
Sb -2.10711114 6.08270078 1.90060508 2.57110337382e-07 -2.57110337382e-07 0.0150173005858
Sb 0.008839317 -0.0051033869 18.9091197644 0.00204145607881 -0.00117859378656 -0.0183566496477
Sb 2.10710819 3.64962011 18.6857791522 0 -2.57110337382e-07 0.0149620218632
Sb 4.205378513 -0.0051042269 18.9091200144 -0.00204145607881 -0.00117833667622 -0.0183566496477
Sb 6.32132747 3.6598268838 18.9091200144 -0 0.00235693046278 -0.0183563925374
Sb -0.0342858956 0.0197949792 11.6609893412 0.00444286662995 -0.00256518983606 0.0205832251694
Sb 2.10710964 3.64961928 14.7173199267 0 -0 -0.101543156646
Sb 4.2485037156 0.0197958192 11.6609891012 -0.00444286662995 -0.00256518983606 0.0205832251694
Sb -2.10710964 3.6100293216 11.6609891012 0 0.00512986545144 0.0205832251694
Sb 2.10710669 1.217011835 29.1971384114 2.57110337382e-07 0.00142901925517 -0.0122186545634
Sb 4.2138080061 4.8659255575 29.1971384114 -0.00123747205382 -0.000714766737921 -0.012218397453
Sb 6.32132897 1.21653861 29.2501585538 -2.57110337382e-07 2.57110337382e-07 -0.0116560971452
Sb 0.0004098239 4.8659229775 29.1971381214 0.00123747205382 -0.000714509627584 -0.0122181403427
Sb 2.10710745 1.2262807226 22.6369631818 2.57110337382e-07 0.00403071875913 0.00917266839643
Sb 4.2057812935 4.8612904487 22.6369631819 -0.00349078705063 -0.00201574504507 0.00917266839643
Sb 6.32132821 1.21653905 22.4565380647 -2.57110337382e-07 2.57110337382e-07 0.0196131478665
Sb 0.0084365365 4.8612887587 22.6369627919 0.00349078705063 -0.00201548793473 0.00917292550676
Cr 2.10710897 3.64961966 13.3051927842 -0 -0 0.087838404332
61
Lattice="8.42843558953 0 0 -4.21421779477 7.29923593142 0 0 0 31.0334408416" Properties=species:S:1:pos:R:3:forces:R:3 energy=-133598.421427 ionic_step=31 pbc="T T T"
Te 2.1071096 1.1687475508 3.5440452589 -2.57110337382e-07 0.0112110391512 -0.00484550141829
Te 4.2556075332 4.8900551746 3.5440452589 -0.00970900056021 -0.00560551957559 -0.00484550141829
Te 6.32132606 1.21654029 3.548533751 2.57110337382e-07 0 0.0590273912561
Te -0.0413897032 4.8900559646 3.5440452689 0.00970900056021 -0.00560577668593 -0.00484550141829
Te 0.4489437243 -0.2591978988 7.1642111586 -0.0116077604018 0.00670209516453 -0.019136465301
Te 2.10710848 3.64961994 6.2697933748 2.57110337382e-07 -2.57110337382e-07 0.0088471667093
Te 3.7652740956 -0.2591983988 7.1642109686 0.0116077604018 0.00670209516453 -0.019136465301
Te -2.10710848 4.1680157475 7.1642109686 -0 -0.0134036761084 -0.019136465301
Te -0.00902435 0.0052102083 0.0579579607 0.00342959479033 -0.00197974959784 -0.000545331025586
Te 2.10710891 3.6496197 0.0434220631 -0 -2.57110337382e-07 0.0106862769526
Te 4.22324217 0.0052102083 0.0579579607 -0.00342959479033 -0.00197974959784 -0.000545331025586
Te -2.10710891 3.6391992735 0.0579579607 0 0.00396001341635 -0.000545331025586
Te -0.2342499366 2.2978357215 13.567162356 0.01856413769 0.0107179015241 0.028834667227
Te 2.1071087 6.3531880269 13.567162356 0 -0.0214358030482 0.028834667227
Te 4.4484677666 2.2978354715 13.567162746 -0.01856413769 0.0107181586344 0.0288344101167
Te -2.1071087 6.08269937 13.1338102658 -0 -2.57110337382e-07 0.0800723865914
Te 2.10710913 1.0227626856 17.2665851572 -0 0.0270549494717 -0.0330397067949
Te 4.3820338429 4.9630480122 17.2665851572 -0.0234302079353 -0.013527603291 -0.0330397067949
Te 6.32132652 1.21654002 17.3568078911 0 2.57110337382e-07 -0.0135545998764
Te -0.1678160129 4.9630482622 17.2665847672 0.0234302079353 -0.013527603291 -0.0330397067949
Te 2.10710868 1.6842397542 10.2364689871 0 0.015178251657 -0.0221701101717
Te 3.8091779363 4.6323098679 10.2364689871 -0.0131447659986 -0.00758938293883 -0.0221698530614
Te 6.32132698 1.21653976 9.7718028326 -0 2.57110337382e-07 0.0278586763863
Te 0.4050398837 4.6323095979 10.2364694171 0.0131447659986 -0.00758938293883 -0.0221698530614
Te -0.1549836934 0.0894799172 24.1865388067 0.0368567668637 -0.0212789657424 -0.00710472995287
Te 2.10710934 3.64961945 24.2955112502 -2.57110337382e-07 -2.57110337382e-07 -0.00916752618968
Te 4.3692015234 0.0894804172 24.1865389967 -0.0368565097533 -0.0212789657424 -0.0071049870632
Te -2.10710934 3.4706596056 24.1865389967 2.57110337382e-07 0.0425581885951 -0.0071049870632
Te -0.0025713604 2.4315960088 27.6205728875 0.000401092126315 0.000231656413981 0.0123171278226
Te 2.10710823 6.0856682524 27.6205728875 2.57110337382e-07 -0.000463312827962 0.0123171278226
Te 4.2167891904 2.4315952188 27.6205728775 -0.000401092126315 0.000231913524318 0.0123171278226
Te -2.10710823 6.0826991 27.5855582244 -2.57110337382e-07 -0 -0.00576184266072
Te 0.1148507415 2.4993886652 20.7280274193 -0.0218628633186 -0.0126220606827 -0.006076031493
Te 2.10710915 5.9500813495 20.7280274193 -0 0.0252446355862 -0.006076031493
Te 4.0993670785 2.4993889352 20.7280269893 0.0218626062082 -0.0126220606827 -0.006076031493
Te -2.10710915 6.08269963 20.8300084955 0 -2.57110337382e-07 0.0140191982561
Sb 0.0979014872 2.4896015853 8.0883834029 -0.000649974932901 -0.000374866871902 -0.0289429106791
Sb 2.10711038 5.9696533795 8.0883834029 -2.57110337382e-07 0.00075024796448 -0.0289429106791
Sb 4.1163163328 2.4896032753 8.0883837929 0.000649974932901 -0.00037512398224 -0.0289429106791
Sb -2.10711038 6.08270034 9.2543750453 2.57110337382e-07 -2.57110337382e-07 -0.0099607115805
Sb 0.0045429051 2.4357000751 1.9595783197 0.00348487351287 0.00201240261069 0.0166167839946
Sb 2.10711114 6.0774550798 1.9595783197 -2.57110337382e-07 -0.0040242910007 0.0166167839946
Sb 4.2096749249 2.4357026451 1.9595786097 -0.00348487351287 0.00201214550035 0.0166165268843
Sb -2.10711114 6.08270078 1.8949003864 2.57110337382e-07 -2.57110337382e-07 0.0160097464881
Sb 0.0107381064 -0.006199654 18.931942806 0.00301718980917 -0.00174192253576 -0.0179180194121
Sb 2.10710819 3.64962011 18.6321771886 0 -2.57110337382e-07 0.0156274234164
Sb 4.2034797236 -0.006200494 18.931943056 -0.00301718980917 -0.00174166542542 -0.0179180194121
Sb 6.32132747 3.662019418 18.931943056 -0 0.00348384507152 -0.0179177623018
Sb -0.0476575134 0.02751509 11.6251747142 0.00614519417376 -0.00354786554553 0.0215029088462
Sb 2.10710964 3.64961928 14.7583212715 0 -0 -0.0956013367486
Sb 4.2618753334 0.02751593 11.6251744741 -0.00614519417376 -0.00354786554553 0.0215029088462
Sb -2.10710964 3.5945891001 11.6251744742 0 0.00709573109106 0.0215029088462
Sb 2.10710669 1.217195671 29.2058886425 2.57110337382e-07 0.00222349019768 -0.0122543929003
Sb 4.2136487995 4.8658336395 29.2058886425 -0.00192524220631 -0.00111200220918 -0.0122543929003
Sb 6.32132897 1.21653861 29.2553315091 -2.57110337382e-07 2.57110337382e-07 -0.0106937331524
Sb 0.0005690305 4.8658310595 29.2058883525 0.00192524220631 -0.00111174509884 -0.0122541357899
Sb 2.10710745 1.2272951478 22.6644307827 2.57110337382e-07 0.00525019308933 0.00862888003286
Sb 4.204902776 4.8607832361 22.6644307827 -0.00454673920626 -0.002625353655 0.00862888003286
Sb 6.32132821 1.21653905 22.4176710295 -2.57110337382e-07 2.57110337382e-07 0.020767316171
Sb 0.009315054 4.8607815461 22.6644303927 0.00454673920626 -0.00262509654467 0.0086291371432
Cr 2.10710897 3.64961966 13.3488755815 -0 -0 0.0842234329885
61
Lattice="8.42843558953 0 0 -4.21421779477 7.29923593142 0 0 0 31.0334408416" Properties=species:S:1:pos:R:3:forces:R:3 energy=-133598.470085 ionic_step=32 pbc="T T T"
Te 2.1071096 1.151530265 3.5593646544 -2.57110337382e-07 0.0171952822537 -0.00374661183633
Te 4.2705181332 4.8986638175 3.5593646544 -0.0148915736308 -0.0085975125717 -0.00374661183633
Te 6.32132606 1.21654029 3.5732724473 2.57110337382e-07 0 0.0609253797666
Te -0.0563003032 4.8986646075 3.5593646644 0.0148915736308 -0.00859802679238 -0.00374661183633
Te 0.4670605682 -0.2696576683 7.177880784 -0.00909116441948 0.00524890753765 -0.0209848315164
Te 2.10710848 3.64961994 6.2108610435 2.57110337382e-07 -2.57110337382e-07 0.00794085277003
Te 3.7471572518 -0.2696581683 7.177880594 0.00909116441948 0.00524890753765 -0.0209848315164
Te -2.10710848 4.1889352867 7.177880594 -0 -0.010497557965 -0.0209848315164
Te -0.0158972076 0.0091782563 0.0699787129 0.00532989729392 -0.00307709651778 -0.00116959492475
Te 2.10710891 3.6496197 0.0591117335 -0 -2.57110337382e-07 0.0124947910657
Te 4.2301150276 0.0091782563 0.0699787129 -0.00532989729392 -0.00307709651778 -0.00116959492475
Te -2.10710891 3.6312631774 0.0699787129 0 0.00615419303557 -0.00116959492475
Te -0.2315325033 2.2994046331 13.5619683614 0.017637512034 0.0101831120223 0.0273832793725
Te 2.1071087 6.3500502038 13.5619683614 0 -0.0203662240447 0.0273832793725
Te 4.4457503333 2.2994043831 13.5619687514 -0.017637512034 0.0101831120223 0.0273832793725
Te -2.1071087 6.08269937 13.0676502789 -0 -2.57110337382e-07 0.0808077221563
Te 2.10710913 0.9787817767 17.2678989987 -0 0.0287608765602 -0.0344293881684
Te 4.4201224096 4.9850384667 17.2678989987 -0.0249078210442 -0.0143804382801 -0.0344293881684
Te 6.32132652 1.21654002 17.3770218209 0 2.57110337382e-07 -0.0140356533177
Te -0.2059045796 4.9850387167 17.2678986087 0.0249075639338 -0.0143804382801 -0.0344291310581
Te 2.10710868 1.6879518171 10.2099026535 0 0.0207760579225 -0.0202304697865
Te 3.805963197 4.6304538365 10.2099026535 -0.01799258141 -0.0103882860716 -0.0202302126762
Te 6.32132698 1.21653976 9.7008347881 -0 2.57110337382e-07 0.0331201823305
Te 0.408254623 4.6304535665 10.2099030835 0.01799258141 -0.0103882860716 -0.0202302126762
Te -0.2013216333 0.1162331517 24.1873730687 0.0397196904704 -0.0229319281014 -0.00765854561959
Te 2.10710934 3.64961945 24.3232179448 -2.57110337382e-07 -2.57110337382e-07 -0.0105176125713
Te 4.4155394633 0.1162336517 24.1873732587 -0.0397196904704 -0.0229321852117 -0.00765880272992
Te -2.10710934 3.4171531366 24.1873732587 0 0.0458641133131 -0.00765880272992
Te 0.0051770179 2.4360695392 27.6266415013 -0.00199928998348 -0.00115416830451 0.0140521083793
Te 2.10710823 6.0767211916 27.6266415013 2.57110337382e-07 0.00230833660901 0.0140521083793
Te 4.2090408121 2.4360687492 27.6266414913 0.00199928998348 -0.00115391119417 0.0140521083793
Te -2.10710823 6.0826991 27.5862428691 -2.57110337382e-07 -0 -0.00975476620026
Te 0.1494159131 2.5193448856 20.7269041609 -0.0251970701737 -0.0145473028891 -0.00719651834331
Te 2.10710915 5.9101689088 20.7269041609 -0 0.0290948628884 -0.00719651834331
Te 4.0648019069 2.5193451556 20.7269037309 0.0251970701737 -0.0145473028891 -0.00719651834331
Te -2.10710915 6.08269963 20.858468443 0 -2.57110337382e-07 0.0169443425645
Sb 0.1116191184 2.497521467 8.0493016066 -0.00240963808194 -0.0013907098149 -0.0316587671728
Sb 2.10711038 5.9538136159 8.0493016066 -2.57110337382e-07 0.00278219096081 -0.0316587671728
Sb 4.1025987016 2.497523157 8.0493019966 0.00240963808194 -0.00139096692523 -0.0316587671728
Sb -2.10711038 6.08270034 9.2496297395 2.57110337382e-07 -2.57110337382e-07 -0.0116470982834
Sb 0.0054808788 2.4362416148 1.979568332 0.00348538773355 0.00201265972102 0.0172711298033
Sb 2.10711114 6.0763720005 1.979568332 -2.57110337382e-07 -0.00402480522137 0.0172711298033
Sb 4.2087369512 2.4362441848 1.979568622 -0.00348538773355 0.00201240261069 0.0172708726929
Sb -2.10711114 6.08270078 1.8864546051 2.57110337382e-07 -2.57110337382e-07 0.0172752435687
Sb 0.013380086 -0.0077250023 18.9617610992 0.00388647985986 -0.00224380191433 -0.0170371593963
Sb 2.10710819 3.64962011 18.5735575199 0 -2.57110337382e-07 0.013760802367
Sb 4.200837744 -0.0077258423 18.9617613492 -0.00388647985986 -0.00224354480399 -0.0170369022859
Sb 6.32132747 3.6650701147 18.9617613492 -0 0.00448734671832 -0.0170369022859
Sb -0.0639387451 0.0369150678 11.5773545548 0.00828846594617 -0.00478533759935 0.0230103467543
Sb 2.10710964 3.64961928 14.8222956049 0 -0 -0.0854722178971
Sb 4.2781565651 0.0369159078 11.5773543147 -0.00828820883583 -0.00478533759935 0.0230103467543
Sb -2.10710964 3.5757891444 11.5773543148 0 0.00957041808836 0.0230103467543
Sb 2.10710669 1.2174705745 29.2177884673 2.57110337382e-07 0.0031267188129 -0.0123724065451
Sb 4.2134107262 4.8656961878 29.2177884673 -0.00270762896297 -0.00156374507196 -0.0123724065451
Sb 6.32132897 1.21653861 29.2607154533 -2.57110337382e-07 2.57110337382e-07 -0.00965269339632
Sb 0.0008071038 4.8656936078 29.2177881773 0.00270762896297 -0.00156323085128 -0.0123721494348
Sb 2.10710745 1.229881332 22.6952650985 2.57110337382e-07 0.00609865720269 0.00875049322245
Sb 4.2026630757 4.859490144 22.6952650985 -0.00528130344016 -0.00304958571168 0.00875075033278
Sb 6.32132821 1.21653905 22.3696156728 -2.57110337382e-07 2.57110337382e-07 0.0209141261736
Sb 0.0115547543 4.859488454 22.6952647085 0.00528156055049 -0.00304932860135 0.00875075033278
Cr 2.10710897 3.64961966 13.4120000132 -0 -0 0.0749468920157
61
Lattice="8.42843558953 0 0 -4.21421779477 7.29923593142 0 0 0 31.0334408416" Properties=species:S:1:pos:R:3:forces:R:3 energy=-133598.548461 ionic_step=33 pbc="T T T"
Te 2.1071096 1.1461259797 3.5534108348 -2.57110337382e-07 0.0183329954967 -0.003683876914
Te 4.2751983793 4.9013659601 3.5534108348 -0.0158768204437 -0.00916649774833 -0.003683876914
Te 6.32132606 1.21654029 3.5759710352 2.57110337382e-07 0 0.0613760941881
Te -0.0609805493 4.9013667501 3.5534108448 0.0158768204437 -0.00916675485867 -0.003683876914
Te 0.4633150945 -0.2674952171 7.1708989713 -0.00937732822498 0.00541422948458 -0.0212743377563
Te 2.10710848 3.64961994 6.2327152651 2.57110337382e-07 -2.57110337382e-07 0.00745748533575
Te 3.7509027254 -0.2674957171 7.1708987813 0.00937707111465 0.00541422948458 -0.0212743377563
Te -2.10710848 4.1846103842 7.1708987813 -0 -0.0108276876382 -0.0212743377563
Te -0.0188854881 0.0109035416 0.0739467354 0.00599889839179 -0.00346327624453 -0.00148764041209
Te 2.10710891 3.6496197 0.0662584018 -0 -2.57110337382e-07 0.012493505514
Te 4.2331033081 0.0109035416 0.0739467354 -0.00599889839179 -0.00346327624453 -0.00148764041209
Te -2.10710891 3.6278126068 0.0739467354 0 0.00692655248906 -0.00148764041209
Te -0.2399420424 2.2945493812 13.5530388422 0.0166977737509 0.00964060921046 0.0276331906204
Te 2.1071087 6.3597607076 13.5530388422 0 -0.0192809613106 0.0276331906204
Te 4.4541598724 2.2945491312 13.5530392322 -0.0166977737509 0.00964060921046 0.0276331906204
Te -2.1071087 6.08269937 13.0523296955 -0 -2.57110337382e-07 0.0818621316499
Te 2.10710913 0.964486404 17.2753443315 -0 0.0286827150176 -0.0363446030716
Te 4.4325025597 4.992186153 17.2753443315 -0.0248399439151 -0.0143413575088 -0.0363446030716
Te 6.32132652 1.21654002 17.3923046504 0 2.57110337382e-07 -0.015983007013
Te -0.2182847297 4.992186403 17.2753439415 0.0248399439151 -0.0143413575088 -0.0363446030716
Te 2.10710868 1.6761952398 10.2024390103 0 0.0199232229334 -0.0169875371011
Te 3.8161446869 4.6363321251 10.2024390103 -0.0172539034107 -0.00996174002185 -0.0169872799908
Te 6.32132698 1.21653976 9.6748927921 -0 2.57110337382e-07 0.0328471311522
Te 0.3980731331 4.6363318551 10.2024394403 0.017254160521 -0.00996174002185 -0.0169875371011
Te -0.2168796897 0.125215604 24.1736551982 0.0397777974066 -0.0229656095556 -0.00527410435071
Te 2.10710934 3.64961945 24.3206245652 -2.57110337382e-07 -2.57110337382e-07 -0.00941332367222
Te 4.4310975197 0.125216104 24.1736553882 -0.0397777974066 -0.0229656095556 -0.00527436146105
Te -2.10710934 3.399188232 24.1736553882 0 0.0459314762215 -0.00527436146105
Te 0.0104714973 2.4391263097 27.6365976165 -0.00385562661937 -0.00222606130105 0.0123785771932
Te 2.10710823 6.0706076505 27.6365976165 2.57110337382e-07 0.0044521226021 0.0123785771932
Te 4.2037463327 2.4391255197 27.6365976065 0.00385562661937 -0.00222580419071 0.0123785771932
Te -2.10710823 6.0826991 27.5950178501 -2.57110337382e-07 -0 -0.0140227978008
Te 0.1632723171 2.527344888 20.7219356464 -0.0257341736685 -0.0148573779559 -0.00755698703632
Te 2.10710915 5.8941689041 20.7219356464 -0 0.0297152701325 -0.00755698703632
Te 4.0509455029 2.527345158 20.7219352164 0.0257341736685 -0.0148573779559 -0.00755698703632
Te -2.10710915 6.08269963 20.8684481001 0 -2.57110337382e-07 0.0168407270985
Sb 0.1061810662 2.4943818047 8.0466879082 -0.00170798397123 -0.000985761033521 -0.0327226897489
Sb 2.10711038 5.9600929407 8.0466879082 -2.57110337382e-07 0.00197203628772 -0.0327226897489
Sb 4.1080367538 2.4943834947 8.0466882982 0.00170798397123 -0.000986018143859 -0.0327226897489
Sb -2.10711038 6.08270034 9.2515321987 2.57110337382e-07 -2.57110337382e-07 -0.0110251483773
Sb 0.0056160839 2.4363196755 1.9813241196 0.00319176772826 0.00184322400869 0.0175958601594
Sb 2.10711114 6.076215879 1.9813241196 -2.57110337382e-07 -0.00368567668637 0.0175961172697
Sb 4.2086017461 2.4363222455 1.9813244096 -0.00319176772826 0.00184270978801 0.0175958601594
Sb -2.10711114 6.08270078 1.877078202 2.57110337382e-07 -2.57110337382e-07 0.0181589317983
Sb 0.0160631934 -0.0092740958 18.9794481188 0.00398083935368 -0.00229830930585 -0.0165414506658
Sb 2.10710819 3.64962011 18.5542508024 0 -2.57110337382e-07 0.0127351892312
Sb 4.1981546366 -0.0092749358 18.9794483688 -0.00398083935368 -0.00229805219552 -0.0165414506658
Sb 6.32132747 3.6681683017 18.9794483688 -0 0.00459636150137 -0.0165414506658
Sb -0.068477292 0.0395354003 11.5603498195 0.0090479698828 -0.00522396783492 0.0237042875549
Sb 2.10710964 3.64961928 14.8532725461 0 -0 -0.0804847915726
Sb 4.282695112 0.0395362403 11.5603495795 -0.0090479698828 -0.00522396783492 0.0237042875549
Sb -2.10710964 3.5705484793 11.5603495795 0 0.0104476785595 0.0237042875549
Sb 2.10710669 1.2172891728 29.2268315093 2.57110337382e-07 0.00351289853965 -0.012745730755
Sb 4.2135678247 4.8657868886 29.2268315093 -0.0030421295119 -0.00175683493533 -0.0127454736447
Sb 6.32132897 1.21653861 29.2599919428 -2.57110337382e-07 2.57110337382e-07 -0.00950202673861
Sb 0.0006500053 4.8657843086 29.2268312193 0.0030421295119 -0.00175632071465 -0.0127454736447
Sb 2.10710745 1.2325827949 22.7049918706 2.57110337382e-07 0.00631642965845 0.00937964221802
Sb 4.2003235414 4.8581394126 22.7049918706 -0.00547002242779 -0.0031583433844 0.00937964221802
Sb 6.32132821 1.21653905 22.3418298902 -2.57110337382e-07 2.57110337382e-07 0.0201921603463
Sb 0.0138942886 4.8581377226 22.7049914806 0.00547002242779 -0.0031583433844 0.00937989932836
Cr 2.10710897 3.64961966 13.4385866043 0 -0 0.0682496819476
61
Lattice="8.42843558953 0 0 -4.21421779477 7.29923593142 0 0 0 31.0334408416" Properties=species:S:1:pos:R:3:forces:R:3 energy=-133598.603071 ionic_step=34 pbc="T T T"
Te 2.1071096 1.1383122262 3.5506218762 -2.57110337382e-07 0.0203865357613 -0.00368002025894
Te 4.2819652852 4.9052728369 3.5506218762 -0.0176552526473 -0.0101933964358 -0.00368002025894
Te 6.32132606 1.21654029 3.581716489 2.57110337382e-07 0 0.0617015958752
Te -0.0677474552 4.9052736269 3.5506218862 0.0176552526473 -0.0101936535462 -0.00368002025894
Te 0.4586066975 -0.2647768215 7.1633861955 -0.00991546016112 0.00572507588248 -0.0211915482277
Te 2.10710848 3.64961994 6.2400025427 2.57110337382e-07 -2.57110337382e-07 0.00651851838364
Te 3.7556111225 -0.2647773215 7.1633860055 0.00991546016112 0.00572507588248 -0.0211915482277
Te -2.10710848 4.179173593 7.1633860055 -0 -0.0114493804339 -0.0211915482277
Te -0.0230146125 0.0132874939 0.0792622767 0.00699854338353 -0.00404048895195 -0.00189336052448
Te 2.10710891 3.6496197 0.0750344258 -0 -2.57110337382e-07 0.0127788979885
Te 4.2372324325 0.0132874939 0.0792622767 -0.00699854338353 -0.00404048895195 -0.00189336052448
Te -2.10710891 3.6230447023 0.0792622767 0 0.0080809779039 -0.00189336052448
Te -0.2419842891 2.2933702889 13.5457659958 0.0160529410248 0.00926831344193 0.0279463510114
Te 2.1071087 6.3621188921 13.5457659958 0 -0.0185363697735 0.0279463510114
Te 4.4562021191 2.2933700389 13.5457663858 -0.0160529410248 0.00926831344193 0.027946093901
Te -2.1071087 6.08269937 13.0278660277 -0 -2.57110337382e-07 0.0822010030746
Te 2.10710913 0.9445358429 17.2815953838 -0 0.0280147423611 -0.0377857065126
Te 4.4497802444 5.0021614336 17.2815953838 -0.024261445656 -0.0140073711806 -0.0377857065126
Te 6.32132652 1.21654002 17.4104718874 0 2.57110337382e-07 -0.0183005995941
Te -0.2355624144 5.0021616836 17.2815949939 0.024261445656 -0.0140073711806 -0.0377854494023
Te 2.10710868 1.6691715252 10.1913588562 0 0.0205693412112 -0.0137134940649
Te 3.8222273993 4.6398439824 10.1913588562 -0.0178136326151 -0.0102849277159 -0.0137132369546
Te 6.32132698 1.21653976 9.6488719168 -0 2.57110337382e-07 0.0334246009699
Te 0.3919904207 4.6398437124 10.1913592862 0.0178136326151 -0.0102849277159 -0.0137134940649
Te -0.237845691 0.1373203361 24.1629294604 0.0392921159793 -0.0226851021775 -0.00343962209349
Te 2.10710934 3.64961945 24.3247542807 -2.57110337382e-07 -2.57110337382e-07 -0.00901120310455
Te 4.452063521 0.1373208361 24.1629296504 -0.039291858869 -0.0226851021775 -0.00343987920383
Te -2.10710934 3.3749787678 24.1629296504 0 0.0453704614654 -0.00343962209349
Te 0.0163922705 2.4425446713 27.645849727 -0.00590273912561 -0.00340799752199 0.0112989708866
Te 2.10710823 6.0637709274 27.645849727 2.57110337382e-07 0.00681573793365 0.0112989708866
Te 4.1978255595 2.4425438813 27.645849717 0.00590273912561 -0.00340748330132 0.0112992279969
Te -2.10710823 6.0826991 27.6029823952 -2.57110337382e-07 -0 -0.0181249932337
Te 0.1803001277 2.5371759036 20.717241319 -0.0258233909556 -0.0149088000234 -0.00778710078828
Te 2.10710915 5.8745068728 20.717241319 -0 0.0298181142675 -0.00778710078828
Te 4.0339176923 2.5371761736 20.717240889 0.0258233909556 -0.0149088000234 -0.00778710078828
Te -2.10710915 6.08269963 20.8816016945 0 -2.57110337382e-07 0.0174354233089
Sb 0.1064096465 2.4945137756 8.0406078226 -0.00158354256793 -0.000913770139054 -0.0336696271215
Sb 2.10711038 5.9598289987 8.0406078226 -2.57110337382e-07 0.00182831160912 -0.0336696271215
Sb 4.1078081735 2.4945154656 8.0406082126 0.00158354256793 -0.000914027249392 -0.0336696271215
Sb -2.10711038 6.08270034 9.2488369896 2.57110337382e-07 -2.57110337382e-07 -0.0108318014036
Sb 0.0055775655 2.4362974369 1.9869638342 0.00296448219001 0.00171209773662 0.0178935939301
Sb 2.10711114 6.0762603562 1.9869638342 -2.57110337382e-07 -0.0034231670319 0.0178935939301
Sb 4.2086402645 2.4363000069 1.9869641242 -0.00296448219001 0.00171158351595 0.0178933368197
Sb -2.10711114 6.08270078 1.8683098196 2.57110337382e-07 -2.57110337382e-07 0.0189991683808
Sb 0.0178448472 -0.0103027346 18.9978961729 0.00416364480356 -0.00240398165452 -0.0158307976933
Sb 2.10710819 3.64962011 18.527704799 0 -2.57110337382e-07 0.0110038082193
Sb 4.1963729828 -0.0103035746 18.9978964229 -0.0041639019139 -0.00240372454418 -0.0158307976933
Sb 6.32132747 3.6702255793 18.9978964229 -0 0.0048077061987 -0.0158307976933
Sb -0.0734676611 0.0424165926 11.5430603991 0.00978716210277 -0.00565051388464 0.0241604012934
Sb 2.10710964 3.64961928 14.8856262725 0 -0 -0.0753017042813
Sb 4.2876854811 0.0424174326 11.5430601591 -0.00978716210277 -0.00565051388464 0.0241604012934
Sb -2.10710964 3.5647860947 11.5430601591 0 0.0113010277693 0.0241604012934
Sb 2.10710669 1.217179784 29.2354583755 2.57110337382e-07 0.00399549464291 -0.0129665885348
Sb 4.2136625581 4.865841583 29.2354583755 -0.00345993381014 -0.00199800443179 -0.0129665885348
Sb 6.32132897 1.21653861 29.2591606765 -2.57110337382e-07 2.57110337382e-07 -0.00910222016398
Sb 0.0005552719 4.865839003 29.2354580855 0.00345993381014 -0.00199774732146 -0.0129663314245
Sb 2.10710745 1.2348446078 22.7176518105 2.57110337382e-07 0.00652597458342 0.00995685492544
Sb 4.1983647548 4.8570085061 22.7176518106 -0.00565154232599 -0.00326324440205 0.00995711203578
Sb 6.32132821 1.21653905 22.3077552548 -2.57110337382e-07 2.57110337382e-07 0.0187394869401
Sb 0.0158530752 4.8570068161 22.7176514206 0.00565154232599 -0.00326298729171 0.00995711203578
Cr 2.10710897 3.64961966 13.4681621508 0 -0 0.0599740715183
61
Lattice="8.42843558953 0 0 -4.21421779477 7.29923593142 0 0 0 31.0334408416" Properties=species:S:1:pos:R:3:forces:R:3 energy=-133598.659143 ionic_step=35 pbc="T T T"
Te 2.1071096 1.1257803295 3.5498074672 -2.57110337382e-07 0.0237706220219 -0.00376718066332
Te 4.292818221 4.9115387852 3.5498074672 -0.0205860533831 -0.0118854395661 -0.00376718066332
Te 6.32132606 1.21654029 3.5926954276 2.57110337382e-07 0 0.0620155275971
Te -0.078600391 4.9115395752 3.5498074772 0.0205860533831 -0.0118856966765 -0.00376718066332
Te 0.4529313799 -0.2615001738 7.152992082 -0.010646939071 0.00614725105646 -0.0207200078689
Te 2.10710848 3.64961994 6.2385393549 2.57110337382e-07 -2.57110337382e-07 0.00501982222704
Te 3.7612864401 -0.2615006738 7.152991892 0.010646939071 0.00614725105646 -0.0207200078689
Te -2.10710848 4.1726202976 7.152991892 -0 -0.0122939878922 -0.0207200078689
Te -0.029567789 0.0170709738 0.0874778855 0.00860445455081 -0.00496762882855 -0.0024664594665
Te 2.10710891 3.6496197 0.0882530616 -0 -2.57110337382e-07 0.0134144747425
Te 4.243785609 0.0170709738 0.0874778855 -0.00860445455081 -0.00496762882855 -0.0024664594665
Te -2.10710891 3.6154777423 0.0874778855 0 0.0099352576571 -0.0024664594665
Te -0.2413140567 2.293757248 13.5382639958 0.0154417897528 0.00891530094871 0.0280543373531
Te 2.1071087 6.361344974 13.5382639958 0 -0.0178306018974 0.0280543373531
Te 4.4555318867 2.293756998 13.5382643858 -0.0154417897528 0.00891555805905 0.0280543373531
Te -2.1071087 6.08269937 12.9885431644 -0 -2.57110337382e-07 0.0819127823864
Te 2.10710913 0.9130073422 17.2889350064 -0 0.025975343165 -0.03920881223
Te 4.4770847142 5.0179256839 17.2889350064 -0.0224953547485 -0.0129876715825 -0.03920881223
Te 6.32132652 1.21654002 17.4363745286 0 2.57110337382e-07 -0.0213327018029
Te -0.2628668842 5.0179259339 17.2889346164 0.0224953547485 -0.0129876715825 -0.0392085551197
Te 2.10710868 1.6625568703 10.1736691047 0 0.0226388223168 -0.00872735329208
Te 3.8279558558 4.6431513099 10.1736691047 -0.0196056916667 -0.0113195397136 -0.00872709618174
Te 6.32132698 1.21653976 9.6114749532 -0 2.57110337382e-07 0.0347137522016
Te 0.3862619642 4.6431510399 10.1736695347 0.0196056916667 -0.0113195397136 -0.00872735329208
Te -0.2708982884 0.156403271 24.1503895186 0.0373738157521 -0.0215774708441 -0.00148069843298
Te 2.10710934 3.64961945 24.3359513553 -2.57110337382e-07 -2.57110337382e-07 -0.00916778330002
Te 4.4851161184 0.156403771 24.1503897086 -0.0373735586418 -0.0215777279544 -0.00148095554332
Te -2.10710934 3.336812898 24.1503897086 0 0.0431551987985 -0.00148095554332
Te 0.0249329839 2.4474756568 27.6574945372 -0.00884048184053 -0.00510389730736 0.0103080676463
Te 2.10710823 6.0539089563 27.6574945372 2.57110337382e-07 0.0102077946147 0.0103080676463
Te 4.1892848461 2.4474748668 27.6574945272 0.00884048184053 -0.00510364019703 0.0103080676463
Te -2.10710823 6.0826991 27.6128727247 -2.57110337382e-07 -0 -0.0233947267087
Te 0.2058281209 2.5519145042 20.7109284841 -0.0249332749676 -0.014394836459 -0.00805063888409
Te 2.10710915 5.8450296716 20.7109284841 -0 0.0287901871386 -0.00805063888409
Te 4.0083896991 2.5519147742 20.7109280541 0.0249330178572 -0.014394836459 -0.00805063888409
Te -2.10710915 6.08269963 20.9021488199 0 -2.57110337382e-07 0.0186975779551
Sb 0.1101344582 2.4966642976 8.0283528124 -0.0018164845336 -0.0010482388455 -0.0349742049733
Sb 2.10711038 5.9555279547 8.0283528124 -2.57110337382e-07 0.00209724902202 -0.0349742049733
Sb 4.1040833618 2.4966659876 8.0283532024 0.00181622742326 -0.00104849595584 -0.0349742049733
Sb -2.10711038 6.08270034 9.2417196576 2.57110337382e-07 -2.57110337382e-07 -0.0108878514571
Sb 0.0053775608 2.4361819641 1.9976789336 0.00270840029398 0.00156425929263 0.0182787452155
Sb 2.10711114 6.0764913019 1.9976789336 -2.57110337382e-07 -0.00312774725425 0.0182787452155
Sb 4.2088402692 2.4361845341 1.9976792236 -0.00270840029398 0.00156374507196 0.0182784881051
Sb -2.10711114 6.08270078 1.856816144 2.57110337382e-07 -2.57110337382e-07 0.0201062854936
Sb 0.019626032 -0.0113311026 19.024148278 0.00430711237182 -0.00248677118316 -0.0144084633069
Sb 2.10710819 3.64962011 18.4852501752 0 -2.57110337382e-07 0.00760866621413
Sb 4.194591798 -0.0113319426 19.024148528 -0.00430711237182 -0.00248651407282 -0.0144084633069
Sb 6.32132747 3.6722823153 19.024148528 -0 0.00497328525597 -0.0144084633069
Sb -0.0812004549 0.0468811253 11.5191749142 0.0108078901422 -0.00624006788825 0.0245656071851
Sb 2.10710964 3.64961928 14.9303520049 0 -0 -0.0681182985652
Sb 4.2954182749 0.0468819653 11.5191746742 -0.0108078901422 -0.00624006788825 0.0245656071851
Sb -2.10710964 3.5558570295 11.5191746742 0 0.0124798786662 0.0245653500748
Sb 2.10710669 1.2170179988 29.246897722 2.57110337382e-07 0.00472877332512 -0.0131491368744
Sb 4.2138026681 4.8659224756 29.246897722 -0.00409499634348 -0.0023646437729 -0.0131491368744
Sb 6.32132897 1.21653861 29.2577370156 -2.57110337382e-07 2.57110337382e-07 -0.00837536924021
Sb 0.0004151619 4.8659198956 29.246897432 0.00409499634348 -0.00236438666256 -0.013148879764
Sb 2.10710745 1.2374952037 22.737936789 2.57110337382e-07 0.00669489607508 0.0108911938915
Sb 4.1960692725 4.8556832082 22.737936789 -0.00579783810796 -0.00334757659271 0.0108911938915
Sb 6.32132821 1.21653905 22.2566433017 -2.57110337382e-07 2.57110337382e-07 0.0157138124898
Sb 0.0181485575 4.8556815182 22.737936399 0.00579783810796 -0.00334757659271 0.0108911938915
Cr 2.10710897 3.64961966 13.5099918582 0 -0 0.0466395580907
61
Lattice="8.42843558953 0 0 -4.21421779477 7.29923593142 0 0 0 31.0334408416" Properties=species:S:1:pos:R:3:forces:R:3 energy=-133598.733075 ionic_step=36 pbc="T T T"
Te 2.1071096 1.1093926221 3.5442949068 -2.57110337382e-07 0.0277535182583 -0.00554792686002
Te 4.3070103853 4.9197326389 3.5442949068 -0.0240354456694 -0.0138767591292 -0.00554792686002
Te 6.32132606 1.21654029 3.6053042795 2.57110337382e-07 0 0.0596051181842
Te -0.0927925553 4.9197334289 3.5442949168 0.0240354456694 -0.0138770162395 -0.00554792686002
Te 0.4258241688 -0.2458498109 7.1167093958 -0.0143500992603 0.00828538062212 -0.0166748909309
Te 2.10710848 3.64961994 6.2685361867 2.57110337382e-07 -2.57110337382e-07 0.0019836062529
Te 3.7883936512 -0.2458503109 7.1167092058 0.0143500992603 0.00828538062212 -0.0166748909309
Te -2.10710848 4.1413195718 7.1167092058 -0 -0.0165702470236 -0.0166748909309
Te -0.0398825362 0.0230261987 0.0963711024 0.0109855533853 -0.00634214069219 -0.00306244122855
Te 2.10710891 3.6496197 0.1061885204 -0 -2.57110337382e-07 0.0137772574286
Te 4.2541003562 0.0230261987 0.0963711024 -0.0109855533853 -0.00634214069219 -0.00306244122855
Te -2.10710891 3.6035672926 0.0963711024 0 0.0126845384947 -0.00306244122855
Te -0.2411265658 2.293865496 13.5377930259 0.0153134916944 0.00884125317154 0.0278455637591
Te 2.1071087 6.3611284781 13.5377930259 0 -0.0176825063431 0.0278453066488
Te 4.4553443958 2.293865246 13.5377934159 -0.0153134916944 0.00884151028188 0.0278453066488
Te -2.1071087 6.08269937 12.9567269213 -0 -2.57110337382e-07 0.0822490827077
Te 2.10710913 0.8752105469 17.2986226849 -0 0.0215985538917 -0.0403182433358
Te 4.5098176838 5.0368240815 17.2986226849 -0.0187050341549 -0.010799405501 -0.0403182433358
Te 6.32132652 1.21654002 17.4728799448 0 2.57110337382e-07 -0.0257156617242
Te -0.2955998538 5.0368243315 17.2986222949 0.0187047770445 -0.010799405501 -0.0403182433358
Te 2.10710868 1.6434939185 10.153772865 0 0.0213542990712 -0.00184270978801
Te 3.8444648487 4.6526827858 10.153772865 -0.0184934323472 -0.0106772780908 -0.00184245267768
Te 6.32132698 1.21653976 9.5853551599 -0 2.57110337382e-07 0.0359306554284
Te 0.3697529713 4.6526825158 10.153773295 0.0184934323472 -0.0106772780908 -0.00184245267768
Te -0.3120231516 0.1801467329 24.1270347632 0.0333837204263 -0.0192740193315 0.0020131739417
Te 2.10710934 3.64961945 24.349081782 -2.57110337382e-07 -2.57110337382e-07 -0.00999285037267
Te 4.5262409816 0.1801472329 24.1270349532 -0.0333837204263 -0.0192740193315 0.00201291683136
Te -2.10710934 3.2893259742 24.1270349532 0 0.038548038663 0.00201291683136
Te 0.0377319736 2.4548651604 27.6726989495 -0.0133723086472 -0.0077205092109 0.00815142613635
Te 2.10710823 6.0391299492 27.6726989495 2.57110337382e-07 0.0154407613115 0.00815142613635
Te 4.1764858564 2.4548643704 27.6726989395 0.0133723086472 -0.00772025210056 0.00815142613635
Te -2.10710823 6.0826991 27.6292520918 -2.57110337382e-07 -0 -0.0304192382363
Te 0.2370220616 2.5699243426 20.6986648375 -0.0221325720625 -0.0127778695472 -0.00784340795216
Te 2.10710915 5.8090099947 20.6986648375 -0 0.0255562533151 -0.00784340795216
Te 3.9771957584 2.5699246126 20.6986644075 0.0221325720625 -0.0127778695472 -0.00784340795216
Te -2.10710915 6.08269963 20.9281963748 0 -2.57110337382e-07 0.0193313549367
Sb 0.1113907206 2.4973896014 8.027119312 -0.00152723540405 -0.000881374236544 -0.0357591628334
Sb 2.10711038 5.9540773471 8.027119312 -2.57110337382e-07 0.00176326269376 -0.0357591628334
Sb 4.1028270994 2.4973912914 8.027119702 0.00152697829371 -0.000881374236544 -0.0357591628334
Sb -2.10711038 6.08270034 9.2080987012 2.57110337382e-07 -2.57110337382e-07 -0.0125531551123
Sb 0.0038771882 2.4353157231 2.0101069682 0.00225228655546 0.00130072119681 0.0185355984425
Sb 2.10711114 6.0782237838 2.0101069682 -2.57110337382e-07 -0.00260067106262 0.0185355984425
Sb 4.2103406418 2.4353182931 2.0101072582 -0.00225228655546 0.00130046408648 0.0185353413322
Sb -2.10711114 6.08270078 1.8404295595 2.57110337382e-07 -2.57110337382e-07 0.0214946813154
Sb 0.0203786709 -0.0117656391 19.058338039 0.00418344229954 -0.00241529450936 -0.011937890075
Sb 2.10710819 3.64962011 18.4287008188 0 -2.57110337382e-07 0.00295214089382
Sb 4.1938391591 -0.0117664791 19.058338289 -0.00418344229954 -0.00241503739903 -0.011937890075
Sb 6.32132747 3.6731513882 19.058338289 -2.57110337382e-07 0.00483058901873 -0.0119376329646
Sb -0.0878904447 0.0507435945 11.5119246597 0.0115285704179 -0.00665607241414 0.023499370616
Sb 2.10710964 3.64961928 14.9602569943 0 -0 -0.0631480986333
Sb 4.3021082647 0.0507444345 11.5119244197 -0.0115285704179 -0.00665607241414 0.0234991135057
Sb -2.10710964 3.548132091 11.5119244197 0 0.0133118877179 0.0234991135057
Sb 2.10710669 1.2160133211 29.2608803622 2.57110337382e-07 0.00575310090925 -0.0132581516574
Sb 4.2146727441 4.8664248145 29.2608803622 -0.00498202700744 -0.00287680756496 -0.0132581516574
Sb 6.32132897 1.21653861 29.249311099 -2.57110337382e-07 2.57110337382e-07 -0.00733484370482
Sb -0.0004549141 4.8664222345 29.2608800722 0.00498202700744 -0.00287655045463 -0.0132578945471
Sb 2.10710745 1.2397534878 22.7638746592 2.57110337382e-07 0.00672189266051 0.0125199878788
Sb 4.194113542 4.8545540661 22.7638746592 -0.00582097803832 -0.00336120344059 0.0125199878788
Sb 6.32132821 1.21653905 22.1799753721 -2.57110337382e-07 2.57110337382e-07 0.010159972092
Sb 0.020104288 4.8545523761 22.7638742692 0.00582123514866 -0.00336094633025 0.0125199878788
Cr 2.10710897 3.64961966 13.5348927397 0 -0 0.0327196044248
61
Lattice="8.42843558953 0 0 -4.21421779477 7.29923593142 0 0 0 31.0334408416" Properties=species:S:1:pos:R:3:forces:R:3 energy=-133598.811075 ionic_step=37 pbc="T T T"
Te 2.1071096 1.0877635332 3.5327324613 -2.57110337382e-07 0.0321210515594 -0.00729833403691
Te 4.325741717 4.9305471834 3.5327324613 -0.0278177958427 -0.0160606543349 -0.00729833403691
Te 6.32132606 1.21654029 3.623357657 2.57110337382e-07 0 0.0560192003087
Te -0.111523887 4.9305479734 3.5327324713 0.0278177958427 -0.0160609114452 -0.00729833403691
Te 0.4038862341 -0.2331839325 7.0706115119 -0.0169507703229 0.00978664788209 -0.0117584270595
Te 2.10710848 3.64961994 6.3235932769 2.57110337382e-07 -2.57110337382e-07 -0.00478765159238
Te 3.8103315859 -0.2331844325 7.0706113219 0.0169507703229 0.00978664788209 -0.0117584270595
Te -2.10710848 4.115987815 7.0706113219 -0 -0.0195730386539 -0.0117584270595
Te -0.0549832789 0.0317446206 0.1084467501 0.0141711504655 -0.00818150804582 -0.00367744915557
Te 2.10710891 3.6496197 0.1320603169 0 -2.57110337382e-07 0.0139461789203
Te 4.2692010989 0.0317446206 0.1084467501 -0.0141711504655 -0.00818150804582 -0.00367744915557
Te -2.10710891 3.5861304488 0.1084467501 0 0.016363273202 -0.00367744915557
Te -0.2342651043 2.2978269644 13.5438916726 0.0161172186091 0.00930533733052 0.0266312316357
Te 2.1071087 6.3532055412 13.5438916726 0 -0.0186104175507 0.0266312316357
Te 4.4484829343 2.2978267144 13.5438920626 -0.0161172186091 0.00930533733052 0.0266312316357
Te -2.1071087 6.08269937 12.9075686457 -0 -2.57110337382e-07 0.0810553194112
Te 2.10710913 0.8248652476 17.3146710576 -0 0.0140878467162 -0.0412402410057
Te 4.5534179717 5.0619967312 17.3146710576 -0.0122003997294 -0.00704379480291 -0.0412402410057
Te 6.32132652 1.21654002 17.5265764911 0 2.57110337382e-07 -0.0344525280988
Te -0.3392001417 5.0619969812 17.3146706677 0.0122003997294 -0.00704405191324 -0.0412402410057
Te 2.10710868 1.6286794828 10.117904852 0 0.0210740488035 0.00990543285796
Te 3.8572945203 4.6600900036 10.117904852 -0.0182504630784 -0.0105371529569 0.00990543285796
Te 6.32132698 1.21653976 9.5502039684 -0 2.57110337382e-07 0.038465763355
Te 0.3569232997 4.6600897336 10.117905282 0.0182504630784 -0.0105371529569 0.00990543285796
Te -0.3696884701 0.2134398356 24.0880016621 0.02574291542 -0.0148625201627 0.00742920319864
Te 2.10710934 3.64961945 24.3695264359 -2.57110337382e-07 -2.57110337382e-07 -0.0117579128388
Te 4.5839063001 0.2134403356 24.0880018521 -0.02574291542 -0.0148625201627 0.0074289460883
Te -2.10710934 3.2227397688 24.0880018521 0 0.0297252974357 0.0074289460883
Te 0.0567204261 2.4658281537 27.6964572082 -0.0202435824137 -0.0116874646064 0.003874395674
Te 2.10710823 6.0172039626 27.6964572082 2.57110337382e-07 0.0233749292127 0.003874395674
Te 4.1574974039 2.4658273637 27.6964571982 0.0202435824137 -0.011687207496 0.003874395674
Te -2.10710823 6.0826991 27.6562810383 -2.57110337382e-07 -0 -0.0388506575301
Te 0.2811317765 2.5953911103 20.6800023347 -0.0158043153285 -0.009124331653 -0.00739397908242
Te 2.10710915 5.7580764594 20.6800023347 -0 0.0182489204163 -0.00739397908242
Te 3.9330860435 2.5953913803 20.6800019047 0.0158040582182 -0.009124331653 -0.00739397908242
Te -2.10710915 6.08269963 20.9684768259 0 -2.57110337382e-07 0.0190760443717
Sb 0.1139280922 2.4988545543 8.0178390707 -0.00138608182882 -0.000799870259594 -0.0367631787008
Sb 2.10711038 5.9511474414 8.0178390707 -2.57110337382e-07 0.00160025473986 -0.0367631787008
Sb 4.1002897278 2.4988562443 8.0178394607 0.00138608182882 -0.000800127369932 -0.0367631787008
Sb -2.10711038 6.08270034 9.1669149656 2.57110337382e-07 -2.57110337382e-07 -0.014818554295
Sb 0.0008592469 2.4335733131 2.0262191375 0.00166016144847 0.000959021558433 0.0188197053653
Sb 2.10711114 6.0817086038 2.0262191375 -2.57110337382e-07 -0.00191727178585 0.0188199624757
Sb 4.2133585831 2.4335758831 2.0262194275 -0.00166016144847 0.000958507337759 0.018819448255
Sb -2.10711114 6.08270078 1.8149742089 2.57110337382e-07 -2.57110337382e-07 0.023412467322
Sb 0.0183906869 -0.0106178755 19.1133080307 0.00327712836027 -0.00189181786245 -0.00728856384409
Sb 2.10710819 3.64962011 18.3507583587 0 -2.57110337382e-07 -0.0041199360462
Sb 4.1958271431 -0.0106187155 19.1133082807 -0.00327712836027 -0.00189181786245 -0.00728856384409
Sb 6.32132747 3.670855861 19.1133082807 -2.57110337382e-07 0.00378389283525 -0.00728856384409
Sb -0.0984598103 0.0568458234 11.5021157832 0.0126035487384 -0.00727673676857 0.0216785152067
Sb 2.10710964 3.64961928 14.9960257706 0 -0 -0.057622797483
Sb 4.3126776303 0.0568466634 11.5021155431 -0.0126035487384 -0.00727673676857 0.0216785152067
Sb -2.10710964 3.5359276331 11.5021155432 0 0.0145532164268 0.0216782580963
Sb 2.10710669 1.2140906129 29.2828361686 2.57110337382e-07 0.00723662755594 -0.0133656237784
Sb 4.2163378575 4.8673861686 29.2828361686 -0.00626680736334 -0.00361857088831 -0.0133656237784
Sb 6.32132897 1.21653861 29.2352490336 -2.57110337382e-07 2.57110337382e-07 -0.00600815436393
Sb -0.0021200275 4.8673835886 29.2828358786 0.00626680736334 -0.00361831377797 -0.0133653666681
Sb 2.10710745 1.2427301609 22.8000616888 2.57110337382e-07 0.00647352407459 0.0153841970372
Sb 4.1915356687 4.8530657295 22.8000616888 -0.00560603379627 -0.00323701914763 0.0153844541476
Sb 6.32132821 1.21653905 22.0651557946 -2.57110337382e-07 2.57110337382e-07 0.0024471761912
Sb 0.0226821613 4.8530640395 22.8000612988 0.00560603379627 -0.0032367620373 0.0153844541476
Cr 2.10710897 3.64961966 13.5657851815 0 -0 0.0131838467699
61
Lattice="8.42843558953 0 0 -4.21421779477 7.29923593142 0 0 0 31.0334408416" Properties=species:S:1:pos:R:3:forces:R:3 energy=-133598.864836 ionic_step=38 pbc="T T T"
Te 2.1071096 1.0844575963 3.5242646516 -2.57110337382e-07 0.0326337295722 -0.00816993808064
Te 4.328604741 4.9322001519 3.5242646516 -0.0282618253953 -0.0163169933413 -0.00816993808064
Te 6.32132606 1.21654029 3.6252978722 2.57110337382e-07 0 0.0542320263536
Te -0.114386911 4.9322009419 3.5242646615 0.028261568285 -0.0163172504516 -0.00816993808064
Te 0.398260192 -0.2299357341 7.0500851331 -0.0174477646051 0.0100735830186 -0.00960872752863
Te 2.10710848 3.64961994 6.3517763106 2.57110337382e-07 -2.57110337382e-07 -0.00779532831907
Te 3.815957628 -0.2299362341 7.0500849431 0.0174477646051 0.0100738401289 -0.00960872752863
Te -2.10710848 4.1094914182 7.0500849431 -0 -0.0201469089269 -0.00960872752863
Te -0.0601114089 0.0347053492 0.1091140808 0.015118087838 -0.00872812462309 -0.003535267139
Te 2.10710891 3.6496197 0.1381156831 0 -2.57110337382e-07 0.0134188456183
Te 4.2743292289 0.0347053492 0.1091140808 -0.015118087838 -0.00872812462309 -0.003535267139
Te -2.10710891 3.5802089916 0.1091140808 0 0.0174565063565 -0.003535267139
Te -0.2263255972 2.3024108432 13.551319709 0.0169841946668 0.0098059311574 0.0267111929506
Te 2.1071087 6.3440377837 13.551319709 0 -0.0196118623148 0.0267111929506
Te 4.4405434272 2.3024105932 13.551320099 -0.0169841946668 0.0098059311574 0.0267111929506
Te -2.1071087 6.08269937 12.9039923474 -0 -2.57110337382e-07 0.0805038177376
Te 2.10710913 0.819579743 17.3218840455 -0 0.0125816943598 -0.0414045345113
Te 4.5579953507 5.0646394835 17.3218840455 -0.0108960789879 -0.00629097573505 -0.0414042774009
Te 6.32132652 1.21654002 17.5425886562 0 2.57110337382e-07 -0.0384840181889
Te -0.3437775207 5.0646397335 17.3218836555 0.0108960789879 -0.00629097573505 -0.0414042774009
Te 2.10710868 1.6300893188 10.108893873 0 0.0204279305256 0.0123549230422
Te 3.8560735671 4.6593850856 10.108893873 -0.0176912480946 -0.0102142223732 0.0123551801525
Te 6.32132698 1.21653976 9.5618473371 -0 2.57110337382e-07 0.0396045050393
Te 0.3581442529 4.6593848156 10.108894303 0.0176912480946 -0.0102142223732 0.0123549230422
Te -0.3787550052 0.2186744045 24.0697044598 0.0240956094884 -0.0139114690247 0.0102527889238
Te 2.10710934 3.64961945 24.3757235263 -2.57110337382e-07 -2.57110337382e-07 -0.0129563041213
Te 4.5929728352 0.2186749045 24.0697046498 -0.0240953523781 -0.0139114690247 0.0102525318134
Te -2.10710934 3.212270631 24.0697046498 0 0.0278229380494 0.0102525318134
Te 0.0624614714 2.4691427492 27.7029422396 -0.0225640032086 -0.0130272665745 0.00172032526742
Te 2.10710823 6.0105747715 27.7029422396 2.57110337382e-07 0.0260545331489 0.00172032526742
Te 4.1517563586 2.4691419592 27.7029422296 0.0225640032086 -0.0130270094641 0.00172032526742
Te -2.10710823 6.0826991 27.6672938699 -2.57110337382e-07 -0 -0.0410312103014
Te 0.2883127913 2.5995370731 20.6734058202 -0.0140824473991 -0.00813008597834 -0.00674606103222
Te 2.10710915 5.7497845339 20.6734058202 -0 0.0162606861774 -0.00674606103222
Te 3.9259050287 2.5995373431 20.6734053902 0.0140821902887 -0.00813008597834 -0.00674606103222
Te -2.10710915 6.08269963 20.978149788 0 -2.57110337382e-07 0.0176369978134
Sb 0.1100058454 2.496590043 8.0199938342 -0.00100838674321 -0.000581583583157 -0.0363147782725
Sb 2.10711038 5.955676464 8.0199938342 -2.57110337382e-07 0.00116393849733 -0.0363147782725
Sb 4.1042119746 2.496591733 8.0199942242 0.00100812963287 -0.000581840693495 -0.0363147782725
Sb -2.10711038 6.08270034 9.1585368581 2.57110337382e-07 -2.57110337382e-07 -0.0152281310624
Sb -0.0013303222 2.4323091642 2.0270314716 0.00150049592896 0.000866718947313 0.0187317736299
Sb 2.10711114 6.0842369017 2.0270314716 -2.57110337382e-07 -0.00173292367395 0.0187317736299
Sb 4.2155481522 2.4323117342 2.0270317616 -0.00150049592896 0.000866461836976 0.0187315165196
Sb -2.10711114 6.08270078 1.8065556643 2.57110337382e-07 -2.57110337382e-07 0.0239757960712
Sb 0.0149828337 -0.0086503496 19.1275915412 0.0031012648895 -0.00179051638953 -0.00604774935589
Sb 2.10710819 3.64962011 18.3355300281 0 -2.57110337382e-07 -0.00526330571654
Sb 4.1992349963 -0.0086511896 19.1275917912 -0.0031012648895 -0.00179025927919 -0.00604774935589
Sb 6.32132747 3.6669208092 19.1275917912 -2.57110337382e-07 0.00358077566871 -0.00604774935589
Sb -0.0992663725 0.0573114926 11.5156318165 0.0125696101739 -0.00725719638293 0.0204590408765
Sb 2.10710964 3.64961928 14.9891706347 0 -0 -0.0587651387119
Sb 4.3134841925 0.0573123326 11.5156315765 -0.0125696101739 -0.00725719638293 0.0204590408765
Sb -2.10710964 3.5349962949 11.5156315765 0 0.0145138785452 0.0204587837661
Sb 2.10710669 1.2130917549 29.2886054153 2.57110337382e-07 0.00762692104809 -0.013338627193
Sb 4.2172028934 4.8678855975 29.2886054153 -0.006604907457 -0.00381371763438 -0.013338627193
Sb 6.32132897 1.21653861 29.2259809276 -2.57110337382e-07 2.57110337382e-07 -0.00574770159217
Sb -0.0029850634 4.8678830175 29.2886051253 0.006604907457 -0.00381346052404 -0.0133383700827
Sb 2.10710745 1.2420315927 22.8053575787 2.57110337382e-07 0.00656325558234 0.0160902220237
Sb 4.1921406462 4.8534150137 22.8053575787 -0.00568368111816 -0.00328175634634 0.016090479134
Sb 6.32132821 1.21653905 22.0289589824 -2.57110337382e-07 2.57110337382e-07 0.000731478909851
Sb 0.0220771838 4.8534133237 22.8053571887 0.00568368111816 -0.00328175634634 0.016090479134
Cr 2.10710897 3.64961966 13.5608106435 0 -0 0.0117031483369
61
Lattice="8.42843558953 0 0 -4.21421779477 7.29923593142 0 0 0 31.0334408416" Properties=species:S:1:pos:R:3:forces:R:3 energy=-133598.926986 ionic_step=39 pbc="T T T"
Te 2.1071096 1.0788873021 3.5227449449 -2.57110337382e-07 0.0338830287015 -0.00934287543977
Te 4.3334287551 4.9349852989 3.5227449449 -0.0293434885847 -0.0169415143508 -0.00934287543977
Te 6.32132606 1.21654029 3.6351239659 2.57110337382e-07 0 0.0520951823396
Te -0.1192109251 4.9349860889 3.5227449549 0.0293434885847 -0.0169417714611 -0.00934287543977
Te 0.3981188415 -0.2298541253 7.0291555044 -0.0172184221841 0.00994117119486 -0.00693889378526
Te 2.10710848 3.64961994 6.3526320876 2.57110337382e-07 -2.57110337382e-07 -0.00974422467643
Te 3.8160989785 -0.2298546253 7.0291553144 0.0172181650738 0.00994117119486 -0.00693863667492
Te -2.10710848 4.1093282006 7.0291553144 -0 -0.0198820852794 -0.00693889378526
Te -0.0668262711 0.0385821785 0.110294442 0.016425751014 -0.00948325768398 -0.00325553109193
Te 2.10710891 3.6496197 0.1456742653 0 -2.57110337382e-07 0.0132743496087
Te 4.2810440911 0.0385821785 0.110294442 -0.016425751014 -0.00948325768398 -0.00325553109193
Te -2.10710891 3.572455333 0.110294442 0 0.018966515368 -0.00325553109193
Te -0.2176638349 2.3074117163 13.5646197097 0.0179666132659 0.0103731165617 0.0261342373535
Te 2.1071087 6.3340360374 13.5646197097 0 -0.0207462331233 0.0261342373535
Te 4.4318816649 2.3074114663 13.5646200997 -0.0179666132659 0.0103731165617 0.0261342373535
Te -2.1071087 6.08269937 12.8972584285 -0 -2.57110337382e-07 0.0799281476922
Te 2.10710913 0.8105159817 17.3264841815 -0 0.0105428093843 -0.0410553786731
Te 4.5658447947 5.0691713642 17.3264841815 -0.00913024519076 -0.005271276137 -0.0410553786731
Te 6.32132652 1.21654002 17.5561419305 0 2.57110337382e-07 -0.0418377654298
Te -0.3516269647 5.0691716142 17.3264837915 0.00913024519076 -0.00527153324734 -0.0410553786731
Te 2.10710868 1.6325348998 10.099232467 0 0.0207320920548 0.0137734007735
Te 3.8539556328 4.6581622951 10.099232467 -0.01795452908 -0.0103661745826 0.0137734007735
Te 6.32132698 1.21653976 9.569870409 -0 2.57110337382e-07 0.0413407711476
Te 0.3602621872 4.6581620251 10.099232897 0.01795452908 -0.0103661745826 0.0137734007735
Te -0.3928510933 0.2268127886 24.0545404955 0.0218618348772 -0.0126218035724 0.0120456193063
Te 2.10710934 3.64961945 24.3925119111 -2.57110337382e-07 -2.57110337382e-07 -0.0153438307143
Te 4.6070689233 0.2268132886 24.0545406855 -0.0218618348772 -0.0126218035724 0.012045362196
Te -2.10710934 3.1959938629 24.0545406855 0 0.0252436071448 0.012045362196
Te 0.0690107045 2.4729239525 27.7050596615 -0.0250011520967 -0.0144344314509 0.000740734881996
Te 2.10710823 6.003012365 27.7050596615 2.57110337382e-07 0.0288688629019 0.000740734881996
Te 4.1452071255 2.4729231625 27.7050596515 0.0250011520967 -0.0144341743406 0.000740734881996
Te -2.10710823 6.0826991 27.6742392959 -2.57110337382e-07 -0 -0.0424646004323
Te 0.2995800603 2.6060422369 20.6684914129 -0.0117849094242 -0.00680365374779 -0.0061035422991
Te 2.10710915 5.7367742062 20.6684914129 -0 0.0136080788266 -0.0061035422991
Te 3.9146377597 2.6060425069 20.6684909829 0.0117849094242 -0.00680365374779 -0.0061035422991
Te -2.10710915 6.08269963 20.9906253527 0 -2.57110337382e-07 0.0165337373557
Sb 0.1063950123 2.4945053265 8.0127492097 -0.00105749481765 -0.000610122830607 -0.0360910922789
Sb 2.10711038 5.9598458969 8.0127492097 -2.57110337382e-07 0.00122075988189 -0.0360913493893
Sb 4.1078228077 2.4945070165 8.0127495997 0.00105749481765 -0.000610379940944 -0.0360910922789
Sb -2.10711038 6.08270034 9.1499293609 2.57110337382e-07 -2.57110337382e-07 -0.0162064358962
Sb -0.0037346919 2.430921 2.0327177624 0.0014711853505 0.000849749665046 0.0186561831907
Sb 2.10711114 6.0870132299 2.0327177624 -2.57110337382e-07 -0.00169872799908 0.0186561831907
Sb 4.2179525219 2.43092357 2.0327180524 -0.0014711853505 0.000849492554709 0.0186559260804
Sb -2.10711114 6.08270078 1.7990968818 2.57110337382e-07 -2.57110337382e-07 0.0245882328948
Sb 0.0111957305 -0.0064638635 19.1413998352 0.00298787923071 -0.00172495325349 -0.0045703933573
Sb 2.10710819 3.64962011 18.3104407631 0 -2.57110337382e-07 -0.00761149442785
Sb 4.2030220995 -0.0064647035 19.1414000852 -0.00298787923071 -0.00172495325349 -0.0045703933573
Sb 6.32132747 3.6625478371 19.1414000852 -2.57110337382e-07 0.00344990650699 -0.00457013624696
Sb -0.1034777403 0.059742928 11.5329497261 0.0126416010684 -0.00729859114725 0.0191215529014
Sb 2.10710964 3.64961928 14.9784479559 0 -0 -0.0602458371449
Sb 4.3176955603 0.059743768 11.5329494861 -0.0126416010684 -0.00729859114725 0.0191212957911
Sb -2.10710964 3.530133424 11.5329494861 0 0.0145969251842 0.0191212957911
Sb 2.10710669 1.2123107342 29.2930500326 2.57110337382e-07 0.00811980156485 -0.0131416806746
Sb 4.217879277 4.8682761079 29.2930500326 -0.00703171061705 -0.00406028644793 -0.0131414235642
Sb 6.32132897 1.21653861 29.2141683906 -2.57110337382e-07 2.57110337382e-07 -0.00520134212523
Sb -0.003661447 4.8682735279 29.2930497426 0.00703171061705 -0.00405977222726 -0.0131411664539
Sb 2.10710745 1.2408514527 22.8162732431 2.57110337382e-07 0.00648149449505 0.0168666952426
Sb 4.193162677 4.8540050837 22.8162732431 -0.00561297577538 -0.00324113291303 0.0168669523529
Sb 6.32132821 1.21653905 21.989142489 -2.57110337382e-07 2.57110337382e-07 -0.000634034091983
Sb 0.021055153 4.8540033937 22.8162728531 0.00561297577538 -0.0032408758027 0.0168669523529
Cr 2.10710897 3.64961966 13.5532147665 0 -0 0.0110115215294
61
Lattice="8.42843558953 0 0 -4.21421779477 7.29923593142 0 0 0 31.0334408416" Properties=species:S:1:pos:R:3:forces:R:3 energy=-133599.001618 ionic_step=40 pbc="T T T"
Te 2.1071096 1.0697241727 3.5236492931 -2.57110337382e-07 0.0357529921853 -0.010926675118
Te 4.3413642542 4.9395668637 3.5236492931 -0.0309630265999 -0.0178766246478 -0.0109264180077
Te 6.32132606 1.21654029 3.6539651997 2.57110337382e-07 0 0.0491818651067
Te -0.1271464242 4.9395676537 3.5236493031 0.0309630265999 -0.0178766246478 -0.010926675118
Te 0.403998755 -0.2332488965 7.0013597202 -0.0159781219166 0.00922511890525 -0.00357769034467
Te 2.10710848 3.64961994 6.3406498612 2.57110337382e-07 -2.57110337382e-07 -0.0117535419631
Te 3.810219065 -0.2332493965 7.0013595302 0.0159781219166 0.00922511890525 -0.00357769034467
Te -2.10710848 4.116117743 7.0013595302 -0 -0.0184499807002 -0.00357769034467
Te -0.0775538135 0.0447757309 0.1117725061 0.0183923879846 -0.0106186569339 -0.00271097139735
Te 2.10710891 3.6496197 0.1577638071 0 -2.57110337382e-07 0.0131064565584
Te 4.2917716335 0.0447757309 0.1117725061 -0.0183921308743 -0.0106186569339 -0.00271097139735
Te -2.10710891 3.5600682282 0.1117725061 0 0.0212373138677 -0.00271097139735
Te -0.206889066 2.3136325349 13.5872326506 0.0193218418542 0.0111555033183 0.0247381282215
Te 2.1071087 6.3215944002 13.5872326506 0 -0.0223110066366 0.0247381282215
Te 4.421106896 2.3136322849 13.5872330406 -0.0193218418542 0.0111557604287 0.0247381282215
Te -2.1071087 6.08269937 12.8884058482 -0 -2.57110337382e-07 0.0793272808337
Te 2.10710913 0.7974310117 17.3330276267 -0 0.00754541707114 -0.0403670942999
Te 4.5771767058 5.0757138491 17.3330276267 -0.00653471633489 -0.00377283709074 -0.0403670942999
Te 6.32132652 1.21654002 17.5737985204 0 2.57110337382e-07 -0.0465570256724
Te -0.3629588758 5.0757140991 17.3330272367 0.00653471633489 -0.00377283709074 -0.0403668371896
Te 2.10710868 1.6350109393 10.0856254867 0 0.021466913399 0.0155376919086
Te 3.8518113207 4.6569242754 10.0856254867 -0.0185906200547 -0.0107335852547 0.015537949019
Te 6.32132698 1.21653976 9.5799542363 -0 2.57110337382e-07 0.0437007869344
Te 0.3624064993 4.6569240053 10.0856259167 0.0185908771651 -0.0107335852547 0.015537949019
Te -0.4161713782 0.2402767676 24.0311509987 0.0182149818518 -0.0105163270196 0.0143431572812
Te 2.10710934 3.64961945 24.421900952 -2.57110337382e-07 -2.57110337382e-07 -0.0191138395913
Te 4.6303892082 0.2402772676 24.0311511887 -0.0182149818518 -0.0105163270196 0.0143429001708
Te -2.10710934 3.1690659048 24.0311511887 0 0.0210326540392 0.0143429001708
Te 0.0791492021 2.4787774196 27.7054415897 -0.0285852701998 -0.0165036554462 -0.000412919201835
Te 2.10710823 5.9913054308 27.7054415897 2.57110337382e-07 0.0330073108924 -0.000412919201835
Te 4.1350686279 2.4787766296 27.7054415797 0.0285852701998 -0.0165033983359 -0.000412919201835
Te -2.10710823 6.0826991 27.6827731948 -2.57110337382e-07 -0 -0.0440064911256
Te 0.3187266557 2.617096534 20.6624897078 -0.00785703480005 -0.00453594057209 -0.00523116692437
Te 2.10710915 5.7146656119 20.6624897078 -0 0.00907239536485 -0.00523116692437
Te 3.8954911643 2.617096804 20.6624892778 0.00785703480005 -0.00453594057209 -0.00523116692437
Te -2.10710915 6.08269963 21.0097811939 0 -2.57110337382e-07 0.0149090571337
Sb 0.098757512 2.4900958117 7.997012626 -0.00117216602812 -0.000676200187314 -0.0358938886502
Sb 2.10711038 5.9686649267 7.997012626 -2.57110337382e-07 0.00135317170564 -0.0358938886502
Sb 4.115460308 2.4900975017 7.997013016 0.00117216602812 -0.000676457297651 -0.0358938886502
Sb -2.10711038 6.08270034 9.1344464917 2.57110337382e-07 -2.57110337382e-07 -0.018333252607
Sb -0.0073439804 2.4288371754 2.042049166 0.00147761310893 0.000853606320107 0.0186821513348
Sb 2.10711114 6.0911808792 2.042049166 -2.57110337382e-07 -0.0017064413092 0.0186824084452
Sb 4.2215618104 2.4288397454 2.042049456 -0.00147761310893 0.00085334920977 0.0186821513348
Sb -2.10711114 6.08270078 1.7867744871 2.57110337382e-07 -2.57110337382e-07 0.0255963625277
Sb 0.0062322505 -0.0035981957 19.1627902915 0.00269348789441 -0.00155500332048 -0.00233481897376
Sb 2.10710819 3.64962011 18.2694096446 0 -2.57110337382e-07 -0.0116162450429
Sb 4.2079855795 -0.0035990357 19.1627905415 -0.00269348789441 -0.00155474621015 -0.00233481897376
Sb 6.32132747 3.6568165013 19.1627905415 -2.57110337382e-07 0.00311000664097 -0.00233481897376
Sb -0.1115354164 0.0643950317 11.5588705349 0.012723619266 -0.00734615655967 0.0175356963404
Sb 2.10710964 3.64961928 14.9608366345 0 -0 -0.0624256185852
Sb 4.3257532364 0.0643958717 11.5588702949 -0.012723619266 -0.00734615655967 0.0175356963404
Sb -2.10710964 3.5208292167 11.5588702949 0 0.0146917988987 0.0175356963404
Sb 2.10710669 1.2114341857 29.3005791408 2.57110337382e-07 0.00886773553629 -0.0128696579376
Sb 4.2186383898 4.8687143821 29.3005791408 -0.00767962866725 -0.00443412487848 -0.0128696579376
Sb 6.32132897 1.21653861 29.1955339956 -2.57110337382e-07 2.57110337382e-07 -0.00441792692723
Sb -0.0044205598 4.8687118021 29.3005788508 0.00767962866725 -0.00443386776815 -0.0128694008273
Sb 2.10710745 1.2396133946 22.8342569864 2.57110337382e-07 0.00624289610196 0.0180650865251
Sb 4.1942348662 4.8546241127 22.8342569864 -0.00540625906412 -0.00312183371649 0.0180650865251
Sb 6.32132821 1.21653905 21.9294177489 -2.57110337382e-07 2.57110337382e-07 -0.00178948794818
Sb 0.0199829638 4.8546224227 22.8342565964 0.00540651617446 -0.00312157660615 0.0180650865251
Cr 2.10710897 3.64961966 13.540469348 0 -0 0.0104600198557
61
Lattice="8.42843558953 0 0 -4.21421779477 7.29923593142 0 0 0 31.0334408416" Properties=species:S:1:pos:R:3:forces:R:3 energy=-133599.054162 ionic_step=41 pbc="T T T"
Te 2.1071096 1.0623409517 3.5242528355 -2.57110337382e-07 0.0370231172519 -0.0123603223593
Te 4.3477583082 4.9432584742 3.5242528355 -0.0320629446232 -0.0185114300708 -0.0123600652489
Te 6.32132606 1.21654029 3.6745316059 2.57110337382e-07 0 0.0472987889957
Te -0.1335404782 4.9432592642 3.5242528455 0.0320629446232 -0.0185116871811 -0.0123603223593
Te 0.4211017877 -0.2431233417 6.9783163787 -0.0133021175251 0.00768014288793 -0.00119710573085
Te 2.10710848 3.64961994 6.3201964586 2.57110337382e-07 -2.57110337382e-07 -0.0127241334867
Te 3.7931160323 -0.2431238417 6.9783161887 0.0133018604148 0.00768014288793 -0.00119684862051
Te -2.10710848 4.1358666333 6.9783161887 -0 -0.0153597715552 -0.00119684862051
Te -0.0887395897 0.0512338448 0.109973536 0.0201710772986 -0.0116455556214 -0.00175580649398
Te 2.10710891 3.6496197 0.1687252684 0 -2.57110337382e-07 0.0124161153025
Te 4.3029574097 0.0512338448 0.109973536 -0.0201710772986 -0.0116455556214 -0.00175580649398
Te -2.10710891 3.5471520004 0.109973536 0 0.0232913683531 -0.00175580649398
Te -0.1989942209 2.318190628 13.6154957 0.0207578030885 0.0119846841564 0.0229237005706
Te 2.1071087 6.3124782141 13.6154957 0 -0.0239691112024 0.0229234434603
Te 4.4132120509 2.318190378 13.61549609 -0.0207578030885 0.0119846841564 0.0229234434603
Te -2.1071087 6.08269937 12.8923328285 -0 -2.57110337382e-07 0.0790514014417
Te 2.10710913 0.7943939396 17.3415704014 -0 0.00573098942024 -0.0395631102749
Te 4.5798068862 5.0772323852 17.3415704014 -0.00496325795281 -0.00286549471012 -0.0395631102749
Te 6.32132652 1.21654002 17.5856681934 0 2.57110337382e-07 -0.0498701494799
Te -0.3655890562 5.0772326352 17.3415700114 0.00496325795281 -0.00286549471012 -0.0395631102749
Te 2.10710868 1.638971126 10.0768468292 0 0.021951566385 0.0158667931405
Te 3.8483817 4.654944182 10.0768468292 -0.0190104812357 -0.0109760403028 0.0158667931405
Te 6.32132698 1.21653976 9.6022309032 -0 2.57110337382e-07 0.0453558061761
Te 0.36583612 4.654943912 10.0768472592 0.0190104812357 -0.0109757831925 0.0158667931405
Te -0.4344008839 0.2508015826 24.0013613487 0.0151103745279 -0.00872375374736 0.0172248499425
Te 2.10710934 3.64961945 24.453684499 -2.57110337382e-07 -2.57110337382e-07 -0.0228270270838
Te 4.6486187139 0.2508020826 24.0013615387 -0.0151103745279 -0.00872375374736 0.0172248499425
Te -2.10710934 3.1480162749 24.0013615387 0 0.0174477646051 0.0172248499425
Te 0.0889850785 2.4844561681 27.7012001662 -0.0320120367764 -0.0184821194923 -0.00188461877301
Te 2.10710823 5.9799479338 27.7012001662 2.57110337382e-07 0.0369639818743 -0.00188461877301
Te 4.1252327515 2.4844553781 27.7012001563 0.0320120367764 -0.018481862382 -0.00188461877301
Te -2.10710823 6.0826991 27.6907699808 -2.57110337382e-07 -0 -0.0451205502174
Te 0.3356134187 2.6268461158 20.6585867492 -0.00399292353954 -0.00230499417463 -0.00433539450893
Te 2.10710915 5.6951664485 20.6585867492 -0 0.00461050256993 -0.00433539450893
Te 3.8786044013 2.6268463858 20.6585863192 0.00399292353954 -0.00230499417463 -0.00433513739859
Te -2.10710915 6.08269963 21.0260580805 0 -2.57110337382e-07 0.0123610936903
Sb 0.0835750064 2.4813301839 7.9784913386 -0.000923283221537 -0.000532475508717 -0.0353716975549
Sb 2.10711038 5.9861961822 7.9784913386 -2.57110337382e-07 0.00106597945878 -0.0353719546653
Sb 4.1306428136 2.4813318739 7.9784917286 0.000923283221537 -0.000532732619055 -0.0353719546653
Sb -2.10711038 6.08270034 9.1202230119 2.57110337382e-07 -2.57110337382e-07 -0.0210444811147
Sb -0.0115675469 2.426398697 2.0478638607 0.00152749251438 0.000882402677894 0.018841559744
Sb 2.10711114 6.096057836 2.0478638607 -2.57110337382e-07 -0.00176377691444 0.018841559744
Sb 4.2257853769 2.426401267 2.0478641507 -0.00152749251438 0.000881888457219 0.0188413026337
Sb -2.10711114 6.08270078 1.7719465865 2.57110337382e-07 -2.57110337382e-07 0.0267109358402
Sb 0.0014937515 -0.0008624207 19.1825883973 0.00237518529673 -0.00137116942926 -0.000523990867584
Sb 2.10710819 3.64962011 18.2344286019 0 -2.57110337382e-07 -0.0150556100261
Sb 4.2127240785 -0.0008632607 19.1825886473 -0.00237518529673 -0.00137116942926 -0.000523990867584
Sb 6.32132747 3.6513449515 19.1825886473 -2.57110337382e-07 0.00274233885851 -0.000523990867584
Sb -0.1190384442 0.0687269088 11.593678561 0.0124474827637 -0.00718674815049 0.0162082356685
Sb 2.10710964 3.64961928 14.9311114251 0 -0 -0.066244221316
Sb 4.3332562642 0.0687277488 11.593678321 -0.0124474827637 -0.00718674815049 0.0162082356685
Sb -2.10710964 3.5121654624 11.593678321 0 0.0143729820803 0.0162082356685
Sb 2.10710669 1.2110716265 29.3091031505 2.57110337382e-07 0.00949585609052 -0.0126565134679
Sb 4.2189523751 4.8688956617 29.3091031505 -0.00822341703081 -0.00474805660043 -0.0126565134679
Sb 6.32132897 1.21653861 29.1732004412 -2.57110337382e-07 2.57110337382e-07 -0.00386951057759
Sb -0.0047345451 4.8688930817 29.3091028605 0.00822341703081 -0.00474779949009 -0.0126562563576
Sb 2.10710745 1.2390373337 22.8480975516 2.57110337382e-07 0.00604286425948 0.0190536757723
Sb 4.1947337494 4.8549121432 22.8480975516 -0.00523296669673 -0.00302181779525 0.0190536757723
Sb 6.32132821 1.21653905 21.8741956353 -2.57110337382e-07 2.57110337382e-07 -0.0022270897424
Sb 0.0194840806 4.8549104532 22.8480971616 0.00523296669673 -0.00302156068491 0.0190536757723
Cr 2.10710897 3.64961966 13.5162222053 0 -0 0.0143781242871
61
Lattice="8.42843558953 0 0 -4.21421779477 7.29923593142 0 0 0 31.0334408416" Properties=species:S:1:pos:R:3:forces:R:3 energy=-133599.074447 ionic_step=42 pbc="T T T"
Te 2.1071096 1.0553062094 3.5256484554 -2.57110337382e-07 0.0379289169705 -0.0125467273539
Te 4.3538505708 4.9467758453 3.5256484554 -0.0328473882625 -0.0189644584853 -0.0125467273539
Te 6.32132606 1.21654029 3.6866244112 2.57110337382e-07 0 0.0471105842288
Te -0.1396327408 4.9467766353 3.5256484654 0.0328473882625 -0.0189647155956 -0.0125467273539
Te 0.4300690039 -0.2483005687 6.9737808774 -0.0119692575361 0.00691061164814 -0.000599067086099
Te 2.10710848 3.64961994 6.2981705014 2.57110337382e-07 -2.57110337382e-07 -0.0121991141777
Te 3.7841488161 -0.2483010687 6.9737806874 0.0119692575361 0.00691061164814 -0.000599067086099
Te -2.10710848 4.1462210875 6.9737806874 -0 -0.0138207090756 -0.000599067086099
Te -0.0948440575 0.0547582626 0.1107400723 0.0210532228662 -0.0121548911997 -0.00145730139228
Te 2.10710891 3.6496197 0.176629881 0 -2.57110337382e-07 0.0122795897133
Te 4.3090618775 0.0547582626 0.1107400723 -0.0210532228662 -0.0121548911997 -0.00145730139228
Te -2.10710891 3.5401031649 0.1107400723 0 0.0243097823994 -0.00145730139228
Te -0.1995568129 2.3178658152 13.6218253842 0.021130098857 0.0121996283984 0.0224318484952
Te 2.1071087 6.3131278397 13.6218253842 0 -0.0243989996865 0.0224318484952
Te 4.4137746429 2.3178655652 13.6218257742 -0.021130098857 0.0121996283984 0.0224318484952
Te -2.1071087 6.08269937 12.8841097733 -0 -2.57110337382e-07 0.0789267029281
Te 2.10710913 0.7854383307 17.347956283 -0 0.0041790714238 -0.0395718520264
Te 4.5875626674 5.0817101897 17.347956283 -0.00361908510898 -0.0020895357119 -0.0395718520264
Te 6.32132652 1.21654002 17.5950632098 0 2.57110337382e-07 -0.0522952141821
Te -0.3733448374 5.0817104397 17.347955893 0.00361908510898 -0.0020895357119 -0.0395718520264
Te 2.10710868 1.6380775131 10.0720785859 0 0.0232314616445 0.0169361150337
Te 3.8491555912 4.6553909885 10.0720785859 -0.0201188839001 -0.0116159879326 0.0169361150337
Te 6.32132698 1.21653976 9.6000402419 -0 2.57110337382e-07 0.0455244705575
Te 0.3650622288 4.6553907184 10.0720790159 0.0201191410104 -0.0116159879326 0.0169361150337
Te -0.4505234333 0.2601099451 23.985490807 0.0126765680743 -0.00731864575357 0.0184291547628
Te 2.10710934 3.64961945 24.4699264397 -2.57110337382e-07 -2.57110337382e-07 -0.0240040782083
Te 4.6647412633 0.2601104451 23.985490997 -0.0126763109639 -0.00731864575357 0.0184288976525
Te -2.10710934 3.1293995497 23.985490997 0 0.0146372915071 0.0184288976525
Te 0.0946613361 2.4877333585 27.7004947067 -0.0337860981043 -0.0195064470765 -0.00274439574121
Te 2.10710823 5.973393553 27.7004947067 2.57110337382e-07 0.0390126370426 -0.00274439574121
Te 4.1195564939 2.4877325685 27.7004946967 0.0337860981043 -0.0195061899661 -0.00274439574121
Te -2.10710823 6.0826991 27.6957685264 -2.57110337382e-07 -0 -0.0454781906967
Te 0.3499330983 2.6351135905 20.6576531726 -0.00102612735649 -0.00059212510699 -0.00426108962143
Te 2.10710915 5.6786314991 20.6576531726 -0 0.00118476443465 -0.00426108962143
Te 3.8642847217 2.6351138605 20.6576527426 0.00102612735649 -0.00059212510699 -0.00426108962143
Te -2.10710915 6.08269963 21.0370376476 0 -2.57110337382e-07 0.0119690004258
Sb 0.0776012879 2.4778812543 7.9653454642 -0.000909913483994 -0.000524762198596 -0.035775617895
Sb 2.10711038 5.9930940415 7.9653454642 -2.57110337382e-07 0.0010502957282 -0.035775617895
Sb 4.1366165321 2.4778829443 7.9653458542 0.000909656373656 -0.000525019308933 -0.035775617895
Sb -2.10711038 6.08270034 9.1137522283 2.57110337382e-07 -2.57110337382e-07 -0.0221575117652
Sb -0.0129939294 2.4255751743 2.0524948638 0.00150743790807 0.000870832712712 0.0192017713267
Sb 2.10711114 6.0977048814 2.0524948638 -2.57110337382e-07 -0.00174089409441 0.0192017713267
Sb 4.2272117594 2.4255777443 2.0524951538 -0.00150743790807 0.000870575602374 0.0192015142163
Sb -2.10711114 6.08270078 1.761931573 2.57110337382e-07 -2.57110337382e-07 0.0272513817694
Sb 0.001949879 -0.0011257662 19.1964830478 0.0018123707682 -0.00104643907314 0.00048413876529
Sb 2.10710819 3.64962011 18.2106257933 0 -2.57110337382e-07 -0.0173757737106
Sb 4.212267951 -0.0011266062 19.1964832978 -0.00181262787854 -0.00104618196281 0.00048413876529
Sb 6.32132747 3.6518716423 19.1964832978 -2.57110337382e-07 0.00209262103595 0.00048413876529
Sb -0.1232471396 0.0711568013 11.5968022358 0.0125593257604 -0.00725128284517 0.015749807937
Sb 2.10710964 3.64961928 14.9373139479 0 -0 -0.0652610313859
Sb 4.3374649596 0.0711576413 11.5968019958 -0.0125593257604 -0.00725128284517 0.015749807937
Sb -2.10710964 3.5073056773 11.5968019958 0 0.0145020514697 0.015749807937
Sb 2.10710669 1.2117479409 29.3166448919 2.57110337382e-07 0.00978921898547 -0.0125927501043
Sb 4.21836667 4.8685575046 29.3166448919 -0.00847744204415 -0.00489486660307 -0.0125927501043
Sb 6.32132897 1.21653861 29.1651278311 -2.57110337382e-07 2.57110337382e-07 -0.00356123528307
Sb -0.00414884 4.8685549246 29.3166446019 0.00847744204415 -0.00489460949273 -0.0125924929939
Sb 2.10710745 1.2409353852 22.8570731209 2.57110337382e-07 0.00573561740631 0.019605177446
Sb 4.1930899893 4.8539631174 22.8570731209 -0.00496685749754 -0.00286806581349 0.019605177446
Sb 6.32132821 1.21653905 21.8417001155 -2.57110337382e-07 2.57110337382e-07 -0.00204222740982
Sb 0.0211278407 4.8539614274 22.8570727309 0.00496685749754 -0.00286780870315 0.019605177446
Cr 2.10710897 3.64961966 13.5224481116 0 -0 0.0114455237789
61
Lattice="8.42843558953 0 0 -4.21421779477 7.29923593142 0 0 0 31.0334408416" Properties=species:S:1:pos:R:3:forces:R:3 energy=-133599.084727 ionic_step=43 pbc="T T T"
Te 2.1071096 1.0533584021 3.5225463672 -2.57110337382e-07 0.0375494221126 -0.0126763109639
Te 4.3555374207 4.947749749 3.5225463672 -0.0325188012514 -0.0187747110563 -0.0126763109639
Te 6.32132606 1.21654029 3.7019118839 2.57110337382e-07 0 0.05230884103
Te -0.1413195907 4.947750539 3.5225463772 0.0325188012514 -0.0187749681666 -0.0126763109639
Te 0.4823882636 -0.2785071215 6.9952898395 -0.00640718960755 0.00369930353425 -0.0016280226563
Te 2.10710848 3.64961994 6.2266803579 2.57110337382e-07 -2.57110337382e-07 -0.00550138988895
Te 3.7318295564 -0.2785076215 6.9952896495 0.00640718960755 0.00369930353425 -0.0016280226563
Te -2.10710848 4.206634193 6.9952896495 -0 -0.00739834995816 -0.0016280226563
Te -0.1034698214 0.059738352 0.0975163148 0.0217638758387 -0.0125649821878 0.00041343342251
Te 2.10710891 3.6496197 0.1806792877 0 -2.57110337382e-07 0.00971054322223
Te 4.3176876414 0.059738352 0.0975163148 -0.0217636187283 -0.0125649821878 0.00041343342251
Te -2.10710891 3.530142986 0.0975163148 0 0.025130221486 0.00041343342251
Te -0.2140693753 2.3094869795 13.6381223339 0.0217533343148 0.0125593257604 0.0226943581497
Te 2.1071087 6.329885511 13.6381223339 0 -0.0251186515208 0.0226941010393
Te 4.4282872053 2.3094867295 13.6381227239 -0.0217533343148 0.0125593257604 0.0226941010393
Te -2.1071087 6.08269937 12.9211397653 -0 -2.57110337382e-07 0.079453264899
Te 2.10710913 0.8141849393 17.368064894 -0 0.00740014973052 -0.0397816540617
Te 4.5626673856 5.0673368853 17.368064894 -0.00640873226957 -0.00370007486526 -0.0397813969514
Te 6.32132652 1.21654002 17.5846552097 0 2.57110337382e-07 -0.0482925204497
Te -0.3484495556 5.0673371353 17.368064504 0.00640873226957 -0.00370007486526 -0.0397813969514
Te 2.10710868 1.6464287967 10.0926017713 0 0.0247990633715 0.0108713963955
Te 3.8419231708 4.6512153467 10.0926017713 -0.0214764264815 -0.0123996602409 0.0108716535058
Te 6.32132698 1.21653976 9.649693575 -0 2.57110337382e-07 0.0422468279765
Te 0.3722946492 4.6512150767 10.0926022013 0.0214766835918 -0.0123996602409 0.0108713963955
Te -0.4433282539 0.2559558044 23.939741596 0.012703050439 -0.00733381526347 0.0231131908893
Te 2.10710934 3.64961945 24.4976356848 -2.57110337382e-07 -2.57110337382e-07 -0.0253132840462
Te 4.6575460839 0.2559563044 23.939741786 -0.0127027933287 -0.00733381526347 0.0231129337789
Te -2.10710934 3.1377078311 23.939741786 0 0.0146678876373 0.0231129337789
Te 0.0988968946 2.4901787605 27.6813724588 -0.0357208533931 -0.0206233343821 -0.0047038336224
Te 2.10710823 5.9685027491 27.6813724588 2.57110337382e-07 0.0412466687641 -0.0047038336224
Te 4.1153209354 2.4901779705 27.6813724488 0.0357208533931 -0.0206230772717 -0.0047038336224
Te -2.10710823 6.0826991 27.7028395209 -2.57110337382e-07 -0 -0.046466008613
Te 0.3531519737 2.6369720099 20.6679889208 0.000901685953197 0.000520905543535 -0.00422380862251
Te 2.10710915 5.6749146602 20.6679889208 -0 -0.00104103975606 -0.00422380862251
Te 3.8610658463 2.6369722799 20.6679884908 -0.000901685953197 0.000520905543535 -0.00422380862251
Te -2.10710915 6.08269963 21.0373595756 0 -2.57110337382e-07 0.00810334650326
Sb 0.042354374 2.4575314296 7.9402199705 0.000731478909851 0.000422689394655 -0.0355313630745
Sb 2.10711038 6.0337936909 7.9402199705 -2.57110337382e-07 -0.000844864568636 -0.0355313630745
Sb 4.171863446 2.4575331196 7.9402203605 -0.000731478909851 0.000422432284318 -0.0355313630745
Sb -2.10711038 6.08270034 9.1297577926 2.57110337382e-07 -2.57110337382e-07 -0.0231936664249
Sb -0.0169263667 2.4233047795 2.0421555548 0.00153494871417 0.000886773553629 0.0201602786644
Sb 2.10711114 6.1022456711 2.0421555548 -2.57110337382e-07 -0.00177277577625 0.0201602786644
Sb 4.2311441967 2.4233073495 2.0421558448 -0.00153494871417 0.000886516443292 0.0201600215541
Sb -2.10711114 6.08270078 1.7399532975 2.57110337382e-07 -2.57110337382e-07 0.0283749539438
Sb 0.0058662516 -0.003386886 19.2018163688 0.000999387881402 -0.000576955597084 -0.000160693960864
Sb 2.10710819 3.64962011 18.2147660641 0 -2.57110337382e-07 -0.0171374324278
Sb 4.2083515784 -0.003387726 19.2018166188 -0.000999387881402 -0.000576698486747 -0.000160693960864
Sb 6.32132747 3.6563938821 19.2018166188 -2.57110337382e-07 0.00115365408383 -0.000160693960864
Sb -0.1210726734 0.0699013721 11.6275580768 0.0116779515239 -0.00674220437716 0.0142639672973
Sb 2.10710964 3.64961928 14.9174847137 0 -0 -0.0688279230964
Sb 4.3352904934 0.0699022121 11.6275578368 -0.0116779515239 -0.00674220437716 0.0142639672973
Sb -2.10710964 3.5098165358 11.6275578368 0 0.0134844087543 0.0142639672973
Sb 2.10710669 1.216051312 29.3300818507 2.57110337382e-07 0.00944597668506 -0.0127956101605
Sb 4.214639843 4.866405819 29.3300818507 -0.00818022249413 -0.0047231168977 -0.0127953530501
Sb 6.32132897 1.21653861 29.1435725818 -2.57110337382e-07 2.57110337382e-07 -0.00375226826375
Sb -0.000422013 4.866403239 29.3300815607 0.00818022249413 -0.00472285978736 -0.0127953530501
Sb 2.10710745 1.2463767698 22.8432207463 2.57110337382e-07 0.00585131705813 0.0191606336727
Sb 4.1883776143 4.8512424251 22.8432207463 -0.00506713052912 -0.0029259156394 0.0191606336727
Sb 6.32132821 1.21653905 21.8214012918 -2.57110337382e-07 2.57110337382e-07 -0.00264232293727
Sb 0.0258402157 4.8512407351 22.8432203563 0.00506738763945 -0.0029259156394 0.0191606336727
Cr 2.10710897 3.64961966 13.5033843437 0 -0 0.0234011544671
61
Lattice="8.42843558953 0 0 -4.21421779477 7.29923593142 0 0 0 31.0334408416" Properties=species:S:1:pos:R:3:forces:R:3 energy=-133599.138745 ionic_step=44 pbc="T T T"
Te 2.1071096 1.0513436253 3.5182403691 -2.57110337382e-07 0.0374864300799 -0.0122189116737
Te 4.3572822677 4.9487571373 3.5182403691 -0.0324642938598 -0.0187433435951 -0.0122189116737
Te 6.32132606 1.21654029 3.69066918 2.57110337382e-07 0 0.0502103064562
Te -0.1430644377 4.9487579273 3.5182403791 0.0324642938598 -0.0187433435951 -0.0122189116737
Te 0.450332838 -0.2599999043 6.9923880394 -0.0099159743818 0.00572507588248 -0.00172495325349
Te 2.10710848 3.64961994 6.2525737414 2.57110337382e-07 -2.57110337382e-07 -0.0061799040693
Te 3.763884982 -0.2600004043 6.9923878494 0.0099159743818 0.00572507588248 -0.00172469614316
Te -2.10710848 4.1696197586 6.9923878494 -0 -0.0114498946546 -0.00172469614316
Te -0.1007325624 0.058157994 0.1020736666 0.0214532865511 -0.0123857762827 -0.000588782672604
Te 2.10710891 3.6496197 0.1807110045 0 -2.57110337382e-07 0.0103823725338
Te 4.3149503824 0.058157994 0.1020736666 -0.0214532865511 -0.0123857762827 -0.000588782672604
Te -2.10710891 3.5333037019 0.1020736666 0 0.0247718096757 -0.000588782672604
Te -0.2132261123 2.3099738378 13.61690235 0.020748290006 0.0119790277289 0.0248463716735
Te 2.1071087 6.3289117944 13.61690235 0 -0.0239580554579 0.0248463716735
Te 4.4274439423 2.3099735878 13.61690274 -0.020748290006 0.0119790277289 0.0248463716735
Te -2.1071087 6.08269937 12.906320517 -0 -2.57110337382e-07 0.0798839247141
Te 2.10710913 0.8007468074 17.3664210002 -0 0.00624803830871 -0.0406044071413
Te 4.5743051438 5.0740559513 17.3664210002 -0.0054108870502 -0.00312414770952 -0.0406044071413
Te 6.32132652 1.21654002 17.594842525 0 2.57110337382e-07 -0.0521548319379
Te -0.3600873138 5.0740562013 17.3664206102 0.0054108870502 -0.00312414770952 -0.0406044071413
Te 2.10710868 1.635943177 10.0921016644 0 0.0237852773112 0.0126148615933
Te 3.8510039796 4.6564581565 10.0921016644 -0.0205986517897 -0.0118928957659 0.0126151187036
Te 6.32132698 1.21653976 9.6354356064 -0 2.57110337382e-07 0.0424052079444
Te 0.3632138404 4.6564578865 10.0921020944 0.0205986517897 -0.0118926386556 0.0126151187036
Te -0.4471090072 0.2581386244 23.9507819357 0.0124230572816 -0.00717209286126 0.0222343877561
Te 2.10710934 3.64961945 24.4820361878 -2.57110337382e-07 -2.57110337382e-07 -0.0241686288242
Te 4.6613268372 0.2581391244 23.9507821257 -0.0124228001713 -0.0071723499716 0.0222341306458
Te -2.10710934 3.1333421912 23.9507821257 0 0.0143446999432 0.0222341306458
Te 0.0978345763 2.4895654305 27.6906764698 -0.0352814518265 -0.0203698235894 -0.00466115330639
Te 2.10710823 5.9697294091 27.6906764698 2.57110337382e-07 0.0407393900685 -0.00466115330639
Te 4.1163832537 2.4895646405 27.6906764598 0.0352814518265 -0.0203695664791 -0.00466115330639
Te -2.10710823 6.0826991 27.7054421053 -2.57110337382e-07 -0 -0.0463454238647
Te 0.3527327571 2.636729975 20.6650676204 0.00064714671919 0.000373838430553 -0.00453619768242
Te 2.10710915 5.67539873 20.6650676204 -0 -0.000747419750768 -0.00453619768242
Te 3.8614850629 2.636730245 20.6650671904 -0.00064714671919 0.000373838430553 -0.00453619768242
Te -2.10710915 6.08269963 21.0365561362 0 -2.57110337382e-07 0.0101743702709
Sb 0.0567928129 2.46586747 7.9580070835 0.000315474383967 0.000182548339541 -0.0360147305087
Sb 2.10711038 6.0171216099 7.9580070835 -2.57110337382e-07 -0.000364582458407 -0.0360147305087
Sb 4.1574250071 2.46586916 7.9580074735 -0.000315474383967 0.000182291229204 -0.0360147305087
Sb -2.10711038 6.08270034 9.121414958 2.57110337382e-07 -2.57110337382e-07 -0.0221819372473
Sb -0.0148405751 2.4245090124 2.0437337461 0.00136577011217 0.000789071625424 0.0201283969826
Sb 2.10711114 6.0998372052 2.0437337461 -2.57110337382e-07 -0.00157737191984 0.0201283969826
Sb 4.2290584051 2.4245115824 2.0437340361 -0.00136577011217 0.000788557404749 0.0201281398723
Sb -2.10711114 6.08270078 1.7435347899 2.57110337382e-07 -2.57110337382e-07 0.0278429926557
Sb 0.008202631 -0.0047357959 19.2003375531 0.000789585846099 -0.000455856628178 -0.00022779975892
Sb 2.10710819 3.64962011 18.2168450902 0 -2.57110337382e-07 -0.0165908158506
Sb 4.206015199 -0.0047366359 19.2003378031 -0.000789585846099 -0.00045559951784 -0.000227542648583
Sb 6.32132747 3.6590917019 19.2003378031 -2.57110337382e-07 0.000911456146018 -0.000227542648583
Sb -0.1161103574 0.0670363763 11.6045276653 0.0118422450295 -0.00683733520199 0.0153461447073
Sb 2.10710964 3.64961928 14.9470037792 0 -0 -0.0648833363003
Sb 4.3303281774 0.0670372163 11.6045274253 -0.0118422450295 -0.00683733520199 0.015345887597
Sb -2.10710964 3.5155465275 11.6045274253 0 0.0136741561833 0.015345887597
Sb 2.10710669 1.2161821042 29.3290618318 2.57110337382e-07 0.00936421559778 -0.0128012665879
Sb 4.2145265737 4.8663404229 29.3290618318 -0.00810951715135 -0.00468249346439 -0.0128012665879
Sb 6.32132897 1.21653861 29.1545049572 -2.57110337382e-07 2.57110337382e-07 -0.00362834108113
Sb -0.0003087437 4.8663378429 29.3290615418 0.00810951715135 -0.00468197924372 -0.0128010094776
Sb 2.10710745 1.247179116 22.8413105528 2.57110337382e-07 0.00579578122526 0.0190235938629
Sb 4.1876827624 4.850841252 22.8413105528 -0.00501905089603 -0.00289814772297 0.0190238509732
Sb 6.32132821 1.21653905 21.8248460342 -2.57110337382e-07 2.57110337382e-07 -0.00202448679654
Sb 0.0265350676 4.850839562 22.8413101628 0.00501905089603 -0.00289789061263 0.0190238509732
Cr 2.10710897 3.64961966 13.5301748832 0 -0 0.0148110980952
