61
Lattice="8.42843558953249 0.0 0.0 -4.21421779476624 7.29923593142487 0.0 0.0 0.0 31.03344084160948" Properties=species:S:1:pos:R:3:forces:R:3 repair_mode=unwrap repair_image_index=0 migrant_element=Cr energy=-226.4711062068417 mlff_rel_energy_eV=0.0 mlff_fmax_eV_A=0.9846900434041538 calculator_label=/home/ycao73/.cache/mace/20231203mace128L1_epoch199model neb_image=0 neb_protocol=mlff_pre_neb pbc="T T T"
Te       2.10710960       1.21626748       3.59502237      -0.00000288       0.00100984       0.54079505
Te       4.21445409       4.86629521       3.59502237      -0.00086996      -0.00050206       0.54078964
Te       6.32132606       1.21654029       3.59454265       0.00000276       0.00000536       0.54361738
Te      -0.00023626       4.86629600       3.59502239       0.00086988      -0.00050533       0.54077198
Te      -0.00091566       0.00052866       6.74933386      -0.00140219       0.00081504      -0.54433935
Te       2.10710848       3.64961994       6.75037367       0.00000205      -0.00000451      -0.52396031
Te       4.21513349       0.00052816       6.74933367       0.00140212       0.00081732      -0.54432642
Te      -2.10710848       3.64856263       6.74933367      -0.00000192      -0.00162356      -0.54432078
Te       0.00000000       0.00000000      -0.00000000       0.00000007       0.00000621      -0.00000842
Te       2.10710891       3.64961970       0.00000000      -0.00000000      -0.00000151      -0.00000799
Te       4.21421783       0.00000000      -0.00000000      -0.00000007       0.00000620      -0.00000843
Te      -2.10710891       3.64961970       0.00000000       0.00000010      -0.00000149      -0.00000799
Te       0.00853734       2.43800909      13.95271096       0.03905577       0.02255166       0.98364837
Te       2.10710870       6.07284129      13.95271096       0.00000051      -0.04510173       0.98365390
Te       4.20568048       2.43800884      13.95271135      -0.03905508       0.02255181       0.98365168
Te      -2.10710870       6.08269937      13.93702124      -0.00000042      -0.00000536       0.60982333
Te       2.10710913       1.22639810      17.08072626      -0.00000053       0.04510048      -0.98364822
Te       4.20568048       4.86123030      17.08072626      -0.03905491      -0.02255513      -0.98365336
Te       6.32132652       1.21654002      17.09641599       0.00000043       0.00000281      -0.60981753
Te       0.00853734       4.86123055      17.08072588       0.03905427      -0.02255527      -0.98365670
Te       2.10710868       1.21532339      10.34626835       0.00000102      -0.04647131       0.04376987
Te       4.21527124       4.86676805      10.34626835       0.04025077       0.02323184       0.04376952
Te       6.32132698       1.21653976      10.34347047      -0.00000123       0.00000637       0.13502841
Te      -0.00105341       4.86676778      10.34626878      -0.04025082       0.02323304       0.04376797
Te       0.00091566      -0.00052866      24.28410336       0.00140230      -0.00080319       0.54433890
Te       2.10710934       3.64961945      24.28306356      -0.00000206       0.00000193       0.52396079
Te       4.21330216      -0.00052816      24.28410355      -0.00140220      -0.00080551       0.54432595
Te      -2.10710934       3.65067676      24.28410355       0.00000212       0.00162098       0.54432129
Te      -0.00023626       2.43294418      27.43841485       0.00086998       0.00049818      -0.54078659
Te       2.10710823       6.08297191      27.43841485       0.00000283      -0.00100917      -0.54079123
Te       4.21445409       2.43294339      27.43841484      -0.00086993       0.00050143      -0.54076896
Te      -2.10710823       6.08269910      27.43889457      -0.00000275      -0.00000466      -0.54361357
Te      -0.00105341       2.43247134      20.68716887      -0.04025076      -0.02323621      -0.04376984
Te       2.10710915       6.08391600      20.68716887      -0.00000107       0.04647082      -0.04376950
Te       4.21527124       2.43247161      20.68716845       0.04025078      -0.02323742      -0.04376832
Te      -2.10710915       6.08269963      20.68996676       0.00000122      -0.00000674      -0.13502809
Sb      -0.00256829       2.43159530       8.41286590       0.01895255       0.01095511       0.02748160
Sb       2.10711038       6.08566595       8.41286590      -0.00001001      -0.02189619       0.02748545
Sb       4.21678612       2.43159699       8.41286629      -0.01895258       0.01094351       0.02747320
Sb      -2.10711038       6.08270034       8.40751439       0.00001010      -0.00001159       0.04604256
Sb      -0.00005462       2.43304569       1.93206324       0.00169571       0.00100158      -0.05641584
Sb       2.10711114       6.08276385       1.93206324      -0.00001590      -0.00197565      -0.05641528
Sb       4.21427245       2.43304826       1.93206353      -0.00169568       0.00098317      -0.05642866
Sb      -2.10711114       6.08270078       1.93179050       0.00001601      -0.00001764      -0.05491686
Sb      -0.01025543       0.00592098      18.75704518      -0.15625085       0.09021946       0.34448643
Sb       2.10710819       3.64962011      18.74714310       0.00000501      -0.00000672       0.39076731
Sb       4.22447325       0.00592014      18.75704543       0.15625088       0.09022513       0.34448983
Sb       6.32132747       3.63777816      18.75704543      -0.00000501      -0.18042911       0.34448994
Sb       0.01025543      -0.00592098      12.27639204       0.15625057      -0.09020585      -0.34448852
Sb       2.10710964       3.64961928      12.28629413      -0.00000501       0.00000146      -0.39076567
Sb       4.20396240      -0.00592014      12.27639180      -0.15625058      -0.09021152      -0.34449191
Sb      -2.10710964       3.66146123      12.27639180       0.00000498       0.18042443      -0.34448829
Sb       2.10710669       1.21647554      29.10137398       0.00001589       0.00197428       0.05642105
Sb       4.21427245       4.86619370      29.10137398      -0.00169574      -0.00100247       0.05641996
Sb       6.32132897       1.21653861      29.10164672      -0.00001600       0.00001628       0.05492260
Sb      -0.00005462       4.86619113      29.10137369       0.00169567      -0.00098409       0.05643278
Sb       2.10710745       1.21357345      22.62057133       0.00001000       0.02189535      -0.02748314
Sb       4.21678612       4.86764409      22.62057133      -0.01895258      -0.01096086      -0.02748430
Sb       6.32132821       1.21653905      22.62592284      -0.00001011       0.00001087      -0.04604031
Sb      -0.00256829       4.86764240      22.62057094       0.01895249      -0.01094932      -0.02747584
Cr       2.10710891       3.64961970      15.51671861      -0.00000000      -0.00000079      -0.00000054
61
Lattice="8.42843558953249 0.0 0.0 -4.21421779476624 7.29923593142487 0.0 0.0 0.0 31.03344084160948" Properties=species:S:1:pos:R:3:forces:R:3 repair_mode=unwrap repair_image_index=1 migrant_element=Cr energy=-227.68102661737743 mlff_rel_energy_eV=-1.209920410535716 mlff_fmax_eV_A=0.24633157836045483 calculator_label=/home/ycao73/.cache/mace/20231203mace128L1_epoch199model neb_image=1 neb_protocol=mlff_pre_neb pbc="T T T"
Te       2.12080114       1.20276144       3.81214652       0.00076905      -0.00315806       0.00372872
Te       4.23295654       4.86111568       3.81212616       0.00311836       0.00090928       0.00379476
Te       6.33688691       1.20747177       3.80800577       0.00634136      -0.00357281       0.00896107
Te       0.02199129       4.85341776       3.79190520      -0.00502109       0.00291051       0.00937014
Te       0.05653071      -0.03295240       6.64008682       0.00008193       0.00004067       0.02396017
Te       2.15500747       3.62172251       6.62038724      -0.00519688       0.00311426       0.01540418
Te       4.28357724      -0.07032966       6.62112561      -0.00214432       0.01429459       0.00253609
Te      -2.01167126       3.62425631       6.62130237      -0.01357823      -0.00512645       0.00230865
Te       0.00843710      -0.00484670       0.04722481       0.00449598      -0.00259702       0.00479290
Te       2.11212460       3.64675263       0.05751831       0.00571694      -0.00333355       0.00117450
Te       4.22273893      -0.00182927       0.05996664       0.00035338      -0.00327229       0.00165129
Te      -2.10123489       3.64317811       0.05996431       0.00299956       0.00132172       0.00165985
Te       0.05655908       2.19725518      14.28487557       0.02647561       0.05773332       0.06749562
Te       2.33918018       6.15142970      14.28452793      -0.03631499      -0.05189028       0.06835524
Te       4.30273437       2.38193831      14.21151647      -0.05354492       0.03079560      -0.02127530
Te      -2.16665821       6.11714634      14.27618841       0.07552120      -0.04375624       0.04997844
Te       2.14504166       1.20297052      17.09473965       0.00977577       0.00291312      -0.01513872
Te       4.24520655       4.84035661      17.09481555       0.00226913      -0.00984972      -0.01521844
Te       6.33853756       1.20671286      17.10316673      -0.01652951       0.00961552      -0.00625429
Te       0.03738786       4.84465687      16.90970231      -0.00896816       0.00526147      -0.05866733
Te       2.19336848       1.18968431      10.40395082      -0.00265487       0.00372762      -0.01458928
Te       4.28044850       4.80472087      10.40363228      -0.00470067      -0.00002279      -0.01392610
Te       6.36784857       1.18952302      10.40062728       0.03012841      -0.01736523       0.00234551
Te       0.06691984       4.82724510      10.40288546       0.01353772      -0.00764855       0.03544465
Te       0.01322651      -0.00736895      24.51593407       0.00595733      -0.00354933       0.02174376
Te       2.10954097       3.64844922      24.55808748       0.01708242      -0.00985153       0.01793089
Te       4.23200771      -0.00239361      24.56153092      -0.01022944      -0.00269719       0.00010700
Te      -2.09592295       3.63569798      24.56141328      -0.00289419       0.01028236       0.00018381
Te       0.00373546       2.43023208      27.34597552       0.00142141      -0.00239546      -0.00402573
Te       2.11152428       6.08099227      27.34595407       0.00277135      -0.00003483      -0.00396316
Te       4.21637286       2.43191368      27.33584353       0.00725990      -0.00418729       0.00404395
Te      -2.10574949       6.08201451      27.34310075       0.00426471      -0.00250641      -0.00401493
Te       0.01943677       2.42486167      20.82680863       0.00257513      -0.00365681      -0.02281118
Te       2.12409024       6.07038184      20.82666929       0.00451946      -0.00057654      -0.02263579
Te       4.23231240       2.42284604      20.73707027       0.00561173      -0.00322598      -0.00087739
Te      -2.09199548       6.07421496      20.82409601      -0.00470725       0.00258480      -0.00751472
Sb       0.08408908       2.38467674       8.40351667      -0.03455946       0.00556372      -0.01313256
Sb       2.19072062       6.03370997       8.40358546      -0.02196649       0.02717595      -0.01318196
Sb       4.29219137       2.38767738       8.26202309      -0.00814210       0.00496177       0.03371171
Sb      -2.04955213       6.04916040       8.36812570       0.00945501      -0.00539294       0.02513770
Sb       0.01171802       2.41928788       2.06442215       0.00166641       0.00057068       0.00750879
Sb       2.12489919       6.07941431       2.06430358       0.00032040      -0.00175453       0.00768598
Sb       4.22016913       2.42963851       2.08498791       0.00564762      -0.00329449      -0.00256063
Sb      -2.09805514       6.07743406       2.06449121       0.00286840      -0.00162550       0.01253405
Sb       0.02244540      -0.01275255      18.82091332      -0.00181885       0.00103525       0.00300768
Sb       2.10442570       3.65143850      18.77411867       0.00670338      -0.00395425      -0.01421886
Sb       4.23582957      -0.02050065      18.80302780       0.00557887      -0.02785019      -0.03372528
Sb       6.35022329       3.64134367      18.80316709       0.02663382       0.00919211      -0.03399578
Sb       0.06385112      -0.03715153      12.16358876       0.00056980      -0.00026874      -0.04045113
Sb       2.19716914       3.59724031      12.48474174      -0.04151979       0.02441657       0.04088821
Sb       4.27097373      -0.06627695      12.48706956       0.06331127       0.00257601       0.01559632
Sb      -2.02133388       3.63348869      12.48737191       0.02897133      -0.05635292       0.01503621
Sb       2.11210172       1.21712422      29.07501247       0.00350396      -0.00512862       0.00586036
Sb       4.21630482       4.86163994      29.07495463       0.00612759      -0.00048614       0.00598149
Sb       6.32209432       1.21614514      29.07809159       0.00320880      -0.00185776       0.00140884
Sb       0.00008061       4.86616614      29.08716082       0.00375028      -0.00215039      -0.00541626
Sb       2.13694155       1.22150771      22.81726095      -0.00769548      -0.01318450       0.00498591
Sb       4.22504442       4.83827086      22.81729943       0.00752448       0.01315398       0.00488927
Sb       6.32617408       1.21387358      22.80487375      -0.00010966       0.00023732       0.00815412
Sb       0.00360097       4.86437220      22.82543040       0.00808145      -0.00477927       0.01919065
Cr       0.13558394       4.78747654      13.89314237      -0.13467435       0.07796636      -0.19095370
61
Lattice="8.42843558953249 0.0 0.0 -4.21421779476624 7.29923593142487 0.0 0.0 0.0 31.03344084160948" Properties=species:S:1:pos:R:3:forces:R:3 repair_mode=unwrap repair_image_index=2 migrant_element=Cr energy=-226.80573069937526 mlff_rel_energy_eV=-0.33462449253354976 mlff_fmax_eV_A=0.5481264914113796 calculator_label=/home/ycao73/.cache/mace/20231203mace128L1_epoch199model neb_image=2 neb_protocol=mlff_pre_neb pbc="T T T"
Te       2.13212625       1.21260985       3.76207347      -0.00240903       0.00233270       0.00013279
Te       4.23010497       4.84647329       3.76210084      -0.00314814       0.00096598       0.00010049
Te       6.32113505       1.21671319       3.78853957      -0.00033573       0.00021733      -0.00117990
Te       0.01158588       4.85952403       3.79344018       0.00360159      -0.00216053      -0.01070843
Te       0.04511528      -0.02623529       6.43011011       0.01993595      -0.01130061       0.00217644
Te       2.16916019       3.61365059       6.50606856      -0.01265808       0.00741059       0.00465487
Te       4.17012200      -0.03298575       6.53961179       0.00791262      -0.01145411      -0.00215356
Te      -2.10068492       3.70429602       6.53982327       0.01382430      -0.00101549      -0.00323957
Te       0.00538614      -0.00303794       0.05851570       0.00428998      -0.00251867      -0.00022095
Te       2.11418297       3.64558820       0.05010722      -0.00200694       0.00119617       0.00093727
Te       4.22398329      -0.01262663       0.04008432       0.00123615       0.00041808      -0.00242322
Te      -2.09121845       3.64754212       0.04005056       0.00018088      -0.00129427      -0.00239477
Te      -0.03396626       2.30628680      13.91839591       0.00685148      -0.00895371      -0.06892725
Te       2.19951688       6.17538617      13.91785743       0.01134698      -0.00237500      -0.06844673
Te       4.64731235       2.18284646      14.09517335       0.04389833      -0.02542449      -0.04324167
Te      -1.94155159       5.98717330      14.03277718       0.03913493      -0.02293235      -0.01566846
Te       2.11383751       1.11627611      17.13017902       0.01103621      -0.00157043      -0.00931505
Te       4.30434105       4.91068202      17.13005165       0.00727836      -0.00864316      -0.00967758
Te       6.36954367       1.18864398      17.20792142       0.01014001      -0.00574112      -0.00185233
Te       0.02296769       4.85296657      17.12168181       0.01561256      -0.00894594      -0.00377199
Te       2.11409923       1.31628458      10.24108323      -0.01117139       0.02968991      -0.03716390
Te       4.13160102       4.81007451      10.24107434      -0.03125510      -0.00514494      -0.03712076
Te       6.41867873       1.16024134      10.25695814       0.00526939      -0.00299563      -0.02405480
Te       0.11165338       4.80164472      10.09505672       0.06116350      -0.03560635      -0.03776246
Te       0.01217297      -0.00693603      24.60931366       0.00227292      -0.00139586      -0.00296400
Te       2.12219573       3.64094135      24.63203498       0.00278326      -0.00152768       0.00697458
Te       4.23851129       0.00517493      24.61820201       0.00552153      -0.00112895      -0.00311627
Te      -2.09928288       3.62609008      24.61800942       0.00361484      -0.00417043      -0.00243068
Te       0.00614288       2.42257575      27.34645713       0.00323987      -0.00149093      -0.00137315
Te       2.11932808       6.08271213      27.34642702       0.00293635      -0.00206537      -0.00137244
Te       4.21702387       2.43153491      27.35976430       0.00590140      -0.00339043       0.00208853
Te      -2.09905307       6.07810146      27.34961002      -0.00021076       0.00009559      -0.00085430
Te       0.04020999       2.44683155      20.87970438       0.01469100      -0.00219366       0.00894955
Te       2.11544397       6.04103115      20.87973498       0.00929965      -0.01145942       0.00887669
Te       4.23312167       2.42225765      20.87502315      -0.00380058       0.00216878      -0.01080881
Te      -2.08312579       6.06888753      20.91455290       0.00231265      -0.00139535      -0.00250930
Sb       0.01511142       2.39548626       8.15809276       0.00298302      -0.02701433      -0.01317552
Sb       2.14711609       6.08813366       8.15818776       0.02483014       0.01120352      -0.01352858
Sb       4.28138581       2.39427818       8.25917704      -0.02045555       0.01133505      -0.04369338
Sb      -2.17415120       6.12135802       8.35515503       0.00540181      -0.00278510       0.02644244
Sb       0.00574089       2.42991445       2.05997141      -0.00449438      -0.00151237      -0.00317557
Sb       2.11275375       6.07942413       2.05995822      -0.00091900       0.00459968      -0.00317748
Sb       4.23697810       2.42001723       2.02256251      -0.00469879       0.00262201       0.00382058
Sb      -2.09117647       6.07352212       2.04387760       0.00256682      -0.00149821      -0.00538409
Sb       0.00119177      -0.00061244      18.97333552      -0.01020068       0.00626155      -0.00136833
Sb       2.14630230       3.62735543      18.80132771      -0.00982917       0.00478029       0.00374436
Sb       4.25039015      -0.02348419      18.90149516       0.02060739      -0.00814384       0.00738690
Sb       6.35971363       3.63013368      18.90125779       0.01768488      -0.01397089       0.00775857
Sb       0.21118354      -0.12204902      12.10468869       0.03324990      -0.01922003      -0.05239165
Sb       2.32275137       3.52493534      15.00967847       0.01368414      -0.00716863       0.17125511
Sb       4.16072253       0.07126605      12.04700625      -0.00700933       0.00267165      -0.05912297
Sb      -2.19544677       3.65988837      12.04737360      -0.00712385       0.00469707      -0.05999521
Sb       2.10874216       1.21001026      29.08665693       0.00264596       0.00080240       0.00255538
Sb       4.22072714       4.86810066      29.08662149       0.00066751      -0.00268769       0.00262504
Sb       6.32681896       1.21341898      29.08113892       0.00733082      -0.00422781       0.00323601
Sb       0.01192287       4.85934207      29.06892808       0.00167332      -0.00098370       0.00251133
Sb       2.12650098       1.21247654      22.89396746       0.00888179      -0.00563859      -0.00608717
Sb       4.22748002       4.85147671      22.89399679       0.00939455      -0.00486903      -0.00600274
Sb       6.34047003       1.20555531      22.86127077      -0.00057122       0.00035201       0.00156967
Sb       0.01208368       4.85934863      22.91143995      -0.00400203       0.00219207       0.01126263
Cr       0.21395648       4.74208746      12.67847095      -0.33058900       0.19200268       0.39279580
61
Lattice="8.42843558953249 0.0 0.0 -4.21421779476624 7.29923593142487 0.0 0.0 0.0 31.03344084160948" Properties=species:S:1:pos:R:3:forces:R:3 repair_mode=unwrap repair_image_index=3 migrant_element=Cr energy=-226.99493257185117 mlff_rel_energy_eV=-0.5238263650094552 mlff_fmax_eV_A=0.7802845536817037 calculator_label=/home/ycao73/.cache/mace/20231203mace128L1_epoch199model neb_image=3 neb_protocol=mlff_pre_neb pbc="T T T"
Te       2.11392578       1.21240798       3.78750892      -0.00869345      -0.00047123       0.00445313
Te       4.22113064       4.86238544       3.78748806      -0.00388128       0.00772365       0.00446710
Te       6.31416241       1.22070129       3.78030140      -0.00614504       0.00356839      -0.00590437
Te       0.01470307       4.85771528       3.79653863       0.00309960      -0.00181471      -0.00132729
Te      -0.09859782       0.05677127       6.55277942      -0.05819118       0.03362999       0.03381635
Te       2.17564544       3.60989811       6.57815456      -0.01540073       0.00888920       0.02499781
Te       4.21917559      -0.02939952       6.57166234      -0.00502497       0.00166822       0.00131270
Te      -2.07930531       3.66002032       6.57156387      -0.00396874       0.00348995       0.00120596
Te       0.00408182      -0.00230518       0.05898446       0.00591782      -0.00342069      -0.00028642
Te       2.10874088       3.64873549       0.04797109      -0.00087953       0.00050123      -0.00301169
Te       4.21795170      -0.00587772       0.05066445      -0.00052473       0.00261001       0.00299248
Te      -2.10008399       3.64936285       0.05067409      -0.00255086      -0.00084241       0.00296556
Te      -0.18363239       2.29238424      14.30502475      -0.05118172      -0.02426953       0.12027436
Te       2.13685110       6.31201712      14.30475373      -0.00435237       0.05635822       0.12032428
Te       4.42026326       2.31389705      14.42755913      -0.04933736       0.02860182       0.10233983
Te      -2.04584009       6.04713917      14.11406940      -0.03546441       0.02052129       0.01927652
Te       2.11126017       1.16534737      17.11700477       0.00744621       0.01050153      -0.00296415
Te       4.26056969       4.88829187      17.11684930      -0.00533488      -0.01167917      -0.00293040
Te       6.34741073       1.20147449      17.23415155       0.00135778      -0.00078097       0.01648515
Te       0.00731050       4.86199997      17.10630425      -0.00498322       0.00291970      -0.00536781
Te       2.13033308       1.27326225      10.44855395       0.00750508       0.00044911       0.06353112
Te       4.17694787       4.81756927      10.44879909       0.00325166      -0.00676341       0.06330904
Te       6.37786628       1.18369976      10.36049584      -0.01683368       0.00975199       0.02051913
Te      -0.32449536       5.05329934      10.43233833      -0.13019206       0.07503147       0.08591878
Te       0.01139510      -0.00642972      24.59633042      -0.00232010       0.00122898      -0.00458621
Te       2.11491306       3.64515863      24.63535339       0.00664195      -0.00374957       0.01317703
Te       4.23549010       0.00384631      24.60256088      -0.00063361      -0.00046159      -0.00454378
Te      -2.09956640       3.62931174      24.60262526      -0.00009394       0.00085774      -0.00447533
Te       0.00136314       2.42547972      27.35137944       0.00036682      -0.00011102       0.00165773
Te       2.11439479       6.08540408      27.35134884       0.00032195      -0.00027285       0.00166702
Te       4.21668227       2.43171538      27.35830597       0.00603976      -0.00347576       0.00070223
Te      -2.10275551       6.08026611      27.34582995       0.00015236      -0.00012190      -0.00313655
Te       0.02838088       2.44057595      20.86680954      -0.00116085      -0.00615198      -0.00151122
Te       2.11500432       6.05442341      20.86692633       0.00463022       0.00411274      -0.00156195
Te       4.22708616       2.42577928      20.85930827      -0.00250812       0.00133776      -0.00534775
Te      -2.09251638       6.07432625      20.92132002       0.00270633      -0.00156886       0.01131572
Sb       0.07166069       2.49649306       8.36372221      -0.00675937       0.03258913       0.04931566
Sb       2.08794471       5.98854903       8.36389356      -0.03156137      -0.01053551       0.04951974
Sb       4.28925825       2.38969052       8.31323771      -0.01163267       0.00672690       0.00716879
Sb      -2.20252703       6.13773928       8.10720552      -0.03006395       0.01739075      -0.06971762
Sb       0.00899520       2.43245070       2.05742412       0.00115371      -0.00085594      -0.00151528
Sb       2.11214123       6.07531887       2.05732286       0.00133813      -0.00059690      -0.00141125
Sb       4.21535223       2.43249229       2.04375283      -0.00941168       0.00537345       0.00711492
Sb      -2.10052937       6.07889636       2.06541533       0.00358621      -0.00203323       0.00370930
Sb       0.03879259      -0.02232363      18.91926172       0.01630109      -0.00939407      -0.01007194
Sb       2.13413343       3.63415134      18.78016856      -0.00287354       0.00149204      -0.00492846
Sb       4.20275459      -0.03167935      18.88966891      -0.01125035      -0.00486506      -0.00437802
Sb       6.34300153       3.67550072      18.88947822      -0.00135430       0.01218800      -0.00431019
Sb       0.06205626      -0.03588710      12.39334143      -0.05749552       0.03317975       0.07514518
Sb       2.11476486       3.64506716      13.40373180      -0.05831820       0.03379175      -0.47099391
Sb       4.23324079       0.09043101      12.41232359       0.02509430      -0.00626260       0.11227116
Sb      -2.17593562       3.58752362      12.41253871       0.01806460      -0.01851724       0.11219342
Sb       2.10780822       1.21028740      29.08562129       0.00349921      -0.00096649      -0.00114828
Sb       4.22004762       4.86877852      29.08556621       0.00255361      -0.00255365      -0.00108175
Sb       6.32300926       1.21561063      29.08886538       0.00316071      -0.00184461       0.00673042
Sb       0.00304319       4.86444846      29.07506491      -0.00144236       0.00086469       0.00302484
Sb       2.12386392       1.22595594      22.88457510      -0.00028841       0.00232326      -0.00134991
Sb       4.21463746       4.84704339      22.88483256      -0.00224261      -0.00091918      -0.00149437
Sb       6.33997710       1.20580515      22.84110448      -0.00231524       0.00143274      -0.00715866
Sb       0.01668677       4.85665286      22.89353876       0.00873923      -0.00510232       0.00378870
Cr       1.81056575       3.82095365      10.89612211       0.50373805      -0.29070300      -0.52017663
61
Lattice="8.42843558953249 0.0 0.0 -4.21421779476624 7.29923593142487 0.0 0.0 0.0 31.03344084160948" Properties=species:S:1:pos:R:3:forces:R:3 repair_mode=unwrap repair_image_index=4 migrant_element=Cr energy=-227.3676048869351 mlff_rel_energy_eV=-0.8964986800934014 mlff_fmax_eV_A=1.5979273153980915 calculator_label=/home/ycao73/.cache/mace/20231203mace128L1_epoch199model neb_image=4 neb_protocol=mlff_pre_neb pbc="T T T"
Te       2.10710960       1.18408157       3.67157898      -0.00000311      -0.03925758       0.14275704
Te       4.24232791       4.88238817       3.67157898       0.03400214       0.01963128       0.14275222
Te       6.32132606       1.21654029       3.68124484       0.00000296       0.00000492       0.26797425
Te      -0.02811008       4.88238896       3.67157899      -0.03400190       0.01962756       0.14273642
Te       0.03530565      -0.02038372       6.61797966       0.03645527      -0.02104209      -0.11540003
Te       2.10710848       3.64961994       6.24819520       0.00000049      -0.00000205      -0.54894751
Te       4.17891218      -0.02038422       6.61797947      -0.03645381      -0.02103960      -0.11538668
Te      -2.10710848       3.69038739       6.61797947      -0.00000135       0.04208876      -0.11538229
Te      -0.01158614       0.00668926      -0.00504885       0.00019791      -0.00010859       0.00676025
Te       2.10710891       3.64961970       0.01065370      -0.00000002      -0.00000161       0.00642116
Te       4.22580397       0.00668926      -0.00504885      -0.00019834      -0.00010883       0.00676037
Te      -2.10710891       3.63624117      -0.00504885       0.00000008       0.00022769       0.00676095
Te      -0.01879063       2.42223127      14.10729535      -0.00142260      -0.00081873       0.25472948
Te       2.10710870       6.10439692      14.10729535       0.00000057       0.00163726       0.25473479
Te       4.23300846       2.42223102      14.10729574       0.00142273      -0.00081820       0.25473275
Te      -2.10710870       6.08269937      14.20453021      -0.00000054      -0.00000455      -0.08279436
Te       2.10710913       1.21214448      17.02071185      -0.00000068       0.02999982      -0.23326907
Te       4.21802448       4.86835712      17.02071185      -0.02597799      -0.01500420      -0.23327423
Te       6.32132652       1.21654002      17.03927420       0.00000059       0.00000307      -0.27694489
Te      -0.00380665       4.86835737      17.02071146       0.02597804      -0.01500497      -0.23327725
Te       2.10710868       1.26418388      10.36252263       0.00000079       0.12326487      -0.07237633
Te       4.17295681       4.84233781      10.36252263      -0.10674636      -0.06163579      -0.07237687
Te       6.32132698       1.21653976      10.61834592      -0.00000067       0.00000459      -0.38902277
Te       0.04126102       4.84233754      10.36252305       0.10674715      -0.06163534      -0.07237927
Te      -0.00106873       0.00061703      24.36451834      -0.00347311       0.00201134       0.29256208
Te       2.10710934       3.64961945      24.37136313      -0.00000210       0.00000181       0.29560407
Te       4.21528655       0.00061753      24.36451852       0.00347308       0.00200888       0.29255007
Te      -2.10710934       3.64838539      24.36451852       0.00000218      -0.00400859       0.29254609
Te       0.00611286       2.43660985      27.35474563      -0.00873284      -0.00504604      -0.27822245
Te       2.10710823       6.07564058      27.35474563       0.00000297       0.01007965      -0.27822633
Te       4.20810497       2.43660906      27.35474562       0.00873285      -0.00504261      -0.27820609
Te      -2.10710823       6.08269910      27.37097275      -0.00000290      -0.00000430      -0.30204049
Te       0.00124786       2.43379998      20.69657298       0.00622484       0.00359658      -0.01611349
Te       2.10710915       6.08125873      20.69657298      -0.00000106      -0.00719415      -0.01611309
Te       4.21296997       2.43380025      20.69657256      -0.00622468       0.00359531      -0.01611237
Te      -2.10710915       6.08269963      20.70103878       0.00000114      -0.00000628      -0.00109762
Sb      -0.14468480       2.34954430       8.36480494       0.09043818       0.05222709      -0.29642080
Sb       2.10711038       6.24976795       8.36480494      -0.00000922      -0.10443944      -0.29641775
Sb       4.35890262       2.34954599       8.36480533      -0.09043452       0.05221428      -0.29642857
Sb      -2.10711038       6.08270034       8.36862078       0.00000864      -0.00000978      -0.10306483
Sb       0.00087587       2.43358291       1.98390355       0.00734823       0.00426302      -0.00971069
Sb       2.10711114       6.08168942       1.98390355      -0.00001450      -0.00850090      -0.00971035
Sb       4.21334196       2.43358548       1.98390384      -0.00734828       0.00424628      -0.00972261
Sb      -2.10711114       6.08270078       1.92670502       0.00001484      -0.00001603       0.05496357
Sb       0.00310543      -0.00179292      18.73015904       0.00477827      -0.00275108       0.04123906
Sb       2.10710819       3.64962011      18.71028061       0.00000490      -0.00000669       0.03145623
Sb       4.21111240      -0.00179376      18.73015929      -0.00477823      -0.00274537       0.04124213
Sb       6.32132747       3.65320596      18.73015929      -0.00000500       0.00551063       0.04124257
Sb      -0.00553097       0.00319331      12.41249793       0.19034042      -0.10988793       0.15277086
Sb       2.10710964       3.64961928      12.46477605      -0.00000416       0.00000102      -0.15396635
Sb       4.21974880       0.00319415      12.41249769      -0.19034048      -0.10989249       0.15276842
Sb      -2.10710964       3.64323266      12.41249769       0.00000399       0.21978606       0.15277213
Sb       2.10710669       1.22043185      29.06062256       0.00001466       0.00089722       0.02515169
Sb       4.21084619       4.86421555      29.06062256      -0.00076409      -0.00046258       0.02515129
Sb       6.32132897       1.21653861      29.04963399      -0.00001478       0.00001492      -0.00656652
Sb       0.00337164       4.86421298      29.06062227       0.00076402      -0.00044562       0.02516341
Sb       2.10710745       1.21920845      22.67212449       0.00000927      -0.00844715      -0.02424339
Sb       4.21190606       4.86482659      22.67212449       0.00732398       0.00421128      -0.02424388
Sb       6.32132821       1.21653905      22.65597063      -0.00000937       0.00001002      -0.00053571
Sb       0.00231176       4.86482490      22.67212411      -0.00732403       0.00422199      -0.02423574
Cr       2.10710912       3.64961958       8.65062336      -0.00000444       0.00000199       1.59792732
