61
Lattice="8.42843558953 0 0 -4.21421779477 7.29923593142 0 0 0 31.0334408416" Properties=species:S:1:pos:R:3:forces:R:3 energy=-133601.231374 ionic_step=0 pbc="T T T"
Te 2.1071095967 1.2133364401 3.4721085258 -2.57110337382e-07 3.9080771282e-05 0.0430130167819
Te 4.2169924441 4.8677607321 3.4721085258 -3.3681454197e-05 -1.9540385641e-05 0.0430130167819
Te 6.3213260584 1.2165402929 3.4583009648 2.57110337382e-07 0 0.0248653978385
Te -0.0027746166 4.8677615207 3.4721085374 3.3681454197e-05 -1.97974959784e-05 0.0430130167819
Te -0.3943793368 0.2276951224 7.5217670759 0.0153620855482 -0.00886902108798 -0.0329484326251
Te 2.1071084831 3.6496199444 7.7201174538 2.57110337382e-07 -5.14220674763e-07 -0.0501059196593
Te 4.6085971641 0.2276946252 7.521766887 -0.0153620855482 -0.00886902108798 -0.0329484326251
Te -2.1071084829 3.1942296996 7.521766887 -0 0.0177385563966 -0.0329481755148
Te -0 0 -0 0 2.57110337382e-07 -2.57110337382e-07
Te 2.1071089138 3.6496196957 0 -0 -2.57110337382e-07 -2.57110337382e-07
Te 4.2142178275 -0 0 -0 2.57110337382e-07 -2.57110337382e-07
Te -2.1071089138 3.6496196957 0 0 -2.57110337382e-07 -2.57110337382e-07
Te 0.5217073887 2.7342880895 13.668505888 0.00769711217019 0.0044438950713 0.00654860029311
Te 2.1071086966 5.4802832842 13.668505888 0 -0.00888779014261 0.00654860029311
Te 3.6925104389 2.7342878388 13.6685062764 -0.00769711217019 0.0044438950713 0.00654860029311
Te -2.1071086966 6.0826993675 14.8062797854 -0 -2.57110337382e-07 -0.0735772652485
Te 2.107109131 1.8189561072 17.3649313374 -0 0.00888779014261 -0.00654860029311
Te 3.6925104389 4.5649513018 17.3649313374 -0.00769711217019 -0.00444415218164 -0.00654860029311
Te 6.3213265241 1.216540024 16.2271574402 0 2.57110337382e-07 0.0735770081382
Te 0.5217073888 4.5649515523 17.364930949 0.00769711217019 -0.00444415218164 -0.00654860029311
Te 2.1071086783 0.6782276769 10.8016019521 0 -0.0224763285836 0.0216335208976
Te 4.6804095517 5.1353159091 10.8016019521 0.0194650523122 0.0112380357366 0.021633778008
Te 6.3213269768 1.2165397626 11.3100954934 -0 2.57110337382e-07 0.0159673232824
Te -0.4661917242 5.1353156372 10.8016023754 -0.0194650523122 0.0112380357366 0.021633778008
Te 0.3943793368 -0.2276951225 23.5116701495 -0.0153618284379 0.00886927819832 0.0329484326251
Te 2.1071093444 3.6496194471 23.3133197713 -2.57110337382e-07 -2.57110337382e-07 0.0501059196593
Te 3.8198384908 -0.2276946251 23.5116703383 0.0153618284379 0.00886927819832 0.0329484326251
Te -2.1071093443 4.1050096918 23.5116703383 0 -0.0177382992863 0.0329481755148
Te -0.0027746166 2.4314786593 27.5613286996 3.3681454197e-05 1.9540385641e-05 -0.0430125025612
Te 2.1071082308 6.0859029514 27.5613286996 2.57110337382e-07 -3.9080771282e-05 -0.0430127596716
Te 4.2169924441 2.4314778707 27.561328688 -3.3681454197e-05 1.97974959784e-05 -0.0430125025612
Te -2.1071082308 6.0826990986 27.5751362605 -2.57110337382e-07 -0 -0.0248648836178
Te -0.4661917243 2.1639234823 20.2318352733 -0.0194650523122 -0.0112380357366 -0.021633778008
Te 2.1071091492 6.6210117148 20.2318352733 -0 0.0224763285836 -0.0216335208976
Te 4.6804095516 2.1639237543 20.23183485 0.0194650523122 -0.0112380357366 -0.021633778008
Te -2.1071091493 6.0826996289 19.7233417325 0 -2.57110337382e-07 -0.0159673232824
Sb -0.0047049422 2.4303617044 9.384148415 -0.00248934228653 -0.00143673256529 0.0169916508665
Sb 2.1071103789 6.0881331406 9.384148415 -2.57110337382e-07 0.00287423646159 0.0169913937562
Sb 4.2189227697 2.4303633962 9.3841488045 0.00248934228653 -0.00143698967563 0.0169916508665
Sb -2.1071103789 6.0827003388 8.035273149 2.57110337382e-07 -2.57110337382e-07 -0.0374046689926
Sb 0.0010113622 2.433661135 1.890363639 -0.00138479627714 -0.000799098928582 -0.00315088718461
Sb 2.1071111417 6.0815329582 1.890363639 -2.57110337382e-07 0.00159896918818 -0.00315088718461
Sb 4.2132064654 2.4336637076 1.8903639271 0.00138479627714 -0.000799356038919 -0.00315114429495
Sb -2.1071111417 6.0827007792 1.890183043 2.57110337382e-07 -2.57110337382e-07 -0.00438990190045
Sb -0.0696764183 0.0402277176 17.9163137012 -0.00947091638779 0.00546822265543 -0.0249055070511
Sb 2.107108188 3.6496201148 19.6532559045 0 -2.57110337382e-07 -0.005080757377
Sb 4.2838942458 0.0402268795 17.9163139464 0.00947091638779 0.00546822265543 -0.0249055070511
Sb 6.3213274671 3.5691646796 17.9163139464 -2.57110337382e-07 -0.0109364453109 -0.0249055070511
Sb 0.0696764183 -0.0402277176 13.1171235239 0.00947091638779 -0.0054679655451 0.0249055070511
Sb 2.1071096396 3.6496192767 11.3801813209 -0 -0 0.005080757377
Sb 4.1445414093 -0.0402268795 13.1171232788 -0.00947091638779 -0.00546822265543 0.0249055070511
Sb -2.1071096396 3.7300747119 13.1171232787 2.57110337382e-07 0.0109361882005 0.0249055070511
Sb 2.1071066858 1.2177064333 29.1430735864 2.57110337382e-07 -0.00159896918818 0.00315088718461
Sb 4.2132064653 4.8655782565 29.1430735864 0.00138479627714 0.000799098928582 0.00315088718461
Sb 6.3213289693 1.2165386123 29.1432541824 -2.57110337382e-07 2.57110337382e-07 0.00438990190045
Sb 0.0010113622 4.8655756838 29.1430732983 -0.00138479627714 0.000799613149257 0.00315114429495
Sb 2.1071074486 1.2111062509 21.6492888104 2.57110337382e-07 -0.00287423646159 -0.0169916508665
Sb 4.2189227697 4.868877687 21.6492888104 0.00248934228653 0.00143673256529 -0.0169916508665
Sb 6.3213282064 1.2165390527 22.9981640767 -2.57110337382e-07 2.57110337382e-07 0.0374046689926
Sb -0.0047049422 4.8688759952 21.6492884212 -0.00248934228653 0.00143698967563 -0.0169913937562
Cr 2.1071089138 3.6496196957 15.5167186127 -0 0 0
61
Lattice="8.42843558953 0 0 -4.21421779477 7.29923593142 0 0 0 31.0334408416" Properties=species:S:1:pos:R:3:forces:R:3 energy=-133601.231476 ionic_step=1 pbc="T T T"
Te 2.1071095967 1.2134411465 3.4720401811 -2.57110337382e-07 1.02844134953e-06 0.043015330775
Te 4.2169017658 4.8677083789 3.4720401811 -7.71331012145e-07 -5.14220674763e-07 0.043015330775
Te 6.3213260584 1.2165402929 3.458078153 2.57110337382e-07 0 0.0249011361754
Te -0.0026839383 4.8677091675 3.4720401927 7.71331012145e-07 -7.71331012145e-07 0.043015330775
Te -0.3942519656 0.2276215846 7.5217432008 0.0153782834995 -0.00887853417046 -0.0329674587901
Te 2.1071084831 3.6496199444 7.7203843976 2.57110337382e-07 -5.14220674763e-07 -0.0500663246673
Te 4.6084697929 0.2276210874 7.5217430119 -0.0153782834995 -0.00887853417046 -0.0329674587901
Te -2.1071084829 3.1943767753 7.5217430119 -0 0.0177573254513 -0.0329672016797
Te 0 0 0 0 2.57110337382e-07 -2.57110337382e-07
Te 2.1071089138 3.6496196957 0 -0 -2.57110337382e-07 -2.57110337382e-07
Te 4.2142178275 -0 0 -0 2.57110337382e-07 -2.57110337382e-07
Te -2.1071089138 3.6496196957 0 0 -2.57110337382e-07 -2.57110337382e-07
Te 0.5214351306 2.7341309012 13.6684688377 0.00766291649532 0.00442435468566 0.00656248425133
Te 2.1071086966 5.4805976609 13.6684688377 0 -0.00884819515065 0.00656248425133
Te 3.692782697 2.7341306505 13.6684692261 -0.00766291649532 0.00442435468566 0.00656248425133
Te -2.1071086966 6.0826993675 14.8061246136 -0 -2.57110337382e-07 -0.0735482117804
Te 2.107109131 1.8186417305 17.3649683877 -0 0.00884845226099 -0.00656248425133
Te 3.692782697 4.5651084901 17.3649683877 -0.00766291649532 -0.00442435468566 -0.00656248425133
Te 6.3213265241 1.216540024 16.227312612 0 2.57110337382e-07 0.07354795467
Te 0.5214351307 4.5651087406 17.3649679993 0.00766265938498 -0.00442435468566 -0.00656248425133
Te 2.1071086783 0.6780351161 10.8016850139 0 -0.0225053820517 0.0216247791462
Te 4.6805763142 5.1354121895 10.8016850139 0.0194902491252 0.0112524339155 0.0216250362565
Te 6.3213269768 1.2165397626 11.3098523952 -0 2.57110337382e-07 0.0159626952963
Te -0.4663584867 5.1354119176 10.8016854372 -0.0194902491252 0.0112524339155 0.0216250362565
Te 0.3942519656 -0.2276215847 23.5116940246 -0.0153780263891 0.00887853417046 0.0329674587901
Te 2.1071093444 3.6496194471 23.3130528275 -2.57110337382e-07 -2.57110337382e-07 0.0500663246673
Te 3.819965862 -0.2276210873 23.5116942134 0.0153782834995 0.00887853417046 0.0329672016797
Te -2.1071093443 4.1048626161 23.5116942134 0 -0.0177570683409 0.0329672016797
Te -0.0026839383 2.4315310125 27.5613970443 7.71331012145e-07 5.14220674763e-07 -0.0430148165543
Te 2.1071082308 6.085798245 27.5613970443 2.57110337382e-07 -1.02844134953e-06 -0.0430148165543
Te 4.2169017658 2.4315302239 27.5613970327 -7.71331012145e-07 7.71331012145e-07 -0.0430148165543
Te -2.1071082308 6.0826990986 27.5753590723 -2.57110337382e-07 -0 -0.0249008790651
Te -0.4663584868 2.1638272019 20.2317522115 -0.0194902491252 -0.0112524339155 -0.0216250362565
Te 2.1071091492 6.6212042756 20.2317522115 -0 0.0225053820517 -0.0216247791462
Te 4.6805763141 2.1638274739 20.2317517882 0.0194902491252 -0.0112524339155 -0.0216250362565
Te -2.1071091493 6.0826996289 19.7235848307 0 -2.57110337382e-07 -0.0159629524067
Sb -0.0045832637 2.4304319556 9.3841423905 -0.00250374046542 -0.00144496009608 0.0169903653149
Sb 2.1071103789 6.0879926383 9.3841423905 -2.57110337382e-07 0.00289069152318 0.0169901082045
Sb 4.2188010912 2.4304336474 9.38414278 0.00250348335508 -0.00144521720642 0.0169903653149
Sb -2.1071103789 6.0827003388 8.035269239 2.57110337382e-07 -2.57110337382e-07 -0.0373979841238
Sb 0.0008998871 2.4335967748 1.890223236 -0.00137476897398 -0.000793185390822 -0.00314471653651
Sb 2.1071111417 6.0816616786 1.890223236 -2.57110337382e-07 0.00158714211266 -0.00314445942618
Sb 4.2133179405 2.4335993474 1.8902235241 0.00137476897398 -0.000793699611497 -0.00314497364685
Sb -2.1071111417 6.0827007792 1.8902167494 2.57110337382e-07 -2.57110337382e-07 -0.00436701908043
Sb -0.0695182758 0.040136414 17.916259375 -0.00949354209748 0.00548133528264 -0.0249019075064
Sb 2.107108188 3.6496201148 19.6534287153 0 -2.57110337382e-07 -0.00507201562553
Sb 4.2837361033 0.0401355759 17.9162596202 0.00949354209748 0.00548133528264 -0.0249016503961
Sb 6.3213274671 3.5693472869 17.9162596202 -2.57110337382e-07 -0.0109624134549 -0.0249016503961
Sb 0.0695182758 -0.040136414 13.1171778501 0.00949354209748 -0.0054810781723 0.0249019075064
Sb 2.1071096396 3.6496192767 11.3800085101 -0 -0 0.00507201562553
Sb 4.1446995518 -0.0401355759 13.117177605 -0.00949354209748 -0.0054810781723 0.0249016503961
Sb -2.1071096396 3.7298921046 13.1171776049 2.57110337382e-07 0.0109621563446 0.0249016503961
Sb 2.1071066858 1.2175777129 29.1432139894 2.57110337382e-07 -0.00158714211266 0.00314445942618
Sb 4.2133179404 4.8656426167 29.1432139894 0.00137476897398 0.00079344250116 0.00314445942618
Sb 6.3213289693 1.2165386123 29.143220476 -2.57110337382e-07 2.57110337382e-07 0.00436676197009
Sb 0.0008998871 4.865640044 29.1432137013 -0.00137476897398 0.000793699611497 0.00314471653651
Sb 2.1071074486 1.2112467532 21.6492948349 2.57110337382e-07 -0.00289069152318 -0.0169903653149
Sb 4.2188010912 4.8688074358 21.6492948349 0.00250374046542 0.00144496009608 -0.0169901082045
Sb 6.3213282064 1.2165390527 22.9981679867 -2.57110337382e-07 2.57110337382e-07 0.0373979841238
Sb -0.0045832637 4.868805744 21.6492944457 -0.00250348335508 0.00144521720642 -0.0169901082045
Cr 2.1071089138 3.6496196957 15.5167186127 -0 0 0
61
Lattice="8.42843558953 0 0 -4.21421779477 7.29923593142 0 0 0 31.0334408416" Properties=species:S:1:pos:R:3:forces:R:3 energy=-133601.231563 ionic_step=2 pbc="T T T"
Te 2.1071095967 1.2135850924 3.4719319444 -2.57110337382e-07 -5.09078468016e-05 0.0430186732093
Te 4.216777105 4.867636406 3.4719319444 4.42229780296e-05 2.54539234008e-05 0.0430189303197
Te 6.3213260584 1.2165402929 3.4577846853 2.57110337382e-07 0 0.0249507584705
Te -0.0025592775 4.8676371946 3.471931956 -4.42229780296e-05 2.51968130634e-05 0.0430189303197
Te -0.3940783075 0.227521323 7.5217229891 0.0154006520988 -0.00889138968733 -0.0329949695962
Te 2.1071084831 3.6496199444 7.7207220727 2.57110337382e-07 -5.14220674763e-07 -0.0500131028275
Te 4.6082961348 0.2275208258 7.5217228002 -0.0154006520988 -0.00889138968733 -0.0329949695962
Te -2.1071084829 3.1945772984 7.5217228002 -0 0.017783036485 -0.0329949695962
Te 0 0 0 0 2.57110337382e-07 -2.57110337382e-07
Te 2.1071089138 3.6496196957 0 -0 -2.57110337382e-07 -2.57110337382e-07
Te 4.2142178275 -0 0 -0 2.57110337382e-07 -2.57110337382e-07
Te -2.1071089138 3.6496196957 0 0 -2.57110337382e-07 -2.57110337382e-07
Te 0.5211704765 2.733978103 13.6684289041 0.0076297492618 0.00440507141036 0.00657456843719
Te 2.1071086966 5.4809032573 13.6684289041 0 -0.00881014282072 0.00657456843719
Te 3.6930473511 2.7339778523 13.6684292925 -0.0076297492618 0.00440507141036 0.00657456843719
Te -2.1071086966 6.0826993675 14.8058659156 -0 -2.57110337382e-07 -0.0734942186095
Te 2.107109131 1.8183361341 17.3650083213 -0 0.00881014282072 -0.00657456843719
Te 3.6930473511 4.5652612883 17.3650083213 -0.0076297492618 -0.0044053285207 -0.00657456843719
Te 6.3213265241 1.216540024 16.22757131 0 2.57110337382e-07 0.0734942186095
Te 0.5211704766 4.5652615388 17.3650079329 0.0076297492618 -0.0044053285207 -0.00657456843719
Te 2.1071086783 0.6777666365 10.8017904939 0 -0.022545234154 0.0216108951879
Te 4.6808088242 5.1355464293 10.8017904939 0.0195247019104 0.0112724885218 0.0216111522983
Te 6.3213269768 1.2165397626 11.3095041876 -0 2.57110337382e-07 0.0159603813033
Te -0.4665909967 5.1355461574 10.8017909172 -0.0195247019104 0.0112724885218 0.0216111522983
Te 0.3940783075 -0.2275213231 23.5117142363 -0.0154003949885 0.00889164679767 0.0329949695962
Te 2.1071093444 3.6496194471 23.3127151524 -2.57110337382e-07 -2.57110337382e-07 0.0500131028275
Te 3.8201395201 -0.2275208257 23.5117144251 0.0154003949885 0.00889138968733 0.0329949695962
Te -2.1071093443 4.104662093 23.5117144251 0 -0.017783036485 0.0329949695962
Te -0.0025592775 2.4316029854 27.561505281 -4.42229780296e-05 -2.54539234008e-05 -0.0430181589887
Te 2.1071082308 6.0856542991 27.561505281 2.57110337382e-07 5.09078468016e-05 -0.043018416099
Te 4.216777105 2.4316021968 27.5615052694 4.42229780296e-05 -2.51968130634e-05 -0.043018416099
Te -2.1071082308 6.0826990986 27.57565254 -2.57110337382e-07 -0 -0.0249505013602
Te -0.4665909968 2.1636929621 20.2316467315 -0.0195247019104 -0.0112724885218 -0.0216111522983
Te 2.1071091492 6.6214727552 20.2316467315 -0 0.022545234154 -0.0216111522983
Te 4.6808088241 2.1636932341 20.2316463082 0.0195247019104 -0.0112724885218 -0.0216111522983
Te -2.1071091493 6.0826996289 19.7239330383 0 -2.57110337382e-07 -0.0159603813033
Sb -0.0044386665 2.4305154388 9.3841300473 -0.00251993841668 -0.00145447317857 0.0169888226528
Sb 2.1071103789 6.0878256718 9.3841300473 -2.57110337382e-07 0.00290946057781 0.0169888226528
Sb 4.218656494 2.4305171306 9.3841304368 0.00251968130634 -0.00145447317857 0.0169888226528
Sb -2.1071103789 6.0827003388 8.0352797385 2.57110337382e-07 -2.57110337382e-07 -0.0373864141587
Sb 0.0007713325 2.4335225537 1.8900329918 -0.00136422745015 -0.000787271853063 -0.00313700322639
Sb 2.1071111417 6.0818101208 1.8900329918 -2.57110337382e-07 0.0015750579268 -0.00313674611606
Sb 4.2134464951 2.4335251263 1.8900332799 0.00136422745015 -0.0007875289634 -0.00313726033673
Sb -2.1071111417 6.0827007792 1.8902940115 2.57110337382e-07 -2.57110337382e-07 -0.00433770850197
Sb -0.0693237367 0.0400240967 17.9162192589 -0.00951976735189 0.00549624768221 -0.024899336403
Sb 2.107108188 3.6496201148 19.6536123085 0 -2.57110337382e-07 -0.00506018855001
Sb 4.2835415642 0.0400232586 17.9162195041 0.00951951024155 0.00549650479254 -0.0248990792927
Sb 6.3213274671 3.5695719214 17.9162195041 -2.57110337382e-07 -0.0109924953644 -0.0248990792927
Sb 0.0693237367 -0.0400240967 13.1172179662 0.00951976735189 -0.00549599057187 0.024899336403
Sb 2.1071096396 3.6496192767 11.3798249169 -0 -0 0.00506018855001
Sb 4.1448940909 -0.0400232586 13.1172177211 -0.00951976735189 -0.00549624768221 0.0248990792927
Sb -2.1071096396 3.7296674701 13.117217721 2.57110337382e-07 0.0109922382541 0.0248990792927
Sb 2.1071066858 1.2174292707 29.1434042336 2.57110337382e-07 -0.0015750579268 0.00313674611606
Sb 4.213446495 4.8657168378 29.1434042336 0.00136422745015 0.000787271853063 0.00313674611606
Sb 6.3213289693 1.2165386123 29.1431432139 -2.57110337382e-07 2.57110337382e-07 0.00433770850197
Sb 0.0007713325 4.8657142651 29.1434039455 -0.00136422745015 0.0007875289634 0.00313700322639
Sb 2.1071074486 1.2114137197 21.6493071781 2.57110337382e-07 -0.00290946057781 -0.0169888226528
Sb 4.218656494 4.8687239526 21.6493071781 0.00251993841668 0.00145447317857 -0.0169888226528
Sb 6.3213282064 1.2165390527 22.9981574872 -2.57110337382e-07 2.57110337382e-07 0.0373864141587
Sb -0.0044386665 4.8687222608 21.6493067889 -0.00251968130634 0.00145473028891 -0.0169888226528
Cr 2.1071089138 3.6496196957 15.5167186127 -0 0 0
61
Lattice="8.42843558953 0 0 -4.21421779477 7.29923593142 0 0 0 31.0334408416" Properties=species:S:1:pos:R:3:forces:R:3 energy=-133601.231648 ionic_step=3 pbc="T T T"
Te 2.1071095967 1.2138084618 3.4717596985 -2.57110337382e-07 -0.000130869161727 0.0430235583058
Te 4.2165836615 4.8675247213 3.4717596985 0.000113385658785 6.53060256949e-05 0.0430238154161
Te 6.3213260584 1.2165402929 3.4573710695 2.57110337382e-07 0 0.0250222351443
Te -0.002365834 4.8675255099 3.4717597101 -0.000113385658785 6.50489153576e-05 0.0430238154161
Te -0.3938434803 0.2273857454 7.5217086268 0.0154325337807 -0.00890964452129 -0.0330348216985
Te 2.1071084831 3.6496199444 7.7212025668 2.57110337382e-07 -5.14220674763e-07 -0.0499393121606
Te 4.6080613076 0.2273852482 7.5217084379 -0.0154325337807 -0.00890964452129 -0.0330348216985
Te -2.1071084829 3.1948484537 7.5217084379 -0 0.0178198032632 -0.0330348216985
Te 0 0 0 0 2.57110337382e-07 -2.57110337382e-07
Te 2.1071089138 3.6496196957 0 -0 -2.57110337382e-07 -2.57110337382e-07
Te 4.2142178275 0 0 -0 2.57110337382e-07 -2.57110337382e-07
Te -2.1071089138 3.6496196957 0 0 -2.57110337382e-07 -2.57110337382e-07
Te 0.5209155002 2.7338308923 13.6683816327 0.00759863891098 0.00438707368674 0.00658562418169
Te 2.1071086966 5.4811976787 13.6683816327 0 -0.00877414737349 0.00658562418169
Te 3.6933023274 2.7338306416 13.6683820211 -0.00759863891098 0.00438707368674 0.00658562418169
Te -2.1071086966 6.0826993675 14.8054401841 -0 -2.57110337382e-07 -0.0734039728811
Te 2.107109131 1.8180417127 17.3650555927 -0 0.00877414737349 -0.00658562418169
Te 3.6933023274 4.565408499 17.3650555927 -0.00759863891098 -0.00438707368674 -0.00658562418169
Te 6.3213265241 1.216540024 16.2279970415 0 2.57110337382e-07 0.0734039728811
Te 0.5209155003 4.5654087495 17.3650552043 0.00759838180064 -0.00438707368674 -0.00658562418169
Te 2.1071086783 0.6774096483 10.8019538636 0 -0.0225969133318 0.0215885265886
Te 4.6811179849 5.1357249234 10.8019538636 0.0195694391091 0.0112981995556 0.0215887836989
Te 6.3213269768 1.2165397626 11.3089818761 -0 2.57110337382e-07 0.0159629524067
Te -0.4669001574 5.1357246515 10.8019542869 -0.0195694391091 0.0112984566659 0.0215887836989
Te 0.3938434803 -0.2273857455 23.5117285986 -0.0154322766703 0.00890990163162 0.0330348216985
Te 2.1071093444 3.6496194471 23.3122346583 -2.57110337382e-07 -2.57110337382e-07 0.0499393121606
Te 3.8203743473 -0.2273852481 23.5117287874 0.0154322766703 0.00890990163162 0.0330348216985
Te -2.1071093443 4.1043909377 23.5117287874 0 -0.0178195461529 0.0330348216985
Te -0.002365834 2.4317146701 27.5616775269 -0.000113385658785 -6.53060256949e-05 -0.0430233011954
Te 2.1071082308 6.0854309297 27.5616775269 2.57110337382e-07 0.00013061205139 -0.0430233011954
Te 4.2165836615 2.4317138815 27.5616775153 0.000113385658785 -6.50489153576e-05 -0.0430233011954
Te -2.1071082308 6.0826990986 27.5760661558 -2.57110337382e-07 -0 -0.025021978034
Te -0.4669001575 2.163514468 20.2314833618 -0.0195694391091 -0.0112981995556 -0.0215885265886
Te 2.1071091492 6.6218297434 20.2314833618 -0 0.0225969133318 -0.0215885265886
Te 4.6811179848 2.16351474 20.2314829385 0.0195694391091 -0.0112981995556 -0.0215885265886
Te -2.1071091493 6.0826996289 19.7244553498 0 -2.57110337382e-07 -0.015963209517
Sb -0.0042339479 2.4306336332 9.3841067525 -0.00254230701603 -0.00146732869544 0.0169895939838
Sb 2.1071103789 6.0875892829 9.3841067525 -2.57110337382e-07 0.00293542872189 0.0169893368735
Sb 4.2184517754 2.430635325 9.384107142 0.00254230701603 -0.00146758580577 0.0169893368735
Sb -2.1071103789 6.0827003388 8.0353018605 2.57110337382e-07 -2.57110337382e-07 -0.0373702162074
Sb 0.0006063516 2.4334273019 1.8897160804 -0.00135240037463 -0.000780329873953 -0.00312286215784
Sb 2.1071111417 6.0820006243 1.8897160804 -2.57110337382e-07 0.00156143107892 -0.00312286215784
Sb 4.213611476 2.4334298745 1.8897163685 0.00135240037463 -0.000780844094628 -0.00312311926817
Sb -2.1071111417 6.0827007792 1.8904345698 2.57110337382e-07 -2.57110337382e-07 -0.00429297130326
Sb -0.0690375918 0.0398588908 17.9161608457 -0.00955576279913 0.00551707361954 -0.024896251079
Sb 2.107108188 3.6496201148 19.6538011478 0 -2.57110337382e-07 -0.00504424770909
Sb 4.2832554193 0.0398580527 17.9161610909 0.00955550568879 0.00551733072987 -0.024896251079
Sb 6.3213274671 3.5699023333 17.9161610909 -2.57110337382e-07 -0.0110341472391 -0.024896251079
Sb 0.0690375918 -0.0398588908 13.1172763794 0.00955576279913 -0.0055168165092 0.024896251079
Sb 2.1071096396 3.6496192767 11.3796360776 -0 -0 0.00504424770909
Sb 4.1451802358 -0.0398580527 13.1172761343 -0.00955576279913 -0.00551707361954 0.024896251079
Sb -2.1071096396 3.7293370582 13.1172761342 2.57110337382e-07 0.0110338901287 0.024896251079
Sb 2.1071066858 1.2172387672 29.143721145 2.57110337382e-07 -0.00156143107892 0.00312286215784
Sb 4.2136114759 4.8658120896 29.143721145 0.00135240037463 0.000780586984291 0.00312286215784
Sb 6.3213289693 1.2165386123 29.1430026556 -2.57110337382e-07 2.57110337382e-07 0.00429297130326
Sb 0.0006063516 4.8658095169 29.1437208569 -0.00135240037463 0.000780844094628 0.00312311926817
Sb 2.1071074486 1.2116501086 21.6493304729 2.57110337382e-07 -0.00293542872189 -0.0169895939838
Sb 4.2184517754 4.8686057582 21.6493304729 0.00254230701603 0.00146732869544 -0.0169893368735
Sb 6.3213282064 1.2165390527 22.9981353652 -2.57110337382e-07 2.57110337382e-07 0.0373702162074
Sb -0.0042339479 4.8686040664 21.6493300837 -0.00254230701603 0.00146758580577 -0.0169893368735
Cr 2.1071089138 3.6496196957 15.5167186127 -0 0 -0
61
Lattice="8.42843558953 0 0 -4.21421779477 7.29923593142 0 0 0 31.0334408416" Properties=species:S:1:pos:R:3:forces:R:3 energy=-133601.23172 ionic_step=4 pbc="T T T"
Te 2.1071095967 1.2141498884 3.471475573 -2.57110337382e-07 -0.000251711020297 0.0430315287262
Te 4.2162879775 4.8673540079 3.471475573 0.0002180295661 0.00012572695498 0.0430315287262
Te 6.3213260584 1.2165402929 3.4567814304 2.57110337382e-07 0 0.0251261077206
Te -0.00207015 4.8673547965 3.4714755846 -0.0002180295661 0.000125469844642 0.0430317858366
Te -0.3935344065 0.2272073015 7.5217085775 0.0154767567587 -0.00893535555502 -0.0330924144141
Te 2.1071084831 3.6496199444 7.7218550025 2.57110337382e-07 -5.14220674763e-07 -0.0498400675704
Te 4.6077522338 0.2272068043 7.5217083886 -0.0154767567587 -0.00893535555502 -0.0330921573037
Te -2.1071084829 3.1952053415 7.5217083886 -0 0.0178709682204 -0.0330921573037
Te 0 0 0 0 2.57110337382e-07 -2.57110337382e-07
Te 2.1071089138 3.6496196957 0 -0 -2.57110337382e-07 -2.57110337382e-07
Te 4.2142178275 0 0 -0 2.57110337382e-07 -2.57110337382e-07
Te -2.1071089138 3.6496196957 -0 0 -2.57110337382e-07 -2.57110337382e-07
Te 0.5207079908 2.7337110866 13.6683181479 0.00757447053926 0.00437318972852 0.00659436593316
Te 2.1071086966 5.48143729 13.6683181479 0 -0.00874612234671 0.00659436593316
Te 3.6935098368 2.7337108359 13.6683185363 -0.00757447053926 0.00437318972852 0.00659436593316
Te -2.1071086966 6.0826993675 14.8047443111 -0 -2.57110337382e-07 -0.0732566486578
Te 2.107109131 1.8178021014 17.3651190775 -0 0.00874612234671 -0.00659436593316
Te 3.6935098368 4.5655283047 17.3651190775 -0.00757421342893 -0.00437318972852 -0.00659436593316
Te 6.3213265241 1.216540024 16.2286929145 0 2.57110337382e-07 0.0732566486578
Te 0.5207079909 4.5655285552 17.3651186891 0.00757421342893 -0.00437318972852 -0.00659436593316
Te 2.1071086783 0.6769554544 10.802201808 0 -0.0226596482541 0.0215520169207
Te 4.6815113282 5.1359520204 10.802201808 0.0196236893903 0.0113295670167 0.021552274031
Te 6.3213269768 1.2165397626 11.308198409 -0 2.57110337382e-07 0.0159768363649
Te -0.4672935007 5.1359517485 10.8022022313 -0.0196236893903 0.0113295670167 0.021552274031
Te 0.3935344065 -0.2272073016 23.5117286479 -0.0154764996483 0.00893535555502 0.0330921573037
Te 2.1071093444 3.6496194471 23.3115822226 -2.57110337382e-07 -2.57110337382e-07 0.0498400675704
Te 3.8206834211 -0.2272068042 23.5117288367 0.0154767567587 0.00893535555502 0.0330921573037
Te -2.1071093443 4.1040340499 23.5117288367 0 -0.01787071111 0.0330921573037
Te -0.00207015 2.4318853835 27.5619616524 -0.0002180295661 -0.000125984065317 -0.0430310145055
Te 2.1071082308 6.0850895031 27.5619616524 2.57110337382e-07 0.000251711020297 -0.0430312716159
Te 4.2162879775 2.4318845949 27.5619616408 0.0002180295661 -0.000125469844642 -0.0430310145055
Te -2.1071082308 6.0826990986 27.5766557949 -2.57110337382e-07 -0 -0.0251258506103
Te -0.4672935008 2.163287371 20.2312354174 -0.0196236893903 -0.0113295670167 -0.0215520169207
Te 2.1071091492 6.6222839373 20.2312354174 -0 0.0226596482541 -0.0215520169207
Te 4.6815113281 2.163287643 20.2312349941 0.0196236893903 -0.0113295670167 -0.021552274031
Te -2.1071091493 6.0826996289 19.7252388169 0 -2.57110337382e-07 -0.0159768363649
Sb -0.0039578683 2.4307930279 9.3840706545 -0.00257187470483 -0.0014842979777 0.0169919079769
Sb 2.1071103789 6.0872704936 9.3840706545 -2.57110337382e-07 0.00296962439676 0.0169916508665
Sb 4.2181756958 2.4307947197 9.384071044 0.00257187470483 -0.00148455508804 0.0169919079769
Sb -2.1071103789 6.0827003388 8.0353377856 2.57110337382e-07 -2.57110337382e-07 -0.0373478476081
Sb 0.0004082252 2.4333129136 1.8892182536 -0.00134160174046 -0.000774159225856 -0.00310049355849
Sb 2.1071111417 6.0822294011 1.8892182536 -2.57110337382e-07 0.00154908978272 -0.00310049355849
Sb 4.2138096024 2.4333154862 1.8892185417 0.00134160174046 -0.000774416336193 -0.00310075066882
Sb -2.1071111417 6.0827007792 1.8906883067 2.57110337382e-07 -2.57110337382e-07 -0.00422740816723
Sb -0.0686121934 0.0396132868 17.9160878107 -0.00960589931492 0.00554612708766 -0.0248949655273
Sb 2.107108188 3.6496201148 19.6539740484 0 -2.57110337382e-07 -0.00502290755109
Sb 4.2828300209 0.0396124487 17.9160880559 0.00960589931492 0.005546384198 -0.024894708417
Sb 6.3213274671 3.5703935413 17.9160880559 -2.57110337382e-07 -0.0110922541753 -0.024894708417
Sb 0.0686121934 -0.0396132868 13.1173494144 0.00960615642525 -0.00554586997732 0.0248949655273
Sb 2.1071096396 3.6496192767 11.379463177 -0 -0 0.00502290755109
Sb 4.1456056342 -0.0396124487 13.1173491693 -0.00960589931492 -0.00554612708766 0.024894708417
Sb -2.1071096396 3.7288458502 13.1173491692 2.57110337382e-07 0.011091997065 0.024894708417
Sb 2.1071066858 1.2170099904 29.1442189718 2.57110337382e-07 -0.00154883267239 0.00310023644815
Sb 4.2138096023 4.8659264779 29.1442189718 0.00134160174046 0.000774159225856 0.00310049355849
Sb 6.3213289693 1.2165386123 29.1427489187 -2.57110337382e-07 2.57110337382e-07 0.00422740816723
Sb 0.0004082252 4.8659239052 29.1442186837 -0.00134160174046 0.000774673446531 0.00310075066882
Sb 2.1071074486 1.2119688979 21.6493665709 2.57110337382e-07 -0.00296962439676 -0.0169919079769
Sb 4.2181756958 4.8684463635 21.6493665709 0.00257187470483 0.0014842979777 -0.0169919079769
Sb 6.3213282064 1.2165390527 22.9980994401 -2.57110337382e-07 2.57110337382e-07 0.0373478476081
Sb -0.0039578683 4.8684446717 21.6493661817 -0.00257187470483 0.00148455508804 -0.0169916508665
Cr 2.1071089138 3.6496196957 15.5167186127 -0 0 -0
61
Lattice="8.42843558953 0 0 -4.21421779477 7.29923593142 0 0 0 31.0334408416" Properties=species:S:1:pos:R:3:forces:R:3 energy=-133601.231765 ionic_step=5 pbc="T T T"
Te 2.1071095967 1.214509152 3.4711370089 -2.57110337382e-07 -0.000377437975276 0.0430402704777
Te 4.2159768463 4.8671743762 3.4711370089 0.000326787238812 0.000188718987638 0.043040527588
Te 6.3213260584 1.2165402929 3.4562000218 2.57110337382e-07 0 0.0252310087383
Te -0.0017590188 4.8671751648 3.4711370205 -0.000326787238812 0.000188461877301 0.043040527588
Te -0.3932797252 0.2270602611 7.5217419565 0.0155168659713 -0.00895849548539 -0.0331476931366
Te 2.1071084831 3.6496199444 7.7224167596 2.57110337382e-07 -5.14220674763e-07 -0.0497534213867
Te 4.6074975525 0.2270597639 7.5217417676 -0.0155168659713 -0.00895849548539 -0.0331476931366
Te -2.1071084829 3.1954994223 7.5217417676 -0 0.0179172480811 -0.0331474360263
Te 0 0 0 0 2.57110337382e-07 -2.57110337382e-07
Te 2.1071089138 3.6496196957 0 -0 -2.57110337382e-07 -2.57110337382e-07
Te 4.2142178275 0 0 -0 2.57110337382e-07 -2.57110337382e-07
Te -2.1071089138 3.6496196957 -0 0 -2.57110337382e-07 -2.57110337382e-07
Te 0.5206936108 2.7337027843 13.6682568197 0.00757524187027 0.0043737039492 0.00659565148485
Te 2.1071086966 5.4814538946 13.6682568197 0 -0.00874715078806 0.00659565148485
Te 3.6935242168 2.7337025336 13.6682572081 -0.00757524187027 0.0043737039492 0.00659565148485
Te -2.1071086966 6.0826993675 14.8039526338 -0 -2.57110337382e-07 -0.0730913267108
Te 2.107109131 1.8177854968 17.3651804057 -0 0.00874715078806 -0.00659565148485
Te 3.6935242168 4.565536607 17.3651804057 -0.00757524187027 -0.0043737039492 -0.00659565148485
Te 6.3213265241 1.216540024 16.2294845918 0 2.57110337382e-07 0.0730910696005
Te 0.5206936109 4.5655368575 17.3651800173 0.00757524187027 -0.0043737039492 -0.00659565148485
Te 2.1071086783 0.676607594 10.8024628293 0 -0.0227015572391 0.0215108792667
Te 4.681812584 5.1361259505 10.8024628293 0.0196601990582 0.0113506500644 0.0215108792667
Te 6.3213269768 1.2165397626 11.3073973932 -0 2.57110337382e-07 0.0160040900607
Te -0.4675947565 5.1361256786 10.8024632526 -0.0196601990582 0.0113506500644 0.021511136377
Te 0.3932797252 -0.2270602612 23.5116952689 -0.015516608861 0.00895875259573 0.0331476931366
Te 2.1071093444 3.6496194471 23.3110204655 -2.57110337382e-07 -2.57110337382e-07 0.0497534213867
Te 3.8209381024 -0.2270597638 23.5116954577 0.0155168659713 0.00895849548539 0.0331476931366
Te -2.1071093443 4.1037399691 23.5116954577 0 -0.0179172480811 0.0331474360263
Te -0.0017590188 2.4320650152 27.5623002165 -0.000326787238812 -0.000188718987638 -0.0430400133673
Te 2.1071082308 6.0847302395 27.5623002165 2.57110337382e-07 0.000377437975276 -0.0430400133673
Te 4.2159768463 2.4320642266 27.5623002049 0.000326787238812 -0.000188461877301 -0.0430400133673
Te -2.1071082308 6.0826990986 27.5772372035 -2.57110337382e-07 -0 -0.0252304945176
Te -0.4675947566 2.1631134409 20.2309743961 -0.0196601990582 -0.0113506500644 -0.0215108792667
Te 2.1071091492 6.6226317977 20.2309743961 -0 0.0227015572391 -0.0215108792667
Te 4.6818125839 2.1631137129 20.2309739728 0.0196601990582 -0.0113506500644 -0.0215108792667
Te -2.1071091493 6.0826996289 19.7260398327 0 -2.57110337382e-07 -0.016004347171
Sb -0.0037174872 2.4309318121 9.3840445601 -0.00259655729722 -0.0014986961566 0.0169947361906
Sb 2.1071103789 6.0869929252 9.3840445601 -2.57110337382e-07 0.00299816364421 0.0169947361906
Sb 4.2179353147 2.4309335039 9.3840449496 0.00259655729722 -0.00149895326693 0.0169947361906
Sb -2.1071103789 6.0827003388 8.0353845731 2.57110337382e-07 -2.57110337382e-07 -0.0373267645604
Sb 0.000266429 2.4332310474 1.8886583554 -0.00133903063708 -0.000772616563832 -0.00307349697306
Sb 2.1071111417 6.0823931333 1.8886583554 -2.57110337382e-07 0.00154600445868 -0.00307349697306
Sb 4.2139513986 2.43323362 1.8886586435 0.00133903063708 -0.000772873674169 -0.0030737540834
Sb -2.1071111417 6.0827007792 1.8909888681 2.57110337382e-07 -2.57110337382e-07 -0.00416030236917
Sb -0.0681702326 0.0393581204 17.916033918 -0.00965475027902 0.00557440922477 -0.0248980508514
Sb 2.107108188 3.6496201148 19.6540276734 0 -2.57110337382e-07 -0.00500362427578
Sb 4.2823880601 0.0393572823 17.9160341632 0.00965475027902 0.00557440922477 -0.0248980508514
Sb 6.3213274671 3.5709038739 17.9160341632 -2.57110337382e-07 -0.0111488184495 -0.0248980508514
Sb 0.0681702326 -0.0393581204 13.1174033071 0.00965500738935 -0.00557415211443 0.0248980508514
Sb 2.1071096396 3.6496192767 11.379409552 -0 -0 0.00500362427578
Sb 4.146047595 -0.0393572823 13.117403062 -0.00965475027902 -0.00557440922477 0.0248980508514
Sb -2.1071096396 3.7283355176 13.1174030619 2.57110337382e-07 0.0111485613392 0.0248980508514
Sb 2.1071066858 1.2168462582 29.14477887 2.57110337382e-07 -0.00154600445868 0.00307323986272
Sb 4.2139513985 4.8660083441 29.14477887 0.00133903063708 0.000772616563832 0.00307349697306
Sb 6.3213289693 1.2165386123 29.1424483573 -2.57110337382e-07 2.57110337382e-07 0.00416004525883
Sb 0.000266429 4.8660057714 29.1447785819 -0.00133903063708 0.000773130784507 0.0030737540834
Sb 2.1071074486 1.2122464663 21.6493926653 2.57110337382e-07 -0.00299816364421 -0.0169947361906
Sb 4.2179353147 4.8683075793 21.6493926653 0.00259655729722 0.0014986961566 -0.0169947361906
Sb 6.3213282064 1.2165390527 22.9980526526 -2.57110337382e-07 2.57110337382e-07 0.0373267645604
Sb -0.0037174872 4.8683058875 21.6493922761 -0.00259655729722 0.00149895326693 -0.0169947361906
Cr 2.1071089138 3.6496196957 15.5167186127 -0 0 -0
61
Lattice="8.42843558953 0 0 -4.21421779477 7.29923593142 0 0 0 31.0334408416" Properties=species:S:1:pos:R:3:forces:R:3 energy=-133601.231807 ionic_step=6 pbc="T T T"
Te 2.1071095967 1.2148408605 3.4707862324 -2.57110337382e-07 -0.000491594965074 0.0430490122292
Te 4.2156895785 4.8670085219 3.4707862324 0.000425774718704 0.000245797482537 0.0430492693395
Te 6.3213260584 1.2165402929 3.4557147414 2.57110337382e-07 0 0.0253209973564
Te -0.001471751 4.8670093105 3.470786244 -0.000425774718704 0.000245540372199 0.0430492693395
Te -0.393139568 0.2269793412 7.5218098862 0.0155448909981 -0.00897469343664 -0.0331919161146
Te 2.1071084831 3.6496199444 7.7227556907 2.57110337382e-07 -5.14220674763e-07 -0.0496971142228
Te 4.6073573953 0.226978844 7.5218096973 -0.0155448909981 -0.00897443632631 -0.0331919161146
Te -2.1071084829 3.195661262 7.5218096973 -0 0.0179493868733 -0.0331916590043
Te 0 0 0 0 2.57110337382e-07 -2.57110337382e-07
Te 2.1071089138 3.6496196957 0 -0 -2.57110337382e-07 -2.57110337382e-07
Te 4.2142178275 0 0 -0 2.57110337382e-07 -2.57110337382e-07
Te -2.1071089138 3.6496196957 -0 0 -2.57110337382e-07 -2.57110337382e-07
Te 0.5208715539 2.7338055198 13.6682066457 0.00760043868334 0.00438810212809 0.00658973794709
Te 2.1071086966 5.4812484236 13.6682066457 0 -0.00877620425618 0.00658973794709
Te 3.6933462737 2.7338052691 13.6682070341 -0.007600181573 0.00438810212809 0.00658973794709
Te -2.1071086966 6.0826993675 14.803154425 -0 -2.57110337382e-07 -0.0729308898603
Te 2.107109131 1.8179909678 17.3652305797 -0 0.00877620425618 -0.00658973794709
Te 3.6933462737 4.5654338715 17.3652305797 -0.007600181573 -0.00438810212809 -0.00658973794709
Te 6.3213265241 1.216540024 16.2302828006 0 2.57110337382e-07 0.0729308898603
Te 0.520871554 4.565434122 17.3652301913 0.007600181573 -0.00438810212809 -0.00658973794709
Te 2.1071086783 0.6764543593 10.8026983764 0 -0.0227087563286 0.021468456061
Te 4.681945289 5.1362025679 10.8026983764 0.0196663697063 0.0113542496091 0.0214687131714
Te 6.3213269768 1.2165397626 11.3066950686 -0 2.57110337382e-07 0.016044713494
Te -0.4677274615 5.136202296 10.8026987997 -0.0196663697063 0.0113542496091 0.0214687131714
Te 0.393139568 -0.2269793413 23.5116273392 -0.0155446338878 0.00897469343664 0.0331919161146
Te 2.1071093444 3.6496194471 23.3106815344 -2.57110337382e-07 -2.57110337382e-07 0.0496971142228
Te 3.8210782596 -0.2269788439 23.511627528 0.0155446338878 0.00897469343664 0.0331916590043
Te -2.1071093443 4.1035781294 23.511627528 0 -0.0179493868733 0.0331916590043
Te -0.001471751 2.4322308695 27.562650993 -0.000425774718704 -0.000245797482537 -0.0430487551188
Te 2.1071082308 6.084398531 27.562650993 2.57110337382e-07 0.000491594965074 -0.0430487551188
Te 4.2156895785 2.4322300809 27.5626509814 0.000425774718704 -0.000245540372199 -0.0430487551188
Te -2.1071082308 6.0826990986 27.5777224839 -2.57110337382e-07 -0 -0.025320740246
Te -0.4677274616 2.1630368235 20.230738849 -0.0196663697063 -0.0113542496091 -0.0214687131714
Te 2.1071091492 6.6227850324 20.230738849 -0 0.0227090134389 -0.0214687131714
Te 4.6819452889 2.1630370955 20.2307384257 0.0196663697063 -0.0113542496091 -0.0214687131714
Te -2.1071091493 6.0826996289 19.7267421573 0 -2.57110337382e-07 -0.016044713494
Sb -0.0035637993 2.4310205438 9.3840341056 -0.00261146969679 -0.00150718079773 0.0169975644043
Sb 2.1071103789 6.0868154617 9.3840341056 -2.57110337382e-07 0.00301513292647 0.016997307294
Sb 4.2177816268 2.4310222356 9.3840344951 0.00261121258645 -0.00150743790807 0.0169975644043
Sb -2.1071103789 6.0827003388 8.0354339321 2.57110337382e-07 -2.57110337382e-07 -0.0373110808298
Sb 0.0002174947 2.4332027952 1.8881215671 -0.00134700105754 -0.000777244549905 -0.0030462432773
Sb 2.1071111417 6.0824496378 1.8881215671 -2.57110337382e-07 0.00155526043082 -0.0030462432773
Sb 4.2140003329 2.4332053678 1.8881218552 0.00134700105754 -0.000777501660242 -0.00304650038763
Sb -2.1071111417 6.0827007792 1.8913103289 2.57110337382e-07 -2.57110337382e-07 -0.00410296676394
Sb -0.0677612159 0.0391219745 17.9160027795 -0.00969665926401 0.00559857759648 -0.0249070497132
Sb 2.107108188 3.6496201148 19.6539564885 0 -2.57110337382e-07 -0.00499102586925
Sb 4.2819790434 0.0391211364 17.9160030247 0.00969665926401 0.00559857759648 -0.0249067926028
Sb 6.3213274671 3.5713761659 17.9160030247 -2.57110337382e-07 -0.0111968980826 -0.0249067926028
Sb 0.0677612159 -0.0391219745 13.1174344456 0.00969665926401 -0.00559832048615 0.0249070497132
Sb 2.1071096396 3.6496192767 11.3794807369 -0 -0 0.00499102586925
Sb 4.1464566117 -0.0391211364 13.1174342005 -0.00969665926401 -0.00559832048615 0.0249067926028
Sb -2.1071096396 3.7278632256 13.1174342004 2.57110337382e-07 0.0111966409723 0.0249067926028
Sb 2.1071066858 1.2167897537 29.1453156583 2.57110337382e-07 -0.00155526043082 0.00304598616696
Sb 4.2140003328 4.8660365963 29.1453156583 0.00134700105754 0.000777244549905 0.0030462432773
Sb 6.3213289693 1.2165386123 29.1421268965 -2.57110337382e-07 2.57110337382e-07 0.00410296676394
Sb 0.0002174947 4.8660340236 29.1453153702 -0.00134700105754 0.000777758770579 0.00304650038763
Sb 2.1071074486 1.2124239298 21.6494031198 2.57110337382e-07 -0.00301513292647 -0.0169975644043
Sb 4.2177816268 4.8682188476 21.6494031198 0.00261146969679 0.00150718079773 -0.016997307294
Sb 6.3213282064 1.2165390527 22.9980032936 -2.57110337382e-07 2.57110337382e-07 0.0373110808298
Sb -0.0035637993 4.8682171558 21.6494027306 -0.00261121258645 0.00150743790807 -0.016997307294
Cr 2.1071089138 3.6496196957 15.5167186127 -0 0 -0
61
Lattice="8.42843558953 0 0 -4.21421779477 7.29923593142 0 0 0 31.0334408416" Properties=species:S:1:pos:R:3:forces:R:3 energy=-133601.231849 ionic_step=7 pbc="T T T"
Te 2.1071095967 1.2151777662 3.4703884057 -2.57110337382e-07 -0.000605494844534 0.043058782422
Te 4.2153978096 4.866840069 3.4703884057 0.000524505088259 0.000302875977436 0.043058782422
Te 6.3213260584 1.2165402929 3.4552415623 2.57110337382e-07 0 0.0254107288641
Te -0.0011799821 4.8668408576 3.4703884173 -0.000524505088259 0.000302618867098 0.043058782422
Te -0.3930860254 0.2269484284 7.521919828 0.0155636600527 -0.00898549207081 -0.0332312539962
Te 2.1071084831 3.6496199444 7.7229182587 2.57110337382e-07 -5.14220674763e-07 -0.0496613758859
Te 4.6073038527 0.2269479312 7.5219196391 -0.0155636600527 -0.00898549207081 -0.0332309968859
Te -2.1071084829 3.1957230876 7.5219196391 -0 0.017971241252 -0.0332309968859
Te 0 0 0 0 2.57110337382e-07 -2.57110337382e-07
Te 2.1071089138 3.6496196957 0 -0 -2.57110337382e-07 -2.57110337382e-07
Te 4.2142178275 0 0 -0 2.57110337382e-07 -2.57110337382e-07
Te -2.1071089138 3.6496196957 -0 0 -2.57110337382e-07 -2.57110337382e-07
Te 0.5211670341 2.7339761155 13.6681523084 0.0076400336753 0.00441098494812 0.00658176752663
Te 2.1071086966 5.4809072323 13.6681523084 0 -0.00882196989624 0.00658176752663
Te 3.6930507935 2.7339758648 13.6681526968 -0.0076400336753 0.00441098494812 0.00658176752663
Te -2.1071086966 6.0826993675 14.8022763954 -0 -2.57110337382e-07 -0.07276299681
Te 2.107109131 1.8183321591 17.365284917 -0 0.00882196989624 -0.00658176752663
Te 3.6930507935 4.5652632758 17.365284917 -0.0076400336753 -0.00441124205846 -0.00658176752663
Te 6.3213265241 1.216540024 16.2311608302 0 2.57110337382e-07 0.07276299681
Te 0.5211670342 4.5652635263 17.3652845286 0.0076400336753 -0.00441124205846 -0.00658176752663
Te 2.1071086783 0.6764570375 10.8029328827 0 -0.0226856163982 0.0214214048693
Te 4.6819429697 5.1362012288 10.8029328827 0.0196463151 0.0113426796439 0.0214216619796
Te 6.3213269768 1.2165397626 11.3060198522 -0 2.57110337382e-07 0.0160997351062
Te -0.4677251422 5.1362009569 10.802933306 -0.0196463151 0.0113426796439 0.0214216619796
Te 0.3930860254 -0.2269484285 23.5115173974 -0.0155634029424 0.00898549207081 0.0332309968859
Te 2.1071093444 3.6496194471 23.3105189664 -2.57110337382e-07 -2.57110337382e-07 0.0496613758859
Te 3.8211318022 -0.2269479311 23.5115175862 0.0155634029424 0.00898549207081 0.0332309968859
Te -2.1071093443 4.1035163038 23.5115175862 0 -0.0179709841416 0.0332309968859
Te -0.0011799821 2.4323993224 27.5630488198 -0.000524505088259 -0.000302875977436 -0.0430582682013
Te 2.1071082308 6.0840616253 27.5630488198 2.57110337382e-07 0.000605494844534 -0.0430585253116
Te 4.2153978096 2.4323985338 27.5630488081 0.000524505088259 -0.000302618867098 -0.0430582682013
Te -2.1071082308 6.0826990986 27.578195663 -2.57110337382e-07 -0 -0.0254102146434
Te -0.4677251423 2.1630381626 20.2305043427 -0.0196463151 -0.0113426796439 -0.0214216619796
Te 2.1071091492 6.6227823542 20.2305043427 -0 0.0226856163982 -0.0214214048693
Te 4.6819429696 2.1630384346 20.2305039194 0.0196463151 -0.0113426796439 -0.0214216619796
Te -2.1071091493 6.0826996289 19.7274173737 0 -2.57110337382e-07 -0.0160997351062
Sb -0.0034665566 2.431076687 9.3840533847 -0.00261944011724 -0.0015118087838 0.016998078625
Sb 2.1071103789 6.0867031755 9.3840533847 -2.57110337382e-07 0.00302464600896 0.016998078625
Sb 4.2176843841 2.4310783788 9.3840537742 0.00261944011724 -0.00151206589414 0.016998078625
Sb -2.1071103789 6.0827003388 8.0355030875 2.57110337382e-07 -2.57110337382e-07 -0.0372969397613
Sb 0.0002305024 2.4332103052 1.8875543599 -0.00136294189846 -0.00078650052205 -0.00301564714715
Sb 2.1071111417 6.0824346178 1.8875543599 -2.57110337382e-07 0.00157351526478 -0.00301564714715
Sb 4.2139873252 2.4332128778 1.887554648 0.00136294189846 -0.000786757632388 -0.00301590425749
Sb -2.1071111417 6.0827007792 1.8916543761 2.57110337382e-07 -2.57110337382e-07 -0.00404794515174
Sb -0.0673345254 0.0388756245 17.915990482 -0.00973831113867 0.00562248885786 -0.0249224763334
Sb 2.107108188 3.6496201148 19.653820885 0 -2.57110337382e-07 -0.00498254122812
Sb 4.2815523529 0.0388747864 17.9159907272 0.00973831113867 0.0056227459682 -0.0249222192231
Sb 6.3213274671 3.5718688658 17.9159907272 -2.57110337382e-07 -0.0112452348261 -0.0249222192231
Sb 0.0673345254 -0.0388756245 13.1174467431 0.009738568249 -0.00562248885786 0.0249224763334
Sb 2.1071096396 3.6496192767 11.3796163404 -0 -0 0.00498254122812
Sb 4.1468833022 -0.0388747864 13.117446498 -0.00973831113867 -0.00562248885786 0.0249222192231
Sb -2.1071096396 3.7273705257 13.1174464979 2.57110337382e-07 0.0112449777157 0.0249222192231
Sb 2.1071066858 1.2168047737 29.1458828655 2.57110337382e-07 -0.00157351526478 0.00301564714715
Sb 4.2139873251 4.8660290863 29.1458828655 0.00136294189846 0.00078650052205 0.00301564714715
Sb 6.3213289693 1.2165386123 29.1417828493 -2.57110337382e-07 2.57110337382e-07 0.00404794515174
Sb 0.0002305024 4.8660265136 29.1458825774 -0.00136294189846 0.000786757632388 0.00301590425749
Sb 2.1071074486 1.212536216 21.6493838407 2.57110337382e-07 -0.00302464600896 -0.016998078625
Sb 4.2176843841 4.8681627044 21.6493838407 0.00261944011724 0.0015118087838 -0.016998078625
Sb 6.3213282064 1.2165390527 22.9979341382 -2.57110337382e-07 2.57110337382e-07 0.0372969397613
Sb -0.0034665566 4.8681610126 21.6493834515 -0.00261944011724 0.00151206589414 -0.016998078625
Cr 2.1071089138 3.6496196957 15.5167186127 -0 0 -0
61
Lattice="8.42843558953 0 0 -4.21421779477 7.29923593142 0 0 0 31.0334408416" Properties=species:S:1:pos:R:3:forces:R:3 energy=-133601.231884 ionic_step=8 pbc="T T T"
Te 2.1071095967 1.215490807 3.4699644399 -2.57110337382e-07 -0.000709110310499 0.0430690668355
Te 4.2151267085 4.8666835487 3.4699644399 0.000614236596005 0.000354555155249 0.0430690668355
Te 6.3213260584 1.2165402929 3.4548114665 2.57110337382e-07 0 0.0254924899514
Te -0.000908881 4.8666843373 3.4699644515 -0.000614236596005 0.000354298044912 0.0430690668355
Te -0.3931683818 0.2269959769 7.5220714755 0.0155667453768 -0.00898729184317 -0.0332595361334
Te 2.1071084831 3.6496199444 7.7227649106 2.57110337382e-07 -5.14220674763e-07 -0.0496585476722
Te 4.6073862091 0.2269954797 7.5220712866 -0.0155670024871 -0.00898729184317 -0.0332595361334
Te -2.1071084829 3.1956279907 7.5220712866 -0 0.017975097907 -0.033259279023
Te 0 0 0 0 2.57110337382e-07 -2.57110337382e-07
Te 2.1071089138 3.6496196957 0 -0 -2.57110337382e-07 -2.57110337382e-07
Te 4.2142178275 0 0 -0 2.57110337382e-07 -2.57110337382e-07
Te -2.1071089138 3.6496196957 -0 0 -2.57110337382e-07 -2.57110337382e-07
Te 0.5215474106 2.7341957261 13.6681000869 0.00768914174974 0.00443952419557 0.0065732828855
Te 2.1071086966 5.4804680111 13.6681000869 0 -0.0088787912808 0.0065732828855
Te 3.692670417 2.7341954754 13.6681004753 -0.00768914174974 0.00443952419557 0.0065732828855
Te -2.1071086966 6.0826993675 14.8013464777 -0 -2.57110337382e-07 -0.0725999888561
Te 2.107109131 1.8187713803 17.3653371385 -0 0.0088787912808 -0.0065732828855
Te 3.692670417 4.5650436652 17.3653371385 -0.00768914174974 -0.00443952419557 -0.0065732828855
Te 6.3213265241 1.216540024 16.2320907479 0 2.57110337382e-07 0.0725999888561
Te 0.5215474107 4.5650439157 17.3653367501 0.00768914174974 -0.00443952419557 -0.0065732828855
Te 2.1071086783 0.6766853878 10.8031421515 0 -0.0226177392691 0.0213684401398
Te 4.6817452126 5.1360870537 10.8031421515 0.0195874368327 0.0113087410794 0.0213686972501
Te 6.3213269768 1.2165397626 11.3054447454 -0 2.57110337382e-07 0.0161696691179
Te -0.4675273851 5.1360867818 10.8031425748 -0.0195874368327 0.0113087410794 0.0213689543605
Te 0.3931683818 -0.226995977 23.5113657499 -0.0155667453768 0.00898754895351 0.0332595361334
Te 2.1071093444 3.6496194471 23.3106723145 -2.57110337382e-07 -2.57110337382e-07 0.0496585476722
Te 3.8210494458 -0.2269954796 23.5113659387 0.0155667453768 0.00898754895351 0.033259279023
Te -2.1071093443 4.1036114007 23.5113659387 0 -0.0179748407967 0.033259279023
Te -0.000908881 2.4325558427 27.5634727855 -0.000614236596005 -0.000354555155249 -0.0430685526148
Te 2.1071082308 6.0837485845 27.5634727855 2.57110337382e-07 0.000709110310499 -0.0430688097251
Te 4.2151267085 2.4325550541 27.5634727739 0.000614236596005 -0.000354298044912 -0.0430685526148
Te -2.1071082308 6.0826990986 27.5786257588 -2.57110337382e-07 -0 -0.0254919757307
Te -0.4675273852 2.1631523377 20.2302950739 -0.0195874368327 -0.0113087410794 -0.0213686972501
Te 2.1071091492 6.6225540039 20.2302950739 -0 0.0226177392691 -0.0213686972501
Te 4.6817452125 2.1631526097 20.2302946506 0.0195874368327 -0.0113087410794 -0.0213686972501
Te -2.1071091493 6.0826996289 19.7279924805 0 -2.57110337382e-07 -0.0161696691179
Sb -0.0034540336 2.4310839172 9.3841102417 -0.00261841167589 -0.00151129456313 0.0169962788526
Sb 2.1071103789 6.0866887151 9.3841102417 -2.57110337382e-07 0.00302310334693 0.0169962788526
Sb 4.2176718611 2.431085609 9.3841106312 0.00261815456556 -0.00151155167347 0.0169962788526
Sb -2.1071103789 6.0827003388 8.035590043 2.57110337382e-07 -2.57110337382e-07 -0.0372869124581
Sb 0.0003179691 2.4332608041 1.8870086655 -0.0013865960495 -0.000800127369932 -0.00298427968599
Sb 2.1071111417 6.0823336199 1.8870086655 -2.57110337382e-07 0.00160102607088 -0.00298427968599
Sb 4.2138998585 2.4332633767 1.8870089536 0.0013865960495 -0.000800384480269 -0.00298453679633
Sb -2.1071111417 6.0827007792 1.8919966139 2.57110337382e-07 -2.57110337382e-07 -0.00400166529101
Sb -0.0669119216 0.0386316339 17.9159941854 -0.00977764902029 0.00564537167789 -0.0249458733741
Sb 2.107108188 3.6496201148 19.6536488071 0 -2.57110337382e-07 -0.00498125567643
Sb 4.2811297491 0.0386307958 17.9159944306 0.00977764902029 0.00564537167789 -0.0249458733741
Sb 6.3213274671 3.5723568469 17.9159944306 -2.57110337382e-07 -0.0112907433558 -0.0249456162638
Sb 0.0669119216 -0.0386316339 13.1174430397 0.00977790613062 -0.00564511456755 0.0249458733741
Sb 2.1071096396 3.6496192767 11.3797884183 -0 -0 0.00498125567643
Sb 4.147305906 -0.0386307958 13.1174427946 -0.00977764902029 -0.00564511456755 0.0249458733741
Sb -2.1071096396 3.7268825446 13.1174427945 2.57110337382e-07 0.0112904862454 0.0249456162638
Sb 2.1071066858 1.2169057716 29.1464285599 2.57110337382e-07 -0.00160102607088 0.00298402257565
Sb 4.2138998584 4.8659785874 29.1464285599 0.0013865960495 0.000800127369932 0.00298427968599
Sb 6.3213289693 1.2165386123 29.1414406115 -2.57110337382e-07 2.57110337382e-07 0.00400166529101
Sb 0.0003179691 4.8659760147 29.1464282718 -0.0013865960495 0.000800641590606 0.00298427968599
Sb 2.1071074486 1.2125506764 21.6493269837 2.57110337382e-07 -0.00302310334693 -0.0169962788526
Sb 4.2176718611 4.8681554742 21.6493269837 0.00261841167589 0.00151129456313 -0.0169962788526
Sb 6.3213282064 1.2165390527 22.9978471827 -2.57110337382e-07 2.57110337382e-07 0.0372869124581
Sb -0.0034540336 4.8681537824 21.6493265945 -0.00261815456556 0.00151155167347 -0.0169962788526
Cr 2.1071089138 3.6496196957 15.5167186127 -0 0 -0
61
Lattice="8.42843558953 0 0 -4.21421779477 7.29923593142 0 0 0 31.0334408416" Properties=species:S:1:pos:R:3:forces:R:3 energy=-133601.231897 ionic_step=9 pbc="T T T"
Te 2.1071095967 1.2155922533 3.4697881303 -2.57110337382e-07 -0.000741249102671 0.0430734377112
Te 4.2150388535 4.8666328255 3.4697881303 0.000642004512442 0.000370495996167 0.0430734377112
Te 6.3213260584 1.2165402929 3.4546426597 2.57110337382e-07 0 0.0255236003022
Te -0.000821026 4.8666336141 3.4697881419 -0.000642004512442 0.00037023888583 0.0430736948215
Te -0.3932879804 0.2270650272 7.5221637433 0.015556975184 -0.00898163541575 -0.0332649354504
Te 2.1071084831 3.6496199444 7.7224689782 2.57110337382e-07 -5.14220674763e-07 -0.0496762882855
Te 4.6075058077 0.22706453 7.5221635544 -0.015556975184 -0.00898163541575 -0.0332649354504
Te -2.1071084829 3.19548989 7.5221635544 -0 0.0179635279418 -0.0332649354504
Te 0 0 0 0 2.57110337382e-07 -2.57110337382e-07
Te 2.1071089138 3.6496196957 0 -0 -2.57110337382e-07 -2.57110337382e-07
Te 4.2142178275 -0 0 -0 2.57110337382e-07 -2.57110337382e-07
Te -2.1071089138 3.6496196957 -0 0 -2.57110337382e-07 -2.57110337382e-07
Te 0.5216608809 2.7342612382 13.6680733002 0.00770276859762 0.00444723750569 0.00657482554752
Te 2.1071086966 5.4803369868 13.6680733002 0 -0.00889421790104 0.00657482554752
Te 3.6925569467 2.7342609875 13.6680736886 -0.00770276859762 0.00444723750569 0.00657482554752
Te -2.1071086966 6.0826993675 14.8009439732 -0 -2.57110337382e-07 -0.0725416248095
Te 2.107109131 1.8189024046 17.3653639252 -0 0.00889421790104 -0.00657482554752
Te 3.6925569467 4.5649781531 17.3653639252 -0.00770251148728 -0.00444723750569 -0.00657482554752
Te 6.3213265241 1.216540024 16.2324932524 0 2.57110337382e-07 0.0725416248095
Te 0.521660881 4.5649784036 17.3653635368 0.00770251148728 -0.00444723750569 -0.00657482554752
Te 2.1071086783 0.6769060881 10.8032024964 0 -0.0225632318776 0.021342729106
Te 4.6815540807 5.1359767035 10.8032024964 0.019540385641 0.0112814873836 0.0213429862164
Te 6.3213269768 1.2165397626 11.3052863363 -0 2.57110337382e-07 0.0162061787858
Te -0.4673362532 5.1359764316 10.8032029197 -0.019540385641 0.0112814873836 0.0213429862164
Te 0.3932879804 -0.2270650273 23.5112734821 -0.0155567180736 0.00898163541575 0.0332649354504
Te 2.1071093444 3.6496194471 23.3109682469 -2.57110337382e-07 -2.57110337382e-07 0.0496762882855
Te 3.8209298472 -0.2270645299 23.5112736709 0.0155567180736 0.00898163541575 0.0332649354504
Te -2.1071093443 4.1037495014 23.5112736709 0 -0.0179632708315 0.0332649354504
Te -0.000821026 2.4326065659 27.5636490951 -0.000642004512442 -0.000370753106504 -0.0430729234905
Te 2.1071082308 6.0836471382 27.5636490951 2.57110337382e-07 0.000740991992334 -0.0430731806009
Te 4.2150388535 2.4326057773 27.5636490835 0.000642004512442 -0.00037023888583 -0.0430729234905
Te -2.1071082308 6.0826990986 27.5787945656 -2.57110337382e-07 -0 -0.0255230860815
Te -0.4673362533 2.1632626879 20.230234729 -0.019540385641 -0.0112814873836 -0.021342729106
Te 2.1071091492 6.6223333036 20.230234729 -0 0.0225632318776 -0.021342729106
Te 4.6815540806 2.1632629599 20.2302343057 0.019540385641 -0.0112814873836 -0.0213429862164
Te -2.1071091493 6.0826996289 19.7281508896 0 -2.57110337382e-07 -0.0162061787858
Sb -0.0034925528 2.4310616781 9.3841668248 -0.00261326946915 -0.00150820923908 0.0169924221976
Sb 2.1071103789 6.0867331932 9.3841668248 -2.57110337382e-07 0.00301744691951 0.0169921650872
Sb 4.2177103803 2.4310633699 9.3841672143 0.00261326946915 -0.00150846634942 0.0169924221976
Sb -2.1071103789 6.0827003388 8.0356532782 2.57110337382e-07 -2.57110337382e-07 -0.0372835700237
Sb 0.0003787553 2.4332958991 1.8868186351 -0.00139790890434 -0.000806555128366 -0.00297116705878
Sb 2.1071111417 6.0822634301 1.8868186351 -2.57110337382e-07 0.00161388158774 -0.00297116705878
Sb 4.2138390723 2.4332984717 1.8868189232 0.00139790890434 -0.000806812238704 -0.00297142416912
Sb -2.1071111417 6.0827007792 1.8920937532 2.57110337382e-07 -2.57110337382e-07 -0.00398880977414
Sb -0.066743715 0.0385345198 17.916008674 -0.0097935898612 0.0056543705397 -0.0249605286633
Sb 2.107108188 3.6496201148 19.6536304807 0 -2.57110337382e-07 -0.00498536944183
Sb 4.2809615425 0.0385336817 17.9160089192 0.0097935898612 0.00565462765003 -0.0249605286633
Sb 6.3213274671 3.5725510753 17.9160089192 -2.57110337382e-07 -0.0113087410794 -0.0249605286633
Sb 0.066743715 -0.0385345198 13.1174285511 0.0097935898612 -0.00565411342936 0.0249605286633
Sb 2.1071096396 3.6496192767 11.3798067447 -0 -0 0.00498536944183
Sb 4.1474741126 -0.0385336817 13.117428306 -0.0097935898612 -0.0056543705397 0.0249605286633
Sb -2.1071096396 3.7266883162 13.1174283059 2.57110337382e-07 0.0113084839691 0.0249605286633
Sb 2.1071066858 1.2169759614 29.1466185903 2.57110337382e-07 -0.00161388158774 0.00297116705878
Sb 4.2138390722 4.8659434924 29.1466185903 0.00139790890434 0.000806555128366 0.00297116705878
Sb 6.3213289693 1.2165386123 29.1413434722 -2.57110337382e-07 2.57110337382e-07 0.00398880977414
Sb 0.0003787553 4.8659409197 29.1466183022 -0.00139790890434 0.000807069349041 0.00297142416912
Sb 2.1071074486 1.2125061983 21.6492704006 2.57110337382e-07 -0.00301744691951 -0.0169924221976
Sb 4.2177103803 4.8681777133 21.6492704006 0.00261326946915 0.00150820923908 -0.0169921650872
Sb 6.3213282064 1.2165390527 22.9977839475 -2.57110337382e-07 2.57110337382e-07 0.0372835700237
Sb -0.0034925528 4.8681760215 21.6492700114 -0.00261326946915 0.00150846634942 -0.0169921650872
Cr 2.1071089138 3.6496196957 15.5167186127 -0 0 -0
