81
Properties=species:S:1:pos:R:3:forces:R:3 energy=-265.67695392130355 mlff_rel_energy_eV=0.0 mlff_fmax_eV_A=2.445334169213695 calculator_label=/data/pclancy3/yi/flare-data/1-Cr-Sb2Te3/3.fine-tuning/2-layer/MACE-omat/MACE-matpes-pbe-omat-ft.model neb_image=0 neb_protocol=mlff_pre_neb pbc="F F F"
Te      12.89727345       7.43699962      14.97157449      -1.00360655      -0.77785593       0.86952857
Te       2.19644216       3.73188519      14.97841603      -0.60967716       0.03970778       0.44252135
Te       0.06099329       7.43521815      14.97841559      -0.97839755      -0.85821274       1.08041653
Te      15.03076359       3.73455125      14.97861739      -1.23008956      -0.52776562       0.97352775
Te       0.07237415       2.52587931      22.27414520       0.83942246       0.44486351      -0.09267141
Te       2.22112728       6.21346262      22.26555633       0.20468226      -0.84129105      -0.23212723
Te       4.35159047       2.50926697      22.24914659       0.11032059      -0.94353032      -0.02631850
Te      -2.04679496       6.20097900      22.27414758       0.57940707      -0.32573991       0.37855545
Te       2.18340533       1.25901985      24.98528976      -0.71658285      -0.80816208       0.18478365
Te       4.30890738       4.88718325      25.10006207      -0.14898539      -0.55011706      -0.18495675
Te       6.38824739       1.28115674      25.10006377      -0.21302254      -0.91015861       0.11655543
Te       0.01499636       4.94132902      25.10138621      -0.93072719      -0.58019981      -0.22505658
Te       2.21000585       1.27436706      18.61083997      -0.07566102      -0.41691423      -0.15538062
Te       4.34455452       4.97378675      18.60863235       0.08745107      -0.51058732      -0.24636593
Te       6.48106179       1.26861971      18.60863257      -0.04335306      -1.18693679       0.58851488
Te       0.06288243       4.96895405      18.60592803      -1.13385765      -0.34224384      -0.86228431
Te      -0.01988249      -0.01147647      32.48871858       1.06745172       0.81402193      -0.90793943
Te       2.16057920       3.74142715      32.46177818       0.13297898      -0.71736263      -0.17941538
Te       4.32046235      -0.00427452      32.46177726       0.07101257       0.57341111      -0.77852956
Te      -2.10854915       3.71681742      32.43925519       1.03606744       0.30928706      -0.73432266
Te       0.04369168       2.46311048      28.80108195      -0.86805768      -0.32037801      -0.63100969
Te       2.23716682       6.22270938      28.89289361      -0.02518171      -0.69717393      -0.14306798
Te       4.35416643       2.51075220      29.08136887      -0.00894702       0.20095201       0.13346793
Te      -2.11548567       6.20758591      28.80108322       0.24591959      -1.62364362      -0.79800874
Sb       0.06741400       2.50198060      16.66954635       1.00021380       1.08418104       0.61277981
Sb       2.20967412       6.20686663      16.67088062       0.09275550       0.35063067      -0.80706781
Sb       4.34205239       2.50377779      16.67197594      -0.17721820       0.47661526       0.57779777
Sb      -2.06996584       6.20866209      16.66954477       2.01606161       0.26043198      -0.48168581
Sb       0.08006684       0.04616433      26.73767187       0.71729063       0.96230920      -0.05344871
Sb       2.01500841       3.85748595      27.00496711      -0.51490470       1.47071712       0.40766322
Sb       4.34796812      -0.18839326      27.00497058      -0.10812620       0.58384987      -0.45059628
Sb       6.43715989       3.71187836      26.76462366       0.58177541       1.72035425       0.08200231
Sb      12.89937513       7.43820196      20.55155418      -1.07023735      -1.23902382       0.34255841
Sb       2.20609020       3.74467122      20.56229442      -0.98409455       0.40945539       1.35154773
Sb       4.34605778       0.03350559      20.56229600       0.04255457       1.34399659      -0.18214518
Sb      15.05137032       3.74642384      20.57588846      -0.86338534      -0.71964183      -0.76124181
Sb       2.15149198       1.24061182      30.79522992      -0.74578704      -0.99546202       2.10535419
Sb       4.34736122       4.99804138      30.83089470      -0.13306678       0.66205990      -0.83503287
Sb       6.50346543       1.25888899      30.83089277       0.09687777      -0.69902636       1.48424558
Sb       0.00471554       4.93539768      30.78508802      -1.37723688      -0.05617898      -0.05277688
Te       4.33867532       7.43451434      14.97688148       0.02838122      -0.50936682       0.55698854
Te      10.74981022       3.73463127      14.97297906      -0.16966874       0.34872275       0.43651280
Te       8.61720210       7.43303648      14.97297875       0.01573526      -0.58464925       0.76544612
Te       6.47638410       3.73449891      14.97785417       0.09994864       0.38436493       0.20115647
Te       8.62105678       2.51344709      22.26514858       0.04160990      -0.90067969       0.27423607
Te      10.78445843       6.21866789      22.25794378       1.06874550       0.37103153      -0.52468883
Te      12.89956941       2.50562153      22.25497295       0.71871719      -0.37096081       0.21002033
Te       6.49393116       6.20234213      22.26514891      -0.01550460      -1.01150764      -0.20833088
Te      10.68523726       1.22876954      25.12397104      -0.05887509      -0.95296725       0.37849399
Te      12.88795067       4.94233491      25.11406555      -1.01922596      -0.66099833       0.26909181
Te      15.00267932       1.27493178      25.11406591      -1.51866122      -0.72032419       1.01139431
Te       8.71540456       5.02558983      25.05265073      -0.43013185      -0.50339145       0.22358286
Te      10.75698626       1.27014121      18.61292250      -0.07625634      -1.02806273       0.78769194
Te      12.89204853       4.97237290      18.61706512       0.82316977       0.01724387       0.75656390
Te      15.03072598       1.26344184      18.61706560      -0.46302379       0.30631380       1.30695032
Te       8.62314421       4.97238674      18.60247255       0.00496662      -0.64211970       0.06521282
Te       8.72893132       0.10069437      32.55810750      -0.16681989       0.43151468      -0.60345851
Te      10.72586399       3.73988237      32.40001810       0.75553556      -0.34151934      -0.33264053
Te      12.87892133       0.00601276      32.40001495       0.80552210       0.79841248      -1.07285605
Te       6.49348309       3.74434626      32.45444355       0.19366234      -0.74385463      -0.01493108
Te       8.56551135       2.47073449      28.77047560       0.01172933      -0.26305166      -0.03696002
Te      10.73110702       6.18789898      28.77634566       0.73295199      -0.68400495       0.69468680
Te      12.89099933       2.50067432      28.77399694       1.09979536      -0.38043166       0.51204582
Te       6.42913797       6.17566833      28.77047762       0.12525567      -0.62748344       0.26412959
Sb       8.61921213       2.50404370      16.66950836       0.06418745       0.87482047       0.01414117
Sb      10.76783385       6.20908868      16.67256646       0.42239619       0.96668363      -1.96982780
Sb      12.89079746       2.50057010      16.65491452       1.47855262       0.85320761      -1.00823004
Sb       6.48486550       6.20546413      16.66950791      -0.00797646       0.47748781      -1.24855704
Sb       8.56687000       0.00724932      26.82408172      -0.08636325       0.82158517      -0.42962447
Sb      10.71065598       3.72787281      26.80015623       0.70812084       1.61250440      -0.87528326
Sb      12.86089832      -0.00111742      26.80015556       0.99755210       1.49604617      -1.16244862
Sb      -2.14634529       3.69503028      26.83449369       1.42872597       1.78490395       0.86646816
Sb       8.61999831       0.03788612      20.56827635       0.02764322       1.23246819      -0.19615638
Sb      10.76140017       3.73975180      20.56033659      -0.07956657       0.57031627      -0.39951142
Sb      12.89660452       0.03684484      20.56033757       0.26523328       1.18443729      -0.67166061
Sb       6.49125798       3.74307310      20.55804078      -0.07381664       1.35134987       0.41852252
Sb      10.70196231       1.23840657      30.72313416       0.09332784      -0.31287456       0.91229410
Sb      12.83686793       4.94836613      30.75867831      -1.39811861      -0.20790526      -0.78978445
Sb      14.98231517       1.22770251      30.75867524      -1.84015378      -0.22349265       0.34997253
Sb       8.61582347       4.96815915      30.64852536      -0.48987717       0.62986049      -0.85559250
Cr       4.02613799       2.32159138      26.56929701       0.92053488       0.09713247      -0.78543096
81
Properties=species:S:1:pos:R:3:forces:R:3 energy=-281.9770420291239 mlff_rel_energy_eV=-16.30008810782033 mlff_fmax_eV_A=0.06144634541630372 calculator_label=/data/pclancy3/yi/flare-data/1-Cr-Sb2Te3/3.fine-tuning/2-layer/MACE-omat/MACE-matpes-pbe-omat-ft.model neb_image=1 neb_protocol=mlff_pre_neb pbc="F F F"
Te      12.80808295       6.58504181      14.38547391      -0.00460335       0.02002851       0.00074196
Te       2.09755603       3.83509668      15.54105317      -0.00232983      -0.00077369      -0.00339185
Te       0.14122912       7.28740456      14.98312104      -0.00118885       0.00512252       0.00858089
Te      14.60227174       4.66993463      15.21087841       0.01375015      -0.01774607      -0.00240972
Te       0.26545228       2.66089870      22.98761898      -0.00473087      -0.00531745      -0.02288440
Te       2.78219994       6.35230044      22.33747775      -0.00780537       0.00824218      -0.00585297
Te       4.31341642       2.45675853      22.42108940       0.00713612       0.00304963      -0.00026649
Te       0.18186980       7.02920358      21.85296329      -0.05310659      -0.02000714       0.02355967
Te       2.26621307       0.94947217      24.97353425       0.00283230       0.01080612      -0.00730524
Te       4.08452582       4.85467559      25.09253187       0.00972799       0.00287520       0.00137751
Te       6.35476337       1.16176550      25.01232860      -0.00114851       0.00190541       0.00222007
Te      -0.08290495       4.80411030      24.72608782      -0.01093417      -0.00074149       0.01057431
Te       2.02682808       1.22057658      19.09384714       0.00195330      -0.00066617      -0.00830409
Te       4.32268903       4.94220765      18.92548640       0.00065211       0.00245831      -0.01512524
Te       6.43352815       0.71965228      18.95144344       0.00488589       0.01543246      -0.00781460
Te      -0.15756200       5.47053514      19.17358156       0.00787445      -0.00352789      -0.01053668
Te      -0.12776004       0.74942055      32.93150861       0.01544601      -0.01712646       0.00790052
Te       2.08953160       3.83751418      32.22272938       0.00239446       0.00048371       0.00799792
Te       4.34450844       0.29225675      32.81300233       0.00234205      -0.00434415      -0.00371762
Te      -1.91988624       2.48439678      31.85966146       0.00064364       0.02194150       0.01256432
Te      -0.11182744       2.01910886      28.61648273       0.00579880       0.00800838       0.00468385
Te       1.79197955       6.11414246      28.63417119       0.00442588       0.00664850       0.01009276
Te       4.18787519       2.59023096      28.93787760      -0.00495390       0.00167882       0.00420008
Te      -2.38235908       5.35630360      28.32132155       0.00521994       0.00936716       0.01544330
Sb      -0.26234775       3.38726064      17.10713040       0.00850191      -0.02155471      -0.00281026
Sb       2.37917349       6.51208394      16.62363896       0.00317523      -0.00821750       0.01055360
Sb       4.14404874       2.60573462      17.32029445       0.01066029      -0.01026114      -0.01273604
Sb      -1.60504048       5.87065790      16.61581873      -0.00644107       0.01826739       0.01184708
Sb       1.06745721      -0.32332552      27.25357764      -0.02797164       0.00769177      -0.01626020
Sb       1.94637736       3.85579419      26.88159080      -0.00167232      -0.00217027       0.00145082
Sb       3.85174435      -0.11265167      27.61600974       0.01235393       0.00177790      -0.02048743
Sb       6.46084062       4.08887810      26.71192359       0.00148413      -0.01105304       0.00882391
Sb      13.58180295       6.77875415      21.34203004      -0.01825810       0.01881223      -0.02157533
Sb       2.09714113       3.82092370      20.89573894       0.00434374       0.00926233      -0.01606149
Sb       4.14743978       0.20936343      20.69550381       0.00844113      -0.00158474       0.00457519
Sb      14.91600721       4.29262100      20.82871474       0.00506612      -0.01436667      -0.00859023
Sb       2.17288391       1.18970037      31.20267703       0.00089458       0.00323428      -0.00105242
Sb       4.06662149       5.23066573      30.43572297      -0.00695415      -0.00180693       0.00426814
Sb       6.44691230       1.27089006      31.05726210      -0.00265538      -0.00112256      -0.00634161
Sb      -0.26798836       4.52862575      30.37716674       0.00467302       0.00627446       0.00865630
Te       4.39029510       7.24405385      14.78454563      -0.00473238       0.00195366       0.00444220
Te      10.48178921       3.54983118      15.18572119       0.01399991       0.00221174      -0.00577713
Te       8.53751450       7.28403047      14.75083344      -0.00405317       0.00126195       0.00867475
Te       6.37691832       3.70866402      15.39458464       0.00797735       0.00093488      -0.00812850
Te       8.73599225       2.41964407      22.47202324       0.00984405      -0.00667576      -0.00165460
Te      11.35447367       5.95600043      22.85011659      -0.01522696       0.00227842      -0.01616848
Te      13.36157163       2.34140153      22.28399067      -0.00259967      -0.00385438       0.00000619
Te       6.11833033       6.12905009      22.30582976       0.01500918       0.00725504      -0.00078278
Te      10.46652471       0.97342817      25.35270436       0.00329877       0.00753589      -0.00485620
Te      12.73187754       4.75393745      24.99662073      -0.00137563       0.01655008       0.01133066
Te      14.49505105      -0.04989961      25.32988856       0.00338352       0.02616224      -0.03055545
Te       8.39526298       5.09208200      24.78416013       0.01823271      -0.01552874       0.01196023
Te      10.95724923       1.08280764      18.89043570       0.00328293       0.00100759      -0.01627881
Te      12.99982554       5.06245994      18.82040767       0.01210991       0.00617483      -0.00207142
Te      15.34761169       1.64235905      18.39609470      -0.00396493      -0.00318599       0.00456092
Te       8.73839134       4.99917748      18.88657816       0.00074925      -0.00478706      -0.00758146
Te       8.83103485       0.41099723      32.47486733      -0.00797655      -0.01077420       0.00450809
Te      10.88094506       3.79130406      31.86495482      -0.00677793       0.00258094       0.00732552
Te      12.98914870       0.02785565      31.70871280      -0.00832819       0.01775352       0.01552079
Te       6.30358700       3.89004676      32.18501747      -0.00677190      -0.01488148       0.01449938
Te       8.38906130       2.66218786      28.70843980       0.00668893       0.01697916       0.00602021
Te      10.47107689       6.37116337      28.38489167       0.01721683      -0.01003208       0.00082089
Te      13.15847297       2.92691740      28.22798802      -0.04273103      -0.03041513      -0.00253882
Te       6.28666161       6.38211425      28.53317509      -0.02095833       0.00047387      -0.01143457
Sb       8.52013949       2.72375429      17.11803989       0.00970749      -0.00794489      -0.00951019
Sb      10.65451423       6.16611840      16.27382239       0.00735514      -0.00579520       0.00095571
Sb      13.08219414       2.83403520      16.80464062       0.00122281      -0.00051507      -0.00210788
Sb       6.48708571       6.33809734      16.50883042       0.00486313      -0.00359778       0.00267811
Sb       8.25079092       0.27335651      26.89215384      -0.00719864      -0.00675239       0.01521445
Sb      10.41242666       3.97473962      26.53369443       0.01755175      -0.01772672       0.01330868
Sb      12.61196788      -0.19487452      27.15064445       0.01024230      -0.01807872      -0.01358414
Sb      -1.80677801       3.35126311      26.55725739      -0.01437456      -0.00354963       0.00444273
Sb       8.74057471       0.22351190      20.66389101      -0.00217070      -0.00999405      -0.00151746
Sb      10.88210558       3.65443801      20.65989689      -0.00692951      -0.00747117      -0.00383179
Sb      13.60031105       0.40849097      20.15963371      -0.00964138      -0.01425265       0.00927645
Sb       6.47942439       3.83502788      20.78571135      -0.00996972       0.00596412      -0.00549209
Sb      10.65664365       1.29010156      30.50544122      -0.00502508       0.01002625      -0.00198069
Sb      12.49082484       5.17459190      29.97503935       0.02015650       0.00431223       0.00663068
Sb      14.42111611       0.61552818      29.44798432       0.01537003       0.02151939       0.03584414
Sb       8.29545223       5.21585088      30.33715640      -0.00364338      -0.00240188      -0.00265058
Cr       4.26404966       2.31081074      26.22429528      -0.00373596       0.00429848       0.00389398
81
Properties=species:S:1:pos:R:3:forces:R:3 energy=-281.75317781228335 mlff_rel_energy_eV=-16.076223890979804 mlff_fmax_eV_A=0.28436607493872884 calculator_label=/data/pclancy3/yi/flare-data/1-Cr-Sb2Te3/3.fine-tuning/2-layer/MACE-omat/MACE-matpes-pbe-omat-ft.model neb_image=2 neb_protocol=mlff_pre_neb pbc="F F F"
Te      13.27471593       6.73322822      15.54432559       0.01510706      -0.04246387      -0.02024085
Te       2.54764619       3.81948113      15.61817468       0.00022495      -0.00765622       0.00589563
Te       0.53897305       7.29178090      15.11262600      -0.00458955      -0.01171371      -0.00310685
Te      14.80999514       4.41661970      15.70418909       0.00737561      -0.03985770      -0.00675003
Te      -0.11769245       2.94793318      23.06608967      -0.03050242      -0.02046874      -0.02639210
Te       2.27634849       6.35159759      22.04681029      -0.00546931       0.00652654       0.04410342
Te       4.06089170       2.17974919      22.58090854       0.00246612       0.02085577       0.00677785
Te      -0.38861102       6.70470434      21.88837701       0.00636788      -0.01850369       0.02520440
Te       1.41263718       0.88742887      24.86117781      -0.03179218       0.03792950      -0.00382041
Te       3.82079733       4.74848872      25.00411278       0.00158088       0.02892665       0.00863354
Te       6.37097079       1.22177682      25.00126457       0.03322303      -0.00425805      -0.02423123
Te      -0.19666828       5.00384109      24.97188873       0.01995465      -0.06023897       0.07504841
Te       2.21238114       0.98466793      18.99926927      -0.01160538       0.02484409       0.03862518
Te       4.40095598       4.67143232      19.25877819      -0.00266843       0.01627629       0.02001989
Te       6.59113350       0.65983836      19.39075702      -0.00548533      -0.00049225       0.02033417
Te      -0.19029885       5.11622685      19.01194735      -0.01203361       0.00594730      -0.00006514
Te       0.27197182       0.06203766      31.96338161      -0.00934682       0.02462138       0.06364192
Te       2.56326605       3.56057881      32.22126500      -0.00709774      -0.01702129       0.00533215
Te       5.00879605       0.05916211      32.32935291      -0.02835211       0.00112681      -0.00055350
Te      -1.09672123       2.31420992      32.60114692      -0.02658703       0.01466620      -0.00672571
Te      -0.19713096       1.95564607      28.81851382       0.03852022       0.01415574       0.01116660
Te       1.88459818       5.99627811      28.78479134      -0.01334159       0.01423463       0.00097453
Te       4.44414500       2.60342874      28.48171787      -0.03908401      -0.00966034      -0.02693117
Te      -2.26482129       5.32685864      28.87611160      -0.00221599      -0.00804334      -0.00080794
Sb       0.02544748       3.19642879      16.85009936      -0.00254765       0.00459383       0.00679085
Sb       2.59818108       6.42777798      16.91395643      -0.00166146       0.00067869      -0.00525135
Sb       4.41470311       2.43028694      17.46962335      -0.01228626       0.01118345       0.01744540
Sb      -1.34733990       5.68001676      16.36469134      -0.01094910      -0.01100648      -0.01222123
Sb       0.86574676      -0.40041932      27.38435652       0.01498015       0.00128600      -0.00383993
Sb       1.88077006       3.78898356      26.96066753       0.02127361       0.00327684       0.00542332
Sb       3.66120739      -0.08707258      27.24483952       0.01773016       0.02290006      -0.08103779
Sb       6.36871846       4.28467898      26.43550447      -0.01323136      -0.00476652       0.01907017
Sb      13.14085157       7.11215613      20.72045901       0.18955017      -0.16612894       0.13166614
Sb       1.92756421       3.64969636      20.93266605       0.00489221       0.01078498       0.00819444
Sb       4.11731759      -0.07700005      20.79841297      -0.01015686      -0.00733453       0.01171668
Sb      14.71861883       4.67766425      21.43497886      -0.04840138       0.14752267       0.00523893
Sb       2.79260355       1.07921616      30.86454670      -0.02959639       0.00155632       0.00124818
Sb       4.37649138       5.06008932      30.32927710      -0.01216035      -0.02393017      -0.00395262
Sb       6.92245804       1.48413207      30.71133234      -0.03015920      -0.00457933      -0.00989930
Sb       0.06209245       4.35585560      30.63300187      -0.01284930       0.01782596       0.00237436
Te       4.68320701       7.43152297      15.31490752      -0.01966363      -0.00114801      -0.03114250
Te      10.84632473       3.70269852      15.90189830      -0.00738227      -0.01569975      -0.02605052
Te       8.87104074       7.52812556      15.66969800      -0.01668333      -0.01535662      -0.05227559
Te       6.66407831       3.85138874      15.73873817      -0.03411829      -0.01110264      -0.02358258
Te       8.92617764       2.57579239      22.90169407       0.01541242       0.02050907       0.00042892
Te      10.72050130       6.63899967      22.10588847       0.06944226      -0.13245917       0.05073326
Te      13.21044575       2.62930303      22.90423767       0.00017914       0.06419737      -0.03463431
Te       5.95055850       6.07388817      22.44232663       0.06974303       0.02649391       0.00448295
Te       9.95701993       0.12285236      25.99825263       0.01530121       0.00971919       0.00435315
Te      12.25333775       5.91611480      24.33783199       0.04512129       0.03647653       0.09627547
Te      13.59816179      -0.85431076      25.40684022       0.02661465       0.03513476      -0.00813129
Te       7.98838888       5.96601958      24.58607384      -0.00102195       0.00380233       0.00790196
Te      10.99485151       0.96212455      19.44522693       0.00356040       0.01418576      -0.01313265
Te      13.25886648       4.64023895      19.02797478      -0.01770081      -0.02401878      -0.05263720
Te      15.28011809       1.25742960      19.31369507       0.01196477       0.06894971      -0.06532941
Te       8.68548392       4.88795886      19.38105623      -0.02547932      -0.01673776      -0.02511184
Te       9.26093703       0.51189858      32.05397217      -0.02859276      -0.01142059      -0.01562579
Te      11.21290342       4.08061500      31.17406167      -0.01675304      -0.01276489       0.01709815
Te      13.55350048       0.73947414      31.02293809      -0.00430303      -0.01187420      -0.01677164
Te       6.78414255       4.03112391      31.97792788      -0.02375372      -0.01526231       0.01062668
Te       8.66723043       2.99149480      28.18809256      -0.01078619      -0.00437955       0.02009340
Te      10.49016799       6.39488617      27.65617809      -0.01886810      -0.00011519       0.03470121
Te      12.95463226       3.01693819      27.08147380      -0.01026935       0.02534526       0.00819197
Te       6.25491256       6.51445463      28.31169488      -0.00526294      -0.00200906       0.01209879
Sb       8.68829846       2.70026568      17.47649914      -0.01638114      -0.00808435      -0.03441308
Sb      10.93677800       6.25423624      17.17714042      -0.02891635      -0.02011907      -0.05377932
Sb      13.43493388       2.32167927      17.18513986       0.01019838      -0.06500453      -0.03694145
Sb       6.67719551       6.38759280      17.08143535      -0.00389262       0.00686461      -0.04251770
Sb       7.54114309       0.33885733      27.40777244       0.01242921      -0.00810307      -0.01416406
Sb      10.27157112       4.29358201      25.59242772       0.00766586       0.00357511       0.03445258
Sb      11.92421981      -1.24895678      27.55051708       0.03014897       0.01142709      -0.00572715
Sb      -1.81860610       3.48942114      26.88784906      -0.02257306      -0.02726384       0.00986466
Sb       8.83403349       0.22447558      21.25994791       0.01249186       0.01976393       0.00576402
Sb      10.94225790       3.67224108      20.97140144      -0.01247918       0.00131398      -0.03048526
Sb      13.40090803       0.37114765      21.14756355       0.04388465       0.07644627      -0.03466226
Sb       6.48717324       3.58551267      21.13125802      -0.00006208       0.00403227       0.00987992
Sb      10.99570645       1.42999080      30.02082273      -0.00636319      -0.00791085       0.00260406
Sb      12.72622157       5.14313885      29.01266756      -0.01486499       0.00365015       0.03120188
Sb      14.13491142       0.61467726      28.19619980       0.00719303       0.00586197       0.01147037
Sb       8.56505053       5.39885768      29.86724049      -0.01724659      -0.00208714       0.02024121
Cr       3.82388850       1.96286447      25.33928522       0.02299093       0.00157652      -0.07444800
81
Properties=species:S:1:pos:R:3:forces:R:3 energy=-281.8417374804789 mlff_rel_energy_eV=-16.164783559175362 mlff_fmax_eV_A=0.4512058495234514 calculator_label=/data/pclancy3/yi/flare-data/1-Cr-Sb2Te3/3.fine-tuning/2-layer/MACE-omat/MACE-matpes-pbe-omat-ft.model neb_image=3 neb_protocol=mlff_pre_neb pbc="F F F"
Te      13.26877031       7.29757749      16.25521134       0.04724945      -0.03582177       0.04774157
Te       2.76148921       3.69037022      15.47892833      -0.01738302      -0.00204176      -0.00302959
Te       0.72987678       7.15550151      15.04198635      -0.03812130      -0.00499844      -0.03309873
Te      14.96604334       5.10467503      16.41072841       0.09589188      -0.02514699      -0.05123547
Te       0.14151347       3.14149404      23.44393726      -0.01939240       0.02597167      -0.01482681
Te       2.49883089       6.28993303      21.64862648       0.15135300      -0.02446466      -0.07232711
Te       4.03911317       2.06037984      22.55941714      -0.02422454       0.00948160       0.00846258
Te      -0.35859024       6.89458941      21.40505190      -0.22745529       0.04223728       0.10679823
Te       1.72914488       0.72412379      24.96322970      -0.01198492       0.00391853       0.00345424
Te       3.76674737       4.45849391      24.99972511       0.02038468       0.01701451       0.01398955
Te       5.74196270       0.89626749      25.35965512       0.04637655       0.01475156      -0.00831440
Te      -0.65508176       5.78166347      23.93686607      -0.06401571      -0.07275659       0.08132287
Te       2.39884504       0.76412407      18.72608253      -0.01916750       0.04242964       0.02708901
Te       4.39810116       4.40972961      19.10518363      -0.07314270      -0.05099591       0.05007479
Te       6.71762496       0.69310962      19.50184332      -0.02334890      -0.04218952      -0.02950465
Te      -0.16017733       4.84835545      18.82393484       0.00997090      -0.01109872      -0.02426556
Te       0.67399226      -0.19277888      31.32110695      -0.01076342       0.01775484       0.05250348
Te       2.82015020       3.69650732      32.20270459      -0.00469579      -0.01462287      -0.00088802
Te       5.49912994      -0.08896937      32.15144819      -0.02164433       0.01408512       0.00646681
Te      -0.50174322       1.89502768      32.60013560      -0.03121263       0.02333177      -0.00041808
Te      -0.48768733       2.03457753      28.68574659       0.03763148      -0.00649370       0.01173365
Te       1.99802544       5.83107492      28.76612177      -0.00309513       0.00690075      -0.00476344
Te       5.00940147       2.70356869      28.60686642      -0.02919382      -0.00260169      -0.00905698
Te      -1.89295842       5.69048951      28.91524492      -0.00937916      -0.02564331      -0.00803433
Sb       0.22956104       2.98050943      16.63847015      -0.02562433      -0.01798387      -0.01886545
Sb       2.70437627       6.22453706      16.90715399      -0.02817961       0.02199775      -0.01059935
Sb       4.58209923       2.19970828      17.34145914       0.02331274       0.05036849      -0.01364701
Sb      -1.17345166       5.45704054      16.15142704      -0.02645184      -0.00301562      -0.04243449
Sb       0.57662287      -0.39060880      27.33719842       0.02757841       0.00019365       0.00270204
Sb       1.53834426       3.85149950      26.77183008       0.03691349      -0.00543837       0.00287904
Sb       3.30054376      -0.35419371      28.08326111       0.02831284       0.00320866      -0.06572415
Sb       6.47110635       4.34444527      26.21242939      -0.01204100      -0.00953955       0.02403397
Sb      10.09279066       9.33504835      18.71280651       0.37751138       0.12298433       0.21435189
Sb       1.89586371       3.49776671      21.04453713      -0.01304104      -0.00155269      -0.00313558
Sb       4.21130781      -0.12550039      20.71034139      -0.00304181       0.01229313       0.00231483
Sb      15.04787694       2.66432616      21.70666383      -0.05113713       0.08239413       0.04645192
Sb       3.27183460       1.05095359      30.73587137      -0.03101693       0.00240588       0.01223691
Sb       4.53739731       5.12139189      30.16268835      -0.00852826      -0.00116666       0.00731597
Sb       7.41401398       1.39930767      30.65707180      -0.02107885       0.00699092      -0.00091823
Sb       0.32015046       4.17142978      30.73342017      -0.00480954       0.00917375      -0.00886787
Te       4.94797126       7.26923249      15.56878868      -0.04655249      -0.00505436       0.02204534
Te      11.14530166       3.84746916      16.41220044       0.02997423       0.09963213       0.12547103
Te       9.01837466       7.76335559      16.63482880      -0.01686080      -0.36392963      -0.21271489
Te       7.23828665       3.93225476      16.05698680      -0.02125579      -0.00530334       0.01376022
Te       8.50967245       2.48486574      23.28887135       0.01399585       0.01480025      -0.00097581
Te       9.39659346       8.43775952      21.12275758      -0.09831733      -0.17536679       0.05719753
Te      12.92200496       2.06544338      23.56902928      -0.00233544       0.01825907      -0.01844478
Te       5.36125229       6.08730262      22.29677121       0.29298079       0.00168787       0.06744896
Te       9.86365458       0.03342054      25.65662590       0.01860858       0.03135507      -0.00663589
Te      11.36812456       6.24810537      22.85830314       0.03855185      -0.05551266       0.08677373
Te      13.45232052      -1.89642056      25.06137982       0.02670753       0.04391562      -0.10586880
Te       8.02064678       6.07184289      24.49993809       0.00649360       0.02088188       0.00955708
Te      10.86310006       0.64991772      20.03290773      -0.04039267       0.06892733      -0.05098069
Te      13.46468179       4.61278055      20.10933005      -0.00343939      -0.05789702      -0.03839027
Te      14.89242840       0.14345784      20.53755353      -0.05664174      -0.03545552      -0.02351720
Te       8.88037038       4.96735922      19.86410631      -0.02402638      -0.02091668      -0.01291040
Te       9.74851711       0.42110400      31.95357768      -0.01585945       0.01407241      -0.00499476
Te      11.35447146       4.10135565      30.93900931      -0.00386151      -0.00641598       0.01053877
Te      13.80763177       0.54346946      30.49693710      -0.01209450       0.00524999       0.01380628
Te       7.21210272       4.10189671      31.69808807      -0.02008124       0.00217522       0.01541785
Te       8.98205969       3.07411549      27.67579594      -0.01094111       0.00558394       0.02742281
Te      11.04630476       6.56475206      27.33299604      -0.01826590       0.01608509       0.03003763
Te      13.03701907       3.01713640      26.97622101       0.01221439       0.03210693       0.01103314
Te       6.36768702       6.53793405      28.05451990      -0.00256634      -0.00377857       0.02034950
Sb       9.01643766       2.74623184      18.04493725      -0.04860982      -0.02902965      -0.01076805
Sb      11.33266713       6.44107725      18.14759611      -0.31110810       0.13829887      -0.22410320
Sb      13.53771031       3.03614363      17.70624725       0.10774603      -0.01557199      -0.02139712
Sb       6.60832647       6.19502072      17.63287837       0.08672646       0.08375042      -0.00747485
Sb       7.62278179       0.44351296      27.41159637      -0.00027974      -0.01199686      -0.00792743
Sb      10.45970506       4.72399367      25.14805415       0.00950197       0.00322343       0.03399936
Sb      11.82662797      -1.32939938      27.22111894       0.03371047       0.02175315      -0.05563934
Sb      -1.62292436       3.99668815      26.84239913      -0.00694946      -0.03461607      -0.00238103
Sb       8.63346494       0.12046069      21.68827228       0.01320704       0.02569217      -0.03889882
Sb      10.93858943       3.61445712      21.66076582      -0.01826589      -0.01764788      -0.07878802
Sb      12.63403907      -0.46876711      22.26152689       0.00290887      -0.02448768       0.08469329
Sb       6.33499615       3.57658940      21.24316300       0.03110410       0.00524750       0.01756633
Sb      11.20070680       1.46832173      29.75763813      -0.00005512      -0.00114548      -0.00159460
Sb      13.01507883       5.14716574      28.87451085      -0.00935788       0.02465942       0.02617722
Sb      14.15013863       0.46938632      27.71070721      -0.00298201       0.02760576       0.01299120
Sb       8.76028258       5.36475317      29.49001839      -0.00707589       0.00126447       0.03346059
Cr       3.55245102       1.94698505      26.52330105       0.02442832      -0.01441709      -0.09330992
81
Properties=species:S:1:pos:R:3:forces:R:3 energy=-282.99068845101925 mlff_rel_energy_eV=-17.313734529715703 mlff_fmax_eV_A=0.14488818446837798 calculator_label=/data/pclancy3/yi/flare-data/1-Cr-Sb2Te3/3.fine-tuning/2-layer/MACE-omat/MACE-matpes-pbe-omat-ft.model neb_image=4 neb_protocol=mlff_pre_neb pbc="F F F"
Te      13.09604280       6.64069428      15.51601845       0.00116564       0.00186814       0.01329962
Te       3.04070059       3.35355064      15.51786022      -0.03734734      -0.00653174      -0.01394370
Te       0.69335325       7.00621978      15.18054226       0.01181443       0.01578736      -0.03945239
Te      14.61928685       4.35226069      15.75321897       0.03007739       0.00422297      -0.00793614
Te      -0.03695915       3.51028907      22.87327347       0.01314847      -0.02158843       0.04632549
Te       3.25574089       6.96659028      21.31282367       0.01341635       0.02798251       0.04649813
Te       4.12425503       2.75262443      22.80872939      -0.00748701       0.02016717      -0.00308066
Te       4.01503193       8.08648461      18.91524312      -0.12340964      -0.00156765       0.05188761
Te       1.28066110       1.66171981      24.84771146       0.01851292      -0.02289991      -0.00428967
Te       3.19305255       5.09591455      25.37339283       0.02239276      -0.01569206       0.00205888
Te       6.24910410       0.91423095      24.93023839      -0.02588273      -0.00404144       0.01918239
Te      -1.49728649       4.82376257      26.50185912       0.02117450       0.03521200      -0.07307302
Te       2.40237160       1.08719146      19.51232481      -0.03098097      -0.04472599       0.03518029
Te       4.59311718       4.43773671      19.12716841      -0.03567673       0.01254541      -0.00211638
Te       6.71202936       0.74361127      20.05362856       0.02022448      -0.03170670       0.01607756
Te      -0.19771854       4.21446888      18.58216958      -0.00356671       0.04895461       0.01218409
Te       1.06461338      -0.01513094      33.23319545      -0.00982323      -0.00761204      -0.06406169
Te       2.87771864       3.19039381      32.40196153      -0.00519035       0.00601765      -0.00119333
Te       5.10367125      -0.37680171      31.69447480       0.00686162      -0.02692058       0.01330363
Te      -1.04007283       1.70607686      33.06614795       0.01128034      -0.01169193      -0.01878276
Te      -0.17579466       1.82416790      29.37510141      -0.00492924       0.00195936      -0.02473173
Te       1.37939349       5.99106540      29.46815716       0.01287174      -0.02824632      -0.00692744
Te       4.02942463       2.50024808      28.28779977       0.04546896       0.00295451       0.02923340
Te      -2.79877320       4.65672575      30.82511100       0.01841999       0.00747651      -0.05168789
Sb       0.44904690       2.59129411      16.33558038      -0.01873713      -0.01008432       0.02582809
Sb       2.71052467       6.06361659      17.11895306       0.01281922      -0.01142507      -0.02549774
Sb       4.71210541       2.10199359      17.60743872       0.02365990       0.01368587      -0.00965913
Sb      -1.07082593       5.03097731      15.90824212       0.02960187       0.01991209       0.01506754
Sb       0.42656937       0.04054264      27.09873788       0.01410701      -0.01472993      -0.00676453
Sb       1.17698529       4.04560074      27.38205957       0.00432125      -0.01673112      -0.00516826
Sb       3.27038796       0.01576822      26.88433386       0.00408560      -0.02447564       0.02759813
Sb       6.09003848       4.57899974      26.16608265       0.04149624       0.04323679      -0.03271163
Sb      12.16292706       7.66159404      19.51371234      -0.10058427       0.09623487      -0.02963278
Sb       1.89764750       3.75831449      20.92083426       0.00068626       0.03381361       0.00785241
Sb       4.28358060       0.22316415      21.50503212      -0.06245963       0.00152420      -0.00183311
Sb      15.30706418       3.16223284      21.34059319      -0.02537667       0.04195379      -0.00733692
Sb       2.63404242       0.79462563      30.91736007       0.02607110      -0.00208117      -0.00369586
Sb       4.07214714       4.91819163      30.31427494       0.02502122       0.00524968       0.01834190
Sb       6.67585575       1.06031919      29.78262574       0.00727640       0.01022131       0.03938721
Sb       0.01895909       4.01361619      31.55252022       0.00076376      -0.00827054      -0.01794991
Te       4.74789345       7.00812475      15.40465336       0.02408486      -0.04956445      -0.00166570
Te      10.99511213       3.02818789      16.17637044      -0.00663985       0.04255678      -0.00330924
Te       8.85807857       7.58266906      16.00598647       0.04301973      -0.00542158      -0.02015537
Te       7.01255345       3.57665500      15.98589497      -0.03190973      -0.01595895      -0.03679353
Te       8.77619300       3.00696854      23.36696546       0.00866699       0.00342370       0.00831186
Te      10.32147624       7.60662566      21.60283406      -0.01831438       0.02457412      -0.02539246
Te      13.29909917       2.68714123      23.38161824       0.03090332      -0.01514938       0.01743141
Te       5.83348051       6.44750832      22.50136391      -0.03926282       0.07812781      -0.02153202
Te      10.87972423       0.49209077      25.03154435      -0.05862290       0.00558452       0.01763051
Te      11.91208525       6.18868819      23.45778678       0.01974585      -0.03347218       0.00246927
Te      15.08631029      -0.97506451      24.32022376      -0.01627019       0.01556081       0.01233338
Te       8.01209555       6.40445440      24.80510319      -0.06253838      -0.06392391      -0.00673480
Te      10.90404644       1.10315092      20.14785239       0.01529627      -0.03847036       0.02360669
Te      13.43168787       4.87528621      19.69899569      -0.02132789      -0.00449762      -0.01858003
Te      15.18772605       0.55298923      20.37251685      -0.02608920       0.02127937      -0.00986729
Te       8.89443536       4.85405014      19.56127851       0.03708722       0.00982762       0.01547697
Te       9.03093515       0.06814290      31.09003375       0.02011767      -0.02494666       0.00675464
Te      10.82184185       3.69837247      31.08018183       0.01840863       0.01193750      -0.01504540
Te      13.13338764       0.06225146      30.22531280       0.01282740       0.02564556       0.02635712
Te       6.64017016       3.45887104      31.38270227       0.02315524       0.02627268       0.03510148
Te       8.44493977       3.10254353      27.60999147       0.02296961      -0.00290841      -0.00689772
Te      10.70324526       6.71590424      27.86489094      -0.01831520      -0.04365071      -0.03087176
Te      12.90407293       3.31605067      27.24995332       0.00008665       0.01704195      -0.02556123
Te       5.95769375       6.46138566      28.28512912       0.01226983      -0.01324701       0.02720472
Sb       8.86662680       2.43282145      17.99842235      -0.00341528      -0.00219112      -0.00191906
Sb      10.87197644       6.12668349      17.29832450       0.04554506      -0.00152638       0.02314475
Sb      13.34854293       2.71407142      17.68635502      -0.01674203      -0.01687754      -0.02514647
Sb       6.69371285       6.13435582      17.33306325       0.03728101       0.01886005      -0.01837391
Sb       8.41392187       0.21600463      26.66503875      -0.02873869       0.01487591      -0.00903554
Sb      10.31126266       4.84447212      25.63091825       0.03586149       0.05064562      -0.00139853
Sb      13.08560145      -0.99363045      26.26408383      -0.10998771      -0.00917568       0.09386744
Sb      -2.63556277       3.20971453      28.46591025       0.03416282       0.01321843      -0.05020047
Sb       8.87699018       0.45436999      22.09915632       0.04866022       0.01188330      -0.00850176
Sb      11.11820347       3.78577837      21.56038701       0.00585012      -0.01710766       0.00063019
Sb      13.18150585      -0.02064140      22.38836342       0.03160995      -0.02481803       0.01229339
Sb       6.59337555       3.85405089      21.30687874       0.01912538      -0.06436280      -0.00455364
Sb      10.76929292       1.42999627      29.31169321      -0.02242359      -0.00709367      -0.00898756
Sb      12.56648263       5.19357446      29.39688592       0.03358829      -0.02568820      -0.01325388
Sb      14.44962804       0.99961870      27.95882919      -0.02431708      -0.03172089       0.00736305
Sb       8.29680830       5.19835272      29.69426648       0.00173763      -0.01012519       0.00730654
Cr       3.85227445       2.41497553      25.46296067      -0.02243404      -0.00937516       0.05871423
81
Properties=species:S:1:pos:R:3:forces:R:3 energy=-283.29301424081154 mlff_rel_energy_eV=-17.616060319507994 mlff_fmax_eV_A=0.18802281865903722 calculator_label=/data/pclancy3/yi/flare-data/1-Cr-Sb2Te3/3.fine-tuning/2-layer/MACE-omat/MACE-matpes-pbe-omat-ft.model neb_image=5 neb_protocol=mlff_pre_neb pbc="F F F"
Te      12.94439568       6.45081033      15.44711447       0.00887886       0.00647242      -0.00161736
Te       2.37924154       3.24503165      16.15556442       0.00107397      -0.00509864       0.01499545
Te       0.26468930       6.48709952      14.98461724       0.01094363       0.00069635      -0.00107302
Te      14.26236753       4.02447026      15.49153556       0.00566262      -0.02093124       0.03951232
Te      -0.09938195       2.98120076      23.24014250       0.00361775       0.00924539       0.00420046
Te       1.99163202       6.96921497      22.36032820       0.00003864       0.01002665      -0.01599470
Te       4.13696070       3.19524927      23.42141521      -0.00745822       0.00043645       0.00285296
Te      -0.61669962       7.18565614      21.67014705       0.02460337      -0.02846101      -0.05433162
Te       2.36405416       0.40934412      25.38343458      -0.00575983       0.00772478      -0.00326695
Te       4.12655374       6.53602328      25.06038585       0.00580385       0.00022942      -0.01085837
Te       6.63466352       0.91418614      24.75069116      -0.00986954       0.00027652       0.00643406
Te      -0.47563947       5.36147932      24.63169428      -0.01348250      -0.00071901       0.01332066
Te       2.15162396       1.27144798      20.20175307      -0.00169053      -0.00439865      -0.00790648
Te       4.30352430       4.94588498      19.48197043      -0.00548422       0.00841152      -0.00257995
Te       6.45080777       1.06124401      20.47427217      -0.00677862       0.00367183      -0.00214590
Te      -0.28931450       5.17494703      19.31427107      -0.00565511      -0.00047747       0.01328210
Te       0.04553346       0.26728118      31.32126578       0.00072722      -0.01010967      -0.00366427
Te       2.31428547       3.65801204      31.55529251       0.00378497      -0.00575156       0.00326729
Te       4.36510147      -0.28372301      31.37838103      -0.00562226       0.00113007       0.00416616
Te      -1.54119978       2.48859063      31.42515412      -0.00370732      -0.00863220       0.00252616
Te       0.08683092       2.49062918      27.80300722      -0.00668402       0.00378656      -0.00537423
Te       2.07068666       6.22516487      28.00092351       0.00769591       0.00581568       0.00449625
Te       4.31708610       2.87562358      27.79438694      -0.00071897       0.00541742      -0.00079195
Te      -2.41947563       5.91129271      28.46015673       0.00620119       0.00409964       0.01226506
Sb      -0.08343703       2.83897840      17.54742020       0.00461856       0.00432858       0.01071874
Sb       2.40140568       6.06840332      16.86679975      -0.00015916      -0.00989809       0.02240845
Sb       4.28910339       2.35773037      18.28609744      -0.02756663       0.00212162      -0.00357129
Sb      -1.52951635       5.14080699      16.62258347       0.01124936       0.00685561       0.00736471
Sb       2.07087229      -1.05972773      27.78019962      -0.02107973      -0.00238556      -0.00032051
Sb       1.97876670       4.08833414      26.13583093       0.00811526       0.00817954       0.00420353
Sb       4.68670065      -0.80469258      26.61428499      -0.02347645      -0.00095044       0.02177620
Sb       6.48234360       5.01998749      26.11221953       0.00711115       0.01129726       0.00060619
Sb      12.02711388       7.68163657      19.48523960      -0.05400811       0.01304635      -0.02067358
Sb       1.94527663       4.10000961      21.43313572      -0.00101418       0.01077978       0.00865455
Sb       4.11373787       0.62075335      22.25663928      -0.01492344      -0.00147736       0.01313625
Sb      15.14501183       3.37637506      21.25674108      -0.08377432       0.00411019       0.05476422
Sb       2.40433995       1.13740021      29.84310477      -0.00669188      -0.00028207       0.00426575
Sb       4.24896584       5.00407961      29.82035097      -0.00087075       0.00135674       0.00185304
Sb       6.52021686       0.94344628      30.04202633      -0.00861076       0.00105861       0.00263136
Sb      -0.01020464       4.50442829      29.89300243      -0.00055091      -0.00263642       0.00458044
Te       4.51022658       6.78336512      15.15535033       0.01015231      -0.00428576      -0.00294042
Te      10.61705537       3.02433260      16.22130748      -0.01237358       0.03889340      -0.02626141
Te       8.71768506       7.18870747      15.59759440      -0.00420349      -0.01955596       0.01853121
Te       6.51112304       3.36877323      16.15759607      -0.01161484       0.03475511      -0.04040147
Te       8.79161844       3.31241825      23.43872982       0.00443080       0.01815741      -0.05608051
Te      10.58914594       7.19713054      21.86312409       0.03429410       0.02724359      -0.01356036
Te      13.14144833       2.94808441      23.33995668       0.00690349      -0.01543314      -0.02006455
Te       5.52124896       6.87606359      22.63167175      -0.00112973      -0.01141297       0.00832301
Te      10.70261388       0.66064957      25.21162173       0.07347335      -0.02864222      -0.00948460
Te      12.39606059       6.56044120      23.95910349      -0.02052735      -0.01350314       0.00634134
Te      14.79601110      -0.77643796      24.42199700      -0.09500574       0.02198432      -0.03420154
Te       8.47286710       6.68685890      24.87293832       0.01095409      -0.00584892       0.01781953
Te      10.76049853       1.29827533      20.11263712       0.03044681      -0.03359467       0.07516347
Te      13.31109264       4.90495257      19.42761461       0.01754733       0.00243663       0.00456935
Te      14.99661606       0.74701057      20.35143289       0.00565401      -0.00481120      -0.01601172
Te       8.63573267       4.96038877      19.54108917       0.00768252      -0.01720451       0.00611186
Te       8.78673374      -0.33635685      31.10349405      -0.00919210       0.00796559       0.00456890
Te      10.80696797       3.13614758      31.18975617      -0.01030372      -0.00191457       0.00940043
Te      12.72520445      -0.54840267      30.26121516       0.00011653       0.02609597       0.02569642
Te       6.43813442       3.44898576      31.46417027      -0.00234397       0.00184844       0.00661782
Te       8.50460113       3.02478940      27.62618301      -0.00872567      -0.00654038       0.00275240
Te      10.93075858       6.44467374      28.27233077      -0.00372606       0.00994107       0.00600937
Te      12.90370034       2.91857102      27.43380627      -0.00459163      -0.00085114       0.00512020
Te       6.53829481       6.68616509      28.38046499       0.00005492       0.00406814       0.00435402
Sb       8.51254689       2.44079615      18.12321399       0.01680894       0.02067541       0.00819400
Sb      10.71686220       6.03103972      17.23789994       0.02295088      -0.00399536       0.02090231
Sb      13.03380503       2.56908130      17.61014679      -0.01565185      -0.01024960      -0.04136875
Sb       6.53240515       6.06561254      17.09199250      -0.03578471      -0.00142405      -0.03412447
Sb       8.35495342      -0.59065730      26.43368257       0.07738316       0.05520641      -0.05728639
Sb      10.63859282       5.05864918      25.69715979       0.01777914      -0.00624985      -0.00455498
Sb      12.71850907      -1.15084723      26.25147337       0.02955277      -0.00250327      -0.11124175
Sb      -2.12866874       4.01885105      26.55742201      -0.00127374      -0.03123552       0.01706318
Sb       8.82369753       0.71151766      22.26384735       0.07638848       0.04051968      -0.05331089
Sb      10.94553570       4.01495181      21.35545186      -0.03626238      -0.03897463      -0.02123112
Sb      12.97229966       0.25555044      22.37853291       0.07916390      -0.08272762       0.14913684
Sb       6.32392370       4.17527915      21.57904105      -0.00580243       0.00393117       0.02013973
Sb      10.50025387       1.01458840      29.27747736      -0.00907836       0.01389805       0.01763012
Sb      12.67913641       4.67043432      29.67254663      -0.00498524      -0.01245449      -0.01664205
Sb      14.22697267       0.48100466      28.15876565      -0.00999307      -0.00577104      -0.00737156
Sb       8.45359758       4.90539474      29.83572704       0.00045978       0.00731329       0.00373848
Cr       6.44332179       1.28697426      27.37104793      -0.01411650      -0.00411523      -0.01615762
81
Properties=species:S:1:pos:R:3:forces:R:3 energy=-282.56110052118987 mlff_rel_energy_eV=-16.88414659988632 mlff_fmax_eV_A=0.16442675126358022 calculator_label=/data/pclancy3/yi/flare-data/1-Cr-Sb2Te3/3.fine-tuning/2-layer/MACE-omat/MACE-matpes-pbe-omat-ft.model neb_image=6 neb_protocol=mlff_pre_neb pbc="F F F"
Te      12.95165375       4.51917823      13.95078664      -0.03008189       0.03150481      -0.00260051
Te       2.25086989       2.46585178      16.90036046      -0.03272087       0.02230449      -0.01136121
Te      -0.05149574       5.24292166      15.27270554       0.01156144       0.05656544      -0.01758697
Te      14.91371979       3.49118045      15.55650824      -0.00073454       0.07937948      -0.05435480
Te       0.40838310       3.81501382      23.71225859       0.02315270      -0.00396642       0.00002315
Te       3.17267463       7.33341602      23.13003073       0.01277440      -0.03267715      -0.00617081
Te       4.97329271       3.69826678      23.63588847      -0.00870854      -0.02897777       0.01266176
Te      -0.39083740       9.35076788      26.13706658      -0.03682278      -0.15906278       0.01947485
Te       2.09213521       0.65506657      24.95793297      -0.00010660      -0.00797795       0.04713041
Te       3.86757531       7.10967967      25.78170823      -0.01279283      -0.01569133      -0.00944605
Te       7.12736400       0.19485539      24.74325710       0.00370158       0.03327434       0.01392617
Te      -0.10788264       6.63617654      24.89106652       0.01059552      -0.00967449       0.02935403
Te       2.39549078       1.64209965      21.08019570      -0.01408860      -0.00594693      -0.06124195
Te       4.65093875       5.11101221      19.42041106      -0.02902722      -0.01200742      -0.03517465
Te       6.86354704       1.14832202      20.71042604      -0.01456663      -0.05031932       0.01232819
Te       0.36138278       5.47080764      19.67152756       0.00861592      -0.00357913      -0.03005373
Te      -0.16961055      -0.47831281      30.63229049      -0.01215486       0.02813056       0.00504177
Te       1.91728447       2.82452389      31.37522609       0.00681263       0.02416400       0.00733828
Te       3.83638732      -0.88927512      30.73583248       0.00629392       0.03447090       0.01906448
Te      -1.90445545       1.33403377      29.61404272      -0.00718040       0.05594027       0.07799982
Te      -0.10880579       2.68242897      27.38337580      -0.00802309       0.02255947       0.03243775
Te       1.71086355       6.18454899      28.89030597       0.01043212       0.02368810      -0.00242530
Te       4.10872762       2.71166967      27.60942691      -0.03309333       0.02990550       0.00287259
Te      -2.30413558       6.62158721      29.11778454      -0.00914669       0.01139888      -0.03960438
Sb       0.33837229       2.69567576      19.05446594      -0.10353213       0.01641748      -0.09625512
Sb       2.50202204       5.31075447      16.68126694      -0.00258715       0.00474877      -0.01722362
Sb       4.45596064       2.28657324      18.95454893       0.05882849      -0.02639924       0.02815903
Sb      -1.46665671       4.70938030      17.57630366       0.01061950       0.01690404      -0.03013559
Sb       1.64498129      -1.27688302      26.96750983      -0.00962552       0.01791336       0.00868398
Sb       1.78643376       4.78885962      26.29381622      -0.00068711      -0.01071306       0.01116088
Sb       4.29773042      -0.88194186      26.01750739       0.01775235       0.01244450       0.02226725
Sb       6.06387350       5.19002557      26.37983698       0.00687073      -0.01312555      -0.00916084
Sb      12.91602891       7.99681229      20.31685992       0.02144653      -0.01112658       0.02691047
Sb       2.61950292       4.58684067      22.00442071      -0.02317315       0.02128508       0.02789882
Sb       4.97371016       0.93218638      22.90605656       0.01975085      -0.00389494      -0.05939143
Sb      14.89509698       5.95184702      20.76368505      -0.01857570      -0.02484586       0.00523214
Sb       2.03965183       0.73527120      29.16657855      -0.01508692       0.01925910       0.01169775
Sb       3.96400817       4.48367608      30.00341281      -0.02468958       0.02331580       0.00836689
Sb       5.96047149       0.75003442      29.87843261      -0.00963268       0.00943161      -0.00308446
Sb      -0.23498352       4.13869095      29.82202801      -0.00627888       0.04245813       0.01656847
Te       4.31915063       5.03511557      14.52559531       0.02563183       0.01588057       0.00098015
Te      10.76185099       2.05442063      16.06119542      -0.04238904       0.03337834       0.01082332
Te       8.46836375       5.07328341      14.11594089       0.00406815       0.03198114       0.02295685
Te       6.56300946       2.23927199      16.55531652       0.00112505      -0.00142638      -0.02411880
Te       9.23288778       3.70927730      23.29555845       0.01780217       0.03536562      -0.01967380
Te      10.81614626       7.41829745      22.09897409       0.00669785      -0.03392594       0.02240152
Te      13.78296731       4.36058476      22.87497515      -0.01016549      -0.04415865      -0.02339703
Te       6.81431233       7.19759502      22.37869216      -0.03164091      -0.03479633      -0.02256761
Te       9.69831380      -1.21457801      26.47241381       0.02866264       0.07425982      -0.00868282
Te      12.15556963       7.20036651      24.57099606       0.00370515      -0.03171373       0.02878537
Te      12.01801717       0.85815466      24.01752989       0.00157361      -0.05378633       0.00466183
Te       7.96970000       7.03522841      24.98971990       0.00520341      -0.01140048      -0.02855798
Te      11.64772465       1.52553059      20.29995157      -0.00088616      -0.04028676       0.04248458
Te      13.01302729       5.42791504      18.65925568      -0.01195972       0.01715411       0.00256621
Te      15.87059069       2.55494458      19.40516074      -0.01347752      -0.02121741       0.03023280
Te       8.94279543       4.93862663      18.97088249      -0.01487958      -0.02131020      -0.01368415
Te       8.55576597      -0.61999238      30.51329329      -0.04513615       0.01615984       0.06679757
Te      10.57553285       2.78968454      30.95248380      -0.01155881       0.02156934       0.03149254
Te      12.70462039      -0.58988957      29.60401075       0.00650057       0.02929586       0.05729729
Te       6.23979815       3.05574174      31.62288151      -0.00673589       0.00667974      -0.00262294
Te       8.10551856       2.82290783      27.38382092       0.04013767       0.01009011       0.01825216
Te      10.51031669       6.47609714      28.59944669      -0.02155801      -0.01894516      -0.01622285
Te      12.29334704       2.86130081      26.92320753       0.04026854      -0.01744212       0.06942011
Te       6.14052044       6.55358975      28.85057754       0.00640942      -0.00491850      -0.00229990
Sb       8.92766655       2.12768947      18.28906945      -0.04590002      -0.01425267      -0.03610629
Sb      10.74577838       4.85323013      15.81008737       0.00930907       0.02480154       0.01545091
Sb      13.43141344       2.50653427      17.84357451       0.01321365       0.05209198      -0.08936269
Sb       6.58793399       5.05521028      16.27631798       0.00387979       0.01588652      -0.00432885
Sb       7.29591980      -1.51659962      28.11753727       0.02626788      -0.02068245      -0.15574724
Sb      10.35246683       5.43028133      25.90709605       0.01624919      -0.06338229      -0.01909353
Sb      12.46948456      -1.41828493      25.53106502       0.04311733       0.01667089      -0.00641651
Sb      -2.40248197       7.50066994      26.57358156       0.06219737      -0.07359840       0.01898154
Sb       9.22218979       0.97096200      22.62993869       0.13206380      -0.03202073       0.00571464
Sb      11.13319387       4.41624650      20.98569885      -0.00338172       0.00746966       0.00648179
Sb      14.28075092       1.80831890      21.65616157       0.01318640      -0.03831183      -0.05803781
Sb       6.92296232       4.49563723      21.36855340      -0.03025919      -0.05658297      -0.02683476
Sb      10.35751402       0.89294329      28.58057461       0.03634260      -0.01567468       0.02490080
Sb      12.31657444       4.38921303      29.40206519       0.00269802       0.01397478       0.03445300
Sb      13.90730860       0.35168871      27.33047598      -0.00175965      -0.00114726       0.08681909
Sb       8.17681377       4.44742462      29.85097449      -0.00907775       0.00377788      -0.00756277
Cr       6.14089741       0.94640911      27.20192853      -0.01163653       0.00701536       0.00203672
81
Properties=species:S:1:pos:R:3:forces:R:3 energy=-282.6592838890783 mlff_rel_energy_eV=-16.982329967774774 mlff_fmax_eV_A=0.07385464628598666 calculator_label=/data/pclancy3/yi/flare-data/1-Cr-Sb2Te3/3.fine-tuning/2-layer/MACE-omat/MACE-matpes-pbe-omat-ft.model neb_image=7 neb_protocol=mlff_pre_neb pbc="F F F"
Te      12.65336958       5.84894420      14.16091428       0.00920441      -0.01994567      -0.00114964
Te       2.26348445       3.25874018      16.78936020      -0.00045579       0.00418142      -0.01350332
Te       0.16572226       6.59494603      15.76147609      -0.01212922      -0.01891010      -0.00569428
Te      14.42930747       3.89271930      14.94916511       0.01227223      -0.01287800       0.00272356
Te       0.63275132       3.02287777      23.81950517      -0.00356710       0.00849023      -0.00737461
Te       2.45012723       6.93552542      22.99191874       0.01554067      -0.00239130       0.00012803
Te       4.94550498       3.33453150      23.54610630      -0.00437377      -0.02928271      -0.01830119
Te      -3.20545898       7.26026329      24.83486576       0.01678874       0.00639249       0.00285565
Te       2.38783823       0.32906357      24.92198122      -0.01986269       0.01968973       0.00830697
Te       3.80642649       6.95479569      25.41403071       0.01734565      -0.02732717      -0.00083490
Te       7.12266464       0.53516956      24.80799940      -0.04007354      -0.03361665      -0.00130826
Te      -0.65056613       5.67202348      24.48893008       0.00945366       0.00409913       0.00001884
Te       2.53702847       1.27724188      20.66576516      -0.01301218       0.00606478      -0.02448968
Te       4.73806252       5.06731778      19.72056521      -0.00793409       0.00558320      -0.00893174
Te       6.86511429       0.79456104      20.40314186      -0.00219770       0.00845115      -0.03495769
Te       0.13979318       5.42079173      20.07810822       0.01177339       0.00634659      -0.00771500
Te      -0.05810071      -0.00551605      30.97618831      -0.01262546       0.00189612       0.01181096
Te       2.02883505       3.31493061      31.40441234      -0.00546178       0.00155029       0.00731363
Te       3.84842899      -0.35030019      31.06475782       0.01409831      -0.00790049      -0.00047721
Te      -1.97610797       1.90318751      30.82909446      -0.00165508       0.00752046       0.00006087
Te      -0.19409612       2.73295338      27.54229225      -0.00374768      -0.00253161       0.00781750
Te       1.48715890       6.41045688      28.63841788       0.00995808      -0.01080022       0.00762783
Te       4.09660454       2.93631672      27.46266396      -0.01363180      -0.00713687       0.02149826
Te      -2.62910428       6.12493020      28.75273922       0.00281284       0.00621245      -0.00396715
Sb      -0.02506789       3.05174849      18.52127650       0.01676961      -0.00068860       0.00820696
Sb       2.50551874       6.09734615      17.36988414      -0.00038813       0.00010480      -0.01561917
Sb       4.42094901       2.40687076      18.66653241      -0.00364691       0.00938355      -0.01297121
Sb      -1.48471177       5.39287779      17.63340634      -0.00015904      -0.00772026       0.00927054
Sb       1.72724412      -1.08017525      27.32283547       0.00764898       0.00874427       0.00107804
Sb       1.63722974       4.68998370      26.28051249      -0.00204283      -0.01013974       0.00565385
Sb       4.42684184      -0.94537553      26.52988605       0.00712656       0.02740841      -0.01295035
Sb       6.12972958       5.16376610      26.07869853       0.00689810      -0.02473633       0.01509828
Sb      13.76319196       7.19372838      20.64916837      -0.01815503       0.01476179      -0.01542013
Sb       2.52856556       4.20290833      21.92483532       0.00361840       0.00391825      -0.00744866
Sb       4.70950667       0.66024002      22.52562970      -0.00876412      -0.01240617      -0.04895490
Sb      15.24618968       4.74102798      20.55260495      -0.00069472       0.02411313      -0.00312030
Sb       2.02821455       1.14983908      29.32832601      -0.00140117      -0.00618689       0.02222358
Sb       3.85201806       4.85923532      29.77339118       0.00395451      -0.00190640       0.01190149
Sb       6.05130727       0.88390414      29.88478443       0.01502693       0.00694307       0.00124718
Sb      -0.41370342       4.35899319      29.88641680      -0.00370514      -0.00018385       0.00035382
Te       4.25620694       6.61535920      15.22145396       0.00015094      -0.01340848      -0.01756233
Te      10.37672892       2.85814503      15.48220650       0.01064301      -0.00351428       0.01313000
Te       8.39804139       6.61980061      14.73303400       0.00453901      -0.01653727      -0.01232400
Te       6.28856150       3.14361268      16.10060862       0.00618606      -0.00246723       0.00329076
Te       9.48956507       3.08660913      23.08372844      -0.01344968      -0.01162691      -0.01574079
Te      11.54723675       6.66220613      22.29848258      -0.01196658      -0.00208869      -0.01112089
Te      13.90321869       3.02781580      22.41336410      -0.00774009       0.02410794      -0.00266396
Te       7.42605709       6.77109575      22.27985801      -0.01415926      -0.01900686       0.01914033
Te      10.57077430       0.00209745      26.46796053      -0.00445617       0.01120128      -0.07175909
Te      12.89923265       5.87831879      24.62759938      -0.01630054       0.02337117       0.00533053
Te      14.23478567       0.58050913      25.12712530      -0.07160164      -0.01802377      -0.00169057
Te       8.51761950       6.59481161      24.85956212      -0.00074354      -0.03484002       0.01060020
Te      11.24024249       1.02926095      19.60669454      -0.00211698       0.00883086      -0.00685269
Te      13.21143031       5.00015794      18.53574604       0.00773371       0.00581808      -0.00543806
Te      15.51601788       1.52763346      18.58014416       0.00455678       0.00075757       0.01303839
Te       8.93531788       4.81901051      19.09073296      -0.00170533       0.00979877      -0.00490899
Te       8.36789733      -0.25809451      31.00572791       0.02302492      -0.02159754      -0.04199134
Te      10.34048688       3.52811113      31.31431081       0.00804382      -0.02313768       0.00340588
Te      12.18627733      -0.29807815      30.74245072       0.03302149       0.02287985       0.03053578
Te       6.09101642       3.36325213      31.34898385       0.00833802      -0.00048800       0.02253522
Te       8.11731874       2.98465413      27.47188586       0.02100244      -0.00436744       0.02784100
Te      10.44409958       6.39721196      28.07718005       0.00795454       0.01570559       0.03577950
Te      12.87065453       2.93476138      27.65002938      -0.02265169      -0.00375259       0.02690503
Te       6.05298818       6.83655760      28.34169010       0.00338329      -0.02074759       0.01781308
Sb       8.58973970       2.32140098      17.66091785       0.00447793       0.00398183       0.01000509
Sb      10.61015843       5.60469586      16.17930847       0.00540079      -0.00345037      -0.00568401
Sb      13.12203753       2.40144534      17.02853647       0.01369287      -0.00016341       0.00888451
Sb       6.53776030       5.90136121      16.78544689      -0.00061213      -0.00102872      -0.01166685
Sb       7.96504854      -1.10142940      26.91762467       0.00285137       0.06173186       0.03761210
Sb      10.65322247       4.59070270      25.82564354       0.00637005       0.01924968       0.02885589
Sb      13.21682118      -1.15427167      26.92723020      -0.04381837      -0.00671940       0.00608674
Sb      -2.83612298       4.93363464      26.28222650      -0.00190466       0.01017997      -0.00113175
Sb       9.31990140       0.51695688      21.88964246      -0.00671005      -0.00630692      -0.01175663
Sb      11.28659469       3.89625837      20.76818993       0.00217448       0.00253575      -0.00903205
Sb      13.98459611       0.69349033      20.74689847      -0.00992731       0.02123419       0.00996668
Sb       7.02179010       4.05021850      21.42424473      -0.00017464      -0.00523121      -0.01437252
Sb      10.16029136       1.26651831      29.35245265       0.04111390      -0.00169230      -0.01222437
Sb      12.26230879       4.84467397      29.70876874       0.00335099       0.00341118       0.02140328
Sb      14.11268986       0.66308633      29.01961122       0.00376160      -0.00607054      -0.01093534
Sb       8.02733170       4.90403314      29.68014302       0.00421207       0.00263854       0.02275121
Cr       6.13473386       1.13440431      27.22400194       0.00344847       0.03366685      -0.00606138
81
Properties=species:S:1:pos:R:3:forces:R:3 energy=-281.7690772366311 mlff_rel_energy_eV=-16.09212331532757 mlff_fmax_eV_A=0.5009848040817051 calculator_label=/data/pclancy3/yi/flare-data/1-Cr-Sb2Te3/3.fine-tuning/2-layer/MACE-omat/MACE-matpes-pbe-omat-ft.model neb_image=8 neb_protocol=mlff_pre_neb pbc="F F F"
Te      12.96542204       6.58569071      14.70167855      -0.03200771       0.02772124      -0.01386056
Te       2.17510709       3.75152089      15.77575697       0.00450993      -0.01249020       0.02293831
Te       0.09895380       7.20321511      15.29460420       0.00489823      -0.00430571       0.00163838
Te      14.59038985       4.40032657      15.11782832       0.01342882      -0.03683071       0.00494133
Te       0.33578049       2.72479287      23.55836784       0.03567259      -0.02049592      -0.03866667
Te       2.50983859       6.25512876      22.51712801      -0.00350744      -0.00731516       0.02323223
Te       4.41915990       2.42437095      22.79071020       0.00335230       0.00980595       0.01561924
Te      -3.06128170       6.25070701      24.30785988       0.05762142       0.20126703      -0.25496519
Te       2.47276618       0.64126209      25.52851689      -0.00338095      -0.00260767      -0.00126345
Te       4.12131582       5.49250992      24.75884547       0.02574621       0.01171278       0.03492684
Te       6.78628389       1.05727293      25.05212524      -0.00249903      -0.00736166       0.02940662
Te      -0.12447724       5.32116876      24.48794774      -0.47344115       0.01189159       0.16339473
Te       2.18533871       1.04882501      19.31133622      -0.00227393       0.01015861       0.02259040
Te       4.32990660       4.92038107      19.31364434       0.00986047       0.00071696      -0.00123419
Te       6.49749828       0.70016275      19.17602183       0.00977268      -0.02498392       0.00407285
Te       0.00311946       5.32619565      19.38741398      -0.00404390       0.00028002       0.02197366
Te      -0.27304487       0.47485820      31.86374940       0.01579033      -0.03429183      -0.02220757
Te       2.02010110       3.85080037      31.79422043      -0.04697236       0.00971665      -0.00449165
Te       4.04939396      -0.05021126      31.71341205      -0.01034295       0.00149983      -0.03363701
Te      -1.71998059       2.75968371      31.80996836      -0.04411968       0.03742709      -0.05018557
Te      -0.21027315       2.61284168      27.96804435       0.03100216      -0.12400444       0.04486880
Te       1.89000694       6.24499191      28.29820418      -0.02816021       0.00594684      -0.01363246
Te       4.05351154       2.86357682      28.38696883      -0.02489151       0.01046895      -0.03473640
Te      -2.50987059       6.22361436      28.44055238       0.00386008       0.01275019       0.01479347
Sb      -0.13076377       3.26991132      17.43694964       0.01040542      -0.01224761       0.01593372
Sb       2.42222453       6.44719409      16.82207455       0.01102278       0.01340171       0.01216727
Sb       4.20138011       2.60650776      17.65370973      -0.00693479      -0.00554675      -0.00543506
Sb      -1.57158431       5.72986654      16.95237488      -0.00784079       0.01825649       0.01663187
Sb       1.91197014      -0.76713336      27.91916555       0.01243298      -0.02289327       0.01419521
Sb       1.99701641       4.02086613      26.41980046       0.05373304       0.08455657      -0.11283832
Sb       4.61961333      -0.52390759      27.06194163       0.03635561       0.00653446      -0.00343877
Sb       6.36900577       4.28171410      26.41146314       0.02450760      -0.02004021      -0.01161212
Sb      13.52412977       6.77334724      21.07304176       0.00358931       0.04495019       0.02773801
Sb       2.09421977       3.67124148      21.32812307       0.02328235       0.02549301      -0.00806281
Sb       4.27510649       0.18329438      21.00680776       0.01491919      -0.00307395       0.02692085
Sb      14.89005986       4.27258934      20.76046213       0.02973741      -0.04295561       0.01506691
Sb       1.96950460       1.29846947      30.20383466       0.00260071      -0.00719560      -0.02278545
Sb       4.02496838       5.16293325      30.16933458      -0.00977998      -0.00562759       0.01714918
Sb       6.27998932       1.13305498      30.40596101      -0.01252441      -0.01318194      -0.00308382
Sb      -0.27105176       4.66990008      29.89558897       0.01523285       0.07410609       0.07252741
Te       4.35460198       7.21667554      14.91901169      -0.01215794       0.00388951      -0.00641070
Te      10.47379581       3.51173603      15.19285505      -0.00850941       0.00336276      -0.00986427
Te       8.51201643       7.29933613      14.90885680      -0.03227981      -0.00226201      -0.01267371
Te       6.29492897       3.70590651      15.50568478      -0.00819818      -0.00706821       0.00515919
Te       8.92715476       2.30849139      22.59133482       0.00648266      -0.01886374       0.01068549
Te      11.30043735       6.03679178      22.64903183      -0.01465058      -0.01165493      -0.00784954
Te      13.34288805       2.39687980      22.32574209      -0.00501935       0.02454989      -0.02145434
Te       6.99110851       6.09161192      22.42555942       0.02796234       0.01316166       0.02563546
Te      10.87169377       0.93658372      25.80736487      -0.02950556       0.00823469       0.01193299
Te      12.85703289       5.15224218      24.81908341       0.01779704       0.01289715       0.00693750
Te      14.74300983       0.83361138      25.63058887      -0.02550223       0.03278175       0.05942471
Te       8.56501051       5.20012286      24.74773488       0.02120232       0.02530003      -0.02504596
Te      10.92492537       0.98271001      18.90730679      -0.00424927      -0.00554827      -0.00983949
Te      13.00035011       4.89972716      18.69218793       0.01002762      -0.00448806      -0.00961957
Te      15.25117017       1.42412789      18.45726137       0.01964454       0.00799965      -0.01649303
Te       8.68008253       4.87366769      18.93818712      -0.00788104      -0.00417279       0.00381630
Te       8.54798314      -0.13119949      31.64227511      -0.02388774      -0.01956672      -0.00199532
Te      10.55000370       3.49152011      31.93000583       0.00106858       0.01316617      -0.02426820
Te      12.81739772      -0.03443182      31.63730298      -0.01054302       0.02907639      -0.02950123
Te       6.17062206       3.60337112      31.86807051       0.00656137      -0.01256445       0.00094135
Te       8.55365523       2.88918924      28.48940067       0.00086089       0.01899728      -0.01755770
Te      10.64403332       6.35835565      28.61197265      -0.01324122      -0.00199107      -0.01711658
Te      13.29732886       3.27598567      28.40703429       0.02882707      -0.04272354      -0.02733598
Te       6.40916116       6.40189336      28.32043451      -0.01151038       0.00377577      -0.01711221
Sb       8.49442236       2.65931772      17.09070361      -0.00609891      -0.01852914       0.01496080
Sb      10.64030543       6.09352878      16.36699104       0.01473144      -0.01978815      -0.00040044
Sb      13.07081272       2.60517247      16.75856636       0.00572961       0.01136593      -0.00355249
Sb       6.46225544       6.31989343      16.63102668       0.02376114       0.00533664       0.00732501
Sb       8.49099949      -0.12022990      26.92598772      -0.00237768      -0.04033691       0.04484411
Sb      10.79135980       4.15287990      26.56854400       0.00258378       0.00713389       0.00172877
Sb      13.01550742      -0.56761715      27.11886449      -0.01055721      -0.06159848      -0.08620236
Sb      -2.43013864       4.50017460      26.32688850       0.17501887      -0.16616989       0.13773505
Sb       8.84020310       0.10964854      20.79145209       0.00955539       0.01249012       0.01720711
Sb      10.88506002       3.61383150      20.64400492       0.05129984      -0.00143125      -0.00261594
Sb      13.47816954       0.34600217      20.29477050       0.02326391      -0.00608079       0.02166387
Sb       6.59607209       3.70896509      20.97799561      -0.00290700      -0.00459910       0.01833859
Sb      10.58855885       1.17567721      30.22494471      -0.01648560      -0.00365819      -0.01611010
Sb      12.40783518       5.06900502      30.44760106       0.00953639      -0.01496959      -0.04106016
Sb      14.28394380       0.75828818      29.43020217       0.05735647       0.03663776       0.02031918
Sb       8.21611800       5.13233128      30.29749007      -0.02504080       0.00393505      -0.00266352
Cr       6.31586763       1.67007443      27.63818146       0.01671794      -0.01723931       0.01149712
81
Properties=species:S:1:pos:R:3:forces:R:3 energy=-265.67673277456936 mlff_rel_energy_eV=0.00022114673419082465 mlff_fmax_eV_A=2.2733699223767667 calculator_label=/data/pclancy3/yi/flare-data/1-Cr-Sb2Te3/3.fine-tuning/2-layer/MACE-omat/MACE-matpes-pbe-omat-ft.model neb_image=9 neb_protocol=mlff_pre_neb pbc="F F F"
Te      12.86579077       7.41953018      14.99872281      -1.00672478      -0.78003523       0.87172065
Te       2.17276019       3.71923182      15.01524200      -0.61063515       0.02545300       0.44179869
Te       0.04517944       7.42508734      15.00255881      -0.97977849      -0.86675439       1.08865421
Te      15.00096890       3.71666915      14.99872280      -1.22058111      -0.52640218       0.98637298
Te       0.04936635       2.49480342      22.29117690       0.81510155       0.48678141      -0.15589688
Te       2.18320418       6.16052342      22.28060644       0.18566364      -0.78078752      -0.14930142
Te       4.29089489       2.50532948      22.28060791       0.13292631      -0.91991699      -0.08022379
Te      -2.08909657       6.19438438      22.29282799       0.52143830      -0.26985712       0.30605757
Te       2.17226149       1.26196813      25.13652211      -0.53113928      -0.90721656       0.10990495
Te       4.29820336       4.94482802      25.05994510       0.03753355      -0.05820463      -0.23019252
Te       6.48640881       1.27392832      24.69307922      -0.09822103      -0.47124120      -0.94358788
Te       0.04579200       4.94972780      25.13652282      -0.81458132      -0.56591955      -0.20842457
Te       2.17221301       1.24144651      18.62878374      -0.06112728      -0.41290159      -0.18592725
Te       4.31787628       4.95617086      18.64845832       0.12724458      -0.50327189      -0.27439223
Te       6.45260451       1.25443686      18.65334914      -0.05406607      -1.19116923       0.57512760
Te       0.02801072       4.95995795      18.62878494      -1.13171599      -0.33770132      -0.86736875
Te       0.07266886       0.05563557      32.41795098       1.01160878       0.74497960      -0.86080357
Te       2.19631749       3.73280611      32.42950232       0.15533927      -0.68754759      -0.27463849
Te       4.28832903       0.00644091      32.50774628       0.08702906       0.53261657      -0.75731794
Te      -2.05002095       3.73684045      32.41795089       0.97085238       0.31558049      -0.70006482
Te       0.08823048       2.51722028      28.79701776      -0.80009567      -0.40484958      -0.69533565
Te       2.21466609       6.28620672      28.76777196       0.12998825      -1.02215546       0.24404506
Te       4.41542753       2.46960804      28.76777210      -0.04826804      -0.35307949      -0.16916114
Te      -2.18109817       6.14133954      28.87661864       0.28955615      -1.46789197      -0.83384586
Sb       0.03032391       2.48383042      16.68805153       1.02112031       1.09378196       0.61676196
Sb       2.18281594       6.19559280      16.70304701       0.09339270       0.35010701      -0.80550284
Sb       4.32104737       2.48743653      16.70304662      -0.21112750       0.48193869       0.58197185
Sb      -2.09243484       6.19246684      16.69404357       2.00782244       0.26873242      -0.49386769
Sb       0.04588316       0.01824629      26.86400049       0.78293955       1.14426566      -0.02526931
Sb       2.20895811       3.74010307      26.79926260      -0.04831260       1.44626966       0.45440957
Sb       4.20784933      -0.03996064      26.87108834      -0.06389950       0.36047916      -0.02007053
Sb       6.45497323       3.90374139      26.83254822       0.06065535       1.69360237      -0.71095561
Sb      12.88063730       7.43046671      20.59831268      -1.08773845      -1.26046257       0.34779006
Sb       2.16554713       3.71506527      20.55993784      -1.01945836       0.32001506       1.40149129
Sb       4.30953782       0.01867021      20.58793834       0.01840273       1.35633115      -0.18837682
Sb      15.01787947       3.72402858      20.59831171      -0.79167762      -0.65848816      -0.75429621
Sb       2.18581962       1.24547738      30.76024513      -0.62645162      -0.81004514       1.92099191
Sb       4.36944381       4.98590499      30.78587437      -0.40822718       0.61681665      -0.83815355
Sb       6.45132876       1.25369931      30.91523544      -0.03537017      -0.51568501       1.38448217
Sb       0.03831607       4.96971462      30.76024462      -1.11985385       0.01012122      -0.18643699
Te       4.31459473       7.42091559      15.00933533       0.03126970      -0.50946173       0.55687166
Te      10.72397894       3.71745498      15.01232681      -0.18542639       0.34246473       0.42897329
Te       8.59104676       7.42022508      15.00831250       0.01145503      -0.57544437       0.74907480
Te       6.44942235       3.71866456      15.00933442       0.10790665       0.38299502       0.20062920
Te       8.64419767       2.51817698      22.27850925       0.04354965      -0.86626959       0.18905660
Te      10.75457596       6.19652196      22.29130038       1.11103910       0.43502357      -0.58942195
Te      12.88490318       2.50207322      22.29130069       0.69409142      -0.38816281       0.16825246
Te       6.47186476       6.19822707      22.29777396       0.00391706      -1.02829908      -0.23322095
Te      10.76338723       1.27057227      25.11757024      -0.00536934      -0.82392132       0.33340352
Te      12.86957641       4.95467779      25.17926005      -1.05373261      -0.65200652       0.29209686
Te      15.01465764       1.25891310      25.16740056      -1.43104891      -0.70095634       1.03155722
Te       8.62598226       4.97729355      25.11757078      -0.14790030      -0.27579613       0.16618342
Te      10.73199588       1.25377135      18.64523337      -0.05650620      -1.04940024       0.75487942
Te      12.88583634       4.96404704      18.62744349       0.83844183       0.04850956       0.74268397
Te      15.00389093       1.25269813      18.64087134      -0.43343190       0.27299569       1.30965527
Te       8.59572290       4.95853135      18.64523384      -0.00532191      -0.64281281       0.04306255
Te       8.61998922      -0.01135158      32.51080421      -0.00018411       0.56056074      -0.66755490
Te      10.76270866       3.73978131      32.53935187       0.82060978      -0.32589524      -0.56107914
Te      12.90623428       0.04311954      32.41643781       0.88864022       0.80756967      -1.13499479
Te       6.44280649       3.76435131      32.51080511       0.17299560      -0.65133442      -0.03488250
Te       8.52173989       2.44756909      28.78824446       0.07918297      -0.39721160      -0.00396622
Te      10.73455436       6.16804585      28.82155680       0.69363710      -0.75269370       0.80735423
Te      12.85022121       2.49902045      28.82155715       1.14842047      -0.27686774       0.42631019
Te       6.56793810       6.25363355      28.96385889      -0.06431422      -0.68170366      -0.18022650
Sb       8.59505396       2.48984601      16.70305303       0.06786667       0.88413554       0.02264338
Sb      10.73760472       6.19198011      16.70278731       0.42664094       0.96709364      -1.95655084
Sb      12.87246544       2.48966937      16.70278748       1.46080691       0.86023898      -1.05139455
Sb       6.46261011       6.19289770      16.69700624      -0.03174012       0.46161434      -1.22289343
Sb       8.74671853      -0.07063836      26.83254578      -0.02512607       0.33957734      -0.05141137
Sb      10.70277615       3.70522978      26.84200957       0.66016797       1.62687745      -0.88366916
Sb      12.89295863       0.03547239      26.85560283       0.95377633       1.36579313      -1.27442067
Sb      -2.09580584       3.73239668      26.86400240       1.32786044       1.59572044       0.92664651
Sb       8.60011013       0.02347611      20.59616662       0.06772779       1.26465997      -0.16901992
Sb      10.76513873       3.74118155      20.57059708      -0.12891866       0.54282290      -0.36753016
Sb      12.87914942       0.02750141      20.59795845       0.23604876       1.17194461      -0.66208220
Sb       6.46299144       3.72970180      20.59616637      -0.06700194       1.34958467       0.44115927
Sb      10.74912968       1.27894773      30.78614145      -0.17557128      -0.44248474       1.10078380
Sb      12.85761779       4.94777653      30.76778613      -1.49141354      -0.15908344      -0.62862640
Sb      15.04062636       1.27388170      30.69638683      -1.90784460      -0.29634951       0.48901818
Sb       8.62609674       4.96074809      30.78614218      -0.26866910       0.54101764      -0.72240452
Cr       6.49654620       1.27977794      27.07607892      -0.04609504       0.19866767       1.29288615
