61
Lattice="8.42843558953249 0.0 0.0 -4.21421779476624 7.29923593142487 0.0 0.0 0.0 31.03344084160948" Properties=species:S:1:pos:R:3:forces:R:3 repair_mode=unwrap repair_image_index=0 migrant_element=Cr energy=-226.4711062068417 mlff_rel_energy_eV=0.0 mlff_fmax_eV_A=0.9846900434041538 calculator_label=/home/ycao73/.cache/mace/20231203mace128L1_epoch199model neb_image=0 neb_protocol=mlff_pre_neb pbc="T T T"
Te       2.10710960       1.21626748       3.59502237      -0.00000288       0.00100984       0.54079505
Te       4.21445409       4.86629521       3.59502237      -0.00086996      -0.00050206       0.54078964
Te       6.32132606       1.21654029       3.59454265       0.00000276       0.00000536       0.54361738
Te      -0.00023626       4.86629600       3.59502239       0.00086988      -0.00050533       0.54077198
Te      -0.00091566       0.00052866       6.74933386      -0.00140219       0.00081504      -0.54433935
Te       2.10710848       3.64961994       6.75037367       0.00000205      -0.00000451      -0.52396031
Te       4.21513349       0.00052816       6.74933367       0.00140212       0.00081732      -0.54432642
Te      -2.10710848       3.64856263       6.74933367      -0.00000192      -0.00162356      -0.54432078
Te       0.00000000       0.00000000      -0.00000000       0.00000007       0.00000621      -0.00000842
Te       2.10710891       3.64961970       0.00000000      -0.00000000      -0.00000151      -0.00000799
Te       4.21421783       0.00000000      -0.00000000      -0.00000007       0.00000620      -0.00000843
Te      -2.10710891       3.64961970       0.00000000       0.00000010      -0.00000149      -0.00000799
Te       0.00853734       2.43800909      13.95271096       0.03905577       0.02255166       0.98364837
Te       2.10710870       6.07284129      13.95271096       0.00000051      -0.04510173       0.98365390
Te       4.20568048       2.43800884      13.95271135      -0.03905508       0.02255181       0.98365168
Te      -2.10710870       6.08269937      13.93702124      -0.00000042      -0.00000536       0.60982333
Te       2.10710913       1.22639810      17.08072626      -0.00000053       0.04510048      -0.98364822
Te       4.20568048       4.86123030      17.08072626      -0.03905491      -0.02255513      -0.98365336
Te       6.32132652       1.21654002      17.09641599       0.00000043       0.00000281      -0.60981753
Te       0.00853734       4.86123055      17.08072588       0.03905427      -0.02255527      -0.98365670
Te       2.10710868       1.21532339      10.34626835       0.00000102      -0.04647131       0.04376987
Te       4.21527124       4.86676805      10.34626835       0.04025077       0.02323184       0.04376952
Te       6.32132698       1.21653976      10.34347047      -0.00000123       0.00000637       0.13502841
Te      -0.00105341       4.86676778      10.34626878      -0.04025082       0.02323304       0.04376797
Te       0.00091566      -0.00052866      24.28410336       0.00140230      -0.00080319       0.54433890
Te       2.10710934       3.64961945      24.28306356      -0.00000206       0.00000193       0.52396079
Te       4.21330216      -0.00052816      24.28410355      -0.00140220      -0.00080551       0.54432595
Te      -2.10710934       3.65067676      24.28410355       0.00000212       0.00162098       0.54432129
Te      -0.00023626       2.43294418      27.43841485       0.00086998       0.00049818      -0.54078659
Te       2.10710823       6.08297191      27.43841485       0.00000283      -0.00100917      -0.54079123
Te       4.21445409       2.43294339      27.43841484      -0.00086993       0.00050143      -0.54076896
Te      -2.10710823       6.08269910      27.43889457      -0.00000275      -0.00000466      -0.54361357
Te      -0.00105341       2.43247134      20.68716887      -0.04025076      -0.02323621      -0.04376984
Te       2.10710915       6.08391600      20.68716887      -0.00000107       0.04647082      -0.04376950
Te       4.21527124       2.43247161      20.68716845       0.04025078      -0.02323742      -0.04376832
Te      -2.10710915       6.08269963      20.68996676       0.00000122      -0.00000674      -0.13502809
Sb      -0.00256829       2.43159530       8.41286590       0.01895255       0.01095511       0.02748160
Sb       2.10711038       6.08566595       8.41286590      -0.00001001      -0.02189619       0.02748545
Sb       4.21678612       2.43159699       8.41286629      -0.01895258       0.01094351       0.02747320
Sb      -2.10711038       6.08270034       8.40751439       0.00001010      -0.00001159       0.04604256
Sb      -0.00005462       2.43304569       1.93206324       0.00169571       0.00100158      -0.05641584
Sb       2.10711114       6.08276385       1.93206324      -0.00001590      -0.00197565      -0.05641528
Sb       4.21427245       2.43304826       1.93206353      -0.00169568       0.00098317      -0.05642866
Sb      -2.10711114       6.08270078       1.93179050       0.00001601      -0.00001764      -0.05491686
Sb      -0.01025543       0.00592098      18.75704518      -0.15625085       0.09021946       0.34448643
Sb       2.10710819       3.64962011      18.74714310       0.00000501      -0.00000672       0.39076731
Sb       4.22447325       0.00592014      18.75704543       0.15625088       0.09022513       0.34448983
Sb       6.32132747       3.63777816      18.75704543      -0.00000501      -0.18042911       0.34448994
Sb       0.01025543      -0.00592098      12.27639204       0.15625057      -0.09020585      -0.34448852
Sb       2.10710964       3.64961928      12.28629413      -0.00000501       0.00000146      -0.39076567
Sb       4.20396240      -0.00592014      12.27639180      -0.15625058      -0.09021152      -0.34449191
Sb      -2.10710964       3.66146123      12.27639180       0.00000498       0.18042443      -0.34448829
Sb       2.10710669       1.21647554      29.10137398       0.00001589       0.00197428       0.05642105
Sb       4.21427245       4.86619370      29.10137398      -0.00169574      -0.00100247       0.05641996
Sb       6.32132897       1.21653861      29.10164672      -0.00001600       0.00001628       0.05492260
Sb      -0.00005462       4.86619113      29.10137369       0.00169567      -0.00098409       0.05643278
Sb       2.10710745       1.21357345      22.62057133       0.00001000       0.02189535      -0.02748314
Sb       4.21678612       4.86764409      22.62057133      -0.01895258      -0.01096086      -0.02748430
Sb       6.32132821       1.21653905      22.62592284      -0.00001011       0.00001087      -0.04604031
Sb      -0.00256829       4.86764240      22.62057094       0.01895249      -0.01094932      -0.02747584
Cr       2.10710891       3.64961970      15.51671861      -0.00000000      -0.00000079      -0.00000054
61
Lattice="8.42843558953249 0.0 0.0 -4.21421779476624 7.29923593142487 0.0 0.0 0.0 31.03344084160948" Properties=species:S:1:pos:R:3:forces:R:3 repair_mode=unwrap repair_image_index=1 migrant_element=Cr energy=-227.8010057301714 mlff_rel_energy_eV=-1.3298995233296864 mlff_fmax_eV_A=0.03894995110908804 calculator_label=/home/ycao73/.cache/mace/20231203mace128L1_epoch199model neb_image=1 neb_protocol=mlff_pre_neb pbc="T T T"
Te       2.13447020       1.19189747       2.96434139       0.00135765       0.00447347       0.00439869
Te       4.24959322       4.85519996       2.96375456      -0.00326599      -0.00334103       0.00471388
Te       6.34696902       1.20092970       2.95823116       0.00428601      -0.00180033       0.00949292
Te       0.03883927       4.84412443       2.95568212      -0.00248288       0.00134455       0.00999444
Te       0.04786018      -0.02991351       5.81495560      -0.00232906       0.00153764      -0.01157481
Te       2.15108021       3.62162230       5.83751846      -0.00136268       0.00149187      -0.01320436
Te       4.26254700      -0.01360444       5.80017063      -0.00218381      -0.01574180       0.00087797
Te      -2.07379290       3.60880191       5.79942074       0.01320958       0.01185259       0.00104349
Te       0.03666482      -0.01983250      -0.80747962      -0.01110381       0.00596931       0.01948736
Te       2.12684789       3.63875144      -0.79632451      -0.00037614       0.00041305       0.01158927
Te       4.24836499      -0.00506371      -0.79394589      -0.00903069      -0.00401363       0.00724195
Te      -2.08460515       3.62440623      -0.79330539      -0.00116965       0.00956191       0.00686451
Te       0.01791782       2.40473780      13.39040090      -0.00307440       0.00202425       0.00235600
Te       2.13960473       6.07893207      13.38897756      -0.00380765       0.00209610       0.00323238
Te       4.25496020       2.40860237      13.41744284      -0.02015100       0.01101012      -0.00432659
Te      -2.06517839       6.05732432      13.34427408      -0.01173543       0.00648986      -0.00928021
Te       2.04877104       1.23096884      16.12660385       0.00847868      -0.00991133      -0.00319614
Te       4.17354019       4.90976930      16.12590482       0.01189942      -0.00244130      -0.00331950
Te       6.26433230       1.24869528      16.19357086       0.00450307      -0.00144915      -0.00546315
Te      -0.03022023       4.88485998      16.11316630      -0.00473526       0.00258901      -0.00843182
Te       2.14988395       1.16890518       9.58321160      -0.00114126       0.01359611       0.00567522
Te       4.27392311       4.84875499       9.58446115      -0.01152515      -0.00519823       0.00525657
Te       6.36900970       1.18707200       9.62454028      -0.00841777       0.00482390      -0.02210788
Te       0.05035815       4.83534551       9.60931590      -0.02408116       0.01350803      -0.00664932
Te      -0.07621380       0.04764977      23.70368048       0.01890523      -0.01253010      -0.01097955
Te       2.02898008       3.69637767      23.68082121       0.01536757      -0.00916666      -0.00187348
Te       4.13466232       0.04810504      23.70583189       0.01503505      -0.01024172      -0.00782845
Te      -2.18818454       3.69751001      23.70608470       0.01698154      -0.00823941      -0.00774164
Te       0.02451615       2.44064769      26.49031261      -0.01372589      -0.00749491       0.00627711
Te       2.11483677       6.06036237      26.49071407      -0.00092030       0.01514512       0.00606215
Te       4.23447908       2.42331747      26.47860035      -0.01067518       0.00555914       0.01835275
Te      -2.10107699       6.08054870      26.49071712      -0.00144184       0.00070445       0.01033303
Te      -0.08425932       2.47751553      19.93097506       0.01248622      -0.00842842      -0.00742626
Te       2.02648730       6.13601063      19.93150351       0.01404502      -0.00721582      -0.00704591
Te       4.15612439       2.46900702      19.92037046       0.00856927      -0.00551391      -0.01191693
Te      -2.18635019       6.12906061      19.91490580       0.01104352      -0.00583750      -0.00304126
Sb       0.02690026       2.40167298       7.53884565       0.00524575      -0.00585125       0.00201640
Sb       2.14551454       6.07082721       7.53800261       0.00807028      -0.00075588       0.00316495
Sb       4.26551240       2.40003640       7.56612188       0.00694097      -0.00303714      -0.03136565
Sb      -2.04444171       6.04188415       7.52286741      -0.01200915       0.00853827       0.01285153
Sb       0.03056697       2.40927843       1.22447994      -0.00155796       0.00562861       0.00330335
Sb       2.14372784       6.06824733       1.22293970      -0.00593647      -0.00107271       0.00428105
Sb       4.23106443       2.42383513       1.22856023       0.00907686      -0.00513955       0.00956339
Sb      -2.06900545       6.06153135       1.21328710      -0.00323300       0.00169956       0.01514086
Sb      -0.12160660       0.07072818      17.98977823       0.00719665      -0.00413161      -0.00843380
Sb       2.05239443       3.68273582      17.90157168      -0.00452764       0.00210090      -0.01463842
Sb       4.18578023       0.06132922      17.95891044       0.01151873       0.00083240      -0.00023846
Sb       6.25650560       3.64359008      17.95660190       0.00441505      -0.00880300       0.00062852
Sb       0.10205589      -0.06055981      11.55542168      -0.01198059       0.00657337      -0.00994434
Sb       2.17733063       3.60610820      11.62412141      -0.03251703       0.01943545      -0.00905564
Sb       4.21324690      -0.05868076      11.55176703      -0.01034125       0.01225858       0.00256611
Sb      -2.05740597       3.67751427      11.55143886      -0.01668398       0.00239515       0.00351531
Sb       2.14064883       1.20690763      28.22626743      -0.01573095       0.00468099       0.00956379
Sb       4.24056429       4.84450143      28.22762610      -0.01212382       0.01049916       0.00854806
Sb       6.36007591       1.19595641      28.20467055      -0.01727528       0.00964061       0.02681233
Sb       0.01018059       4.86204680      28.24390175       0.00452469      -0.00285045      -0.00642873
Sb       2.01773865       1.25728706      21.96782054       0.01944279      -0.00760176      -0.00620197
Sb       4.13482083       4.92844413      21.96969723       0.01661347      -0.01547674      -0.00758572
Sb       6.23321841       1.26940911      21.97239116       0.01921740      -0.01110606      -0.00318020
Sb      -0.10649580       4.92878290      21.97885246       0.02464105      -0.01393875      -0.01048353
Cr       2.10634890       3.64979606      14.73891788      -0.00041739      -0.00014338       0.01775837
61
Lattice="8.42843558953249 0.0 0.0 -4.21421779476624 7.29923593142487 0.0 0.0 0.0 31.03344084160948" Properties=species:S:1:pos:R:3:forces:R:3 repair_mode=unwrap repair_image_index=2 migrant_element=Cr energy=-226.98097510554464 mlff_rel_energy_eV=-0.5098688987029334 mlff_fmax_eV_A=0.15604613341623738 calculator_label=/home/ycao73/.cache/mace/20231203mace128L1_epoch199model neb_image=2 neb_protocol=mlff_pre_neb pbc="T T T"
Te       2.03596960       1.27336398       2.57604128       0.00166065       0.00154292       0.00121284
Te       4.12858599       4.89027037       2.57832850      -0.00027061       0.00009546      -0.00014851
Te       6.19872480       1.28032568       2.57578330       0.01384332      -0.00598927       0.00829290
Te      -0.05978470       4.89758191       2.66052706      -0.01200977       0.00656829      -0.03223116
Te      -0.25677181       0.15341587       5.26052557       0.00182380      -0.00662454      -0.00836198
Te       1.87126494       3.78296520       5.44156837       0.01286651      -0.00772748      -0.04227324
Te       3.94826632       0.15383723       5.34942327      -0.02042935      -0.01043190       0.00864285
Te      -2.37763453       3.78332589       5.35388897      -0.00280241       0.02971501       0.00834717
Te      -0.01614937       0.00928307      -1.06888367      -0.00555537       0.00200997      -0.02832933
Te       2.05126963       3.67856198      -1.15229408       0.00747945      -0.00348308       0.00772744
Te       4.19642158      -0.00113894      -1.15884412      -0.00909002       0.00102678       0.01151843
Te      -2.12349261       3.66229709      -1.15842063      -0.00129823       0.00876454       0.01018691
Te      -0.02468547       2.71604064      12.53365154       0.00318806      -0.00981954       0.02571046
Te       1.84424206       5.94352906      12.53603621       0.01031557       0.00901208       0.02446850
Te       4.63203816       2.14684273      14.36871817       0.00141541       0.00633358      -0.00025481
Te      -2.33756269       6.21612618      12.94729917      -0.00630953       0.00139752      -0.04914165
Te       2.16060549       1.10311313      16.02443820       0.02258093      -0.01674806      -0.01127363
Te       4.34674354       4.84366355      16.00311960       0.02170797       0.00954650       0.00087036
Te       6.85277496       0.92897899      16.03296704      -0.00882868      -0.00189559       0.01917756
Te       0.13641280       4.80530037      15.83265743       0.00303522      -0.00848234       0.00421337
Te       1.77325459       1.54972922       9.14357494      -0.00295037       0.02762190       0.00450157
Te       3.73935548       4.97323631       9.13482129      -0.01240318      -0.00396260       0.00880938
Te       6.05933010       1.36611928       9.15199579       0.00993674      -0.00576682      -0.04196128
Te      -0.24475953       5.01399860       9.01446831       0.01168223      -0.00842749       0.00538016
Te       0.16810284      -0.08531218      23.34305603      -0.02350031       0.01629698      -0.00080089
Te       2.35104392       3.52823886      23.41383850      -0.00947256      -0.00113128       0.03118264
Te       4.35418410      -0.03461358      23.46805665      -0.00472246      -0.02319230      -0.01031981
Te      -1.99492645       3.56684426      23.47586010       0.00482059       0.00358045      -0.01400984
Te       0.04156366       2.39672188      26.13618439      -0.01524308       0.00901737       0.01777463
Te       2.15158849       6.06711118      26.13720125      -0.00881281       0.00807016       0.01661311
Te       4.24429133       2.41979006      26.23544867      -0.00027768      -0.00327487      -0.01278373
Te      -2.10932826       6.08516594      26.15826563      -0.00364608       0.00102850       0.00100298
Te       0.15991759       2.36836286      19.73690263       0.00198797       0.00297790      -0.00727318
Te       2.23105052       5.98208876      19.75212462       0.00930641      -0.00074151      -0.02109899
Te       4.38547737       2.35023725      19.58516615      -0.00945904       0.00266487       0.00092390
Te      -1.75921084       5.90129699      19.69157248      -0.01258950       0.00168665       0.02921005
Sb      -0.28732082       2.55433471       7.11621221       0.01255822       0.01239043      -0.03799948
Sb       1.85989904       6.27321942       7.10099484      -0.00588957      -0.02147251      -0.02345030
Sb       3.94023117       2.58044070       7.18694396       0.00184005       0.00139593      -0.00640465
Sb      -2.42269058       6.25303379       6.90238630      -0.01945404       0.01195111       0.05343258
Sb      -0.07099519       2.47851043       0.88492396       0.00731873      -0.00152811      -0.00810603
Sb       2.03438840       6.11229352       0.88212601       0.00212673      -0.00327945      -0.00338228
Sb       4.13857608       2.47083276       0.79438399       0.01413623      -0.00715795       0.01741553
Sb      -2.13219110       6.09139015       0.90773405      -0.01888869       0.01411717      -0.02249650
Sb       0.27633091      -0.18631012      17.97543970       0.01757405       0.01101564      -0.01411612
Sb       2.21481134       3.59128360      17.67748123       0.01684568      -0.00880585      -0.02947339
Sb       4.43561891      -0.10041692      17.59309776       0.01455286      -0.02335217       0.02483650
Sb       6.54162401       3.52908836      17.59600313       0.01256882      -0.00487973       0.01775929
Sb      -0.21339565       0.11217542      11.13872236      -0.01733226       0.01372603      -0.03633175
Sb       3.55518048       2.82676389      11.97054902      -0.01584743       0.00133433      -0.03370419
Sb       3.90939908       0.08404636      11.09171464       0.02466269      -0.00856473      -0.01909670
Sb      -2.32543210       3.87988215      11.08185057       0.02042314      -0.02108096      -0.01458185
Sb       2.09768147       1.20634768      27.92680716       0.00019291       0.00481034      -0.00656831
Sb       4.21280173       4.88378410      27.92714673      -0.00118224      -0.00518162      -0.00781276
Sb       6.36137458       1.19258843      27.91179511      -0.01600944       0.00913627      -0.00021315
Sb       0.00580300       4.85674039      27.82611439      -0.00778647       0.00883357       0.02029967
Sb       2.30586779       1.12310210      21.62446547      -0.00365504       0.00299044       0.02514596
Sb       4.41702401       4.76211683      21.62109289      -0.01712399       0.00511170       0.03058519
Sb       6.47062174       1.15001177      21.69891202      -0.02656755       0.00461726      -0.01502258
Sb       0.18852456       4.77048226      21.85682533       0.01661829      -0.02299509      -0.03087257
Cr       1.61907404       3.91816990      10.63475557       0.02033852      -0.00439083       0.15465271
61
Lattice="8.42843558953249 0.0 0.0 -4.21421779476624 7.29923593142487 0.0 0.0 0.0 31.03344084160948" Properties=species:S:1:pos:R:3:forces:R:3 repair_mode=unwrap repair_image_index=3 migrant_element=Cr energy=-228.06221421811188 mlff_rel_energy_eV=-1.5911080112701654 mlff_fmax_eV_A=0.08668341449504116 calculator_label=/home/ycao73/.cache/mace/20231203mace128L1_epoch199model neb_image=3 neb_protocol=mlff_pre_neb pbc="T T T"
Te       2.07573386       1.22635290       3.08605283       0.01008657       0.00259178       0.01098171
Te       4.19348901       4.88841738       3.08523614       0.00071500      -0.01047539       0.01137757
Te       6.26206339       1.24973183       3.10949161       0.02457297      -0.01321114       0.00675659
Te      -0.01546515       4.87743061       3.10972084       0.00266724      -0.00266322       0.00010526
Te      -0.05414662       0.03442841       5.94388419       0.00387563      -0.00185148      -0.01738076
Te       2.04610445       3.69227039       5.98228575       0.00173274      -0.00244988       0.03656064
Te       4.08651705       0.02959500       5.94236206       0.03212710      -0.00483999       0.00062782
Te      -2.18672850       3.75109095       5.94217570       0.01770390      -0.02353615       0.00119441
Te       0.00804707      -0.00464406      -0.64113936      -0.00360591       0.00150396      -0.00256546
Te       2.08053653       3.66272330      -0.65545535       0.01348967      -0.00694829       0.01549374
Te       4.22315174       0.00594798      -0.66744640      -0.00761003      -0.00568031       0.01087714
Te      -2.11045137       3.63802308      -0.66665904       0.00166908       0.00891433       0.01060093
Te      -0.02623151       2.46062546      13.60749157       0.00103386       0.00516137      -0.01347441
Te       2.08297589       6.09909367      13.60796439      -0.00907230      -0.00410056      -0.01367412
Te       4.15372707       2.47125771      13.59545451       0.00819567      -0.00465079       0.00742466
Te      -2.14633790       6.11340708      13.62843068       0.00577717      -0.00581426      -0.06952161
Te       2.15228915       1.18961191      16.38649411      -0.00030455      -0.00578830      -0.00222385
Te       4.25847640       4.83190999      16.38600928       0.00461127       0.00604006      -0.00166782
Te       6.37002465       1.18519579      16.37791726      -0.00007341      -0.00064900      -0.00590694
Te       0.02866578       4.84633053      16.37247296       0.01544503      -0.00846646       0.00484091
Te       2.05046936       1.23363987       9.80737410       0.00519621      -0.02821317       0.00101348
Te       4.17360696       4.92183245       9.80776585       0.02756739       0.00615980       0.00109625
Te       6.26711501       1.25635295       9.91085745       0.00855258      -0.00565173      -0.08607512
Te      -0.10778717       4.93314204       9.80359078      -0.00782658       0.00535168       0.00290380
Te       0.07823801      -0.05281240      23.84751484      -0.01487432       0.01053743       0.00892240
Te       2.20040810       3.58883371      23.84776497      -0.01843510       0.01207619       0.01808681
Te       4.30695646      -0.05456025      23.86422146      -0.02845736       0.00804277      -0.00061026
Te      -2.01939843       3.58773881      23.86485872      -0.02068528       0.02073084      -0.00182849
Te       0.04134084       2.41890626      26.61991210      -0.01901742       0.00071309       0.01164725
Te       2.13606694       6.04917886      26.62044088      -0.00912049       0.01738840       0.01184630
Te       4.24706698       2.41231175      26.64539034      -0.00829449       0.00449480      -0.00292907
Te      -2.10411548       6.07737626      26.63083184       0.00407591      -0.00168164       0.01283835
Te       0.07636539       2.38278063      20.12282628      -0.01363592       0.00784643       0.00082490
Te       2.18226240       6.03275454      20.12370850      -0.01221076       0.00945290      -0.00071100
Te       4.27799537       2.38991596      20.10976808      -0.00298960       0.00309344       0.00676061
Te      -2.02823627       6.03123878      20.11165640      -0.01028863       0.00638390       0.01054486
Sb      -0.17623324       2.43970774       7.70690191       0.02387126      -0.01036733       0.01124028
Sb       2.01371882       6.24384291       7.70692127       0.02322439      -0.01785418       0.01204667
Sb       4.23992271       2.42598317       7.72221965      -0.01035916       0.00566982      -0.00971013
Sb      -2.20339586       6.14234288       7.67801398       0.00954160      -0.00409725      -0.04250324
Sb      -0.03806215       2.43839016       1.37986338       0.01426349      -0.00013612      -0.00453626
Sb       2.08640481       6.11154076       1.37775747       0.00535382      -0.01170372      -0.00318465
Sb       4.17288676       2.45634263       1.33404897       0.02187272      -0.01278621       0.02616643
Sb      -2.10808656       6.08476824       1.34603436      -0.00549287       0.00186703       0.00677350
Sb       0.05397813      -0.03851788      18.12075590       0.00185968       0.00166525      -0.00533823
Sb       2.14272604       3.62389499      18.09646888       0.01846052      -0.00969943       0.01941367
Sb       4.27783389      -0.03047813      18.11774096      -0.00243823      -0.00671222      -0.00583009
Sb       6.37600370       3.60227794      18.12006873       0.00525702       0.00533927      -0.00800272
Sb      -0.06185932       0.04721924      11.89401429      -0.01315608       0.00466647      -0.01400614
Sb       2.04162870       3.69391754      11.80108118       0.01665226      -0.01081341      -0.00162932
Sb       4.19661503       0.03730876      11.92430633       0.00645293       0.01761090      -0.03998871
Sb      -2.14981656       3.66130751      11.92399353      -0.00854980      -0.02007371      -0.03935775
Sb       2.12681953       1.21044695      28.38438324      -0.00718758       0.00447635      -0.00169851
Sb       4.22584761       4.84968380      28.38630595      -0.00657017       0.00384638      -0.00300171
Sb       6.36009736       1.19158263      28.34674097      -0.01792702       0.01124660       0.02325531
Sb      -0.00100471       4.86317907      28.34532722       0.00876082      -0.00421009       0.01963814
Sb       2.20740869       1.14512667      22.12666081      -0.02641361       0.02138814       0.00027066
Sb       4.31951070       4.80340922      22.12535205      -0.03044001       0.01504897       0.00108305
Sb       6.40977647       1.15962872      22.10680975      -0.02236846       0.01243001       0.02100404
Sb       0.08800538       4.80822790      22.13351060      -0.00894309       0.00583896       0.00138508
Cr       2.02946278       3.70204516       8.68722317       0.00168275      -0.00245189       0.05175314
61
Lattice="8.42843558953249 0.0 0.0 -4.21421779476624 7.29923593142487 0.0 0.0 0.0 31.03344084160948" Properties=species:S:1:pos:R:3:forces:R:3 repair_mode=unwrap repair_image_index=4 migrant_element=Cr energy=-227.3676048869351 mlff_rel_energy_eV=-0.8964986800934014 mlff_fmax_eV_A=1.5979273153980915 calculator_label=/home/ycao73/.cache/mace/20231203mace128L1_epoch199model neb_image=4 neb_protocol=mlff_pre_neb pbc="T T T"
Te       2.10710960       1.18408157       3.67157898      -0.00000311      -0.03925758       0.14275704
Te       4.24232791       4.88238817       3.67157898       0.03400214       0.01963128       0.14275222
Te       6.32132606       1.21654029       3.68124484       0.00000296       0.00000492       0.26797425
Te      -0.02811008       4.88238896       3.67157899      -0.03400190       0.01962756       0.14273642
Te       0.03530565      -0.02038372       6.61797966       0.03645527      -0.02104209      -0.11540003
Te       2.10710848       3.64961994       6.24819520       0.00000049      -0.00000205      -0.54894751
Te       4.17891218      -0.02038422       6.61797947      -0.03645381      -0.02103960      -0.11538668
Te      -2.10710848       3.69038739       6.61797947      -0.00000135       0.04208876      -0.11538229
Te      -0.01158614       0.00668926      -0.00504885       0.00019791      -0.00010859       0.00676025
Te       2.10710891       3.64961970       0.01065370      -0.00000002      -0.00000161       0.00642116
Te       4.22580397       0.00668926      -0.00504885      -0.00019834      -0.00010883       0.00676037
Te      -2.10710891       3.63624117      -0.00504885       0.00000008       0.00022769       0.00676095
Te      -0.01879063       2.42223127      14.10729535      -0.00142260      -0.00081873       0.25472948
Te       2.10710870       6.10439692      14.10729535       0.00000057       0.00163726       0.25473479
Te       4.23300846       2.42223102      14.10729574       0.00142273      -0.00081820       0.25473275
Te      -2.10710870       6.08269937      14.20453021      -0.00000054      -0.00000455      -0.08279436
Te       2.10710913       1.21214448      17.02071185      -0.00000068       0.02999982      -0.23326907
Te       4.21802448       4.86835712      17.02071185      -0.02597799      -0.01500420      -0.23327423
Te       6.32132652       1.21654002      17.03927420       0.00000059       0.00000307      -0.27694489
Te      -0.00380665       4.86835737      17.02071146       0.02597804      -0.01500497      -0.23327725
Te       2.10710868       1.26418388      10.36252263       0.00000079       0.12326487      -0.07237633
Te       4.17295681       4.84233781      10.36252263      -0.10674636      -0.06163579      -0.07237687
Te       6.32132698       1.21653976      10.61834592      -0.00000067       0.00000459      -0.38902277
Te       0.04126102       4.84233754      10.36252305       0.10674715      -0.06163534      -0.07237927
Te      -0.00106873       0.00061703      24.36451834      -0.00347311       0.00201134       0.29256208
Te       2.10710934       3.64961945      24.37136313      -0.00000210       0.00000181       0.29560407
Te       4.21528655       0.00061753      24.36451852       0.00347308       0.00200888       0.29255007
Te      -2.10710934       3.64838539      24.36451852       0.00000218      -0.00400859       0.29254609
Te       0.00611286       2.43660985      27.35474563      -0.00873284      -0.00504604      -0.27822245
Te       2.10710823       6.07564058      27.35474563       0.00000297       0.01007965      -0.27822633
Te       4.20810497       2.43660906      27.35474562       0.00873285      -0.00504261      -0.27820609
Te      -2.10710823       6.08269910      27.37097275      -0.00000290      -0.00000430      -0.30204049
Te       0.00124786       2.43379998      20.69657298       0.00622484       0.00359658      -0.01611349
Te       2.10710915       6.08125873      20.69657298      -0.00000106      -0.00719415      -0.01611309
Te       4.21296997       2.43380025      20.69657256      -0.00622468       0.00359531      -0.01611237
Te      -2.10710915       6.08269963      20.70103878       0.00000114      -0.00000628      -0.00109762
Sb      -0.14468480       2.34954430       8.36480494       0.09043818       0.05222709      -0.29642080
Sb       2.10711038       6.24976795       8.36480494      -0.00000922      -0.10443944      -0.29641775
Sb       4.35890262       2.34954599       8.36480533      -0.09043452       0.05221428      -0.29642857
Sb      -2.10711038       6.08270034       8.36862078       0.00000864      -0.00000978      -0.10306483
Sb       0.00087587       2.43358291       1.98390355       0.00734823       0.00426302      -0.00971069
Sb       2.10711114       6.08168942       1.98390355      -0.00001450      -0.00850090      -0.00971035
Sb       4.21334196       2.43358548       1.98390384      -0.00734828       0.00424628      -0.00972261
Sb      -2.10711114       6.08270078       1.92670502       0.00001484      -0.00001603       0.05496357
Sb       0.00310543      -0.00179292      18.73015904       0.00477827      -0.00275108       0.04123906
Sb       2.10710819       3.64962011      18.71028061       0.00000490      -0.00000669       0.03145623
Sb       4.21111240      -0.00179376      18.73015929      -0.00477823      -0.00274537       0.04124213
Sb       6.32132747       3.65320596      18.73015929      -0.00000500       0.00551063       0.04124257
Sb      -0.00553097       0.00319331      12.41249793       0.19034042      -0.10988793       0.15277086
Sb       2.10710964       3.64961928      12.46477605      -0.00000416       0.00000102      -0.15396635
Sb       4.21974880       0.00319415      12.41249769      -0.19034048      -0.10989249       0.15276842
Sb      -2.10710964       3.64323266      12.41249769       0.00000399       0.21978606       0.15277213
Sb       2.10710669       1.22043185      29.06062256       0.00001466       0.00089722       0.02515169
Sb       4.21084619       4.86421555      29.06062256      -0.00076409      -0.00046258       0.02515129
Sb       6.32132897       1.21653861      29.04963399      -0.00001478       0.00001492      -0.00656652
Sb       0.00337164       4.86421298      29.06062227       0.00076402      -0.00044562       0.02516341
Sb       2.10710745       1.21920845      22.67212449       0.00000927      -0.00844715      -0.02424339
Sb       4.21190606       4.86482659      22.67212449       0.00732398       0.00421128      -0.02424388
Sb       6.32132821       1.21653905      22.65597063      -0.00000937       0.00001002      -0.00053571
Sb       0.00231176       4.86482490      22.67212411      -0.00732403       0.00422199      -0.02423574
Cr       2.10710912       3.64961958       8.65062336      -0.00000444       0.00000199       1.59792732
