2
Lattice="8.0 0.0 0.0 0.0 8.0 0.0 0.0 0.0 8.0" Properties=species:S:1:pos:R:3 energy=0.0 reaction_coordinate=0.0 path_name=smoke_cu neb_image=0 pbc="T T T"
Cu       0.00000000       0.00000000       0.00000000
Cu       1.80000000       0.00000000       0.00000000
2
Lattice="8.0 0.0 0.0 0.0 8.0 0.0 0.0 0.0 8.0" Properties=species:S:1:pos:R:3 energy=0.03 reaction_coordinate=0.25 path_name=smoke_cu neb_image=1 pbc="T T T"
Cu       0.00000000       0.00000000       0.00000000
Cu       1.95000000       0.00000000       0.00000000
2
Lattice="8.0 0.0 0.0 0.0 8.0 0.0 0.0 0.0 8.0" Properties=species:S:1:pos:R:3 energy=0.04 reaction_coordinate=0.5 path_name=smoke_cu neb_image=2 pbc="T T T"
Cu       0.00000000       0.00000000       0.00000000
Cu       2.10000000       0.00000000       0.00000000
2
Lattice="8.0 0.0 0.0 0.0 8.0 0.0 0.0 0.0 8.0" Properties=species:S:1:pos:R:3 energy=0.03 reaction_coordinate=0.75 path_name=smoke_cu neb_image=3 pbc="T T T"
Cu       0.00000000       0.00000000       0.00000000
Cu       2.25000000       0.00000000       0.00000000
2
Lattice="8.0 0.0 0.0 0.0 8.0 0.0 0.0 0.0 8.0" Properties=species:S:1:pos:R:3 energy=0.0 reaction_coordinate=1.0 path_name=smoke_cu neb_image=4 pbc="T T T"
Cu       0.00000000       0.00000000       0.00000000
Cu       2.40000000       0.00000000       0.00000000
