61
Properties=species:S:1:pos:R:3:forces:R:3 mlff_rel_energy_eV=0.0 mlff_fmax_eV_A=2.8637569177163544 calculator_label=/data/pclancy3/yi/flare-data/1-Cr-Sb2Te3/3.fine-tuning/2-layer/MACE-omat/MACE-matpes-pbe-omat-ft.model neb_image=0 neb_protocol=mlff_pre_neb energy=-194.2748941360856 pbc="F F F"
Te       2.10710960       1.21450109       3.47277178       0.24353434       0.17850767       0.37007156
Te       4.21598382       4.86717840       3.47277178      -0.56291127       0.86771647      -0.08007558
Te       6.32132606       1.21654029       3.46337882      -0.82727463       0.34761089      -0.23928927
Te      -0.00176600       4.86717919       3.47277179      -0.26623461       1.33776375       0.54161888
Te      -0.02683937       0.01549573       6.87268349       0.18032642       0.97896306       0.41409367
Te       2.10710848       3.64961994       6.92335299      -0.68523524       0.76219481      -0.54055193
Te       4.24105720       0.01549523       6.87268330      -0.14095448       0.86050417       0.16553288
Te      -2.10710848       3.61862849       6.87268330      -0.17143897       1.16288322       0.36797982
Te       0.00000000       0.00000000       0.00000000       0.18510067       1.15853050       0.77137970
Te       2.10710891       3.64961970       0.00000000      -0.73370426       0.78136985       0.70057581
Te       4.21421783      -0.00000000      -0.00000000      -0.21694002       1.03269430       0.72677391
Te      -2.10710891       3.64961970       0.00000000       0.17482950       1.48229787       1.33995378
Te       0.04960189       2.46171773      13.94762059      -1.00257604      -1.16375553       0.16805989
Te       2.10710870       6.02542401      13.94762059      -0.03506243      -1.07780821       0.44615795
Te       4.16461594       2.46171748      13.94762098       0.15245073      -0.38771889       0.16317545
Te      -2.10710870       6.08269937      13.89453363       0.05573110      -1.46340822      -0.87382643
Te       2.10710913       1.27381538      17.08581663      -0.36626605      -1.52238845      -0.10188817
Te       4.16461594       4.83752167      17.08581663       0.58498589       0.14417063      -0.20221243
Te       6.32132652       1.21654002      17.13890359      -0.21662325       0.02791952       0.60400850
Te       0.04960189       4.83752192      17.08581625       0.81246491      -0.48596693      -0.31012883
Te       2.10710868       1.19984378      10.38852379       0.12023341      -1.13082384       0.50983696
Te       4.22867697       4.87450786      10.38852379      -0.92937221       0.55972357      -0.64238315
Te       6.32132698       1.21653976      10.39111941      -1.27365996      -0.57715034       0.83720824
Te      -0.01445914       4.87450759      10.38852421      -0.85615872       1.00363039      -0.36439870
Te       0.02683937      -0.01549573      24.16075373       0.90394077       0.68961822      -0.52239302
Te       2.10710934       3.64961945      24.11008424       1.10674652      -0.23424457       0.49764911
Te       4.18737845      -0.01549523      24.16075392       1.19922386       0.39180884      -0.26459883
Te      -2.10710934       3.68061090      24.16075392       0.84498735       0.31228849      -0.19779254
Te      -0.00176600       2.43206099      27.56066545       0.71176036      -0.09461544       0.60509889
Te       2.10710823       6.08473830      27.56066545       0.45258882      -0.66155361       0.84916129
Te       4.21598382       2.43206020      27.56066544       0.34786331      -0.23121445       0.67409794
Te      -2.10710823       6.08269910      27.57005841       1.30860042      -0.87933608       0.70766876
Te      -0.01445914       2.42473153      20.64491344      -0.07283835      -0.59049547      -0.38759547
Te       2.10710915       6.09939562      20.64491344       1.04748946      -0.53712498       0.66440870
Te       4.22867697       2.42473180      20.64491301       1.58473478      -0.22965373       0.30800974
Te      -2.10710915       6.08269963      20.64231782       1.01297430      -0.65697269       0.69886494
Sb      -0.03018654       2.41564989       8.46733874      -0.33860693      -1.25807253      -0.82746781
Sb       2.10711038       6.11755676       8.46733874       0.73163104      -1.23868298       0.76904191
Sb       4.24440436       2.41565158       8.46733912       1.14741814      -1.23736305       0.24301124
Sb      -2.10711038       6.08270034       8.40301845       0.64875034      -1.42465354      -0.18684661
Sb       0.00025079       2.43322202       1.88152630       0.18998506      -1.89779067      -2.13621159
Sb       2.10711114       6.08241119       1.88152630       0.61359899      -1.51138960      -0.07116319
Sb       4.21396703       2.43322459       1.88152659       0.50701641      -1.99985190      -0.30893331
Sb      -2.10711114       6.08270078       1.88047883       0.48364071      -1.93018883      -0.95520517
Sb      -0.05023393       0.02900259      18.75787975       0.58979459       1.06020487       0.15348341
Sb       2.10710819       3.64962011      18.71293056      -1.18696527       1.43488005       0.77221945
Sb       4.26445176       0.02900175      18.75787999      -0.00047517       0.28810550      -0.53340657
Sb       6.32132747       3.59161494      18.75787999      -0.68575551      -0.06701990      -0.72672735
Sb       0.05023393      -0.02900259      12.27555748       0.51757320       1.00543720       0.07984133
Sb       2.10710964       3.64961928      12.32050666       1.01623757       1.15454832      -0.62931314
Sb       4.16398389      -0.02900175      12.27555723       0.65325584       1.54897202      -0.97130389
Sb      -2.10710964       3.70762446      12.27555723       0.38587751       1.50793046       1.02178622
Sb       2.10710669       1.21682820      29.15191093      -0.56108903       0.63520273      -0.76135289
Sb       4.21396703       4.86601737      29.15191093      -0.82182453       0.13769886      -0.78944529
Sb       6.32132897       1.21653861      29.15295839      -0.63653790       0.36176917      -0.46297139
Sb       0.00025079       4.86601480      29.15191064      -0.85289275       0.46698677      -1.46691448
Sb       2.10710745       1.18168263      22.56609849      -1.80614642      -0.83949701       0.68960917
Sb       4.24440436       4.88358950      22.56609849      -1.46317543       0.23013916      -0.72015408
Sb       6.32132821       1.21653905      22.63041878      -1.36138211      -0.19754271       0.27587610
Sb      -0.03018654       4.88358781      22.56609810      -2.38657182       0.72897251      -0.82032859
Cr       2.10710891       3.64961970      15.51671861      -0.05667295       0.88524033      -0.04137551
61
Properties=species:S:1:pos:R:3:forces:R:3 mlff_rel_energy_eV=-16.41557082180225 mlff_fmax_eV_A=0.04763491645087393 calculator_label=/data/pclancy3/yi/flare-data/1-Cr-Sb2Te3/3.fine-tuning/2-layer/MACE-omat/MACE-matpes-pbe-omat-ft.model neb_image=1 neb_protocol=mlff_pre_neb energy=-210.69046495788785 pbc="F F F"
Te       1.15042181       1.48886353       4.50980212       0.00131081      -0.00209494      -0.00079910
Te       4.77716243       4.35932435       4.44204686       0.00421968      -0.00947671      -0.00298345
Te       5.02464596       0.29628958       5.69580385      -0.00114857      -0.00622220       0.00042995
Te       0.91772593       5.98346256       4.92369091       0.02263186       0.04178670      -0.00327955
Te      -0.17349421       0.47803599       8.01888867       0.00015060      -0.00313080      -0.00350274
Te       2.65221060       3.66530056       6.90683417      -0.00304340       0.00299178      -0.00573876
Te       2.73087068      -0.13300351       7.42227395      -0.00292390      -0.00051993      -0.00304147
Te      -2.09195099       4.11082369       7.32039674       0.00028741      -0.00490680      -0.02143577
Te       1.64884543       0.14928654       0.26175005       0.00707455       0.00181955       0.00097085
Te       2.29292020       3.90978337       0.90536751      -0.00512075       0.00484402      -0.00311735
Te       3.52536312      -0.96034611       1.85288572      -0.01108176      -0.00880474       0.00503305
Te      -2.15748452       3.98421635       2.59047168       0.00999702       0.00329527       0.03924711
Te      -0.62961646       2.16460082      14.39820208      -0.00121323      -0.00754197       0.00326713
Te       1.09998269       5.77129580      13.69755709      -0.01310946      -0.00084952       0.00779583
Te       3.55469263       2.91970420      13.73930452      -0.00762936       0.00057171      -0.00078352
Te      -1.42912618       5.48001940      12.25696660      -0.00046121      -0.01082495       0.00027833
Te       1.80686316       1.21117098      16.70996282       0.00085046      -0.00219999       0.00341871
Te       3.37145995       5.41005867      16.33235897      -0.00485430      -0.00056416      -0.00183978
Te       5.89589526       1.66515418      16.27688866      -0.00082851       0.00296711       0.00138808
Te      -0.42764537       4.91280164      16.78966294      -0.00514144      -0.00539363       0.00347018
Te       1.37212051       0.01704128      11.16364480      -0.01188946      -0.00842944      -0.00147943
Te       4.56774867       5.07288722      10.40802229       0.00607408      -0.01167702      -0.01200168
Te       5.60221797       0.68876694      10.84290280      -0.01179984       0.00794539      -0.00592185
Te       0.79630026       6.58414344       9.45369110      -0.00684570      -0.00461257      -0.00291883
Te       0.40432532      -0.06171874      23.42193156       0.00268114       0.00019829      -0.00107294
Te       2.53410096       3.78360330      23.75139205      -0.00140320       0.00467743       0.00240066
Te       4.17986670      -0.29225024      23.24601426       0.00204125       0.00342770      -0.00131673
Te      -1.83760105       1.49699952      23.52826168       0.00039462      -0.00549739       0.00132944
Te       0.76325860       1.81858785      26.41058665       0.00291325      -0.00139684       0.00051180
Te       1.66813903       5.96651205      26.84785569       0.00059559      -0.00080592       0.00804829
Te       5.29150557       2.93134999      26.43519337       0.00113099       0.00402884      -0.00414592
Te      -2.38244291       4.84180007      26.19980565       0.00373808       0.00071376       0.00084609
Te      -0.41302780       2.82430809      20.36043586      -0.00140520       0.00100493       0.00103621
Te       1.54676826       6.53136552      20.46454060      -0.00292911       0.00253721      -0.00146454
Te       4.66561859       3.12831029      19.95325677       0.00020846       0.00429152       0.00137684
Te      -2.08802659       5.35852639      21.80364951      -0.00244835      -0.00031663       0.00433481
Sb       0.24381534       3.16851477       8.65040211      -0.00608569      -0.00012042      -0.00777390
Sb       3.29650515       6.17661468       8.12958837      -0.00335749      -0.00020127       0.00126620
Sb       3.49483428       1.95848059       9.35646210      -0.01426962       0.00789611      -0.00222869
Sb      -0.97284596       6.64728411       7.15341708       0.00631885      -0.00556133      -0.01827203
Sb       0.28470706       2.17586389       1.93006727      -0.00025459       0.00232044      -0.00104029
Sb       3.11085118       5.78622379       2.80868399       0.01319549      -0.00449764      -0.00631930
Sb       3.79515867       1.51701181       3.46447638       0.00179876      -0.00753982      -0.00126990
Sb      -1.32037717       6.41799371       3.26877284       0.00998002       0.01204170       0.00922650
Sb       0.74772859       0.47803029      19.32256099       0.00194830       0.00101172       0.00532843
Sb       1.53784020       4.28249036      18.65930213      -0.00115491       0.00052172       0.00146840
Sb       4.15807669       0.70041456      18.30349511       0.00211189       0.00284312       0.00296313
Sb       5.70283717       4.25160273      17.42499430      -0.00313304       0.00301142      -0.00101730
Sb       0.54983840      -0.35707141      13.88239983       0.00360890      -0.00618808       0.00432473
Sb       2.08739587       4.03966738      11.53449642      -0.00411369       0.01005459       0.00086192
Sb       3.70141920       0.15948767      12.88203423      -0.01003193       0.00275006      -0.00489832
Sb      -1.06290510       2.83734497      11.59970591       0.02770640      -0.01180597      -0.00334722
Sb       3.03603470       1.92560808      28.09291148       0.00469965      -0.00027044      -0.00191823
Sb       3.62220713       4.71922862      28.38727149       0.00195859      -0.00272104       0.00362943
Sb       7.32092121       0.96673528      25.87815678       0.00180154       0.00340223      -0.00214373
Sb      -0.24671665       4.10641093      27.82270960       0.00036208      -0.00358527       0.00166807
Sb       2.31357034       1.47228064      21.89203369       0.00117034       0.00456281       0.00141157
Sb       3.70584536       5.43198747      21.76140856      -0.00340884       0.00432525       0.00064077
Sb       5.88457668       1.87705209      23.67186506       0.00493999       0.00201078       0.00154197
Sb      -0.81434596       4.18009349      23.84452810      -0.00218626      -0.00229361       0.00398986
Cr       1.46276255       3.67764255      15.37384599      -0.00462786      -0.00380210       0.00356803
61
Properties=species:S:1:pos:R:3:forces:R:3 mlff_rel_energy_eV=-17.193795447045602 mlff_fmax_eV_A=0.044557472728978045 calculator_label=/data/pclancy3/yi/flare-data/1-Cr-Sb2Te3/3.fine-tuning/2-layer/MACE-omat/MACE-matpes-pbe-omat-ft.model neb_image=2 neb_protocol=mlff_pre_neb energy=-211.4686895831312 pbc="F F F"
Te       1.79250994       0.72974019       5.57715030       0.01048028       0.00673258       0.01061430
Te       5.32700529       3.44455186       4.97954673      -0.00666092      -0.01280448       0.01113189
Te       5.85445576      -0.44544508       5.59728081      -0.00310098      -0.00935911       0.00654007
Te       1.53260041       5.12547335       5.29093482       0.00471034       0.01800816      -0.00076761
Te      -0.10121174       0.94690253       9.44845514      -0.00026794      -0.00613399      -0.02694517
Te       2.85066759       3.11907004       7.75711280      -0.00220734       0.02280313       0.02463273
Te       4.31774131      -0.90633406       7.81312459       0.00230234      -0.01323439       0.00852209
Te      -1.37166430       4.34045562       7.74885758      -0.01122769      -0.00407683      -0.02129538
Te       0.41926789       0.13653763       1.55336036      -0.00972575       0.00948157       0.00301816
Te       2.42325954       3.20826338       1.82559685       0.00815787       0.00425047       0.00747577
Te       2.72060140      -1.19702130       2.07913924      -0.01424355       0.00359611      -0.00976460
Te      -2.19365759       4.49025489       3.48916318      -0.00006850      -0.00577433       0.01674191
Te      -1.32492595       2.04262844      15.54948887      -0.00018682      -0.00884358       0.01597702
Te       1.83627438       5.75612347      13.51944213      -0.02705104      -0.00818356      -0.00158469
Te       4.57915642       2.55999079      14.38932319       0.01397776       0.00051407       0.01183596
Te      -1.44831622       4.07237720      12.11207694       0.02350715       0.00807453      -0.03698086
Te       2.60213264       1.33774041      16.76637216      -0.00093397      -0.00233716       0.00293258
Te       4.06285351       5.45716255      16.56290027      -0.00096402       0.00288530       0.00704626
Te       6.82213643       2.08261373      17.20467801       0.00619748       0.01068296       0.00001043
Te      -0.00743466       5.51681603      16.46145040      -0.01404622      -0.02291404       0.00240298
Te       3.01749668       0.15466953      11.08243284       0.02495495      -0.01148397      -0.00077128
Te       5.07600616       4.37197210      11.02234965      -0.00305347       0.01633290      -0.00622581
Te       7.16119434       0.61871212      11.35267891      -0.00887038       0.01506689       0.00568023
Te       1.65099331       6.87515712       9.57121248      -0.00472858      -0.01778473       0.02085041
Te       0.10672899      -0.72729864      22.07644844      -0.00236731       0.00690257       0.00098649
Te       1.65937117       4.93290554      24.06674940       0.00384507      -0.00225018      -0.00691605
Te       3.96148823      -0.39742429      22.53938317      -0.00612872       0.00774516       0.00705594
Te      -2.28118220       4.12799794      24.71236039       0.00155625       0.00724489       0.00445472
Te       0.68062579       1.38919826      25.42399434       0.00181509       0.00379959      -0.00331035
Te       2.53617546       4.31895494      28.36846247       0.00516474       0.00002014       0.00366154
Te       4.78025667       3.27112284      24.79536979       0.00468743      -0.00025437       0.00448573
Te      -0.93069187       5.08223464      26.95868835       0.00747268       0.00413003       0.00335092
Te      -0.67876495       2.31146754      18.88893147      -0.01180544      -0.00958652      -0.00634344
Te       1.33425333       6.37024640      20.13779372      -0.00202707      -0.00245199      -0.00637023
Te       4.46287202       3.17801933      20.43403515       0.00203409       0.00034787       0.00107999
Te      -1.24396510       2.80404236      21.66088183       0.00015310      -0.00190520      -0.00301074
Sb       0.64345504       3.76078356       9.70729667      -0.02588737      -0.01526775       0.01159639
Sb       4.04010004       5.56951904       8.70294678       0.01773791      -0.00738601      -0.03213257
Sb       5.01106221       1.46235487       9.46436894       0.00155250      -0.00745304      -0.02447511
Sb      -0.13435145       6.75124013       7.15421882       0.00545303      -0.00864063       0.03589470
Sb       0.37011231       2.21932289       3.56706357       0.01283062       0.00063512       0.01029618
Sb       3.81266558       5.10958332       3.40200889       0.00943078       0.00073101      -0.00196115
Sb       4.02151597       0.93296022       3.82276619      -0.00478428       0.00018814       0.00537411
Sb      -0.57435197       6.54404438       3.92602879       0.00044993       0.00583418      -0.00839448
Sb       1.14480811       0.17297132      19.45632821      -0.00403191       0.00139711      -0.00285886
Sb       1.89832583       4.20529478      18.13925871      -0.00061588       0.00372534      -0.00778624
Sb       4.68963486       0.77354292      18.51551568       0.00091793       0.00183166      -0.00933766
Sb       6.06404455       4.60453838      18.28396965       0.00054268       0.00636217       0.00347327
Sb       0.71098001       1.18754181      13.83344562      -0.00244615      -0.00702279      -0.00728626
Sb       2.62735355       3.31520210      12.35083776       0.00998376      -0.00319748       0.00380236
Sb       5.09221525       0.03331113      13.10876748       0.00699078       0.00056410       0.00326057
Sb      -1.44561487       1.25603303      11.89616045      -0.00678152       0.02261976      -0.01097038
Sb       3.41949566       0.77848518      25.63120564       0.00136926      -0.00059186      -0.00247724
Sb       4.59131063       2.60499398      27.65063335       0.00466514      -0.00466459       0.00151837
Sb       7.29290030       2.24884976      23.98882034      -0.00034340      -0.00810810      -0.00143119
Sb       0.24218859       2.71909423      27.91893493       0.00473802       0.00002854      -0.00225105
Sb       1.78781493       1.53161623      22.00092776      -0.00756974       0.00855519      -0.00722758
Sb       3.34339187       5.71654468      21.96849302      -0.00545939       0.00327470      -0.00795464
Sb       6.25986937       0.98960179      21.71107150      -0.00251017      -0.00581665      -0.00088643
Sb      -0.75667014       5.42169702      22.61327838       0.00279033       0.00584959      -0.00206965
Cr       0.03550513       4.01115533      14.34281117      -0.01037376      -0.00268820       0.00408266
61
Properties=species:S:1:pos:R:3:forces:R:3 mlff_rel_energy_eV=-16.75030171534712 mlff_fmax_eV_A=0.040739668707591305 calculator_label=/data/pclancy3/yi/flare-data/1-Cr-Sb2Te3/3.fine-tuning/2-layer/MACE-omat/MACE-matpes-pbe-omat-ft.model neb_image=3 neb_protocol=mlff_pre_neb energy=-211.02519585143273 pbc="F F F"
Te       1.93876078       1.10366769       4.72983260      -0.00208396      -0.00079686       0.00646993
Te       4.33063709       4.91514394       4.62827422       0.00197627      -0.00160323       0.00186147
Te       6.05408657       1.18508446       4.96777245      -0.01805835      -0.01597119       0.02665466
Te       0.04955744       4.95653567       5.05859931       0.00424448       0.00122662       0.00697387
Te       0.40575248      -0.15025815       7.54746731       0.00663601       0.00478679       0.00608914
Te       2.45304992       3.46781816       7.10675531       0.00437348      -0.00062497       0.00195191
Te       4.62698502      -0.27091209       6.76944016       0.02005884       0.01876713      -0.01569702
Te      -2.01217061       3.23445789       7.58832975       0.00467328      -0.00739587       0.00221297
Te       0.89007587       0.47031098       0.57091276      -0.01125084       0.00734910      -0.00105736
Te       1.82078371       4.04564859       1.31931413      -0.00300153       0.00156915       0.00593733
Te       3.54966400       0.12490713       0.98652894       0.01125899      -0.00359875       0.00574970
Te      -2.76955553       3.74249816       2.18266279      -0.00978037      -0.01464815       0.00826449
Te      -0.50475932       1.89697518      15.32617108      -0.00771955       0.00258840       0.01003625
Te       1.83169746       5.75902848      13.58660600      -0.00447809      -0.00350564      -0.00397733
Te       4.40932298       2.45366602      14.02584973      -0.00221123      -0.00156158       0.00393835
Te      -2.49751144       5.39744370      13.86723288      -0.00675770      -0.00134929      -0.00439209
Te       2.15439200       0.78371613      17.67066874      -0.00254288      -0.00028256      -0.00057666
Te       3.87956583       5.05277907      16.80686388      -0.00412757      -0.00023489      -0.00290461
Te       6.01032939       1.24210056      17.24420197      -0.00197945       0.00317541      -0.00450657
Te      -0.09295310       5.65005510      16.47154900      -0.00367276       0.00736422      -0.00308285
Te       3.03910427       0.43108404      10.25406366       0.00773181      -0.00396237       0.00085412
Te       4.77994114       4.80205522      10.38104237       0.00197724      -0.00292372       0.00436762
Te       7.07236150       1.34023695      10.58029866       0.00347080       0.00097358       0.00529122
Te       0.39422859       5.87464010      10.11294016       0.00172320       0.00325782       0.00085962
Te      -0.29357095       0.65054060      24.13866348      -0.00805474       0.00402242      -0.00166427
Te       1.78608196       4.13161837      24.07258973       0.00423539       0.00528458       0.00238086
Te       2.46827410      -0.66018765      22.30318185      -0.01451039      -0.00300617      -0.00582777
Te      -2.15074406       2.70513900      24.60069625       0.00373250      -0.00399277       0.00568816
Te       0.55755143       2.59227974      27.24852673      -0.00455230      -0.00722866      -0.01484567
Te       2.80649106       6.39346390      27.12311712      -0.00126947       0.00050517      -0.00078562
Te       4.84925062       2.50779420      25.42618276       0.00351217       0.00186001      -0.00729811
Te      -1.26516891       6.40638483      26.42758856       0.00992795      -0.00722296       0.00229263
Te      -1.33968721       2.72640187      18.65174742      -0.01299187       0.01059045      -0.01074907
Te       0.92601384       6.30133730      20.27775644      -0.02070342       0.00510123      -0.00482525
Te       3.94328969       3.24463388      20.75742558      -0.00043436       0.00963814      -0.00152419
Te      -1.90449892       3.08022694      21.44100890      -0.00011735      -0.01618911       0.00876472
Sb       0.42097856       2.22226321       8.80054579       0.00573955      -0.01044730      -0.00230850
Sb       2.93946026       5.85958126       8.60296366       0.00478793      -0.00181672       0.00347805
Sb       4.88835355       1.93889170       8.66689539       0.00555933      -0.00665582       0.00159546
Sb      -1.26585526       5.89949643       7.72696401       0.00631616      -0.00073787      -0.00530172
Sb       0.13929259       2.23489030       2.73607995       0.00660575      -0.00060862       0.00711316
Sb       2.16712062       6.02930071       3.30930743       0.00525498       0.00100966       0.00829453
Sb       4.00155266       2.22084782       3.12539623       0.00394728       0.00159136       0.00817853
Sb      -2.02271059       5.98039946       3.36881623       0.00466042       0.01376777       0.02097368
Sb      -0.04232091       0.35251329      19.39453236      -0.00089710       0.00069823       0.01156649
Sb       1.54003462       4.21588196      18.32507713      -0.00285313       0.00091557      -0.00142605
Sb       4.43636075      -0.52007516      18.75438634      -0.00695214      -0.00364168      -0.00593821
Sb       5.72908949       3.81063304      18.48836768      -0.00932083       0.00550259      -0.00162075
Sb       0.05246043       1.90613675      12.57977796      -0.00064246       0.00688694       0.00910517
Sb       2.64750968       3.54353321      12.07001308       0.00059803      -0.00349546       0.00115303
Sb       5.11395165       0.31912868      12.27388164       0.00683931       0.00328748       0.00059261
Sb      -1.65726450       4.04759349      11.62117257       0.00365302      -0.00349819      -0.00398755
Sb       3.23493256       1.97548564      27.84463384       0.03667345       0.01062753      -0.01420684
Sb       4.67287637       4.45478863      27.75990904       0.00262557      -0.01936525      -0.01044036
Sb       6.39427608       0.51649396      24.12305842       0.00156676      -0.00641002      -0.03639007
Sb       0.48260010       5.24003019      28.26905997       0.00204088       0.01045437      -0.01178345
Sb       0.89478727       1.87155883      21.84491181      -0.00465068       0.00718258       0.00117586
Sb       2.99785966       5.73750771      22.02312863      -0.00200870       0.00757079      -0.00508807
Sb       4.91398252       0.49146291      21.61124080      -0.01280667      -0.00584254      -0.01552409
Sb      -0.88610753       5.15446270      23.83925008      -0.00379129       0.00603888       0.01029161
Cr      -0.20588830       4.25597577      14.26039423      -0.00217966      -0.00497579      -0.00242711
61
Properties=species:S:1:pos:R:3:forces:R:3 mlff_rel_energy_eV=0.4782207212571734 mlff_fmax_eV_A=2.828035934524476 calculator_label=/data/pclancy3/yi/flare-data/1-Cr-Sb2Te3/3.fine-tuning/2-layer/MACE-omat/MACE-matpes-pbe-omat-ft.model neb_image=4 neb_protocol=mlff_pre_neb energy=-193.79667341482843 pbc="F F F"
Te       2.10098864       1.21300635       3.52044537       0.22420017       0.15189036       0.37918864
Te       4.21421783       4.87322669       3.52044537      -0.57566011       0.84127388      -0.11788801
Te       6.32744702       1.21300635       3.52044537      -0.84494749       0.33118174      -0.23574157
Te       0.00000000       4.86615959       3.51368646      -0.29637815       1.34270616       0.41610341
Te       0.00000000       0.00000000       6.80558913       0.17668300       1.03391362       0.41590659
Te       2.12314963       3.64035858       6.77353864      -1.14523049       0.90048643      -0.62585810
Te       4.21421783       0.01852224       6.77353864      -0.14730828       0.67464000      -0.02298206
Te      -2.12314963       3.64035858       6.77353864       0.01434849       1.27535752       0.63033563
Te       0.00000000       0.00000000       0.01304124       0.19283628       1.15112198       0.78117999
Te       2.10832252       3.64891902       0.00155926      -0.71963907       0.77025157       0.84477704
Te       4.21421783       0.00140136       0.00155926      -0.22901783       1.02580003       0.74233079
Te      -2.10832252       3.64891902       0.00155926       0.21648814       1.48461712       1.42244780
Te      -0.00000000       2.28878158      14.22382394      -0.51058455      -1.28982922      -0.17400790
Te       2.23207485       6.15484860      14.22382394      -0.30815008      -0.60950764      -0.40215158
Te       4.21421783       2.43307980      13.80034036       0.15012943      -0.91855537       0.05803988
Te      -2.23207485       6.15484860      14.22382394       0.15055218      -0.83871736      -0.72524914
Te       2.10799020       1.21704871      17.17526645      -0.21649300      -1.32869253      -0.23566634
Te       4.21421783       4.86514198      17.17526645       0.87495436      -0.13974322       0.06697344
Te       6.32044546       1.21704871      17.17526645      -0.31956822       0.02186228       0.56413700
Te       0.00000000       4.86615959      16.93861115       0.01733786      -0.08057671      -0.15717757
Te       2.07669424       1.19897997      10.28149754       0.09582641      -0.70485998       0.87611407
Te       4.21421783       4.90127946      10.28149754      -1.21863345       0.40759205      -0.54890260
Te       6.35174142       1.19897997      10.28149754      -1.53702789      -0.60549703       0.77737405
Te       0.00000000       4.86615959      10.26823231      -0.84742163       1.25676836      -0.07810687
Te       0.00000000       0.00000000      24.24482848       0.94437772       0.77630536      -0.58171608
Te       2.11687289       3.64398246      24.19441993       1.07409291      -0.27476096       0.47506905
Te       4.21421783       0.01127447      24.19441993       1.13014023       0.45347043      -0.41574163
Te      -2.11687289       3.64398246      24.19441993       0.90491503       0.32094225      -0.17723585
Te      -0.00000000       2.43687328      27.52586254       0.68437203      -0.14245599       0.56999679
Te       2.10382366       6.08080275      27.52586254       0.45770371      -0.64567312       0.84295291
Te       4.21421783       2.43307980      27.54138885       0.36992809      -0.23901074       0.60114563
Te      -2.10382366       6.08080275      27.52586254       1.29389165      -0.88836607       0.70823957
Te      -0.00000000       2.42990033      20.68811130      -0.15588002      -0.48895339      -0.48788868
Te       2.10986241       6.08428923      20.68811130       0.96797821      -0.46162827       0.60121863
Te       4.21421783       2.43307980      20.72632209       1.49788554      -0.07309912      -0.09942636
Te      -2.10986241       6.08428923      20.68811130       0.99288085      -0.64157423       0.75437793
Sb      -0.00000000       2.43230122       8.43536613      -0.34982831      -1.61917871      -1.19039938
Sb       2.10778318       6.08308878       8.43536613       0.86116977      -1.15650982       0.83646665
Sb       4.21421783       2.43307980       8.19671022       1.79384242      -1.18014823       0.79248919
Sb      -2.10778318       6.08308878       8.43536613       0.59980352      -1.55286560      -0.47346248
Sb      -0.00000000       2.42671799       1.90473875       0.16709078      -1.78139598      -2.19009048
Sb       2.11261840       6.08588040       1.90473875       0.55396434      -1.57728636      -0.03941910
Sb       4.21421783       2.43307980       1.92089496       0.51396179      -1.96453384      -0.34458493
Sb      -2.11261840       6.08588040       1.90473875       0.53442328      -1.97163006      -0.95733732
Sb       0.00000000      -0.00000000      18.81923863       0.57882784       0.98736418       0.21385721
Sb       2.10388635       3.65148025      18.72474621      -0.73961455       1.34141905       0.47689685
Sb       4.21421783      -0.00372110      18.72474621       0.12062765       0.34536634      -0.35713451
Sb       6.32454930       3.65148025      18.72474621      -0.85348320      -0.00371811      -0.62946675
Sb       0.00000000       0.00000000      11.88040369       0.33589140       0.70970127       0.01791617
Sb       1.97849168       3.72387690      12.48317439       1.16526879       0.62735376      -0.42617947
Sb       4.21421783      -0.14851441      12.48317439       0.77176242       2.14670005      -1.24314039
Sb      -1.97849168       3.72387690      12.48317439       0.30782843       0.81378873       0.70063681
Sb       2.10909386       1.21768591      29.12053626      -0.58771530       0.61184813      -0.72515053
Sb       4.21421783       4.86386757      29.12053626      -0.81431433       0.17076187      -0.76617709
Sb       6.31934179       1.21768591      29.12053626      -0.60307271       0.34806429      -0.42773596
Sb       0.00000000       4.86615959      29.12384287      -0.85610769       0.47768098      -1.46803110
Sb       2.10063901       1.21280450      22.57836874      -1.78465864      -1.06243569       1.00344681
Sb       4.21421783       4.87363039      22.57836874      -1.31244619       0.24047287      -0.70879233
Sb       6.32779664       1.21280450      22.57836874      -1.37729539      -0.25181761       0.39764361
Sb       0.00000000       4.86615959      22.63293601      -2.49347905       0.70487146      -0.85252261
Cr       0.00000000       4.86615959      14.35116463       0.10797095       0.74744683       0.91810265
