2
Lattice="8.0 0.0 0.0 0.0 8.0 0.0 0.0 0.0 8.0" Properties=species:S:1:pos:R:3:forces:R:3 reaction_coordinate=0.0 path_name=smoke_cu neb_image=0 energy=5.101972546282973 mlff_rel_energy_eV=0.0 mlff_fmax_eV_A=13.311409244787377 calculator_label=EMT neb_protocol=mlff_pre_neb pbc="T T T"
Cu       0.00000000       0.00000000       0.00000000     -13.31140924       0.00000000       0.00000000
Cu       1.80000000       0.00000000       0.00000000      13.31140924       0.00000000       0.00000000
2
Lattice="8.0 0.0 0.0 0.0 8.0 0.0 0.0 0.0 8.0" Properties=species:S:1:pos:R:3:forces:R:3 reaction_coordinate=0.25 path_name=smoke_cu neb_image=1 energy=3.7218343635955353 mlff_rel_energy_eV=-1.3801381826874373 mlff_fmax_eV_A=5.739074440515779 calculator_label=EMT neb_protocol=mlff_pre_neb pbc="T T T"
Cu       0.00000000       0.00000000       0.00000000      -5.73907444       0.00000000       0.00000000
Cu       1.95000000       0.00000000       0.00000000       5.73907444       0.00000000       0.00000000
2
Lattice="8.0 0.0 0.0 0.0 8.0 0.0 0.0 0.0 8.0" Properties=species:S:1:pos:R:3:forces:R:3 reaction_coordinate=0.5 path_name=smoke_cu neb_image=2 energy=3.2241086926018445 mlff_rel_energy_eV=-1.877863853681128 mlff_fmax_eV_A=1.3094464210735914 calculator_label=EMT neb_protocol=mlff_pre_neb pbc="T T T"
Cu       0.00000000       0.00000000       0.00000000      -1.30944642       0.00000000       0.00000000
Cu       2.10000000       0.00000000       0.00000000       1.30944642       0.00000000       0.00000000
2
Lattice="8.0 0.0 0.0 0.0 8.0 0.0 0.0 0.0 8.0" Properties=species:S:1:pos:R:3:forces:R:3 reaction_coordinate=0.75 path_name=smoke_cu neb_image=3 energy=3.230519776998541 mlff_rel_energy_eV=-1.8714527692844314 mlff_fmax_eV_A=1.1373613607795185 calculator_label=EMT neb_protocol=mlff_pre_neb pbc="T T T"
Cu       0.00000000       0.00000000       0.00000000       1.13736136       0.00000000       0.00000000
Cu       2.25000000       0.00000000       0.00000000      -1.13736136       0.00000000       0.00000000
2
Lattice="8.0 0.0 0.0 0.0 8.0 0.0 0.0 0.0 8.0" Properties=species:S:1:pos:R:3:forces:R:3 reaction_coordinate=1.0 path_name=smoke_cu neb_image=4 energy=3.50440414474971 mlff_rel_energy_eV=-1.5975684015332625 mlff_fmax_eV_A=2.3571527937773737 calculator_label=EMT neb_protocol=mlff_pre_neb pbc="T T T"
Cu       0.00000000       0.00000000       0.00000000       2.35715279       0.00000000       0.00000000
Cu       2.40000000       0.00000000       0.00000000      -2.35715279       0.00000000       0.00000000
