61
Lattice="8.42843558953249 0.0 0.0 -4.21421779476624 7.29923593142487 0.0 0.0 0.0 31.03344084160948" Properties=species:S:1:pos:R:3:forces:R:3 repair_mode=unwrap repair_image_index=0 migrant_element=Cr energy=-224.81684307529954 mlff_rel_energy_eV=0.0 mlff_fmax_eV_A=1.1528039592313344 calculator_label=/home/ycao73/.cache/mace/20231203mace128L1_epoch199model neb_image=0 neb_protocol=mlff_pre_neb pbc="T T T"
Te       2.10710960       1.21462736       3.47415502      -0.00000259       0.00984859       0.99766868
Te       4.21587447       4.86711527       3.47415502      -0.00852368      -0.00492108       0.99766290
Te       6.32132606       1.21654029       3.46466275       0.00000244       0.00000641       1.02982679
Te      -0.00165665       4.86711606       3.47415503       0.00852359      -0.00492400       0.99764354
Te      -0.02695353       0.01556163       6.87246688       0.06835934      -0.03946191      -1.10096848
Te       2.10710848       3.64961994       6.92340891       0.00000183      -0.00000425      -0.98483908
Te       4.24117136       0.01556114       6.87246669      -0.06835937      -0.03945998      -1.10095375
Te      -2.10710848       3.61849668       6.87246669      -0.00000161       0.07893044      -1.10094686
Te       0.00000000      -0.00000000      -0.00000000       0.00000006       0.00000691      -0.00000967
Te       2.10710891       3.64961970       0.00000000       0.00000000      -0.00000141      -0.00000921
Te       4.21421783      -0.00000000      -0.00000000      -0.00000008       0.00000690      -0.00000968
Te      -2.10710891       3.64961970      -0.00000000       0.00000012      -0.00000141      -0.00000922
Te       0.04989991       2.46188979      13.94767274      -0.21228664      -0.12256107       1.04839665
Te       2.10710870       6.02507988      13.94767274       0.00000052       0.24512406       1.04840182
Te       4.16431791       2.46188954      13.94767313       0.21228768      -0.12256110       1.04839990
Te      -2.10710870       6.08269937      13.89721196      -0.00000024      -0.00000561       1.15280396
Te       2.10710913       1.27415951      17.08576449      -0.00000054      -0.24512514      -1.04839665
Te       4.16431791       4.83734960      17.08576449       0.21228744       0.12255809      -1.04840122
Te       6.32132652       1.21654002      17.13622527       0.00000026       0.00000280      -1.15279700
Te       0.04989991       4.83734985      17.08576410      -0.21228842       0.12255812      -1.04840448
Te       2.10710868       1.19979071      10.38957074       0.00000092      -0.08268392      -0.00592315
Te       4.22872293       4.87453439      10.38957074       0.07161180       0.04133765      -0.00592371
Te       6.32132698       1.21653976      10.39367857      -0.00000129       0.00000667       0.18887547
Te      -0.01450510       4.87453412      10.38957116      -0.07161206       0.04133884      -0.00592458
Te       0.02695353      -0.01556163      24.16097035      -0.06835923       0.03947469       1.10096808
Te       2.10710934       3.64961945      24.11002832      -0.00000182       0.00000184       0.98483950
Te       4.18726430      -0.01556114      24.16097054       0.06835924       0.03947274       1.10095336
Te      -2.10710934       3.68074272      24.16097054       0.00000181      -0.07893294       1.10094725
Te      -0.00165665       2.43212412      27.55928221       0.00852374       0.00491729      -0.99765959
Te       2.10710823       6.08461203      27.55928221       0.00000254      -0.00984781      -0.99766519
Te       4.21587447       2.43212333      27.55928220      -0.00852361       0.00492019      -0.99764023
Te      -2.10710823       6.08269910      27.56877447      -0.00000244      -0.00000562      -1.02982321
Te      -0.01450510       2.42470500      20.64386649      -0.07161179      -0.04134251       0.00592285
Te       2.10710915       6.09944868      20.64386649      -0.00000097       0.08268309       0.00592392
Te       4.22872293       2.42470527      20.64386606       0.07161203      -0.04134371       0.00592375
Te      -2.10710915       6.08269963      20.63975866       0.00000129      -0.00000696      -0.18887529
Sb      -0.03010179       2.41569882       8.46835666       0.13152835       0.07595166       0.43998857
Sb       2.10711038       6.11745891       8.46835666      -0.00001072      -0.15188856       0.43999275
Sb       4.24431962       2.41570051       8.46835705      -0.13152832       0.07593921       0.43997994
Sb      -2.10711038       6.08270034       8.40236640       0.00001057      -0.00001185       0.50026214
Sb       0.00023601       2.43321348       1.88274910       0.01793444       0.01037920      -0.25051603
Sb       2.10711114       6.08242826       1.88274910      -0.00001756      -0.02072883      -0.25051543
Sb       4.21398182       2.43321606       1.88274939      -0.01793441       0.01035885      -0.25052981
Sb      -2.10711114       6.08270078       1.88196358       0.00001772      -0.00001990      -0.23995896
Sb      -0.05024943       0.02901154      18.75537477       0.09830046      -0.05674596       0.38974210
Sb       2.10710819       3.64962011      18.71413272       0.00000514      -0.00000677       0.68267688
Sb       4.26446726       0.02901070      18.75537502      -0.09830040      -0.05674010       0.38974561
Sb       6.32132747       3.59159704      18.75537502      -0.00000514       0.11350100       0.38974644
Sb       0.05024943      -0.02901154      12.27806246      -0.09830143       0.05675999      -0.38974469
Sb       2.10710964       3.64961928      12.31930450      -0.00000516       0.00000122      -0.68267516
Sb       4.16396839      -0.02901070      12.27806221       0.09830138       0.05675411      -0.38974817
Sb      -2.10710964       3.70764235      12.27806221       0.00000513      -0.11350585      -0.38974483
Sb       2.10710669       1.21681113      29.15068812       0.00001755       0.02072726       0.25052297
Sb       4.21398182       4.86602591      29.15068812      -0.01793448      -0.01038059       0.25052078
Sb       6.32132897       1.21653861      29.15147365      -0.00001774       0.00001837       0.23996645
Sb       0.00023601       4.86602333      29.15068783       0.01793438      -0.01036027       0.25053459
Sb       2.10710745       1.18178048      22.56508056       0.00001072       0.15188765      -0.43998934
Sb       4.24431962       4.88354057      22.56508056      -0.13152836      -0.07595876      -0.43999196
Sb       6.32132821       1.21653905      22.63107083      -0.00001057       0.00001118      -0.50025924
Sb      -0.03010179       4.88353888      22.56508018       0.13152817      -0.07594638      -0.43998325
Cr       2.10710891       3.64961970      15.51671861       0.00000000      -0.00000076      -0.00000049
61
Lattice="8.42843558953249 0.0 0.0 -4.21421779476624 7.29923593142487 0.0 0.0 0.0 31.03344084160948" Properties=species:S:1:pos:R:3:forces:R:3 repair_mode=unwrap repair_image_index=1 migrant_element=Cr energy=-227.0877479492779 mlff_rel_energy_eV=-2.270904873978367 mlff_fmax_eV_A=0.18396525446247333 calculator_label=/home/ycao73/.cache/mace/20231203mace128L1_epoch199model neb_image=1 neb_protocol=mlff_pre_neb pbc="T T T"
Te       2.10710888       1.20466212       3.76875285       0.00000011       0.00596189      -0.00520211
Te       4.22450558       4.87209911       3.76875284      -0.00516316      -0.00298107      -0.00520208
Te       6.32132671       1.21654132       3.81570577      -0.00000010      -0.00000000      -0.00444407
Te      -0.01028779       4.87209909       3.76875287       0.00516315      -0.00298094      -0.00520170
Te       0.03800386      -0.02194028       6.49741134       0.00705971      -0.00407588       0.00731820
Te       2.10710888       3.64961925       6.44738393      -0.00000004       0.00000015       0.03200656
Te       4.17621391      -0.02194023       6.49741135      -0.00705965      -0.00407596       0.00731792
Te      -2.10710895       3.69350188       6.49741109       0.00000009       0.00815211       0.00731781
Te      -0.01168419       0.00674753       0.05003503       0.00331242      -0.00191267      -0.00002995
Te       2.10710890       3.64961949       0.09064027      -0.00000001      -0.00000003      -0.00775864
Te       4.22590199       0.00674752       0.05003500      -0.00331241      -0.00191267      -0.00002993
Te      -2.10710888       3.63612776       0.05003505      -0.00000000       0.00382484      -0.00002990
Te       0.12381749       2.50456724      13.65344075      -0.02067375      -0.01193604      -0.03171471
Te       2.10710886       5.93972738      13.65344056       0.00000003       0.02387214      -0.03171461
Te       4.09040036       2.50456716      13.65344070       0.02067377      -0.01193602      -0.03171469
Te      -2.10710888       6.08269938      13.90221068       0.00000001       0.00000012      -0.00093328
Te       2.10710892       1.04281878      17.14438984       0.00000002       0.04672526       0.01910905
Te       4.36466752       4.95301916      17.14438814      -0.04046642      -0.02336326       0.01911000
Te       6.32132674       1.21653917      17.01132242      -0.00000004      -0.00000005       0.06384540
Te      -0.15044946       4.95301902      17.14438829       0.04046622      -0.02336312       0.01910994
Te       2.10710886       1.42437400      10.28834344      -0.00000001      -0.02038529      -0.00262250
Te       4.03422900       4.76224272      10.28834358       0.01765426       0.01019292      -0.00262241
Te       6.32132666       1.21654142      10.14715182       0.00000006      -0.00000006       0.03219150
Te       0.17998881       4.76224267      10.28834352      -0.01765420       0.01019288      -0.00262228
Te       0.00481841      -0.00278048      24.68663028      -0.00329786       0.00190384      -0.01457760
Te       2.10710892       3.64961952      24.55810737       0.00000008      -0.00000023      -0.00101963
Te       4.20939945      -0.00278047      24.68663029       0.00329781       0.00190389      -0.01457722
Te      -2.10710887       3.65518336      24.68663008      -0.00000007      -0.00380796      -0.01457681
Te       0.02037111       2.44484088      27.36050820      -0.00675669      -0.00390088       0.00405217
Te       2.10710895       6.05917498      27.36050826      -0.00000011       0.00780196       0.00405235
Te       4.19384672       2.44484092      27.36050824       0.00675667      -0.00390100       0.00405175
Te      -2.10710890       6.08269751      27.40216773       0.00000011       0.00000001      -0.00809138
Te       0.02859618       2.44958914      20.92377391      -0.01908286      -0.01101760       0.00885785
Te       2.10710890       6.04967792      20.92377405       0.00000003       0.02203527       0.00885817
Te       4.18562168       2.44958911      20.92377393       0.01908289      -0.01101758       0.00885792
Te      -2.10710886       6.08269718      20.80590052      -0.00000005       0.00000006       0.02052600
Sb       0.02201703       2.44579169       8.20984583      -0.01136763      -0.00656319       0.01435669
Sb       2.10710884       6.05727497       8.20984594       0.00000023       0.01312656       0.01435669
Sb       4.19220068       2.44579168       8.20984585       0.01136766      -0.00656295       0.01435691
Sb      -2.10710886       6.08269770       8.17525401      -0.00000023       0.00000045       0.04019033
Sb      -0.00948677       2.42760342       2.06466620      -0.00178945      -0.00103368      -0.01429202
Sb       2.10710883       6.09365276       2.06466607       0.00000035       0.00206661      -0.01429207
Sb       4.22370456       2.42760335       2.06466615       0.00178946      -0.00103328      -0.01429167
Sb      -2.10710883       6.08269841       2.02017853      -0.00000035       0.00000037      -0.00691776
Sb      -0.10486582       0.06054416      18.90944249       0.01142311      -0.00659524      -0.00424635
Sb       2.10710887       3.64961757      19.03035166       0.00000003       0.00000080      -0.05712709
Sb       4.31908365       0.06054420      18.90944247      -0.01142308      -0.00659531      -0.00424640
Sb       6.32132668       3.52852970      18.90944303       0.00000007       0.01319023      -0.00424651
Sb       0.05729557      -0.03307709      12.09136108       0.00305058      -0.00176120       0.02170268
Sb       2.10710906       3.64962132      15.74729763       0.00000004      -0.00000037      -0.18396525
Sb       4.15692220      -0.03307714      12.09136096      -0.00305060      -0.00176114       0.02170276
Sb      -2.10710887       3.71577922      12.09136126      -0.00000007       0.00352261       0.02170259
Sb       2.10710896       1.22653249      29.11518547      -0.00000035      -0.00496117      -0.00303486
Sb       4.20556460       4.86116253      29.11518564       0.00429620       0.00248092      -0.00303499
Sb       6.32132665       1.21654060      29.05054000       0.00000035      -0.00000032       0.01496380
Sb       0.00865323       4.86116258      29.11518562      -0.00429621       0.00248053      -0.00303530
Sb       2.10710897       1.16256136      22.90484690      -0.00000024       0.01234714      -0.00372289
Sb       4.26096521       4.89314806      22.90484659      -0.01069338      -0.00617356      -0.00372290
Sb       6.32132668       1.21654049      23.02206702       0.00000024      -0.00000024      -0.06958551
Sb      -0.04674736       4.89314812      22.90484666       0.01069336      -0.00617383      -0.00372320
Cr       2.10710894       3.64962011      11.98329499      -0.00000010       0.00000020       0.14825526
61
Lattice="8.42843558953249 0.0 0.0 -4.21421779476624 7.29923593142487 0.0 0.0 0.0 31.03344084160948" Properties=species:S:1:pos:R:3:forces:R:3 repair_mode=unwrap repair_image_index=2 migrant_element=Cr energy=-228.10218768697356 mlff_rel_energy_eV=-3.28534461167402 mlff_fmax_eV_A=0.09454111776291146 calculator_label=/home/ycao73/.cache/mace/20231203mace128L1_epoch199model neb_image=2 neb_protocol=mlff_pre_neb pbc="T T T"
Te       2.10710891       1.21702420       3.67558662       0.00000011       0.00147052      -0.00563410
Te       4.21379980       4.86591798       3.67558671      -0.00127357      -0.00073538      -0.00563395
Te       6.32132674       1.21654128       3.68706082      -0.00000011       0.00000006       0.00077585
Te       0.00041803       4.86591796       3.67558667       0.00127358      -0.00073525      -0.00563339
Te       0.01988798      -0.01148087       6.46176449       0.00071649      -0.00041379      -0.01142278
Te       2.10710893       3.64961909       6.52203832      -0.00000002       0.00000008      -0.02062124
Te       4.19432986      -0.01148086       6.46176453      -0.00071647      -0.00041383      -0.01142345
Te      -2.10710888       3.67258324       6.46176461       0.00000005       0.00082745      -0.01142363
Te      -0.00174579       0.00100942      -0.07256751       0.00183860      -0.00106161       0.00067684
Te       2.10710892       3.64961938      -0.05888671       0.00000000       0.00000004      -0.00834943
Te       4.21596363       0.00100942      -0.07256752      -0.00183859      -0.00106159       0.00067685
Te      -2.10710887       3.64760358      -0.07256756      -0.00000001       0.00212305       0.00067684
Te       0.01802785       2.44348895      14.11296199       0.00284803       0.00164425      -0.00817533
Te       2.10710893       6.06188147      14.11296214      -0.00000003      -0.00328850      -0.00817531
Te       4.19618999       2.44348897      14.11296203      -0.00284800       0.00164420      -0.00817548
Te      -2.10710888       6.08269851      14.10748033       0.00000003       0.00000008      -0.01251001
Te       2.10710891       1.21675000      16.93065543       0.00000002      -0.00348131      -0.00547487
Te       4.21403608       4.86605319      16.93065546       0.00301495       0.00174067      -0.00547473
Te       6.32132671       1.21654012      16.92606957      -0.00000002       0.00000001      -0.00434458
Te       0.00018173       4.86605319      16.93065543      -0.00301494       0.00174070      -0.00547454
Te       2.10710893       1.16134143      10.31722514       0.00000002       0.01329914       0.00029998
Te       4.26202155       4.89375827      10.31722484      -0.01151741      -0.00664959       0.00029996
Te       6.32132672       1.21654071      10.37320229      -0.00000002      -0.00000001      -0.00082413
Te      -0.04780367       4.89375826      10.31722485       0.01151720      -0.00664945       0.00030003
Te       0.00132275      -0.00076170      24.42990080      -0.00090500       0.00052247       0.00381416
Te       2.10710890       3.64961990      24.42620883       0.00000007      -0.00000005       0.00340834
Te       4.21289507      -0.00076171      24.42990078       0.00090501       0.00052255       0.00381450
Te      -2.10710887       3.65114729      24.42990076      -0.00000007      -0.00104508       0.00381467
Te       0.00398843       2.43538222      27.21236229      -0.00255694      -0.00147613      -0.00119776
Te       2.10710894       6.07809208      27.21236224      -0.00000009       0.00295251      -0.00119759
Te       4.21022941       2.43538224      27.21236234       0.00255693      -0.00147622      -0.00119829
Te      -2.10710889       6.08269745      27.22564889       0.00000009       0.00000000      -0.00966713
Te      -0.00047985       2.43280300      20.68130312       0.00009669       0.00005576      -0.00195563
Te       2.10710891       6.08325207      20.68130310       0.00000002      -0.00011154      -0.00195564
Te       4.21469767       2.43280300      20.68130311      -0.00009668       0.00005579      -0.00195563
Te      -2.10710888       6.08269795      20.67946793      -0.00000003       0.00000010      -0.00481515
Sb      -0.09224978       2.37981967       8.24669191       0.00916306       0.00528977       0.00514485
Sb       2.10710887       6.18921909       8.24669123       0.00000035      -0.01058022       0.00514484
Sb       4.30646764       2.37981961       8.24669187      -0.00916320       0.00529026       0.00514524
Sb      -2.10710882       6.08269781       8.14434696      -0.00000033       0.00000034       0.03086857
Sb      -0.00101659       2.43249362       1.94733840      -0.00205625      -0.00118774      -0.01687101
Sb       2.10710887       6.08387209       1.94733847       0.00000035       0.00237475      -0.01687112
Sb       4.21523444       2.43249356       1.94733837       0.00205625      -0.00118733      -0.01687062
Sb      -2.10710884       6.08269839       1.92437380      -0.00000034       0.00000031       0.00028368
Sb      -0.00214803       0.00124129      18.66467329      -0.00243663       0.00140666       0.00918952
Sb       2.10710891       3.64961900      18.66660608      -0.00000012       0.00000020       0.01339318
Sb       4.21636585       0.00124130      18.66467330       0.00243663       0.00140652       0.00918938
Sb       6.32132669       3.64713863      18.66467328       0.00000013      -0.00281338       0.00918936
Sb      -0.02785458       0.01608334      12.42042490      -0.00636396       0.00367419      -0.00455257
Sb       2.10710892       3.64961950      12.29089665       0.00000010       0.00000004       0.04783634
Sb       4.24207244       0.01608335      12.42042493       0.00636395       0.00367428      -0.00455250
Sb      -2.10710887       3.61745609      12.42042478      -0.00000008      -0.00734847      -0.00455244
Sb       2.10710896       1.21846575      28.95616378      -0.00000034      -0.00081067       0.00637263
Sb       4.21255043       4.86519568      28.95616381       0.00070184       0.00040578       0.00637249
Sb       6.32132667       1.21654046      28.93285129       0.00000034      -0.00000025       0.02188621
Sb       0.00166742       4.86519572      28.95616384      -0.00070185       0.00040539       0.00637214
Sb       2.10710894       1.21520398      22.69295987      -0.00000021      -0.00041632      -0.01585973
Sb       4.21537576       4.86682753      22.69295995       0.00036030       0.00020832      -0.01585989
Sb       6.32132666       1.21654109      22.69666278       0.00000022      -0.00000030      -0.01492380
Sb      -0.00115793       4.86682757      22.69295996      -0.00036030       0.00020807      -0.01586011
Cr       2.10710890       3.64961953       9.22867388       0.00000021      -0.00000028       0.09454112
61
Lattice="8.42843558953249 0.0 0.0 -4.21421779476624 7.29923593142487 0.0 0.0 0.0 31.03344084160948" Properties=species:S:1:pos:R:3:forces:R:3 repair_mode=unwrap repair_image_index=3 migrant_element=Cr energy=-226.85128664217012 mlff_rel_energy_eV=-2.0344435668705785 mlff_fmax_eV_A=0.6726925683003374 calculator_label=/home/ycao73/.cache/mace/20231203mace128L1_epoch199model neb_image=3 neb_protocol=mlff_pre_neb pbc="T T T"
Te       2.10710881       1.10729222       4.11324445       0.00000030       0.00349279      -0.05299127
Te       4.30883775       4.92078565       4.11324562      -0.00302332      -0.00174680      -0.05299042
Te       6.32132692       1.21654048       3.83552279      -0.00000025      -0.00000080       0.15537444
Te      -0.09462086       4.92078607       4.11324625       0.00302293      -0.00174622      -0.05299031
Te      -0.06811196       0.03932571       6.93608202       0.00984469      -0.00568418       0.04062022
Te       2.10710902       3.64961738       7.33644168      -0.00000017       0.00000075      -0.07474111
Te       4.28232978       0.03932594       6.93608193      -0.00984464      -0.00568435       0.04062005
Te      -2.10710907       3.57096867       6.93608299       0.00000016       0.01136768       0.04062032
Te      -0.04784849       0.02762700      -0.02762671       0.01968964      -0.01136846       0.04820948
Te       2.10710910       3.64961895       0.14138799       0.00000001      -0.00000010      -0.04206372
Te       4.26206665       0.02762695      -0.02762666      -0.01968954      -0.01136831       0.04820939
Te      -2.10710866       3.59436957      -0.02762582      -0.00000009       0.02273597       0.04820978
Te       0.04262230       2.45768854      14.41416627      -0.00734874      -0.00424316      -0.05110770
Te       2.10710896       6.03348240      14.41416675      -0.00000008       0.00848566      -0.05110760
Te       4.17159558       2.45768858      14.41416624       0.00734872      -0.00424325      -0.05110772
Te      -2.10710884       6.08269744      14.71772223       0.00000005       0.00000037      -0.16644543
Te       2.10710890       1.27703164      17.08145504       0.00000007      -0.02075217       0.08796771
Te       4.16183060       4.83591235      17.08145540       0.01797191       0.01037641       0.08796777
Te       6.32132672       1.21654022      16.97035822      -0.00000006       0.00000006       0.09158356
Te       0.05238719       4.83591234      17.08145544      -0.01797187       0.01037648       0.08796776
Te       2.10710893       1.16812339      10.69208421      -0.00000008       0.01124842      -0.00344771
Te       4.25614827       4.89036698      10.69208326      -0.00974191      -0.00562418      -0.00344764
Te       6.32132679       1.21653949      11.03894625       0.00000004      -0.00000005      -0.14360024
Te      -0.04193045       4.89036700      10.69208320       0.00974192      -0.00562428      -0.00344758
Te       0.03243377      -0.01872334      24.53147243      -0.00394475       0.00227700      -0.03345550
Te       2.10710881       3.64962004      24.42058768       0.00000020      -0.00000010      -0.03021855
Te       4.18178408      -0.01872346      24.53147255       0.00394474       0.00227718      -0.03345531
Te      -2.10710876       3.68707134      24.53147251      -0.00000018      -0.00455519      -0.03345528
Te       0.08371056       2.48140950      27.18358273      -0.04147841      -0.02394715       0.11633702
Te       2.10710916       5.98603724      27.18358259      -0.00000022       0.04789597       0.11633721
Te       4.13050735       2.48140973      27.18358251       0.04147833      -0.02394735       0.11633707
Te      -2.10710885       6.08269715      27.37184861       0.00000021       0.00000055       0.02803069
Te      -0.03116667       2.41508607      20.78773007       0.00497196       0.00287044       0.03188829
Te       2.10710892       6.11868614      20.78772988       0.00000007      -0.00574070       0.03188820
Te       4.24538449       2.41508607      20.78773009      -0.00497194       0.00287050       0.03188820
Te      -2.10710889       6.08269791      20.69196110      -0.00000008       0.00000057       0.03082193
Sb      -0.16914630       2.33542294       8.85611916       0.06705787       0.03871502      -0.05483314
Sb       2.10710873       6.27800930       8.85611670       0.00000053      -0.07743057      -0.05483271
Sb       4.38336416       2.33542272       8.85611953      -0.06705785       0.03871561      -0.05483308
Sb      -2.10710871       6.08269745       8.49897033      -0.00000054       0.00000075       0.06061288
Sb       0.14471740       2.51663469       2.34477211      -0.06671857      -0.03852075       0.00121079
Sb       2.10710824       5.91558730       2.34477860       0.00000074       0.07703949       0.00121158
Sb       4.06950065       2.51663379       2.34477192       0.06671862      -0.03851993       0.00121075
Sb      -2.10710868       6.08269983       1.46713767      -0.00000070       0.00000091       0.15631103
Sb      -0.02124771       0.01226867      18.74110358      -0.00409582       0.00236442       0.05039732
Sb       2.10710891       3.64961898      18.90213429      -0.00000018       0.00000029       0.01343773
Sb       4.23546552       0.01226872      18.74110355       0.00409583       0.00236415       0.05039731
Sb       6.32132665       3.62508411      18.74110364       0.00000026      -0.00472894       0.05039737
Sb       0.09399103      -0.05426401      12.83269556      -0.03453004       0.01993516      -0.07398803
Sb       2.10710892       3.64961977      12.55843409       0.00000018      -0.00000028       0.00916162
Sb       4.12022691      -0.05426402      12.83269560       0.03453001       0.01993539      -0.07398808
Sb      -2.10710881       3.75815019      12.83269405      -0.00000023      -0.03987182      -0.07398761
Sb       2.10710917       1.22083993      29.08647752      -0.00000063      -0.00287783       0.00494983
Sb       4.21049410       4.86400828      29.08647658       0.00249204       0.00144000       0.00494966
Sb       6.32132649       1.21654078      28.61791681       0.00000069      -0.00000024       0.18020405
Sb       0.00372406       4.86400839      29.08647611      -0.00249211       0.00143930       0.00494979
Sb       2.10710907       1.18566278      22.74163074      -0.00000050      -0.00065720       0.02060281
Sb       4.24095937       4.88159828      22.74163095       0.00056864       0.00032901       0.02060256
Sb       6.32132654       1.21654141      22.87307541       0.00000053      -0.00000074       0.00713956
Sb      -0.02674152       4.88159846      22.74163068      -0.00056867       0.00032846       0.02060259
Cr       2.10710830       3.64962637       4.80886619       0.00000030       0.00000040      -0.67269257
61
Lattice="8.42843558953249 0.0 0.0 -4.21421779476624 7.29923593142487 0.0 0.0 0.0 31.03344084160948" Properties=species:S:1:pos:R:3:forces:R:3 repair_mode=unwrap repair_image_index=4 migrant_element=Cr energy=-225.6303774259561 mlff_rel_energy_eV=-0.8135343506565675 mlff_fmax_eV_A=1.0726376361810814 calculator_label=/home/ycao73/.cache/mace/20231203mace128L1_epoch199model neb_image=4 neb_protocol=mlff_pre_neb pbc="T T T"
Te       2.10710960       1.13425048       3.64861162      -0.00000286       0.59173578       0.56889900
Te       4.28548284       4.90730371       3.64861162      -0.51245360      -0.29586501       0.56889237
Te       6.32132606       1.21654029       4.21566554       0.00000204       0.00000075      -0.80326917
Te      -0.07126502       4.90730450       3.64861163       0.51245319      -0.29586805       0.56887672
Te      -0.02766651       0.01597327       6.76777276       0.18353097      -0.10595581      -0.64164833
Te       2.10710848       3.64961994       6.81409457       0.00000206      -0.00000466      -0.79372173
Te       4.24188433       0.01597277       6.76777258      -0.18353110      -0.10595349      -0.64163514
Te      -2.10710848       3.61767340       6.76777258      -0.00000200       0.21191912      -0.64162918
Te       0.01726803      -0.00996970       0.01915004      -0.00005641       0.00003783       0.14670114
Te       2.10710891       3.64961970      -0.32428345       0.00000133      -0.00000032       0.18868984
Te       4.19694979      -0.00996970       0.01915004       0.00005758       0.00003825       0.14670177
Te      -2.10710891       3.66955910       0.01915004       0.00000028      -0.00006763       0.14670219
Te       0.00903879       2.43829860      13.86706574       0.01883645       0.01087796       0.84747725
Te       2.10710870       6.07226226      13.86706574       0.00000044      -0.02175568       0.84748377
Te       4.20517903       2.43829835      13.86706613      -0.01883667       0.01087854       0.84748119
Te      -2.10710870       6.08269937      13.85564805      -0.00000027      -0.00000521       0.96833343
Te       2.10710913       1.20064149      17.18457284      -0.00000045       0.05088544      -0.94001160
Te       4.22798636       4.87410861      17.18457284      -0.04406569      -0.02544871      -0.94001761
Te       6.32132652       1.21654002      17.16476326       0.00000035       0.00000273      -0.85420514
Te      -0.01376853       4.87410886      17.18457246       0.04406579      -0.02544919      -0.94002173
Te       2.10710868       1.21049506      10.34893359       0.00000112      -0.07354655      -0.13737804
Te       4.21945269       4.86918222      10.34893359       0.06369843       0.03676917      -0.13737818
Te       6.32132698       1.21653976      10.34253598      -0.00000129       0.00000665      -0.03157643
Te      -0.00523487       4.86918195      10.34893401      -0.06369766       0.03677002      -0.13737946
Te      -0.02352793       0.01358386      24.21928783       0.02457120      -0.01417945       0.82818189
Te       2.10710934       3.64961945      24.21350115      -0.00000192       0.00000192       0.91256616
Te       4.23774576       0.01358436      24.21928802      -0.02457115      -0.01418163       0.82816814
Te      -2.10710934       3.62245172      24.21928802       0.00000200       0.02837456       0.82816317
Te      -0.04848459       2.40508799      27.54273495       0.12241358       0.07067160      -1.01318702
Te       2.10710823       6.13868430      27.54273495       0.00000268      -0.14135665      -1.01319299
Te       4.26270242       2.40508720      27.54273494      -0.12241359       0.07067474      -1.01316754
Te      -2.10710823       6.08269910      27.22259082      -0.00000259      -0.00000363      -0.43621687
Te       0.01296630       2.44056563      20.69074500      -0.00982132      -0.00566778       0.02406919
Te       2.10710915       6.06772743      20.69074500      -0.00000113       0.01133380       0.02406961
Te       4.20125152       2.44056590      20.69074458       0.00982146      -0.00566909       0.02407112
Te      -2.10710915       6.08269963      20.69580375       0.00000124      -0.00000706       0.00875470
Sb      -0.00583960       2.42970661       8.42373455       0.04713788       0.02722779       0.30587832
Sb       2.10711038       6.08944332       8.42373455      -0.00001000      -0.05444186       0.30588227
Sb       4.22005742       2.42970830       8.42373494      -0.04713777       0.02721615       0.30586998
Sb      -2.10711038       6.08270034       8.34217953       0.00000974      -0.00001133       0.28998396
Sb      -0.11823573       2.36481380       2.02204818      -0.53982668      -0.31165006      -0.01498611
Sb       2.10711114       6.21922763       2.02204818      -0.00001309       0.62332686      -0.01498446
Sb       4.33245356       2.36481637       2.02204847       0.53983561      -0.31167034      -0.01499802
Sb      -2.10711114       6.08270078       1.95492345       0.00001526      -0.00001748      -0.61729336
Sb       0.00027821      -0.00016063      18.77953867      -0.03999701       0.02310191       0.31707689
Sb       2.10710819       3.64962011      18.78218146       0.00000562      -0.00000767       0.25047445
Sb       4.21393961      -0.00016146      18.77953892       0.03999705       0.02310837       0.31708061
Sb       6.32132747       3.64994137      18.77953892      -0.00000571      -0.04619225       0.31708085
Sb      -0.00014456       0.00008346      12.27074799      -0.04324659       0.02497479      -0.29792993
Sb       2.10710964       3.64961928      12.20739149      -0.00000557       0.00000155      -0.16414080
Sb       4.21436239       0.00008430      12.27074774       0.04324653       0.02496850      -0.29793348
Sb      -2.10710964       3.64945235      12.27074774       0.00000549      -0.04993516      -0.29792933
Sb       2.10710669       1.15010466      29.03381549       0.00001654      -0.30804996       0.20919595
Sb       4.27175132       4.89937915      29.03381549       0.26679273       0.15400883       0.20919503
Sb       6.32132897       1.21653861      29.18787885      -0.00001733       0.00001812       0.48141572
Sb      -0.05753350       4.89937657      29.03381521      -0.26679365       0.15402850       0.20920782
Sb       2.10710745       1.21441909      22.61367564       0.00001057      -0.02498743      -0.26331402
Sb       4.21605377       4.86722127      22.61367564       0.02164971       0.01247949      -0.26331569
Sb       6.32132821       1.21653905      22.58644052      -0.00001084       0.00001164      -0.28949368
Sb      -0.00183594       4.86721958      22.61367526      -0.02164972       0.01249164      -0.26330710
Cr       2.10710940       3.64961942       2.14592841      -0.00001125       0.00000612       1.07263764
