61
Lattice="8.42843558953249 0.0 0.0 -4.21421779476624 7.29923593142487 0.0 0.0 0.0 31.03344084160948" Properties=species:S:1:pos:R:3:forces:R:3 repair_mode=unwrap repair_image_index=0 migrant_element=Cr energy=-217.89994260805094 mlff_rel_energy_eV=0.0 mlff_fmax_eV_A=1.593523680141983 calculator_label=/home/ycao73/.cache/mace/20231203mace128L1_epoch199model neb_image=0 neb_protocol=mlff_pre_neb pbc="T T T"
Te       2.10710960       1.21479346       3.46921360      -0.00000247       0.00816033       1.04604986
Te       4.21573063       4.86703222       3.46921360      -0.00706152      -0.00407678       1.04604411
Te       6.32132606       1.21654029       3.44160084       0.00000225       0.00000675       1.07901420
Te      -0.00151280       4.86703301       3.46921361       0.00706139      -0.00407953       1.04602454
Te      -0.39342862       0.22714622       7.35018461       0.58004115      -0.33488197      -1.05445414
Te       2.10710848       3.64961994       7.54621405       0.00000208      -0.00000481      -0.79434797
Te       4.60764644       0.22714573       7.35018442      -0.58004378      -0.33488080      -1.05444337
Te      -2.10710848       3.19532750       7.35018442      -0.00000227       0.66977542      -1.05443614
Te      -0.00000000      -0.00000000       0.00000000       0.00000012       0.00000685      -0.00000963
Te       2.10710891       3.64961970       0.00000000      -0.00000000      -0.00000144      -0.00000926
Te       4.21421783       0.00000000       0.00000000      -0.00000012       0.00000684      -0.00000964
Te      -2.10710891       3.64961970       0.00000000       0.00000012      -0.00000141      -0.00000921
Te       0.51568977       2.73081381      13.61487339      -0.69194182      -0.39949201       1.37874379
Te       2.10710870       5.48723184      13.61487339       0.00000013       0.79897844       1.37874986
Te       3.69852806       2.73081356      13.61487378       0.69193861      -0.39949014       1.37874557
Te      -2.10710870       6.08269937      14.63050019       0.00000023      -0.00000469       1.51924868
Te       2.10710913       1.81200756      17.41856383      -0.00000014      -0.79898526      -1.37874534
Te       3.69852806       4.56842558      17.41856383       0.69194044       0.39948332      -1.37874740
Te       6.32132652       1.21654002      16.40293704      -0.00000021       0.00000227      -1.51924171
Te       0.51568977       4.56842583      17.41856344      -0.69193726       0.39948146      -1.37874916
Te       2.10710868       0.68751004      10.64593006       0.00000199       0.19151472      -0.02793019
Te       4.67237079       5.13067473      10.64593006      -0.16584985      -0.09576135      -0.02792618
Te       6.32132698       1.21653976      11.11728199      -0.00000174       0.00000731       0.00877226
Te      -0.45815297       5.13067446      10.64593048       0.16585622      -0.09576269      -0.02792649
Te       0.39342862      -0.22714622      23.68325262      -0.58004217       0.33489490       1.05445354
Te       2.10710934       3.64961945      23.48722318      -0.00000208       0.00000216       0.79434831
Te       3.82078921      -0.22714573      23.68325281       0.58004482       0.33489371       1.05444276
Te      -2.10710934       4.10391189      23.68325281       0.00000245      -0.66978053       1.05443637
Te      -0.00151280       2.43220717      27.56422363       0.00706155       0.00407326      -1.04604065
Te       2.10710823       6.08444593      27.56422363       0.00000242      -0.00815935      -1.04604671
Te       4.21573063       2.43220638      27.56422362      -0.00706143       0.00407600      -1.04602107
Te      -2.10710823       6.08269910      27.59183638      -0.00000226      -0.00000575      -1.07901083
Te      -0.45815297       2.16856466      20.38750717       0.16585117       0.09575949       0.02792772
Te       2.10710915       6.61172935      20.38750717      -0.00000203      -0.19151363       0.02792768
Te       4.67237079       2.16856493      20.38750674      -0.16585749       0.09576080       0.02792803
Te      -2.10710915       6.08269963      19.91615524       0.00000173      -0.00000778      -0.00877140
Sb       0.00541842       2.43620643       9.21448874       0.03523976       0.02035741       0.19667700
Sb       2.10711038       6.07644369       9.21448874      -0.00000932      -0.04070265       0.19668148
Sb       4.20879941       2.43620812       9.21448913      -0.03523849       0.02034590       0.19666830
Sb      -2.10711038       6.08270034       7.85232794       0.00000691      -0.00000804       0.25812363
Sb       0.00207395       2.43427462       1.88179134       0.03962657       0.02290352      -0.26835577
Sb       2.10711114       6.08030599       1.88179134      -0.00001779      -0.04577721      -0.26835521
Sb       4.21214388       2.43427719       1.88179162      -0.03962654       0.02288293      -0.26836954
Sb      -2.10711114       6.08270078       1.88889054       0.00001803      -0.00002028      -0.25715412
Sb      -0.06302900       0.03638983      18.08038648      -0.17509874       0.10110518       0.61819038
Sb       2.10710819       3.64962011      19.71824667       0.00000522      -0.00000577       0.58689247
Sb       4.27724683       0.03638899      18.08038673       0.17509849       0.10111180       0.61819339
Sb       6.32132747       3.57684046      18.08038673      -0.00000598      -0.20219433       0.61819464
Sb       0.06302900      -0.03638983      12.95305074       0.17510101      -0.10108766      -0.61819345
Sb       2.10710964       3.64961928      11.31519055      -0.00000526       0.00000131      -0.58689198
Sb       4.15118883      -0.03638899      12.95305050      -0.17510078      -0.10109429      -0.61819647
Sb      -2.10710964       3.72239893      12.95305050       0.00000598       0.20219011      -0.61819438
Sb       2.10710669       1.21893340      29.15164589       0.00001780       0.04577568       0.26836283
Sb       4.21214388       4.86496477      29.15164589      -0.03962666      -0.02290492       0.26836055
Sb       6.32132897       1.21653861      29.14454668      -0.00001804       0.00001876       0.25716159
Sb       0.00207395       4.86496220      29.15164560       0.03962657      -0.02288435       0.26837438
Sb       2.10710745       1.22279570      21.81894848       0.00000929       0.04070090      -0.19667637
Sb       4.20879941       4.86303296      21.81894848      -0.03524052      -0.02036253      -0.19668028
Sb       6.32132821       1.21653905      23.18110928      -0.00000692       0.00000542      -0.25812199
Sb       0.00541842       4.86303127      21.81894810       0.03523913      -0.02035107      -0.19667150
Cr       2.10710891       3.64961970      15.51671861       0.00000002       0.00000006      -0.00000037
61
Lattice="8.42843558953249 0.0 0.0 -4.21421779476624 7.29923593142487 0.0 0.0 0.0 31.03344084160948" Properties=species:S:1:pos:R:3:forces:R:3 repair_mode=unwrap repair_image_index=1 migrant_element=Cr energy=-227.31889533425723 mlff_rel_energy_eV=-9.4189527262063 mlff_fmax_eV_A=0.18022150199738612 calculator_label=/home/ycao73/.cache/mace/20231203mace128L1_epoch199model neb_image=1 neb_protocol=mlff_pre_neb pbc="T T T"
Te       2.11136573       1.22908119       3.76186418      -0.00327945       0.00175413       0.06511779
Te       4.21254454       4.86538513       3.76910035      -0.00075648      -0.00151916       0.06191746
Te       6.33093098       1.22032902       3.73100562       0.00239171       0.00025265       0.06328449
Te       0.01494874       4.86222310       3.75878121       0.00199982      -0.00183546       0.06109276
Te      -0.07768549       0.06902590       6.71454952       0.03858770      -0.04074318      -0.12839584
Te       2.10543883       3.65894051       6.93155903       0.01450176       0.00340793      -0.12762092
Te       4.30939587       0.07457840       6.70830020      -0.05484765      -0.04245656      -0.12588355
Te      -2.10653151       3.55190499       6.72131278      -0.00360152       0.06200721      -0.14422722
Te       0.00827532      -0.00142585      -0.00697859      -0.00171547      -0.00013904       0.00732723
Te       2.11568091       3.64920146       0.00099154      -0.00151801      -0.00018482      -0.00059407
Te       4.22127840       0.00047239       0.00997088      -0.00155487       0.00012564      -0.00711247
Te      -2.10456651       3.64942931       0.00453355       0.00169553       0.00029250      -0.00469935
Te       0.09789731       2.49156112      14.11416260      -0.09985037      -0.04102563       0.10460891
Te       2.10540391       5.98909611      14.12921365      -0.00344726       0.07657276       0.08541606
Te       4.12850444       2.50321234      14.11230188       0.04619153      -0.07246773       0.11999121
Te      -2.09547093       6.07910149      14.39601919      -0.02312776       0.01333814      -0.03312581
Te       2.11954791       1.32560897      16.91039725       0.00375411      -0.09168792      -0.12866725
Te       4.11324092       4.79155780      16.91417464       0.11508097       0.08917154      -0.09811145
Te       6.32228272       1.20831671      16.63671751       0.01801397       0.01697693       0.04007475
Te       0.09411198       4.79665616      16.91777536      -0.08285252       0.05332298      -0.07899977
Te       2.10826316       1.11493796      10.44697646      -0.01085717       0.09244423      -0.04946539
Te       4.31633301       4.94079385      10.42498014      -0.08644099      -0.05563095      -0.01466260
Te       6.32470046       1.22414202      10.71340666       0.00126435      -0.00550196      -0.08821726
Te      -0.09673907       4.93753587      10.44521500       0.08222218      -0.03724602      -0.07651038
Te       0.10078425      -0.07300530      24.31765074      -0.06781859       0.04347624       0.16121490
Te       2.11064303       3.64780787      24.11408149      -0.01541111       0.00074371       0.10672117
Te       4.11408614      -0.06384734      24.31028940       0.08618375       0.02784049       0.13861178
Te      -2.10032842       3.74366186      24.31040718       0.01515032      -0.07493023       0.12325887
Te       0.01392764       2.43651542      27.27941303       0.00171828      -0.00020782      -0.06204236
Te       2.10524085       6.07063124      27.27638661       0.00601379      -0.00029600      -0.06137255
Te       4.21441823       2.43259633      27.26531857      -0.00020932       0.00326626      -0.05227005
Te      -2.09852995       6.07730730      27.30368990      -0.00507536       0.00037258      -0.06087137
Te      -0.10047079       2.35781512      20.59336130       0.07037934       0.05467725       0.03772653
Te       2.12599795       6.18914901      20.57727749      -0.02006561      -0.08918214       0.07888857
Te       4.31508875       2.35865408      20.59977649      -0.06489442       0.04567994       0.04525188
Te      -2.08919406       6.06952293      20.32620339      -0.03971069       0.01203640       0.07795599
Sb      -0.03739149       2.42652564       8.58265783      -0.00470405      -0.01529237      -0.13549428
Sb       2.10945165       6.14294556       8.56781850       0.00338760       0.00727819      -0.13850195
Sb       4.25071077       2.42342413       8.59587980       0.00948943      -0.00521689      -0.15837696
Sb      -2.09595764       6.09070213       8.16402555      -0.00421037       0.01714983       0.06413025
Sb       0.01502559       2.43885856       2.00282231      -0.00223508      -0.00180778       0.03141372
Sb       2.11624540       6.07619462       2.01421723      -0.00067482      -0.00174042       0.02081649
Sb       4.21228821       2.44071081       2.01985689       0.00079152      -0.00094686       0.02185300
Sb      -2.10040316       6.08372611       2.03366615      -0.00200815      -0.00011923       0.02799080
Sb      -0.09089972       0.05025717      18.48998444      -0.00311494       0.00208447       0.11298267
Sb       2.11196375       3.63712104      18.91151868      -0.02394454      -0.00416261      -0.16957700
Sb       4.32790397       0.04886030      18.51410509      -0.00924395      -0.01831940       0.08303173
Sb       6.31207934       3.51943869      18.52192167       0.03231798      -0.00253787       0.08621178
Sb       0.10787619      -0.05442993      12.53153247       0.00841014      -0.02364752      -0.10109358
Sb       2.09974055       3.66911991      12.13015428       0.03877759      -0.00040191       0.16110017
Sb       4.10633357      -0.04581576      12.51873847       0.01212913      -0.00320066      -0.07734990
Sb      -2.10768881       3.77182986      12.51210416       0.00798096       0.02512023      -0.10399651
Sb       2.11802501       1.22218497      29.01965292      -0.00527085       0.00351476      -0.02309457
Sb       4.21061172       4.85707740      29.01668973      -0.00026558       0.00328028      -0.02761859
Sb       6.32735079       1.21364144      29.00609401      -0.00086982       0.00110823      -0.03439257
Sb       0.00880901       4.86102004      29.03620052       0.00792890      -0.00332673      -0.03430101
Sb       2.10477797       1.17749771      22.46110177       0.00184045      -0.02611835       0.12963181
Sb       4.25259722       4.86831425      22.45475612       0.02108046       0.01179444       0.13305004
Sb       6.33245220       1.19404257      22.86842461      -0.01981437       0.01672762      -0.05659440
Sb      -0.03912163       4.88133245      22.43586154       0.01108693      -0.00558722       0.15878162
Cr       2.10492745       3.65522600      15.50708764       0.00302095      -0.01833711      -0.00621345
61
Lattice="8.42843558953249 0.0 0.0 -4.21421779476624 7.29923593142487 0.0 0.0 0.0 31.03344084160948" Properties=species:S:1:pos:R:3:forces:R:3 repair_mode=unwrap repair_image_index=2 migrant_element=Cr energy=-227.8753161904216 mlff_rel_energy_eV=-9.97537358237065 mlff_fmax_eV_A=0.37729448497208745 calculator_label=/home/ycao73/.cache/mace/20231203mace128L1_epoch199model neb_image=2 neb_protocol=mlff_pre_neb pbc="T T T"
Te       2.10919351       1.22485315       3.74638358      -0.00035577       0.00270732      -0.00479276
Te       4.21634433       4.87825276       3.75361615       0.00082748      -0.00149696      -0.00731057
Te       6.33119459       1.22794016       3.74273127      -0.00231708       0.00042768      -0.00107745
Te       0.00662956       4.87244661       3.74202670      -0.00050751       0.00279665      -0.00619911
Te      -0.00920475       0.02176966       6.58475791       0.00592774      -0.00627009      -0.03933956
Te       2.10556651       3.66205378       6.61539150       0.00291289      -0.00384436      -0.04552677
Te       4.23574803       0.02504867       6.56657410      -0.01194457      -0.00795177      -0.02444979
Te      -2.09959948       3.64501757       6.56672936      -0.00173405       0.01193047      -0.02069758
Te       0.00398985       0.01034055      -0.02552658       0.00054159       0.00091937       0.00456677
Te       2.11402715       3.66219208      -0.01002839      -0.00082846       0.00037346      -0.00720955
Te       4.21912826       0.01330686      -0.00903463       0.00016312      -0.00181955      -0.00719712
Te      -2.10459424       3.65589697      -0.01669719      -0.00032323       0.00400817      -0.00377433
Te       0.00600169       2.45864291      14.03160662      -0.01915198      -0.01567091      -0.01642468
Te       2.11250004       6.08782130      14.03543236      -0.00777704       0.01105238      -0.00932587
Te       4.18486244       2.45964370      14.01720689       0.00050106      -0.00075626       0.01187055
Te      -2.11504640       6.08489338      14.08444973      -0.00400507       0.00151135      -0.04194027
Te       2.01861817       1.23888957      16.76038048      -0.00064116      -0.00558485       0.01791684
Te       4.15745747       4.90325936      16.79866102      -0.01321331       0.04102168      -0.00758512
Te       6.23149615       1.27715690      16.77157945      -0.00322538      -0.00385452       0.02493230
Te      -0.01553747       4.88061372      16.72924519      -0.03525935       0.01646832       0.01387324
Te       2.11411781       1.21466870      10.31028408      -0.00585510       0.01573441      -0.01738533
Te       4.23240183       4.88794252      10.31223439      -0.01989762      -0.00020150      -0.02951046
Te       6.31781997       1.22522974      10.36597150       0.00516770      -0.00240239      -0.05491766
Te      -0.00966053       4.88567555      10.31641442      -0.00545194       0.00037475      -0.03251987
Te       0.01736297       0.00973669      24.39751492      -0.00864104       0.00717615       0.03295552
Te       2.09652491       3.68055414      24.33521139      -0.00211592      -0.00409466       0.04322441
Te       4.19110546       0.01448583      24.40347138      -0.00587690       0.00137607       0.02603453
Te      -2.10264667       3.69891279      24.40771590      -0.00939853      -0.00006555       0.01006024
Te       0.01004157       2.45036555      27.25647968      -0.00700795       0.00053431      -0.00372049
Te       2.10612872       6.08737048      27.24912377       0.00254547       0.00345481       0.00252638
Te       4.21505274       2.45054939      27.24232689      -0.00565427      -0.00529188       0.00567265
Te      -2.10050977       6.09858654      27.26443747      -0.00292799      -0.00379004      -0.00145073
Te      -0.03685019       2.43334750      20.64271154      -0.01707741      -0.00666328       0.00256340
Te       2.11509978       6.15194528      20.63783033      -0.02123663      -0.00907918       0.01972525
Te       4.20789316       2.45047040      20.62442651      -0.02101021       0.01479479       0.09135225
Te      -2.15171042       6.13041230      20.55353706      -0.02810576       0.00875987       0.03660671
Sb      -0.00555933       2.44699488       8.34207915       0.00247543      -0.01003918      -0.03958299
Sb       2.10321324       6.10122127       8.33451294       0.01237830       0.00055624      -0.03932616
Sb       4.22571455       2.44746481       8.32864838      -0.00275729      -0.00394543      -0.03339120
Sb      -2.09288674       6.09289923       8.25662364      -0.01322696       0.00525142       0.00839276
Sb       0.00871373       2.44110721       1.99557026      -0.00284884       0.00165779       0.00102913
Sb       2.11287878       6.09214437       2.00846010       0.00045147       0.00142828      -0.00995718
Sb       4.21682430       2.44505408       2.01427847       0.00136594      -0.00067243      -0.00521745
Sb      -2.10374222       6.08888990       2.00341959      -0.00037464       0.00394902      -0.00107481
Sb      -0.04528782       0.05289509      18.60342628      -0.01779342      -0.00640744       0.02319260
Sb       1.87644355       3.79715899      18.72726720       0.00466540      -0.02391809      -0.04353958
Sb       4.18603398      -0.10555550      18.60799073      -0.04538320      -0.00734338       0.02392134
Sb       6.37208452       3.73459651      18.59837869      -0.01312552       0.00670113       0.02665824
Sb       0.01742811       0.00891363      12.33860235      -0.02133035       0.00873718      -0.02766555
Sb       2.11323190       3.66027261      12.25836726      -0.01093935       0.01233189       0.01900471
Sb       4.19782795       0.01234264      12.35014118       0.01972728      -0.00226223      -0.04092569
Sb      -2.11747860       3.66152695      12.32758858       0.00439285       0.00205909      -0.02027176
Sb       2.11226669       1.23321521      28.99674625       0.00486341       0.00056451       0.00363472
Sb       4.21459597       4.87528428      28.98964206       0.00396000       0.00316139       0.00415282
Sb       6.32362922       1.22484866      28.98105607       0.00122551       0.00450734       0.00351405
Sb       0.00568069       4.87797931      29.01066541      -0.00111121      -0.00096090      -0.00982126
Sb       2.10334470       1.23417864      22.63142263      -0.01599934       0.00465665       0.02953489
Sb       4.22356864       4.89446469      22.63658684      -0.01521419       0.00585373       0.03411038
Sb       6.32178092       1.24023439      22.74973640       0.00240663       0.00291166      -0.01025630
Sb      -0.01758809       4.90467646      22.64041088      -0.00386598      -0.00337761       0.01842385
Cr       4.00941246       2.49484864      17.93847169       0.34901224      -0.07198488       0.12393452
61
Lattice="8.42843558953249 0.0 0.0 -4.21421779476624 7.29923593142487 0.0 0.0 0.0 31.03344084160948" Properties=species:S:1:pos:R:3:forces:R:3 repair_mode=unwrap repair_image_index=3 migrant_element=Cr energy=-227.63788284811858 mlff_rel_energy_eV=-9.737940240067644 mlff_fmax_eV_A=0.12592336395758663 calculator_label=/home/ycao73/.cache/mace/20231203mace128L1_epoch199model neb_image=3 neb_protocol=mlff_pre_neb pbc="T T T"
Te       2.08275452       1.21495071       3.75087681       0.01209776       0.00252059       0.03167253
Te       4.21265314       4.86480050       3.78602235      -0.00150505       0.00086878       0.02564605
Te       6.31144736       1.22808364       3.78042508      -0.00168910      -0.00124298       0.02986834
Te      -0.02046872       4.86009084       3.76533664       0.00062595       0.00191814       0.03875067
Te       0.02656880       0.04235015       6.68983647      -0.02705039      -0.02485427      -0.09148569
Te       2.09077154       3.59455060       6.67699343       0.00054675       0.03319335      -0.08495134
Te       4.12596283       0.03930766       6.65886618       0.05282294      -0.02235505      -0.06086062
Te      -2.11658888       3.65569798       6.84053187       0.00416748       0.00026225      -0.12585411
Te      -0.01221002      -0.00352007      -0.00335664      -0.00258896      -0.00092703       0.00715905
Te       2.10072644       3.65262328       0.01682542       0.00038165      -0.00173714      -0.00552282
Te       4.20390436       0.00112394       0.02081082       0.00158375       0.00224338      -0.00541964
Te      -2.12053473       3.64721168       0.00463544      -0.00213524      -0.00077766      -0.00336654
Te      -0.05646968       2.45834378      14.14646837       0.04111056      -0.01609140       0.08245896
Te       2.10247040       6.08444199      14.28236495       0.00933900       0.00495904      -0.05000191
Te       4.25300534       2.47049685      14.15576996      -0.06080359      -0.05538260       0.07052658
Te      -2.11699497       6.04640428      14.16166883       0.01963801      -0.00975178       0.05750523
Te       2.09124992       1.21775617      16.76871051       0.01233965      -0.01049542       0.03916214
Te       4.21980076       4.83452228      16.84520360      -0.01151619       0.07680521      -0.02086123
Te       6.29359299       1.22395680      16.84354430       0.04111733       0.01484351      -0.03544319
Te      -0.02746140       4.85252386      16.83936570       0.02672275       0.01534475       0.01561434
Te       2.10508837       1.22239344      10.62333284      -0.00488976      -0.00083218      -0.11055569
Te       4.14043585       4.90289826      10.42535246       0.06366561      -0.03935022      -0.05491672
Te       6.32330326       1.15517522      10.42781247      -0.03978402       0.06185723      -0.03283029
Te       0.04451827       4.91179495      10.44353908      -0.05567385      -0.03662094      -0.06260925
Te      -0.02210448      -0.00476501      24.35187862      -0.01171169      -0.01165998       0.08652335
Te       2.07405790       3.66845886      24.34306177       0.02484082      -0.00638107       0.09214971
Te       4.25700412      -0.04293145      24.33719696      -0.02569146       0.03302862       0.09549895
Te      -2.13805952       3.64816563      24.23968079       0.01001245      -0.00771964       0.10888553
Te      -0.01729582       2.44086865      27.28657055       0.00009197      -0.00179138      -0.04007849
Te       2.09905757       6.07703031      27.28686985      -0.00045745       0.00147798      -0.04085065
Te       4.20429944       2.42669428      27.26520323       0.00238995       0.00746280      -0.02700740
Te      -2.10515762       6.07873677      27.28278385      -0.00868172      -0.00302237      -0.04074069
Te       0.03461472       2.39915853      20.58342435      -0.03764627       0.00562106       0.02889596
Te       2.08467541       6.07237726      20.46077752       0.01037132       0.02571674       0.04808735
Te       4.17937282       2.41820440      20.59117582       0.02307500       0.00290828       0.02336930
Te      -2.13143036       6.11334374      20.57315291      -0.00052561      -0.03877207       0.05943798
Sb       0.01881998       2.42220854       8.51104481       0.00434867       0.01008209      -0.09562369
Sb       2.06518780       6.09159011       8.23541269       0.02322130       0.00040711       0.04825435
Sb       4.16804703       2.42151941       8.48443312       0.00647837      -0.00320840      -0.07592040
Sb      -2.13039659       6.12791546       8.49257490       0.00729349      -0.00584710      -0.07672804
Sb      -0.02005272       2.43500769       2.01546880      -0.00067340       0.00028259       0.00800290
Sb       2.10144639       6.08376677       2.04676930      -0.00515477       0.00118362       0.01498944
Sb       4.20566983       2.43823627       2.03928988       0.00337794      -0.00090026       0.00842844
Sb      -2.12174955       6.07501885       2.01852159      -0.00079697      -0.00108220       0.01344121
Sb       0.06334089       0.03845028      18.58087592      -0.02988514      -0.01666706       0.05480656
Sb       2.10256278       3.56197546      18.60003623      -0.02657671      -0.00173872       0.04678998
Sb       4.13134924       0.03415531      18.60497798      -0.02611431      -0.00213770       0.03702499
Sb       6.31291564       3.64354952      18.68418012       0.02340050      -0.01113552      -0.02921812
Sb      -0.06890911      -0.04715519      12.44407663      -0.02972288      -0.00219898      -0.05452281
Sb       2.10915923       3.74444830      12.45209371      -0.02808074       0.00527325      -0.07032747
Sb       4.28389020      -0.03574904      12.46225889       0.00571008      -0.00858895      -0.06593718
Sb      -2.10677112       3.64231665      12.25916916      -0.02085574       0.04548037       0.07941497
Sb       2.09605173       1.21764157      29.01828042       0.00594171       0.00012890      -0.01457103
Sb       4.21226178       4.86044840      29.00870578      -0.00622935      -0.00205696      -0.01023274
Sb       6.30822024       1.21681972      29.01573623      -0.00329364      -0.00242005      -0.01142206
Sb      -0.00728002       4.86706799      29.04192542      -0.00104243       0.00036103      -0.02506955
Sb       2.12342749       1.19904663      22.71320700      -0.01632596       0.00742252      -0.01516061
Sb       4.15165460       4.88792379      22.57968491       0.02194655      -0.00602381       0.05531631
Sb       6.32684035       1.19109596      22.55872244      -0.01470597      -0.01981315       0.07949853
Sb      -0.00390692       4.85814702      22.55500572       0.01161498       0.01756376       0.05987191
Cr       6.30660157       3.65012323      15.53370721       0.03153407      -0.00563289      -0.00896160
61
Lattice="8.42843558953249 0.0 0.0 -4.21421779476624 7.29923593142487 0.0 0.0 0.0 31.03344084160948" Properties=species:S:1:pos:R:3:forces:R:3 repair_mode=unwrap repair_image_index=4 migrant_element=Cr energy=-219.93070465965855 mlff_rel_energy_eV=-2.03076205160761 mlff_fmax_eV_A=1.6178752134798473 calculator_label=/home/ycao73/.cache/mace/20231203mace128L1_epoch199model neb_image=4 neb_protocol=mlff_pre_neb pbc="T T T"
Te       2.10710960       1.21908834       3.46109216      -0.00000239      -0.00313342       1.05862791
Te       4.21865227       4.86154422       3.48876631      -0.01287820       0.01047485       1.05381262
Te       6.32132606       1.22399426       3.48595949       0.00000236      -0.01747128       1.05709142
Te      -0.00443444       4.86154501       3.48876632       0.01287815       0.01047208       1.05379293
Te       0.37121505       0.23746984       7.37417684      -0.41357873      -0.26901751      -0.99556103
Te       2.10710848       3.18027127       7.39420795       0.00000224       0.52744955      -1.02140839
Te       3.84300278       0.23746934       7.37417665       0.41358140      -0.26901672      -0.99555066
Te      -2.10710848       3.64646592       7.58404090      -0.00000194       0.02182145      -0.77846114
Te      -0.00403935      -0.00369058       0.01881145       0.00639846       0.00238729       0.03607586
Te       2.10710891       3.65580255       0.01724510       0.00000004      -0.00627544       0.03572890
Te       4.21825718      -0.00369058       0.01881145      -0.00639840       0.00238734       0.03607555
Te      -2.10710891       3.65146290       0.01428237       0.00000008       0.00104515       0.05057740
Te      -0.51596608       2.73752067      13.66803651       0.55455621      -0.31536245       1.48678632
Te       2.10710870       6.08159639      14.68328857       0.00000040      -0.00374244       0.75989388
Te       4.73018391       2.73752042      13.66803690      -0.55455345      -0.31536066       1.48678792
Te      -2.10710870       5.48427840      13.67033834      -0.00000002       0.63028261       1.48076531
Te       2.10710913       1.22098285      16.48210561      -0.00000000      -0.00823443      -1.46169026
Te       4.38500302       4.76200334      16.97764550      -0.33760193       0.19499700      -0.74616493
Te       6.32132652       1.41627346      16.97576300       0.00000043      -0.39263506      -0.75750864
Te      -0.17078519       4.76200359      16.97764511       0.33759983       0.19499512      -0.74616877
Te       2.10710868       1.21534481      11.24358257       0.00000132       0.00562319      -0.46697485
Te       3.75452006       5.14898298      10.69428746       0.19944384      -0.13175108      -0.10308094
Te       6.32132698       0.66890318      10.71564080      -0.00000195       0.25179899      -0.11820675
Te       0.45969777       5.14898271      10.69428789      -0.19944964      -0.13175225      -0.10308072
Te      -0.24141170      -0.16699985      23.81732322       0.48418620       0.31923026       1.07597178
Te       2.10710934       3.94556465      23.80794628      -0.00000204      -0.60145142       1.07535766
Te       4.45562952      -0.16699935      23.81732341      -0.48418667       0.31922839       1.07595754
Te      -2.10710934       3.64976798      23.23502241       0.00000182      -0.01917138       1.30780177
Te       0.00461267       2.42862450      27.59602174      -0.02330599       0.01668705      -1.05287329
Te       2.10710823       6.08481556      27.63047905       0.00000232      -0.00405489      -1.17412121
Te       4.20960516       2.42862372      27.59602173       0.02330586       0.01668967      -1.05285379
Te      -2.10710823       6.08970354      27.59575746      -0.00000231      -0.03093555      -1.05854058
Te       0.19433625       2.30850985      20.36619653       0.02021574      -0.01575588       0.04178957
Te       2.10710915       6.08630754      19.96830011      -0.00000154      -0.00116740      -0.26857330
Te       4.01988157       2.30851012      20.36619610      -0.02021257      -0.01575527       0.04178963
Te      -2.10710915       6.31202641      20.36054257       0.00000133       0.03043594       0.04280324
Sb      -0.01914469       2.44371715       9.25704320      -0.03186036       0.01240202       0.29698294
Sb       2.10711038       6.07433289       7.68011941      -0.00000663      -0.01163785       0.34865208
Sb       4.23336252       2.44371884       9.25704359       0.03185900       0.01239132       0.29697446
Sb      -2.10711038       6.08013558       9.23197308       0.00000872      -0.04733791       0.27747032
Sb      -0.00231349       2.43485292       1.89795707      -0.02799227       0.01647883      -0.26871418
Sb       2.10711114       6.08247684       1.91507671      -0.00001790      -0.00043269      -0.24288680
Sb       4.21653132       2.43485549       1.89795735       0.02799231       0.01645819      -0.26872804
Sb      -2.10711114       6.08005057       1.90280898       0.00001792      -0.03272844      -0.26757834
Sb       0.17667501       0.10090992      18.30822184      -0.03066028      -0.02390017       0.35531506
Sb       2.10710819       3.43926801      18.31705901       0.00000523       0.04694405       0.37363533
Sb       4.03754282       0.10090908      18.30822208       0.03066047      -0.02389416       0.35531870
Sb       6.32132747       3.64835839      18.86602273      -0.00000562      -0.00383124       0.45796593
Sb      -0.02960189      -0.01357677      12.99105165      -0.38775018      -0.22686072      -0.47972455
Sb       2.10710964       3.69266841      12.97577654      -0.00000589       0.46066505      -0.50619978
Sb       4.24381972      -0.01357593      12.99105141       0.38774983      -0.22686756      -0.47972728
Sb      -2.10710964       3.64915681      11.37064130       0.00000505       0.02337159      -0.66117445
Sb       2.10710669       1.21625038      29.17405465       0.00001811       0.00366799       0.25916738
Sb       4.21565124       4.86551290      29.17976243       0.05657592      -0.03564415       0.25280380
Sb       6.32132897       1.21826958      29.18270440      -0.00001808       0.06896155       0.25516155
Sb      -0.00143341       4.86551033      29.17976214      -0.05657603      -0.03562344       0.25281766
Sb       2.10710745       1.21266569      22.67620934       0.00000870       0.00917342      -0.16404258
Sb       4.07098171       4.94402493      21.96460272       0.20948240      -0.13112524      -0.28825710
Sb       6.32132821       1.03826380      21.98980020      -0.00001059       0.24883376      -0.26775295
Sb       0.14323612       4.94402324      21.96460233      -0.20948231      -0.13111287      -0.28824789
Cr       6.32132631       3.64921022      15.71236408       0.00000223       0.00768726      -0.95589927
