61
Properties=species:S:1:pos:R:3:forces:R:3 energy=-199.94432689623574 mlff_rel_energy_eV=0.0 mlff_fmax_eV_A=1.7759272821720602 calculator_label=/home/ycao73/.cache/mace/20231203mace128L1_epoch199model neb_image=0 neb_protocol=mlff_pre_neb pbc="F F F"
Te       2.10710960       1.21626748       3.59502237       0.20668726       0.31695565      -0.14139755
Te       4.21445409       4.86629521       3.59502237      -0.72203900       0.25264129      -0.44842477
Te       6.32132606       1.21654029       3.59454265      -0.86813127       0.28828853      -0.21589867
Te      -0.00023626       4.86629600       3.59502239      -0.30421954       0.80397287      -0.00459602
Te      -0.00091566       0.00052866       6.74933386       0.29739167       0.89963180       0.34181164
Te       2.10710848       3.64961994       6.75037367      -0.24609302       0.52093575      -0.03059240
Te       4.21513349       0.00052816       6.74933367      -0.13830478       0.96204612       0.13894913
Te      -2.10710848       3.64856263       6.74933367       0.23029729       0.95457602       0.65920688
Te       0.00000000       0.00000000      -0.00000000       0.21816976       0.83997658       0.58964232
Te       2.10710891       3.64961970       0.00000000      -0.42361888       0.42936657       1.12221546
Te       4.21421783       0.00000000      -0.00000000      -0.23109803       0.74668215       0.58199148
Te      -2.10710891       3.64961970       0.00000000       0.45248309       0.89830002       1.22649763
Te       0.00853734       2.43800909      13.95271096      -0.60768573      -0.58807028       0.34671860
Te       2.10710870       6.07284129      13.95271096      -0.19086933      -0.87982664       0.20988705
Te       4.20568048       2.43800884      13.95271135       0.10292397      -0.49862563       0.03232298
Te      -2.10710870       6.08269937      13.93702124       0.32867475      -1.45027343      -0.78207870
Te       2.10710913       1.22639810      17.08072626      -0.13218222      -0.82515634      -0.37610176
Te       4.20568048       4.86123030      17.08072626       0.39124880      -0.16450882       0.06335684
Te       6.32132652       1.21654002      17.09641599      -0.68530083       0.40380341       0.87408135
Te       0.00853734       4.86123055      17.08072588       0.60397588      -0.39897363      -0.35801022
Te       2.10710868       1.21532339      10.34626835       0.16137292      -0.74453546       0.25746200
Te       4.21527124       4.86676805      10.34626835      -0.63445807       0.20911026      -0.68079679
Te       6.32132698       1.21653976      10.34347047      -1.25264905      -0.27792897       0.48279189
Te      -0.00105341       4.86676778      10.34626878      -0.62362743       0.66052506      -0.25037647
Te       0.00091566      -0.00052866      24.28410336       0.63583295       0.69370569      -0.30377064
Te       2.10710934       3.64961945      24.28306356       0.60161757       0.02132749       0.08595974
Te       4.21330216      -0.00052816      24.28410355       0.67645984       0.66999707      -0.62490004
Te      -2.10710934       3.65067676      24.28410355       0.87569266       0.36043965      -0.08441513
Te      -0.00023626       2.43294418      27.43841485       0.69277889       0.22165872       0.65287690
Te       2.10710823       6.08297191      27.43841485       0.14632278      -0.84477358       0.89937530
Te       4.21445409       2.43294339      27.43841484       0.34991623      -0.18984209       0.58784304
Te      -2.10710823       6.08269910      27.43889457       1.17770290      -0.87035537       0.55201439
Te      -0.00105341       2.43247134      20.68716887      -0.09325183      -0.31695499      -0.06761758
Te       2.10710915       6.08391600      20.68716887       0.56137807      -0.45690727       0.68223231
Te       4.21527124       2.43247161      20.68716845       0.95758865      -0.11545180       0.11685668
Te      -2.10710915       6.08269963      20.68996676       0.76276082      -0.45806855       0.51342196
Sb      -0.00256829       2.43159530       8.41286590      -0.27363859      -0.60850959      -0.74970330
Sb       2.10711038       6.08566595       8.41286590       0.22480455      -1.22182938       0.47538678
Sb       4.21678612       2.43159699       8.41286629       0.41903450      -0.90504009       0.32480875
Sb      -2.10711038       6.08270034       8.40751439       0.57025996      -1.32393041      -0.37849661
Sb      -0.00005462       2.43304569       1.93206324       0.45933887      -0.70924396      -1.34365057
Sb       2.10711114       6.08276385       1.93206324       0.19857812      -1.52642956       0.02536541
Sb       4.21427245       2.43304826       1.93206353      -0.06991267      -1.09473988       0.21883541
Sb      -2.10711114       6.08270078       1.93179050       0.76386293      -1.51004712      -0.53869179
Sb      -0.01025543       0.00592098      18.75704518       0.59830867       0.83759668       0.28850453
Sb       2.10710819       3.64962011      18.74714310      -0.85373236       1.00845010       0.22166433
Sb       4.22447325       0.00592014      18.75704543       0.40127558       0.62870290      -0.34692829
Sb       6.32132747       3.63777816      18.75704543      -0.73841662      -0.65572373      -0.81750761
Sb       0.01025543      -0.00592098      12.27639204       0.54661099       0.87559973      -0.11048426
Sb       2.10710964       3.64961928      12.28629413       0.73829320       0.66705516      -0.20167266
Sb       4.20396240      -0.00592014      12.27639180       0.27215880       1.40812909      -0.56616584
Sb      -2.10710964       3.66146123      12.27639180       0.44310214       1.28007139       0.59670357
Sb       2.10710669       1.21647554      29.10137398      -0.23757655       1.07211884      -0.86165898
Sb       4.21427245       4.86619370      29.10137398      -1.01036747      -0.40346646      -0.75773749
Sb       6.32132897       1.21653861      29.10164672      -1.02873173       0.56606970      -0.47597469
Sb      -0.00005462       4.86619113      29.10137369      -0.16786039       0.03273024      -1.74900390
Sb       2.10710745       1.21357345      22.62057133      -0.98426115      -0.52389620       0.69678867
Sb       4.21678612       4.86764409      22.62057133      -1.09264768      -0.18257677      -0.43490526
Sb       6.32132821       1.21653905      22.62592284      -1.19048799      -0.18707891       0.43441602
Sb      -0.00256829       4.86764240      22.62057094      -1.23529067      -0.04122566      -0.59809909
Cr       2.10710891       3.64961970      15.51671861      -0.03045219       0.44352604      -0.00033195
61
Properties=species:S:1:pos:R:3:forces:R:3 energy=-215.77849761290952 mlff_rel_energy_eV=-15.834170716673782 mlff_fmax_eV_A=0.2707981682632221 calculator_label=/home/ycao73/.cache/mace/20231203mace128L1_epoch199model neb_image=1 neb_protocol=mlff_pre_neb pbc="F F F"
Te       1.63894572       0.91473291       4.88360251      -0.03714957      -0.07804413       0.04430221
Te       3.53264444       5.25232606       4.82922235      -0.00970485       0.00587416      -0.04876141
Te       5.34332510       2.82648793       6.58104890       0.17972120      -0.07456960      -0.09933919
Te      -0.80893256       4.94252900       3.80124347       0.00087914      -0.03174976       0.08398870
Te      -0.84807482       0.56162433       7.74376028      -0.02446347      -0.02623756      -0.05664844
Te       1.26306982       3.54325308       6.95396535       0.01817017      -0.01729159       0.04059724
Te       4.79583181       0.16686497       6.76613489       0.01663167      -0.00683461      -0.07390136
Te      -2.44731250       4.83852581       7.21785535       0.01559101      -0.05754044       0.00379811
Te       1.91946019       0.35885557       0.64199162      -0.10559961       0.04668054      -0.16571452
Te       2.72958653       3.70437483       1.31529898      -0.10620832       0.01993711       0.05318518
Te       2.87019722      -0.68325339       2.93025624       0.16753108      -0.01666033       0.14312652
Te      -0.86037823       3.30895359      -0.13338930      -0.01278637       0.06975794      -0.01466748
Te      -0.06059878       1.93171511      13.88487876      -0.02454993       0.02519742       0.01853066
Te       1.87183120       5.76672429      14.02337432       0.03921071       0.02314870       0.00047450
Te       3.90779355       2.77849467      13.46999233      -0.00532099      -0.01618303       0.01937150
Te      -0.90031304       5.92405327      14.53380127       0.01589901       0.01773624      -0.04519186
Te       2.04449877       0.75464408      16.51599012      -0.00711984       0.03785396      -0.00173451
Te       3.71930858       4.68518698      16.83719181       0.02918486       0.00834522       0.05343432
Te       5.92244620       1.06604759      15.63853968       0.01088675       0.02861959       0.01004164
Te      -0.20086660       3.93883636      16.85723061      -0.05312478       0.03950199      -0.03885035
Te       1.24312670      -0.90439374       8.86491805       0.00732085       0.11489590       0.01570806
Te       4.30593194       4.30970603       9.64689151      -0.04996239       0.00359681       0.07150999
Te       5.05860410       0.11527004      10.69791474      -0.01412486       0.04239699      -0.05630204
Te       0.26132718       6.48462427       9.81464294      -0.02161858      -0.03532366      -0.00676449
Te      -0.31585933       1.06224034      24.21993371      -0.03279529      -0.03526147       0.01790509
Te       3.01384643       4.47764040      24.77264967      -0.19445140       0.09790953      -0.16104044
Te       3.45531566       0.50179936      23.11599580       0.05493923       0.09631713       0.00636325
Te      -2.27272672       2.99399750      23.97033959       0.01382788       0.04022504      -0.00916016
Te       1.68632768       1.36375039      26.51522908      -0.04388267       0.01155112      -0.04135640
Te       1.46927643       5.36417930      27.87834222       0.01856209      -0.00649134      -0.01549462
Te       5.49113698       2.03319281      27.30761954       0.00008259      -0.06242354       0.07787099
Te      -1.35122242       4.89603095      25.75178841       0.02737600       0.00560327       0.03341305
Te      -0.87734111       2.41983118      20.44240417       0.04560333      -0.09768283      -0.06568422
Te       1.77709067       6.29343587      20.77302192       0.03346246      -0.01836169       0.00469344
Te       5.07077070       2.05431361      19.96097843      -0.03508681      -0.08011947      -0.00383056
Te      -1.82749109       4.97365377      20.00144187      -0.00324477      -0.05746858       0.05997322
Sb      -0.76456021       3.18713492       8.89031618       0.01749721       0.00268929       0.02754527
Sb       2.40858996       5.93852168       7.90076656      -0.02557121      -0.01753159      -0.00263758
Sb       3.20126296       1.48389379       8.91814836       0.07372498       0.02426399      -0.09172624
Sb      -0.36092747       6.68678875       7.03975125      -0.04876862       0.03965139       0.06555026
Sb       0.38597839       2.25123038       2.21387747       0.00459216       0.00494358      -0.04138146
Sb       1.55261275       5.99836371       2.63249562       0.05946573      -0.09904473      -0.05451474
Sb       3.90419213       2.48312225       3.99569057       0.07288524       0.04854767      -0.06727598
Sb      -0.95330211       5.75318048       1.14039692       0.06225731      -0.03157638       0.00012307
Sb       2.07294606       0.94439679      19.42215714       0.05063612       0.00179050       0.00127811
Sb       1.73876451       3.80601208      18.93703438      -0.05000854       0.03667607      -0.02961400
Sb       4.45478808       0.00739832      17.85943067       0.01159314      -0.02782614      -0.06856476
Sb       5.99007595       3.15523970      17.50675494       0.01444362      -0.01923465       0.03865051
Sb       1.24704070       1.05127297      11.17469044      -0.14399126      -0.02489125       0.12874534
Sb       1.99494358       4.07943582      11.55092252      -0.05995224      -0.06279227       0.03216242
Sb       3.33870923       0.02713951      12.85212339      -0.05151037       0.03540117      -0.03651682
Sb      -1.00180564       4.11051002      12.36897279      -0.04499620       0.01454702      -0.01526900
Sb       3.09569471       1.95392893      29.11380725       0.05353383      -0.03430566      -0.00963695
Sb       4.32806432       4.38777016      28.59939572       0.01147279      -0.04197788      -0.02864649
Sb       5.68397324       2.39897363      30.03361782      -0.03238987       0.05459581       0.06623981
Sb      -0.16760868       3.14919043      27.65971794       0.02593709       0.00539365       0.03496716
Sb       1.63119399       2.78411243      22.59089048      -0.16916621       0.00625656       0.08060435
Sb       3.92353014       4.50466371      21.95355346       0.05056175       0.02766516       0.17967128
Sb       4.98365928       2.62865415      24.06605800       0.16990226      -0.08256492      -0.16411160
Sb      -0.36507144       5.07556979      22.37755804       0.02283372       0.10977205       0.07950628
Cr       1.94766938       3.26385099      15.28698791       0.01133207       0.01264651       0.02100616
61
Properties=species:S:1:pos:R:3:forces:R:3 energy=-216.0171548876982 mlff_rel_energy_eV=-16.072827991462475 mlff_fmax_eV_A=0.07664248749459371 calculator_label=/home/ycao73/.cache/mace/20231203mace128L1_epoch199model neb_image=2 neb_protocol=mlff_pre_neb pbc="F F F"
Te       2.50924861       0.82904617       5.01161956       0.00037539      -0.02409190      -0.04367393
Te       4.05666535       4.87568238       4.21641600       0.00471522      -0.01678589       0.01385395
Te       6.23354358       2.12902698       5.45822517       0.00950477       0.00101060       0.01648883
Te      -0.00209925       5.59240842       4.05299359      -0.00800555      -0.01064208      -0.00192588
Te      -1.83653868       2.59424984       5.10659248       0.00806215      -0.04552645       0.00469729
Te       1.93149494       3.78376515       6.78010286       0.00658240       0.01339320       0.00469636
Te       5.02913550       0.05691277       6.75332337      -0.07256347       0.01752675       0.01649804
Te      -1.54448341       5.40507588       7.83529058       0.05910436       0.03765293      -0.03103229
Te       0.83883303       0.03237724       1.37877590      -0.00718457      -0.00152511       0.00242602
Te       2.40587150       3.17907573       0.89719502       0.00459261       0.00668281       0.03427623
Te       3.13753930      -0.66689107       2.69173468      -0.06564380      -0.01615765       0.02606224
Te      -1.62302989       3.00841829       1.15587247       0.02721140       0.03582260      -0.00129603
Te       0.46273577       2.47207531      15.75926909      -0.05389276      -0.04799406      -0.00593787
Te       0.88262623       6.54806114      16.69904494      -0.02597677       0.01716835      -0.03957496
Te       4.46974457       2.19318410      14.31997255      -0.00235821       0.00941970      -0.00296451
Te      -0.07513918       6.02160885      13.86796537       0.02074751      -0.02486882      -0.00197326
Te       2.44054930       0.80703893      18.09451755      -0.01567188      -0.00705801       0.01802772
Te       3.74037826       4.86464133      17.05224134       0.00169279       0.02606867       0.01185691
Te       5.73524873       0.82215264      17.19629326      -0.01282202      -0.01005265       0.02938065
Te      -0.66729405       5.03279918      18.34192796       0.04118750      -0.03185437      -0.02741139
Te       1.46272214       0.66324824       9.55717073       0.00770592       0.05621664       0.01490989
Te       3.02224260       4.33126550      10.73370890       0.00398397      -0.00393018      -0.00719713
Te       5.33485687       0.55505864      10.70765868       0.01722804       0.05616615       0.02768548
Te      -1.03490714       3.15058608      11.02688550      -0.02469236      -0.03872985       0.02472481
Te      -0.00509739       0.66144730      24.33060109       0.01145032       0.00437992      -0.00108615
Te       2.17972168       4.12651696      25.05998129       0.00036298       0.01043896       0.00266523
Te       4.33798800       0.23852367      23.55993510       0.01741383       0.00785488      -0.00665316
Te      -1.96676334       2.72242942      24.15538388       0.00171189      -0.00569080       0.00504828
Te       0.79115347       1.54732259      27.35966342      -0.00260072      -0.00630247       0.00626450
Te       1.66151114       5.80566138      27.82294923       0.00760811      -0.00809042       0.00913836
Te       4.65154835       2.35652708      27.13134755      -0.00181011       0.00396533       0.00606981
Te      -1.62110936       4.88435228      25.83665386       0.00590649      -0.02269350       0.01238544
Te      -0.28734930       2.25189011      20.62653093      -0.00930567      -0.00452912      -0.01893528
Te       2.32277998       5.98554559      21.28032058       0.00032730      -0.00899935       0.00531347
Te       5.09151720       3.09453413      20.59245668       0.00712591       0.00902688       0.00172119
Te      -1.70005079       6.04741809      20.81842855       0.02170072      -0.00865000      -0.03448000
Sb      -0.56633143       2.65603002       7.63430346       0.02808764       0.01263210      -0.03997377
Sb       1.41599326       5.85359065       8.77977643       0.00604069       0.03303880       0.01204162
Sb       3.86754152       1.95705020       8.73054374       0.02158672       0.01330138      -0.00460227
Sb      -0.79666680       5.93247396      10.55518552       0.00598944      -0.02014980      -0.02012193
Sb       0.39198625       2.35965176       3.12769137      -0.00140169      -0.01287930      -0.01091690
Sb       2.19773056       5.68628085       2.14537584      -0.03115548      -0.02667879      -0.01105348
Sb       4.41702641       2.24459096       3.17522537      -0.01972957       0.02087321       0.02263664
Sb      -0.70934275       5.59022451       1.39236078       0.02144579       0.02074923      -0.01169145
Sb       1.59623782      -0.03369303      20.70070343      -0.00413334      -0.01361005       0.02827568
Sb       2.10193284       3.80298480      19.29630275      -0.00716199      -0.00938933      -0.01331393
Sb       4.56208768       0.32166958      19.98748719      -0.00247117       0.00581698       0.02286611
Sb       6.04004098       3.48801403      17.82011943      -0.00364592      -0.00302219      -0.01359323
Sb      -0.13937477       1.08805104      13.34584717       0.00322305      -0.01445863      -0.00228113
Sb       2.18407211       3.91466689      13.68988776       0.01581052      -0.03270318      -0.01042869
Sb       3.17755318       0.47819059      12.52826128       0.00234632       0.00333854       0.00728127
Sb      -1.58200578       3.55853874      14.06946089      -0.02138530       0.04821754       0.00687768
Sb       2.72110418       2.08458354      29.49527377       0.00408921      -0.00381456      -0.00518509
Sb       4.12131071       4.43140597      29.01785510       0.00445083      -0.00105485       0.00782319
Sb       5.49469776       2.08332288      29.72486632       0.00840333      -0.00091969       0.00298925
Sb      -0.37244992       3.95227244      28.20395029      -0.00016476       0.00149792       0.02285417
Sb       2.11177883       1.95231035      22.83525033       0.00385339       0.01580067       0.00725301
Sb       4.17486195       5.12908055      23.46476647      -0.00735493       0.01778676      -0.00888614
Sb       5.69853215       2.65880393      23.53941256      -0.00218952       0.02056108      -0.00097262
Sb      -0.05131230       4.60129133      22.56720843      -0.00799019      -0.02032648      -0.01892498
Cr       1.46819064       2.33618216      11.68133708      -0.00031670      -0.02322906      -0.03900184
61
Properties=species:S:1:pos:R:3:forces:R:3 energy=-215.62076553902023 mlff_rel_energy_eV=-15.67643864278449 mlff_fmax_eV_A=0.3839008061319002 calculator_label=/home/ycao73/.cache/mace/20231203mace128L1_epoch199model neb_image=3 neb_protocol=mlff_pre_neb pbc="F F F"
Te       0.35073612       1.63761236       4.74312206       0.07269018      -0.09468714      -0.06878746
Te       3.66278691       4.70705722       4.31802194       0.02370943       0.03292145      -0.00892090
Te       4.82804763       0.98422905       5.57449717       0.04135594       0.00775807      -0.00519571
Te      -0.56442126       5.21355739       3.38332488       0.05343109      -0.02799156       0.00353344
Te       0.96292757       0.07224409       7.21316168      -0.02988818      -0.02838028       0.02160436
Te       2.51677002       3.82975779       7.26319808      -0.05461027      -0.00294957      -0.03576001
Te       3.72163266      -0.05915506       7.86679871       0.00677439       0.00469449       0.00282048
Te      -1.40005809       3.52946074       6.66192839      -0.11867354       0.06486192       0.05145760
Te       1.44934098       0.56369727       0.19004297      -0.09617105      -0.07615573       0.02855203
Te       2.46276791       3.54720217       0.76941690       0.01230686       0.00913951      -0.02448344
Te       2.09090142      -0.73959399       2.49333114      -0.00412671       0.08952948      -0.03200651
Te      -0.70582560       4.37265485      -0.78425722      -0.02445450       0.00298767      -0.00576069
Te      -0.69778571       1.84983594      13.61858188      -0.03161418      -0.02339448       0.01657565
Te       0.80496823       5.75324066      14.79773131       0.06720254       0.05163389      -0.04465942
Te       3.98229113       2.99387109      14.29666806       0.00543125      -0.05069443       0.02830918
Te      -1.83544640       5.86005981      14.04939256      -0.01717720      -0.01554715       0.03320227
Te       2.06021023       0.68272582      17.11217816       0.02411178      -0.04926753       0.05299308
Te       4.02895507       5.10756843      16.84613967      -0.02001225      -0.02382127       0.00358066
Te       5.90002399       1.10207633      16.42018209       0.06028533       0.03279033      -0.03884172
Te      -0.13043509       3.74961515      16.82808062      -0.03073732       0.01797009      -0.02270529
Te       2.17833357       1.07230943      11.01823933       0.00186450       0.01429094       0.00152477
Te       3.86946388       5.17787335      11.04876268      -0.01103588      -0.03432179       0.02778094
Te       6.40375983       1.75281102      11.29294176      -0.01575580      -0.01045530       0.03255578
Te      -0.56778337       5.21712394      10.51964814       0.02363409      -0.01280881      -0.00789209
Te      -0.14156470       0.78681309      23.64521682       0.00377921      -0.04091633      -0.02452242
Te       3.25730881       4.68928527      24.09435413      -0.23470286      -0.19679254       0.23144566
Te       3.93708915       0.36778612      23.62460277      -0.00535869       0.26447185       0.00824415
Te      -1.94484163       2.89037041      23.22670535       0.01551815      -0.00583516       0.04844554
Te       1.71594765       1.39140592      26.12270239       0.01564813       0.05664340      -0.00875640
Te       1.61183993       5.44738000      27.32994271       0.05537224       0.06034360      -0.03028752
Te       5.45842850       2.17152960      27.75058031       0.00935392      -0.02166523      -0.00106315
Te      -0.44706353       4.84465534      24.54622548      -0.07290177       0.03538224       0.02874135
Te      -0.97824984       1.73423587      19.44384020      -0.05524834       0.07019038       0.02971283
Te       2.43960973       5.90554920      20.34862094       0.17210423      -0.10145095       0.11291110
Te       4.93832339       2.31898779      20.30190959      -0.01815906      -0.03770562       0.01953447
Te      -0.47644866       5.79768560      18.64934165      -0.07868020       0.08922011      -0.00334468
Sb      -0.05888456       2.23488557       8.99957535      -0.01318153       0.02275336      -0.04685695
Sb       1.99908105       6.10698388       8.77564618       0.02242705       0.02065964       0.00031969
Sb       4.30910839       2.57117803       9.40372932       0.00240981      -0.01393626      -0.01130171
Sb      -0.68751072       5.98009756       7.66885276      -0.01279531       0.04241856       0.02323095
Sb      -0.21600207       2.65320229       1.43560964       0.04826436      -0.00853980       0.01855549
Sb       2.02988259       5.89909851       2.30393093       0.00659193      -0.00164275      -0.03840819
Sb       2.94369777       1.84813966       3.61032593       0.06448998       0.04588755      -0.02825276
Sb      -0.48138502       6.52267447       0.93407198      -0.03037563      -0.02553164       0.02447477
Sb       1.17403985       0.07521839      20.01869270       0.02489369      -0.04162200      -0.05999877
Sb       2.37202591       3.42667344      18.53837914       0.02954155       0.02377592       0.06489628
Sb       4.34123165      -0.05722198      18.49313486       0.03741058       0.03296540      -0.00589277
Sb       6.07856975       3.49869517      17.91876243       0.02779825       0.02968334       0.02645816
Sb      -1.74908022       1.12708059      11.11218735       0.01888979       0.03043898      -0.00264536
Sb       1.61052330       3.69699570      12.74650033       0.01245680      -0.02910840      -0.00667088
Sb       4.45583360       0.66349477      12.86357107      -0.01465864      -0.06343595       0.02695342
Sb      -2.46590869       3.68842282      12.24031621       0.00070623      -0.00239526      -0.00885104
Sb       2.82139807       2.03482572      28.93800490      -0.05544926      -0.01718600      -0.00392794
Sb       4.08907712       4.51369273      28.78587685      -0.01915147      -0.02770028      -0.03801486
Sb       5.03502801       2.55011980      30.52611923       0.02082931       0.00079516      -0.07454786
Sb      -0.12930029       3.33406660      26.92092257       0.03607032      -0.04597639      -0.02660898
Sb       1.95349078       1.99147560      22.02032875       0.10354934       0.00356580       0.09024617
Sb       4.74233517       4.94737041      21.77020529      -0.03236486       0.06215382      -0.20503829
Sb       5.19554471       2.70468716      24.44995916      -0.01927081      -0.05788187      -0.12699893
Sb      -0.08055690       4.04595913      20.99606613      -0.03557965      -0.00735457       0.03548126
Cr       1.86621077       3.74926926      10.05826435       0.03123273      -0.02277489      -0.04713880
61
Properties=species:S:1:pos:R:3:forces:R:3 energy=-199.0420341684726 mlff_rel_energy_eV=0.9022927277631254 mlff_fmax_eV_A=1.8787432855452997 calculator_label=/home/ycao73/.cache/mace/20231203mace128L1_epoch199model neb_image=4 neb_protocol=mlff_pre_neb pbc="F F F"
Te       2.10710960       1.18408157       3.67157898       0.18432895       0.30815730      -0.09899438
Te       4.24232791       4.88238817       3.67157898      -0.77226322       0.17460415      -0.53206002
Te       6.32132606       1.21654029       3.68124484      -0.97021258       0.26218856      -0.16609879
Te      -0.02811008       4.88238896       3.67157899      -0.37107885       0.81161514      -0.28121146
Te       0.03530565      -0.02038372       6.61797966       0.35417244       0.91809291       0.30215459
Te       2.10710848       3.64961994       6.24819520       0.14619340       0.22659499      -0.66159547
Te       4.17891218      -0.02038422       6.61797947      -0.07453678       0.98972285       0.05302234
Te      -2.10710848       3.69038739       6.61797947       0.31972934       0.96803431       0.81003122
Te      -0.01158614       0.00668926      -0.00504885       0.20772198       0.87250079       0.62623193
Te       2.10710891       3.64961970       0.01065370      -0.41206938       0.39651765       1.31137365
Te       4.22580397       0.00668926      -0.00504885      -0.22990060       0.77572036       0.62031555
Te      -2.10710891       3.63624117      -0.00504885       0.50686794       0.89401398       1.30430995
Te      -0.01879063       2.42223127      14.10729535      -0.64393520      -0.49824323      -0.26797619
Te       2.10710870       6.10439692      14.10729535      -0.26170125      -0.90507331       0.07170744
Te       4.23300846       2.42223102      14.10729574      -0.04702588      -0.79103464      -0.34417843
Te      -2.10710870       6.08269937      14.20453021       0.49388150      -1.54216774      -0.70690099
Te       2.10710913       1.21214448      17.02071185      -0.09862857      -0.85824036       0.29602913
Te       4.21802448       4.86835712      17.02071185       0.54491945      -0.54141955       0.42446789
Te       6.32132652       1.21654002      17.03927420      -0.77064639       0.44076537       0.92701413
Te      -0.00380665       4.86835737      17.02071146       0.45114328      -0.15787824      -0.32590982
Te       2.10710868       1.26418388      10.36252263       0.01982901      -0.34031234       0.06222071
Te       4.17295681       4.84233781      10.36252263      -0.72486051       0.08183796      -0.69434205
Te       6.32132698       1.21653976      10.61834592      -1.39225146      -0.27528617       0.32080924
Te       0.04126102       4.84233754      10.36252305      -0.40279702       0.50223142      -0.20838814
Te      -0.00106873       0.00061703      24.36451834       0.66127040       0.73162070      -0.28475058
Te       2.10710934       3.64961945      24.37136313       0.56106803       0.06046946      -0.07701563
Te       4.21528655       0.00061753      24.36451852       0.64381339       0.72151960      -0.69428216
Te      -2.10710934       3.64838539      24.36451852       0.90736757       0.42311434      -0.00898836
Te       0.00611286       2.43660985      27.35474563       0.66163553       0.20490053       0.69378698
Te       2.10710823       6.07564058      27.35474563       0.13782472      -0.86334294       0.97832244
Te       4.20810497       2.43660906      27.35474562       0.37540069      -0.19371245       0.74282598
Te      -2.10710823       6.08269910      27.37097275       1.18401649      -0.93364738       0.50496832
Te       0.00124786       2.43379998      20.69657298       0.02343184      -0.30155257      -0.06738308
Te       2.10710915       6.08125873      20.69657298       0.52750628      -0.58526119       0.72123519
Te       4.21296997       2.43380025      20.69657256       0.92360485      -0.12224342       0.11169508
Te      -2.10710915       6.08269963      20.70103878       0.77012934      -0.45793610       0.56051557
Sb      -0.14468480       2.34954430       8.36480494      -0.35428521      -0.69597356      -0.90733056
Sb       2.10711038       6.24976795       8.36480494       0.07995436      -1.22383743       0.27687605
Sb       4.35890262       2.34954599       8.36480533       0.39312853      -0.92788277      -0.08081376
Sb      -2.10711038       6.08270034       8.36862078       0.61636312      -1.37487407      -0.51782420
Sb       0.00087587       2.43358291       1.98390355       0.48883502      -0.59279389      -1.37303559
Sb       2.10711114       6.08168942       1.98390355       0.15365901      -1.59832859       0.07382561
Sb       4.21334196       2.43358548       1.98390384      -0.11668471      -1.04744984       0.25143576
Sb      -2.10711114       6.08270078       1.92670502       0.81698949      -1.56896776      -0.48777610
Sb       0.00310543      -0.00179292      18.73015904       0.89409031       0.98902818       0.08156617
Sb       2.10710819       3.64962011      18.71028061      -0.80585552       0.99327117      -0.26128163
Sb       4.21111240      -0.00179376      18.73015929       0.16150223       0.82765373      -0.55802428
Sb       6.32132747       3.65320596      18.73015929      -1.05666235      -0.46951606      -1.03072730
Sb      -0.00553097       0.00319331      12.41249793       0.43087363       1.18584666       0.15698194
Sb       2.10710964       3.64961928      12.46477605       0.61730195       0.65574301       0.36948006
Sb       4.21974880       0.00319415      12.41249769       0.48757011       1.71019483      -0.35862719
Sb      -2.10710964       3.64323266      12.41249769       0.71126034       1.05286073       0.88073140
Sb       2.10710669       1.22043185      29.06062256      -0.20045591       1.11995954      -0.97010289
Sb       4.21084619       4.86421555      29.06062256      -1.04369326      -0.46784399      -0.86511243
Sb       6.32132897       1.21653861      29.04963399      -1.07027023       0.58453095      -0.51785810
Sb       0.00337164       4.86421298      29.06062227      -0.13277008       0.01886615      -1.87395104
Sb       2.10710745       1.21920845      22.67212449      -0.92226897      -0.44514729       0.71018519
Sb       4.21190606       4.86482659      22.67212449      -1.14900648      -0.25028063      -0.48390091
Sb       6.32132821       1.21653905      22.65597063      -1.27018530      -0.16264349       0.44723903
Sb       0.00231176       4.86482490      22.67212411      -1.15195521      -0.09375355      -0.65393687
Cr       2.10710912       3.64961958       8.65062336      -0.01138363       0.38446722       1.66901989
