61
Properties=species:S:1:pos:R:3:forces:R:3 energy=-200.46618232831565 mlff_rel_energy_eV=0.0 mlff_fmax_eV_A=1.689185873978655 calculator_label=/home/ycao73/.cache/mace/20231203mace128L1_epoch199model neb_image=0 neb_protocol=mlff_pre_neb pbc="F F F"
Te       2.10710960       1.21462736       3.47415502       0.21273235       0.22830154      -0.08404990
Te       4.21587447       4.86711527       3.47415502      -0.62756730       0.36164178      -0.27112181
Te       6.32132606       1.21654029       3.46466275      -0.72518337       0.27245193      -0.23911315
Te      -0.00165665       4.86711606       3.47415503      -0.30149372       0.84167695       0.33875993
Te      -0.02695353       0.01556163       6.87246688       0.23795148       0.78228169       0.33526556
Te       2.10710848       3.64961994       6.92340891      -0.29850189       0.57601516      -0.39330206
Te       4.24117136       0.01556114       6.87246669      -0.15629539       0.82709637       0.23859842
Te      -2.10710848       3.61849668       6.87246669       0.06188390       0.96202654       0.46330637
Te       0.00000000      -0.00000000      -0.00000000       0.21967527       0.80267372       0.55510851
Te       2.10710891       3.64961970       0.00000000      -0.46727724       0.46523480       0.87791440
Te       4.21421783      -0.00000000      -0.00000000      -0.22140717       0.70334167       0.55028871
Te      -2.10710891       3.64961970      -0.00000000       0.37515204       0.91087440       1.09949522
Te       0.04989991       2.46188979      13.94767274      -0.79029680      -0.69545519       0.41909892
Te       2.10710870       6.02507988      13.94767274      -0.18669520      -0.61888078       0.29688330
Te       4.16431791       2.46188954      13.94767313       0.28875403      -0.60299261       0.12932438
Te      -2.10710870       6.08269937      13.89721196       0.29592457      -1.34702597      -0.74314915
Te       2.10710913       1.27415951      17.08576449      -0.12001571      -1.04001869      -0.44851826
Te       4.16431791       4.83734960      17.08576449       0.55787078      -0.04107583      -0.05175336
Te       6.32132652       1.21654002      17.13622527      -0.50192097       0.30211260       0.62173749
Te       0.04989991       4.83734985      17.08576410       0.40050647      -0.27449834      -0.41487620
Te       2.10710868       1.19979071      10.38957074       0.18116271      -0.85499459       0.26160343
Te       4.22872293       4.87453439      10.38957074      -0.63242444       0.26046938      -0.68763320
Te       6.32132698       1.21653976      10.39367857      -1.22799767      -0.30835185       0.47443905
Te      -0.01450510       4.87453412      10.38957116      -0.63221377       0.70502678      -0.25879880
Te       0.02695353      -0.01556163      24.16097035       0.56150451       0.58803991      -0.29380650
Te       2.10710934       3.64961945      24.11002832       0.67876477       0.00283022       0.43663647
Te       4.18726430      -0.01556114      24.16097054       0.76800765       0.52816610      -0.43737741
Te      -2.10710934       3.68074272      24.16097054       0.77249047       0.28063706      -0.16987232
Te      -0.00165665       2.43212412      27.55928221       0.65642984       0.18400615       0.54093524
Te       2.10710823       6.08461203      27.55928221       0.16385737      -0.73855659       0.72560756
Te       4.21587447       2.43212333      27.55928220       0.35094782      -0.20400435       0.28617671
Te      -2.10710823       6.08269910      27.56877447       1.12921773      -0.76841660       0.55660803
Te      -0.01450510       2.42470500      20.64386649      -0.16383305      -0.38198845      -0.10870260
Te       2.10710915       6.09944868      20.64386649       0.60541534      -0.42824346       0.68928667
Te       4.22872293       2.42470527      20.64386606       0.98193209      -0.09192301       0.15459345
Te      -2.10710915       6.08269963      20.63975866       0.72848272      -0.44993957       0.49398848
Sb      -0.03010179       2.41569882       8.46835666      -0.30915660      -0.67139396      -0.44800331
Sb       2.10711038       6.11745891       8.46835666       0.25659519      -1.14403904       0.59749991
Sb       4.24431962       2.41570051       8.46835705       0.56898696      -0.88573245       0.44457638
Sb      -2.10711038       6.08270034       8.40236640       0.56693379      -1.26048083      -0.24623265
Sb       0.00023601       2.43321348       1.88274910       0.36164862      -0.86610052      -1.40443194
Sb       2.10711114       6.08242826       1.88274910       0.27524028      -1.34382853      -0.14535973
Sb       4.21398182       2.43321606       1.88274939       0.05532668      -1.13091302       0.05330976
Sb      -2.10711114       6.08270078       1.88196358       0.64421462      -1.41086399      -0.61587323
Sb      -0.05024943       0.02901154      18.75537477       0.58365274       0.87226189       0.33706648
Sb       2.10710819       3.64962011      18.71413272      -0.84700361       1.01481161       0.47957964
Sb       4.26446726       0.02901070      18.75537502       0.25635975       0.49642501      -0.25539942
Sb       6.32132747       3.59159704      18.75537502      -0.67168567      -0.46077559      -0.69050358
Sb       0.05024943      -0.02901154      12.27806246       0.58789230       0.86037357      -0.13108931
Sb       2.10710964       3.64961928      12.31930450       0.73046546       0.69246837      -0.46108616
Sb       4.16396839      -0.02901070      12.27806221       0.26172666       1.39935196      -0.55003361
Sb      -2.10710964       3.70764235      12.27806221       0.41628103       1.19672293       0.54675811
Sb       2.10710669       1.21681113      29.15068812      -0.28024385       0.93852347      -0.60238622
Sb       4.21398182       4.86602591      29.15068812      -0.91685415      -0.27529927      -0.52604167
Sb       6.32132897       1.21653861      29.15147365      -0.92471830       0.51769961      -0.36907726
Sb       0.00023601       4.86602333      29.15068783      -0.23055950       0.08081718      -1.40783472
Sb       2.10710745       1.18178048      22.56508056      -1.08079750      -0.58322279       0.39709533
Sb       4.24431962       4.88354057      22.56508056      -1.04249717      -0.10440374      -0.54225404
Sb       6.32132821       1.21653905      22.63107083      -1.11530881      -0.16614537       0.32386492
Sb      -0.03010179       4.88353888      22.56508018      -1.29833990       0.08791167      -0.72651656
Cr       2.10710891       3.64961970      15.51671861      -0.02369923       0.40729295      -0.00120869
61
Properties=species:S:1:pos:R:3:forces:R:3 energy=-214.36962995289247 mlff_rel_energy_eV=-13.903447624576813 mlff_fmax_eV_A=0.3770158098493192 calculator_label=/home/ycao73/.cache/mace/20231203mace128L1_epoch199model neb_image=1 neb_protocol=mlff_pre_neb pbc="F F F"
Te       1.83471894       1.14367367       3.80364104      -0.04394957      -0.00703124       0.03232298
Te       3.81107889       4.86473626       3.67909297      -0.04777999      -0.00105702       0.03501541
Te       5.59067164       1.26478861       4.56638118      -0.10950790       0.00726006       0.15113647
Te      -0.21196701       4.84991402       3.88696216      -0.03124935       0.00211816       0.04352450
Te       0.69011655       0.10810972       6.79326028       0.10222139       0.00256484       0.00319953
Te       2.10214254       3.70722522       6.72114198      -0.00375724       0.00566334      -0.03408099
Te       3.98637202       0.27809767       6.57345169      -0.03694649       0.00316147      -0.01435285
Te      -1.99126966       3.79252190       6.74698829       0.01574937       0.01110244      -0.01203220
Te       0.74427022       0.13008202      -0.01719860       0.08792978       0.01978308      -0.00334534
Te       1.97049572       3.69070887       0.18162051      -0.00980021       0.00429146       0.02197259
Te       3.43921507       0.10017246       0.29446804      -0.09386267       0.00871325       0.04237439
Te      -1.91755070       3.79089546       0.14928766       0.02260358       0.02467703       0.00532818
Te       0.25655204       1.91863579      13.71439716       0.04307460      -0.06698644      -0.04397140
Te       1.62134695       6.03378679      13.44458083      -0.04700223      -0.00809183      -0.05267969
Te       4.52489203       2.88877250      13.55414368       0.03395243       0.06099106      -0.04715646
Te      -1.19032896       5.66379149      14.14566956       0.11313441      -0.05089990       0.02478041
Te       1.85080163       1.01123018      17.10041349      -0.05406530      -0.03313141       0.02749621
Te       4.18831830       5.15455188      17.24505590      -0.00761647       0.04363672       0.01937969
Te       5.73494738       1.21497525      16.81758787      -0.09446622       0.00890707      -0.05090603
Te       0.00074894       4.77715898      17.06938722      -0.00969875      -0.00253954       0.01223300
Te       2.17845027       1.31810972      10.46282933       0.01455642       0.01910728       0.00750044
Te       3.78739369       4.83111510      10.45446590      -0.04083697      -0.00236028      -0.00531929
Te       6.14451658       1.05536573      10.44072140      -0.01721745      -0.01111600       0.00361384
Te      -0.06728322       4.75253367      10.55689061      -0.00985339      -0.00554615       0.01169152
Te      -0.39951219       0.82755600      24.35936920      -0.04560585       0.09374465       0.02190922
Te       2.19956207       3.71321719      24.42618131       0.00292736       0.01617258       0.03990527
Te       4.08769225       0.13737128      24.16170982      -0.02021457       0.01373622      -0.00835531
Te      -1.84967565       3.43647856      24.44790164       0.02483914      -0.03102871       0.01672294
Te       0.34977189       2.03325036      27.45234970       0.04620305      -0.05693753      -0.01693649
Te       2.26486075       5.78624130      27.38381962       0.02231804      -0.03774770      -0.02620104
Te       4.47004574       2.26907203      26.98998557       0.03542847      -0.02250626      -0.06798428
Te      -1.56827019       5.43711882      26.36197708       0.06919956      -0.08251472      -0.16088141
Te      -0.22963872       2.54047350      20.63971902      -0.03634640       0.00268003      -0.00299145
Te       2.30364287       6.01250538      20.91300563       0.02649775      -0.00318540       0.04125984
Te       4.47334387       2.29662995      20.61118614       0.03316733      -0.01664172      -0.00597044
Te      -1.66987211       5.57130866      20.32315564       0.06725178      -0.06415276      -0.05424500
Sb      -0.00328732       2.32100106       8.34895684       0.00891328      -0.00658406      -0.00910513
Sb       1.83485786       5.89309447       8.41840750      -0.02617355      -0.02275223      -0.02605754
Sb       4.25537135       2.44390008       8.67134335       0.00451220       0.00496353       0.02217417
Sb      -1.08737830       6.01323135       8.05853782       0.12050044      -0.01225944      -0.03886266
Sb       0.03543643       2.27015020       1.79963623       0.00003318      -0.01324607      -0.01501629
Sb       1.72536456       5.83932314       1.97044658      -0.04245479      -0.02300301       0.01598332
Sb       3.95407490       2.25831034       2.33760263      -0.03756242      -0.02125167       0.06017190
Sb      -1.26987834       5.99849327       1.60821423       0.09818367      -0.00587648      -0.03654277
Sb       1.05871715       0.00779402      19.58411767       0.13343552      -0.02013673       0.12137987
Sb       1.94424833       3.84747163      18.95146483      -0.01418979       0.01663569       0.03189306
Sb       3.88912677      -0.00792592      18.76341966      -0.04119688       0.00375699       0.00994242
Sb       6.06675448       3.43435433      18.38813670      -0.03171220      -0.01378805      -0.05089171
Sb      -0.79072230       0.90536906      11.32200744      -0.10654161       0.12053584      -0.11771800
Sb       2.19870367       3.91086632      15.25514898       0.00524689       0.01884192       0.33953422
Sb       4.23765572       0.41314186      12.33511485       0.02330362       0.05147130       0.01307717
Sb      -1.86961416       3.41341439      12.41851919       0.03164415      -0.03551743       0.02189422
Sb       2.68642406       1.72028989      29.23263738       0.07301055       0.05625317       0.01194865
Sb       4.04776959       4.15750361      29.12781536      -0.00524915      -0.07575739      -0.00745969
Sb       5.48824620       1.76422587      29.49462370      -0.09673467       0.06894583       0.04937769
Sb       0.03727519       4.58971618      28.50529932       0.00232627      -0.04358328      -0.09222202
Sb       1.80446203       1.36172347      22.67163701      -0.03219425       0.02848896       0.00899528
Sb       4.27945027       4.55966260      22.77645194       0.00252271      -0.03339297       0.03603001
Sb       5.79841228       2.08192066      23.27061471      -0.06475842       0.10347525       0.08842638
Sb      -0.05971651       4.98422587      22.45172386      -0.01092323       0.01762155      -0.01402366
Cr       2.11863592       3.54717073      12.24078060       0.00478105      -0.00867736      -0.37688561
61
Properties=species:S:1:pos:R:3:forces:R:3 energy=-215.73431139047085 mlff_rel_energy_eV=-15.268129062155197 mlff_fmax_eV_A=0.09338215949245142 calculator_label=/home/ycao73/.cache/mace/20231203mace128L1_epoch199model neb_image=2 neb_protocol=mlff_pre_neb pbc="F F F"
Te       1.35073707       0.86925411       3.63073809      -0.00404822       0.02151592       0.02825142
Te       3.84899904       4.60968288       4.03702056       0.01432447       0.01076370      -0.00531395
Te       5.25189297       1.19762077       5.12790153       0.00625072      -0.03771138      -0.01097929
Te      -0.35459742       5.15124185       3.40163794      -0.00347724       0.00292789       0.00413821
Te       0.92586535      -0.26359608       6.76335765      -0.05660062       0.01562127       0.00835808
Te       1.80352743       3.40636618       6.26460250       0.01426016       0.01545468       0.00559723
Te       3.75269138      -0.25179841       6.95185480       0.00763445       0.00787443      -0.02134945
Te      -1.93367208       3.47625586       6.22063339       0.00106263      -0.00795213      -0.00654666
Te       0.83860147       0.69067853      -0.64423417       0.01600420      -0.01541189       0.06731723
Te       2.44737537       3.70127452       0.33152571       0.01294232      -0.00373700      -0.03197489
Te       2.23547890      -0.53262817       1.37584883      -0.00820798       0.04631620      -0.06039374
Te      -1.19491497       4.36985759      -0.67617761      -0.00617346       0.02390851      -0.03174197
Te       0.11567288       1.79549585      13.64512374       0.00225728       0.00514282       0.00674210
Te       1.46694129       5.89850702      13.87207825       0.00395006      -0.00426319      -0.03895775
Te       4.31364583       3.02178147      13.64864009       0.01485792      -0.00241606      -0.01826413
Te      -1.24580480       5.41689476      13.93362182       0.00596281      -0.00632376       0.02469461
Te       1.94266432       1.00008502      17.05904758       0.00242214      -0.00130958       0.00913973
Te       4.04370730       5.02534261      16.45561593      -0.00397407      -0.00116596      -0.00843562
Te       5.79281788       1.14591584      16.11457615      -0.00844405      -0.01623865       0.00651587
Te       0.24990473       5.66781930      17.21831943       0.00556433       0.01352585      -0.00573861
Te       2.09021596       0.95071223      10.20036117       0.00174055       0.01944216       0.00798143
Te       3.82861973       5.06997696       9.87814344      -0.00591832      -0.02184236       0.01657357
Te       6.03530952       1.45256078      10.36202617       0.00318595      -0.00992507      -0.01776562
Te      -0.46347921       4.88716231       9.99307503       0.00169864      -0.01207345       0.00966842
Te      -0.21269268       0.83665250      23.53333851       0.02633801      -0.01523551      -0.01831711
Te       2.27324253       4.30939664      24.33647231      -0.00359170      -0.00574375      -0.02235904
Te       3.85240109       0.48925399      23.63171058       0.03161811       0.00796570      -0.01238799
Te      -1.97477662       2.99617855      23.33071650       0.02560245       0.00686798       0.00431625
Te       1.14851135       1.45237100      26.58651886       0.01416628       0.01778479       0.00681301
Te       1.85123066       5.64373033      27.39144288      -0.01665101      -0.00106147      -0.00401011
Te       4.76864473       2.41261497      26.68200392       0.01177457       0.04868905      -0.02457379
Te      -1.15287030       4.94218381      25.12874023      -0.03621719      -0.01811406       0.03600556
Te      -0.65039922       2.38216268      19.55332169       0.02068343       0.02427674       0.01645079
Te       2.58201314       5.90081576      20.54076444      -0.01455231       0.01176888      -0.01663805
Te       4.93544136       2.57292730      19.98979077       0.00943352       0.00730274      -0.01735962
Te      -1.52956591       5.58906878      19.32515661       0.01969395      -0.00989431      -0.01170930
Sb      -0.27374539       2.02588884       8.20667277       0.00889589      -0.02071165      -0.00115623
Sb       1.66335276       5.83838735       7.66227566      -0.01647910       0.00478797       0.02952832
Sb       4.22728238       2.44936184       8.32427973      -0.00653159      -0.00778668      -0.01041391
Sb      -1.19148384       5.88415410       7.27514234      -0.01284903      -0.01699583       0.00529180
Sb      -0.05427684       2.63989725       1.31021333       0.01854247      -0.02697442      -0.00225740
Sb       2.07207583       5.90349931       2.05964839      -0.00452659       0.00407988      -0.01403165
Sb       3.82698179       2.06842474       2.73247746       0.00457749      -0.04142140      -0.02430794
Sb      -0.58943512       6.48458497       0.96518502       0.01968373      -0.01442120       0.04236503
Sb       1.12505073       0.27136047      19.87449882      -0.00290161       0.01402727      -0.01832630
Sb       2.19914751       3.84574687      18.41676283      -0.03191011       0.03571015      -0.01224784
Sb       4.29281640       0.26822847      18.40902557      -0.01449071       0.00880316      -0.01462327
Sb       6.13517982       3.53306569      17.49972789       0.01691756       0.00121396      -0.00192024
Sb      -0.74248889       0.74785256      11.18558597      -0.00286469       0.00010223       0.00135601
Sb       2.00844637       3.72191604      11.97942444       0.00258601       0.01016657       0.09279106
Sb       4.22856375       0.62934533      12.27661133       0.00848458      -0.00616048      -0.01613564
Sb      -1.83692127       3.26841039      12.11182565       0.00130712       0.00175165       0.02468540
Sb       2.61140015       1.90578086      29.01089619      -0.02693544      -0.02050781       0.01282490
Sb       4.14411033       4.23434521      28.74075509      -0.02657805      -0.02007963      -0.00196034
Sb       5.38249509       1.76176881      29.26400949      -0.01730596      -0.01181739      -0.03287870
Sb      -0.19221587       3.75336069      27.51167770       0.00132061      -0.02309082       0.02133035
Sb       1.96924567       2.05611233      22.07353467      -0.04235247       0.01626808      -0.01790177
Sb       4.35583982       5.03174857      22.74683173       0.00850536      -0.00668133      -0.00700171
Sb       5.64965319       2.47098253      23.03128755       0.01107028       0.00077310      -0.02115849
Sb       0.05880046       4.53368016      21.52778814       0.00106709       0.00711075       0.00153089
Cr       1.78773633       3.51888044       9.05234347      -0.00280563      -0.00487587       0.09087086
61
Properties=species:S:1:pos:R:3:forces:R:3 energy=-216.05921159809856 mlff_rel_energy_eV=-15.593029269782903 mlff_fmax_eV_A=0.09971009471741145 calculator_label=/home/ycao73/.cache/mace/20231203mace128L1_epoch199model neb_image=3 neb_protocol=mlff_pre_neb pbc="F F F"
Te       1.53979237       1.16427003       3.98255486      -0.06400907       0.01731190      -0.07446637
Te       3.35836873       5.13126179       3.99439266      -0.07012606      -0.04259722       0.03667424
Te       5.01560300       1.53457068       5.26841324      -0.00117641       0.01156715       0.05847771
Te      -0.51954005       4.36393516       4.22305859      -0.07283897       0.01579214       0.03062391
Te       0.84396317       0.03807363       7.42484601      -0.01050870      -0.02258466       0.02729933
Te       2.11170911       3.65594908       7.03169497       0.04588317       0.01628316      -0.01060902
Te       3.69685302      -0.07076684       7.08215252      -0.00991797       0.00215064      -0.02286478
Te      -2.04925114       3.34391657       7.47271533       0.00005376      -0.03805722       0.03055959
Te       1.08293394       0.79684253      -0.21087390       0.04695736      -0.03012795       0.00233882
Te       2.21473699       3.81474580       0.12171760       0.04615444       0.03341278       0.02490860
Te       3.20220786      -0.13401568       1.21935806      -0.04881863      -0.04543461       0.03265640
Te      -1.08290525       4.09861742      -0.04284140      -0.01082475       0.00917102       0.02460160
Te      -0.34454722       1.96555506      13.89869313      -0.01575736      -0.01018035      -0.00027692
Te       1.52514886       5.59079551      14.47649363      -0.00438298      -0.00412996       0.01489186
Te       4.21620675       2.63094179      14.07771289       0.01211705       0.02670244       0.02609037
Te      -1.13101206       5.91611349      13.64420842      -0.01044304      -0.00471854       0.01602364
Te       1.79512496       1.09130373      17.01976012       0.00302996      -0.01077208       0.00485251
Te       4.14197753       4.98013727      16.82579874      -0.01157314      -0.00500753      -0.00194998
Te       5.86590010       1.20010467      16.66708811       0.00424722      -0.00136246      -0.00867439
Te      -0.00548409       4.87344678      16.91338716      -0.01470886       0.01282351       0.02249479
Te       2.52836232       0.69031689      10.82738004       0.01646451      -0.00971253       0.03084162
Te       3.95132686       4.87878367      10.57915098      -0.02328846      -0.00026225       0.02139534
Te       6.57261910       1.64800161      10.52764434      -0.00466189       0.00667218       0.03069561
Te      -0.32433495       5.49592890      10.39108835       0.01940796       0.01711056       0.00101671
Te      -0.29097664       0.92102856      24.03588128      -0.01491063       0.00368145      -0.01151818
Te       2.81758279       4.14106146      24.37135188      -0.01014605       0.03060913      -0.01101917
Te       3.69897577       0.12118024      23.63234323      -0.00488267       0.01452157       0.00536883
Te      -1.91725222       3.19821218      23.91491650      -0.00599756      -0.00677176      -0.01976855
Te       0.95710666       1.72950734      27.00801443       0.04727312      -0.00305422      -0.01946916
Te       2.35489287       5.71055282      27.37683815       0.00354056      -0.01463406      -0.00201144
Te       4.73763900       1.84296054      27.32602717       0.03039399      -0.01966750      -0.00306449
Te      -1.01520257       5.25643311      25.53372065       0.05162414      -0.00825414      -0.04438643
Te      -0.66323552       2.37230074      19.90521318       0.01605548      -0.00368719       0.00425228
Te       2.26330286       6.06143604      20.56474735       0.01163320      -0.01302356      -0.01280952
Te       4.65440329       2.44977725      20.44671942      -0.00208775      -0.01083012      -0.00458062
Te      -1.51367536       5.41212812      19.79008758       0.01421879      -0.00312412      -0.05334069
Sb       0.19689022       2.38055330       8.97709351       0.01820275       0.01214956       0.02260765
Sb       1.88566289       5.95472189       8.57529029      -0.01283035       0.01958915      -0.00371920
Sb       4.20051675       2.32961274       9.02284930      -0.01782130      -0.00031332       0.02188775
Sb      -0.94817685       5.88615314       7.66992482       0.01874371      -0.03199866      -0.01580464
Sb      -0.42716661       2.01564087       1.93969650       0.07737138       0.04129078      -0.01129811
Sb       1.97262106       6.10422256       1.76624097       0.03067383      -0.02294403      -0.08497808
Sb       3.91511149       2.27445239       2.64363352      -0.03967047       0.01452733      -0.02552771
Sb      -0.89660961       5.96688594       2.00486499       0.03554836       0.00141505      -0.00248249
Sb       1.04467426       0.11691998      19.86394375       0.01817404       0.01243391       0.00226786
Sb       2.06305116       3.76617121      18.52625295      -0.00007031      -0.00294501       0.00954769
Sb       3.89698166       0.19041337      18.59643271      -0.00464571      -0.00931466      -0.00132642
Sb       6.07347515       3.53785306      18.17523690      -0.00677046      -0.01175968      -0.00681584
Sb      -1.17788150       1.07606785      11.37640617       0.00010166       0.03786346      -0.03228552
Sb       2.05591977       3.45077101      12.34821603      -0.00661060      -0.00777180       0.03395996
Sb       4.89236238       0.49902334      12.39042600       0.00269776       0.01894225       0.03170073
Sb      -2.18151371       3.53227022      12.37774218       0.00609729       0.00382962       0.00606329
Sb       2.54497144       1.93564964      29.45679151      -0.00641771       0.01981045      -0.00306226
Sb       4.27011387       4.09111708      29.03708054       0.00902922      -0.02116392      -0.00153278
Sb       5.26135600       1.65933307      30.02784000      -0.03237776      -0.00257881       0.01402467
Sb       0.07754215       4.22350052      27.91643861      -0.00781140      -0.03905523      -0.03876938
Sb       1.78267127       1.75206080      22.21787138      -0.00247914      -0.00695984      -0.01453610
Sb       4.39454955       4.90073857      22.11825117       0.00482426      -0.00744114       0.00409782
Sb       5.08301919       2.44847899      24.13635694      -0.01896379       0.06957494       0.03456738
Sb       0.04094934       4.55445482      21.91326302      -0.00174690      -0.01394120      -0.04131252
Cr       1.58057850       3.56812994       2.76056038      -0.02124215       0.01694516      -0.04252782
61
Properties=species:S:1:pos:R:3:forces:R:3 energy=-199.74765241971934 mlff_rel_energy_eV=0.7185299085963095 mlff_fmax_eV_A=1.7717059769015175 calculator_label=/home/ycao73/.cache/mace/20231203mace128L1_epoch199model neb_image=4 neb_protocol=mlff_pre_neb pbc="F F F"
Te       2.10710960       1.13425048       3.64861162       0.17295699       0.79169818      -0.31586659
Te       4.28548284       4.90730371       3.64861162      -0.92957367       0.01504171      -0.53575605
Te       6.32132606       1.21654029       4.21566554      -1.29328638       0.11192898       0.01974334
Te      -0.07126502       4.90730450       3.64861163      -0.00440278       0.51272775       0.21335902
Te      -0.02766651       0.01597327       6.76777276       0.27824729       0.83159327       0.31911955
Te       2.10710848       3.64961994       6.81409457      -0.25728829       0.54568128      -0.19073697
Te       4.24188433       0.01597277       6.76777258       0.26166987       0.98009283      -0.34631434
Te      -2.10710848       3.61767340       6.76777258       0.13870162       0.98487249       0.57587160
Te       0.01726803      -0.00996970       0.01915004       0.27143680       0.89979536       0.63235494
Te       2.10710891       3.64961970      -0.32428345      -0.09509245       0.15636657       0.68430749
Te       4.19694979      -0.00996970       0.01915004      -0.25958680       0.82684796       0.65971884
Te      -2.10710891       3.66955910       0.01915004       0.56713828       0.86352630       1.32284007
Te       0.00903879       2.43829860      13.86706574      -0.60222303      -0.58742674       0.11137378
Te       2.10710870       6.07226226      13.86706574      -0.20426884      -0.71057446      -0.11214975
Te       4.20517903       2.43829835      13.86706613       0.04643192      -0.91415204      -0.27897599
Te      -2.10710870       6.08269937      13.85564805       0.34466796      -1.42886489      -0.72269419
Te       2.10710913       1.20064149      17.18457284      -0.16375016      -0.83740791      -0.19212907
Te       4.22798636       4.87410861      17.18457284       0.62790141      -0.44493621       0.28200964
Te       6.32132652       1.21654002      17.16476326      -0.65826224       0.38088608       0.75347785
Te      -0.01376853       4.87410886      17.18457246       0.43514002      -0.26910942       0.01781802
Te       2.10710868       1.21049506      10.34893359       0.16205799      -0.82937806       0.12791777
Te       4.21945269       4.86918222      10.34893359      -0.58870961       0.23960213      -0.69513326
Te       6.32132698       1.21653976      10.34253598      -1.18601662      -0.28640964       0.45800963
Te      -0.00523487       4.86918195      10.34893401      -0.63521555       0.68671874      -0.31318750
Te      -0.02352793       0.01358386      24.21928783       0.60438205       0.66293738      -0.28665792
Te       2.10710934       3.64961945      24.21350115       0.63195622       0.00545386       0.41844379
Te       4.23774576       0.01358436      24.21928802       0.67903991       0.57126544      -0.52069486
Te      -2.10710934       3.62245172      24.21928802       0.81599566       0.39554731      -0.00447527
Te      -0.04848459       2.40508799      27.54273495       0.65265747       0.23960959       0.42396949
Te       2.10710823       6.13868430      27.54273495       0.11205719      -0.78388707       0.64384615
Te       4.26270242       2.40508720      27.54273494       0.32879465      -0.18235730       0.21158607
Te      -2.10710823       6.08269910      27.22259082       1.16455215      -0.91976525       0.56821074
Te       0.01296630       2.44056563      20.69074500      -0.16854283      -0.30997978      -0.03508684
Te       2.10710915       6.06772743      20.69074500       0.57402878      -0.37314037       0.65716947
Te       4.20125152       2.44056590      20.69074458       1.01161552      -0.13459879       0.17128132
Te      -2.10710915       6.08269963      20.69580375       0.75541486      -0.45661502       0.46943413
Sb      -0.00583960       2.42970661       8.42373455      -0.33370659      -0.62854508      -0.58444300
Sb       2.10711038       6.08944332       8.42373455       0.21478726      -1.13289084       0.54477022
Sb       4.22005742       2.42970830       8.42373494       0.53449749      -0.78815817       0.44396306
Sb      -2.10711038       6.08270034       8.34217953       0.56691973      -1.30906712      -0.33806644
Sb      -0.11823573       2.36481380       2.02204818      -0.33660199      -1.06826100      -1.30327713
Sb       2.10711114       6.21922763       2.02204818       0.19109749      -0.89643393      -0.02566166
Sb       4.33245356       2.36481637       2.02204847       0.47768713      -1.41149027       0.01964617
Sb      -2.10711114       6.08270078       1.95492345       0.58761953      -1.41497403      -0.73328610
Sb       0.00027821      -0.00016063      18.77953867       0.74848482       0.82619572       0.20639802
Sb       2.10710819       3.64962011      18.78218146      -0.93787348       1.14568760      -0.26718396
Sb       4.21393961      -0.00016146      18.77953892       0.27071637       0.55456707      -0.33215178
Sb       6.32132747       3.64994137      18.77953892      -0.86657241      -0.35001258      -0.86278145
Sb      -0.00014456       0.00008346      12.27074799       0.44644923       1.04239765       0.01306398
Sb       2.10710964       3.64961928      12.20739149       0.76263828       0.83269345       0.37054378
Sb       4.21436239       0.00008430      12.27074774       0.38976641       1.68395635      -0.38899256
Sb      -2.10710964       3.64945235      12.27074774       0.50015877       1.13708318       0.59677358
Sb       2.10710669       1.15010466      29.03381549      -0.30142271       0.87970444      -0.55816649
Sb       4.27175132       4.89937915      29.03381549      -0.88361321      -0.23637580      -0.43998516
Sb       6.32132897       1.21653861      29.18787885      -0.89744002       0.50002478      -0.38524571
Sb      -0.05753350       4.89937657      29.03381521      -0.22864249       0.07261764      -1.57348729
Sb       2.10710745       1.21441909      22.61367564      -1.04561196      -0.63781776       0.50580533
Sb       4.21605377       4.86722127      22.61367564      -0.97534334      -0.10239217      -0.51413370
Sb       6.32132821       1.21653905      22.58644052      -1.10126427      -0.17131913       0.38408378
Sb      -0.00183594       4.86721958      22.61367526      -1.33692717       0.05560788      -0.68235677
Cr       2.10710940       3.64961942       2.14592841      -0.03642820       0.18361184       0.71216721
