
     Program PWSCF v.7.3.1 starts on 13Sep2026 at 12:56:55 

     This program is part of the open-source Quantum ESPRESSO suite
     for quantum simulation of materials; please cite
         "P. Giannozzi et al., J. Phys.:Condens. Matter 21 395502 (2009);
         "P. Giannozzi et al., J. Phys.:Condens. Matter 29 465901 (2017);
         "P. Giannozzi et al., J. Chem. Phys. 152 154105 (2020);
          URL http://www.quantum-espresso.org", 
     in publications or presentations arising from this work. More details at
     http://www.quantum-espresso.org/quote

     Parallel version (MPI), running on     2 processors

     MPI processes distributed on     1 nodes
     138322 MiB available memory on the printing compute node when the environment starts
 
     Reading input from relax.in

     Current dimensions of program PWSCF are:
     Max number of different atomic species (ntypx) = 10
     Max number of k-points (npk) =  40000
     Max angular momentum in pseudopotentials (lmaxx) =  4
 
     R & G space division:  proc/nbgrp/npool/nimage =       2
     Subspace diagonalization in iterative solution of the eigenvalue problem:
     a serial algorithm will be used

 
     Parallelization info
     --------------------
     sticks:   dense  smooth     PW     G-vecs:    dense   smooth      PW
     Min        5037    5037   1294              1603625  1603625  211258
     Max        5038    5038   1295              1603634  1603634  211277
     Sum       10075   10075   2589              3207259  3207259  422535
 
     Using Slab Decomposition
 


     bravais-lattice index     =            0
     lattice parameter (alat)  =      32.3306  a.u.
     unit-cell volume          =   40541.4587 (a.u.)^3
     number of atoms/cell      =           81
     number of atomic types    =            3
     number of electrons       =      1262.00
     number of Kohn-Sham states=          757
     kinetic-energy cutoff     =      70.0000  Ry
     charge density cutoff     =     280.0000  Ry
     scf convergence threshold =      1.0E-06
     mixing beta               =       0.4000
     number of iterations used =            8  plain     mixing
     energy convergence thresh.=      1.0E-04
     force convergence thresh. =      1.0E-03
     Exchange-correlation= PBE
                           (   1   4   3   4   0   0   0)
     nstep                     =          200


     celldm(1)=  32.330568  celldm(2)=   0.000000  celldm(3)=   0.000000
     celldm(4)=   0.000000  celldm(5)=   0.000000  celldm(6)=   0.000000

     crystal axes: (cart. coord. in units of alat)
               a(1) = (   1.000000   0.000000   0.000000 )  
               a(2) = (  -0.249533   0.432744   0.000000 )  
               a(3) = (   0.005235   0.003019   2.772225 )  

     reciprocal axes: (cart. coord. in units 2 pi/alat)
               b(1) = (  1.000000  0.576629 -0.002516 )  
               b(2) = (  0.000000  2.310836 -0.002516 )  
               b(3) = (  0.000000  0.000000  0.360721 )  


     PseudoPot. # 1 for Sb read from file:
     /data/pclancy3/yi/ONCVPseudoPack/SG15_v1.2/UPF/PBE/Sb_PBE_FR.SG15v1.2.UPF
     MD5 check sum: 0e999992813bf262e14e71941f404476
     Pseudo is Norm-conserving, Zval = 15.0
     Generated using ONCVPSP code by D. R. Hamann
     Using radial grid of 1468 points,  6 beta functions with: 
                l(1) =   0
                l(2) =   0
                l(3) =   1
                l(4) =   1
                l(5) =   2
                l(6) =   2

     PseudoPot. # 2 for Te read from file:
     /data/pclancy3/yi/ONCVPseudoPack/SG15_v1.2/UPF/PBE/Te_PBE_FR.SG15v1.2.UPF
     MD5 check sum: 7c59b7da87cf03000ce4d32f994025eb
     Pseudo is Norm-conserving, Zval = 16.0
     Generated using ONCVPSP code by D. R. Hamann
     Using radial grid of 1324 points,  6 beta functions with: 
                l(1) =   0
                l(2) =   0
                l(3) =   1
                l(4) =   1
                l(5) =   2
                l(6) =   2

     PseudoPot. # 3 for Cr read from file:
     /data/pclancy3/yi/ONCVPseudoPack/SG15_v1.2/UPF/PBE/Cr_PBE_FR.SG15v1.2.UPF
     MD5 check sum: 19291ff833b3d067f23df56d5404fde6
     Pseudo is Norm-conserving, Zval = 14.0
     Generated using ONCVPSP code by D. R. Hamann
     Using radial grid of 1490 points,  6 beta functions with: 
                l(1) =   0
                l(2) =   0
                l(3) =   1
                l(4) =   1
                l(5) =   2
                l(6) =   2

     atomic species   valence    mass     pseudopotential
     Sb               15.00   121.76000     Sb( 1.00)
     Te               16.00   127.60000     Te( 1.00)
     Cr               14.00    51.99610     Cr( 1.00)

     Starting magnetic structure 
     atomic species   magnetization
     Sb              0.500
     Te              0.000
     Cr              0.000

     No symmetry found


                                    s                        frac. trans.

      isym =  1     identity                                     

 cryst.   s( 1) = (     1          0          0      )
                  (     0          1          0      )
                  (     0          0          1      )

 cart.    s( 1) = (  1.0000000  0.0000000  0.0000000 )
                  (  0.0000000  1.0000000  0.0000000 )
                  (  0.0000000  0.0000000  1.0000000 )


   Cartesian axes

     site n.     atom                  positions (alat units)
         1        Te     tau(   1) = (   0.0015214   0.0011779   0.8648496  )
         2        Te     tau(   2) = (   0.1266090   0.2172856   0.8653470  )
         3        Te     tau(   3) = (   0.2516393   0.0010409   0.8650971  )
         4        Te     tau(   4) = (  -0.1232370   0.2173012   0.8648077  )
         5        Te     tau(   5) = (   0.0007730   0.1445297   1.2985900  )
         6        Te     tau(   6) = (   0.1272510   0.3613629   1.2997334  )
         7        Te     tau(   7) = (   0.2517129   0.1458408   1.2998897  )
         8        Te     tau(   8) = (  -0.1240743   0.3608949   1.2990489  )
         9        Te     tau(   9) = (   0.1243205   0.0733241   1.4650285  )
        10        Te     tau(  10) = (   0.2515154   0.2888621   1.4722175  )
        11        Te     tau(  11) = (   0.3792136   0.0740644   1.4663110  )
        12        Te     tau(  12) = (   0.0016075   0.2865011   1.4652616  )
        13        Te     tau(  13) = (   0.1266132   0.0729147   1.0836368  )
        14        Te     tau(  14) = (   0.2517874   0.2894878   1.0839610  )
        15        Te     tau(  15) = (   0.3766108   0.0731742   1.0841672  )
        16        Te     tau(  16) = (   0.0015742   0.2896929   1.0836805  )
        17        Te     tau(  17) = (  -0.0017930  -0.0029580   1.9128936  )
        18        Te     tau(  18) = (   0.1309929   0.2212999   1.9140213  )
        19        Te     tau(  19) = (   0.2516986   0.0028373   1.9195229  )
        20        Te     tau(  20) = (  -0.1286975   0.2166885   1.9124835  )
        21        Te     tau(  21) = (   0.0024430   0.1466785   1.6933862  )
        22        Te     tau(  22) = (   0.1236371   0.3611191   1.6876248  )
        23        Te     tau(  23) = (   0.2501797   0.1420376   1.6879600  )
        24        Te     tau(  24) = (  -0.1208342   0.3643738   1.6894860  )
        25        Sb     tau(  25) = (   0.0014257   0.1451971   0.9637379  )
        26        Sb     tau(  26) = (   0.1266687   0.3615289   0.9639096  )
        27        Sb     tau(  27) = (   0.2515692   0.1451405   0.9638619  )
        28        Sb     tau(  28) = (  -0.1233494   0.3615618   0.9633611  )
        29        Sb     tau(  29) = (   0.0016048   0.0021579   1.5717047  )
        30        Sb     tau(  30) = (   0.1245572   0.2148492   1.5694078  )
        31        Sb     tau(  31) = (   0.2519306   0.0004271   1.5588662  )
        32        Sb     tau(  32) = (   0.3780203   0.2166869   1.5716510  )
        33        Sb     tau(  33) = (   0.0009215   0.0002846   1.1973500  )
        34        Sb     tau(  34) = (   0.1265789   0.2173166   1.1980805  )
        35        Sb     tau(  35) = (   0.2515930   0.0011523   1.1987474  )
        36        Sb     tau(  36) = (  -0.1239729   0.2168663   1.1974689  )
        37        Sb     tau(  37) = (   0.1172403   0.0779434   1.8209488  )
        38        Sb     tau(  38) = (   0.2521579   0.2891566   1.8024782  )
        39        Sb     tau(  39) = (   0.3877721   0.0787674   1.8151346  )
        40        Sb     tau(  40) = (   0.0003392   0.2786288   1.8195991  )
        41        Te     tau(  41) = (   0.5014552   0.0010033   0.8653414  )
        42        Te     tau(  42) = (   0.6263233   0.2175227   0.8651293  )
        43        Te     tau(  43) = (   0.7512263   0.0011924   0.8649581  )
        44        Te     tau(  44) = (   0.3765688   0.2172339   0.8652582  )
        45        Te     tau(  45) = (   0.5022311   0.1456505   1.3000701  )
        46        Te     tau(  46) = (   0.6266574   0.3616446   1.3005558  )
        47        Te     tau(  47) = (   0.7513868   0.1455491   1.3004688  )
        48        Te     tau(  48) = (   0.3767869   0.3616578   1.3009598  )
        49        Te     tau(  49) = (   0.6268981   0.0743274   1.4728169  )
        50        Te     tau(  50) = (   0.7525292   0.2906389   1.4734896  )
        51        Te     tau(  51) = (   0.8767478   0.0743576   1.4723045  )
        52        Te     tau(  52) = (   0.5029978   0.2897941   1.4726259  )
        53        Te     tau(  53) = (   0.6267387   0.0732672   1.0839578  )
        54        Te     tau(  54) = (   0.7513827   0.2895772   1.0834257  )
        55        Te     tau(  55) = (   0.8759841   0.0731559   1.0838786  )
        56        Te     tau(  56) = (   0.5016806   0.2896700   1.0839382  )
        57        Te     tau(  57) = (   0.5052056  -0.0030867   1.9084411  )
        58        Te     tau(  58) = (   0.6278476   0.2178814   1.9076334  )
        59        Te     tau(  59) = (   0.7505120   0.0004290   1.9106480  )
        60        Te     tau(  60) = (   0.3744374   0.2208835   1.9089054  )
        61        Te     tau(  61) = (   0.5017022   0.1450140   1.6904741  )
        62        Te     tau(  62) = (   0.6277480   0.3636085   1.6897931  )
        63        Te     tau(  63) = (   0.7539730   0.1462588   1.6897867  )
        64        Te     tau(  64) = (   0.3758035   0.3606668   1.6878956  )
        65        Sb     tau(  65) = (   0.5015500   0.1452720   0.9639362  )
        66        Sb     tau(  66) = (   0.6263762   0.3618479   0.9636922  )
        67        Sb     tau(  67) = (   0.7513232   0.1454314   0.9635599  )
        68        Sb     tau(  68) = (   0.3766832   0.3615211   0.9637179  )
        69        Sb     tau(  69) = (   0.5018713   0.0018032   1.5720275  )
        70        Sb     tau(  70) = (   0.6282711   0.2185261   1.5751294  )
        71        Sb     tau(  71) = (   0.7519677   0.0017121   1.5730583  )
        72        Sb     tau(  72) = (  -0.1217381   0.2176179   1.5724741  )
        73        Sb     tau(  73) = (   0.5020805   0.0012052   1.1987301  )
        74        Sb     tau(  74) = (   0.6267591   0.2176852   1.1985514  )
        75        Sb     tau(  75) = (   0.7512850   0.0010722   1.1994926  )
        76        Sb     tau(  76) = (   0.3769702   0.2177168   1.1988945  )
        77        Sb     tau(  77) = (   0.6284111   0.0733509   1.8092040  )
        78        Sb     tau(  78) = (   0.7509918   0.2898197   1.8070506  )
        79        Sb     tau(  79) = (   0.8758959   0.0730167   1.8134605  )
        80        Sb     tau(  80) = (   0.5021317   0.2901947   1.8099448  )
        81        Cr     tau(  81) = (   0.2524449   0.0008298   1.7650489  )

     --------------------------------------------
     DFT-D3 Dispersion Correction (3-body terms):
     --------------------------------------------
       Reference C6 values for interpolation: 

         atom   Coordination number   C6
         Cr         0.000          1381.48
         Cr         1.827           571.38
         Cr        10.619           306.69
         Sb         0.000           985.88
         Sb         0.975           946.94
         Sb         1.952           896.11
         Sb         2.932           834.76
         Te         0.000           851.07
         Te         0.981           850.20
         Te         1.964           837.16

       Values used:

         atom   Coordination number  R0_AB[au]  C6      C8
         Te         2.758            3.676    837.16  84978.11
         Te         2.765            3.676    837.16  84978.11
         Te         2.763            3.676    837.16  84978.11
         Te         2.760            3.676    837.16  84978.11
         Te         3.047            3.676    837.16  84978.06
         Te         3.017            3.676    837.16  84978.06
         Te         3.019            3.676    837.16  84978.06
         Te         3.018            3.676    837.16  84978.06
         Te         3.064            3.676    837.16  84978.06
         Te         2.982            3.676    837.16  84978.06
         Te         3.042            3.676    837.16  84978.06
         Te         3.062            3.676    837.16  84978.06
         Te         4.247            3.676    837.16  84978.05
         Te         4.242            3.676    837.16  84978.05
         Te         4.233            3.676    837.16  84978.05
         Te         4.247            3.676    837.16  84978.05
         Te         2.792            3.676    837.16  84978.10
         Te         2.792            3.676    837.16  84978.10
         Te         3.143            3.676    837.16  84978.06
         Te         2.795            3.676    837.16  84978.10
         Te         4.164            3.676    837.16  84978.05
         Te         4.439            3.676    837.16  84978.05
         Te         4.433            3.676    837.16  84978.05
         Te         4.425            3.676    837.16  84978.05
         Sb         4.697            3.794    834.76  89580.53
         Sb         4.704            3.794    834.76  89580.53
         Sb         4.706            3.794    834.76  89580.53
         Sb         4.702            3.794    834.76  89580.53
         Sb         4.710            3.794    834.76  89580.53
         Sb         4.675            3.794    834.76  89580.53
         Sb         4.632            3.794    834.76  89580.53
         Sb         4.723            3.794    834.76  89580.53
         Sb         4.882            3.794    834.76  89580.53
         Sb         4.854            3.794    834.76  89580.53
         Sb         4.838            3.794    834.76  89580.53
         Sb         4.884            3.794    834.76  89580.53
         Sb         5.169            3.794    834.76  89580.53
         Sb         4.760            3.794    834.76  89580.53
         Sb         5.147            3.794    834.76  89580.53
         Sb         5.166            3.794    834.76  89580.53
         Te         2.764            3.676    837.16  84978.11
         Te         2.764            3.676    837.16  84978.11
         Te         2.762            3.676    837.16  84978.11
         Te         2.765            3.676    837.16  84978.11
         Te         3.016            3.676    837.16  84978.06
         Te         2.976            3.676    837.16  84978.06
         Te         2.977            3.676    837.16  84978.06
         Te         2.977            3.676    837.16  84978.06
         Te         2.993            3.676    837.16  84978.06
         Te         3.010            3.676    837.16  84978.06
         Te         3.026            3.676    837.16  84978.06
         Te         2.991            3.676    837.16  84978.06
         Te         4.240            3.676    837.16  84978.05
         Te         4.284            3.676    837.16  84978.05
         Te         4.268            3.676    837.16  84978.05
         Te         4.243            3.676    837.16  84978.05
         Te         2.793            3.676    837.16  84978.10
         Te         2.777            3.676    837.16  84978.10
         Te         2.776            3.676    837.16  84978.10
         Te         2.793            3.676    837.16  84978.10
         Te         4.247            3.676    837.16  84978.05
         Te         4.193            3.676    837.16  84978.05
         Te         4.210            3.676    837.16  84978.05
         Te         4.202            3.676    837.16  84978.05
         Sb         4.702            3.794    834.76  89580.53
         Sb         4.706            3.794    834.76  89580.53
         Sb         4.708            3.794    834.76  89580.53
         Sb         4.700            3.794    834.76  89580.53
         Sb         4.735            3.794    834.76  89580.53
         Sb         4.786            3.794    834.76  89580.53
         Sb         4.779            3.794    834.76  89580.53
         Sb         4.729            3.794    834.76  89580.53
         Sb         4.848            3.794    834.76  89580.53
         Sb         4.862            3.794    834.76  89580.53
         Sb         4.842            3.794    834.76  89580.53
         Sb         4.850            3.794    834.76  89580.53
         Sb         4.671            3.794    834.76  89580.53
         Sb         4.752            3.794    834.76  89580.53
         Sb         4.680            3.794    834.76  89580.53
         Sb         4.652            3.794    834.76  89580.53
         Cr         6.408            3.252    306.69  28303.79

         Molecular C6 ( Ry / a.u.^6 ) =   5432393.45


   Crystallographic axes

     site n.     atom                  positions (cryst. coord.)
         1        Te     tau(   1) = (  0.0000244  0.0005457  0.3119695  )
         2        Te     tau(   2) = (  0.2497246  0.4999338  0.3121489  )
         3        Te     tau(   3) = (  0.2500626  0.0002285  0.3120588  )
         4        Te     tau(   4) = ( -0.0001110  0.4999711  0.3119544  )
         5        Te     tau(   5) = (  0.0808453  0.3307167  0.4684288  )
         6        Te     tau(   6) = (  0.3323528  0.8317799  0.4688412  )
         7        Te     tau(   7) = (  0.3325380  0.3337433  0.4688976  )
         8        Te     tau(   8) = (  0.0807594  0.8307001  0.4685944  )
         9        Te     tau(   9) = (  0.1629148  0.1657534  0.5284667  )
        10        Te     tau(  10) = (  0.4143771  0.6638084  0.5310599  )
        11        Te     tau(  11) = (  0.4182315  0.1674608  0.5289293  )
        12        Te     tau(  12) = (  0.1631252  0.6583700  0.5285508  )
        13        Te     tau(  13) = (  0.1659311  0.1657672  0.3908906  )
        14        Te     tau(  14) = (  0.4159868  0.6662311  0.3910076  )
        15        Te     tau(  15) = (  0.4160770  0.1663654  0.3910820  )
        16        Te     tau(  16) = (  0.1658926  0.6667059  0.3909064  )
        17        Te     tau(  17) = ( -0.0083122 -0.0116489  0.6900211  )
        18        Te     tau(  18) = (  0.2537845  0.5065713  0.6904279  )
        19        Te     tau(  19) = (  0.2485044  0.0017264  0.6924124  )
        20        Te     tau(  20) = ( -0.0085611  0.4959191  0.6898732  )
        21        Te     tau(  21) = (  0.0827609  0.3346889  0.6108401  )
        22        Te     tau(  22) = (  0.3276222  0.8302403  0.6087619  )
        23        Te     tau(  23) = (  0.3278352  0.3239780  0.6088828  )
        24        Te     tau(  24) = (  0.0850230  0.8377568  0.6094332  )
        25        Sb     tau(  25) = (  0.0827255  0.3331016  0.3476406  )
        26        Sb     tau(  26) = (  0.3327113  0.8330085  0.3477025  )
        27        Sb     tau(  27) = (  0.3328360  0.3329705  0.3476853  )
        28        Sb     tau(  28) = (  0.0827135  0.8330858  0.3475047  )
        29        Sb     tau(  29) = ( -0.0011059  0.0010315  0.5669470  )
        30        Sb     tau(  30) = (  0.2444963  0.4925320  0.5661185  )
        31        Sb     tau(  31) = (  0.2482542 -0.0029357  0.5623159  )
        32        Sb     tau(  32) = (  0.4990134  0.4967732  0.5669277  )
        33        Sb     tau(  33) = ( -0.0019274 -0.0023553  0.4319094  )
        34        Sb     tau(  34) = (  0.2488752  0.4991683  0.4321729  )
        35        Sb     tau(  35) = (  0.2492410 -0.0003536  0.4324135  )
        36        Sb     tau(  36) = ( -0.0019348  0.4981291  0.4319523  )
        37        Sb     tau(  37) = (  0.1576026  0.1755323  0.6568547  )
        38        Sb     tau(  38) = (  0.4143583  0.6636578  0.6501919  )
        39        Sb     tau(  39) = (  0.4286241  0.1774510  0.6547573  )
        40        Sb     tau(  40) = (  0.1564259  0.6392867  0.6563678  )
        41        Te     tau(  41) = (  0.4998562  0.0001409  0.3121469  )
        42        Te     tau(  42) = (  0.7495762  0.5004823  0.3120704  )
        43        Te     tau(  43) = (  0.7497373  0.0005789  0.3120086  )
        44        Te     tau(  44) = (  0.4996549  0.4998145  0.3121169  )
        45        Te     tau(  45) = (  0.5829460  0.3333031  0.4689627  )
        46        Te     tau(  46) = (  0.8319196  0.8324286  0.4691379  )
        47        Te     tau(  47) = (  0.8320422  0.3330677  0.4691065  )
        48        Te     tau(  48) = (  0.5820556  0.8324581  0.4692836  )
        49        Te     tau(  49) = (  0.6660514  0.1680524  0.5312761  )
        50        Te     tau(  50) = (  0.9164122  0.6679110  0.5315188  )
        51        Te     tau(  51) = (  0.9159197  0.1681233  0.5310913  )
        52        Te     tau(  52) = (  0.6663959  0.6659609  0.5312072  )
        53        Te     tau(  53) = (  0.6662591  0.1665809  0.3910064  )
        54        Te     tau(  54) = (  0.9156350  0.6664391  0.3908145  )
        55        Te     tau(  55) = (  0.9154405  0.1663240  0.3909779  )
        56        Te     tau(  56) = (  0.6659852  0.6666524  0.3909994  )
        57        Te     tau(  57) = (  0.4986234 -0.0119352  0.6884150  )
        58        Te     tau(  58) = (  0.7486841  0.4986878  0.6881236  )
        59        Te     tau(  59) = (  0.7459515 -0.0038165  0.6892110  )
        60        Te     tau(  60) = (  0.4970017  0.5056220  0.6885824  )
        61        Te     tau(  61) = (  0.5810676  0.3308498  0.6097897  )
        62        Te     tau(  62) = (  0.8331632  0.8359875  0.6095440  )
        63        Te     tau(  63) = (  0.8340580  0.3337280  0.6095417  )
        64        Te     tau(  64) = (  0.5795271  0.8291945  0.6088595  )
        65        Sb     tau(  65) = (  0.5828925  0.3332742  0.3477121  )
        66        Sb     tau(  66) = (  0.8326032  0.8337461  0.3476241  )
        67        Sb     tau(  67) = (  0.8327586  0.3336435  0.3475764  )
        68        Sb     tau(  68) = (  0.5827217  0.8329910  0.3476334  )
        69        Sb     tau(  69) = (  0.4989553  0.0002111  0.5670635  )
        70        Sb     tau(  70) = (  0.7503160  0.5010144  0.5681824  )
        71        Sb     tau(  71) = (  0.7489965 -0.0000021  0.5674353  )
        72        Sb     tau(  72) = ( -0.0002102  0.4989223  0.5672246  )
        73        Sb     tau(  73) = (  0.4997590 -0.0002315  0.4324072  )
        74        Sb     tau(  74) = (  0.7492668  0.5000189  0.4323428  )
        75        Sb     tau(  75) = (  0.7488849 -0.0005407  0.4326823  )
        76        Sb     tau(  76) = (  0.4994952  0.5000910  0.4324665  )
        77        Sb     tau(  77) = (  0.6661547  0.1649492  0.6526181  )
        78        Sb     tau(  78) = (  0.9135630  0.6651785  0.6518413  )
        79        Sb     tau(  79) = (  0.9134361  0.1641662  0.6541535  )
        80        Sb     tau(  80) = (  0.6649119  0.6660378  0.6528852  )
        81        Cr     tau(  81) = (  0.2484819 -0.0025239  0.6366904  )

     number of k points=     4  Marzari-Vanderbilt smearing, width (Ry)=  0.0147
                       cart. coord. in units 2pi/alat
        k(    1) = (   0.2500000   0.7218663   0.0889221), wk =   0.2500000
        k(    2) = (   0.2500000   0.7218663  -0.0914385), wk =   0.2500000
        k(    3) = (   0.2500000  -0.4335517   0.0901803), wk =   0.2500000
        k(    4) = (   0.2500000  -0.4335517  -0.0901803), wk =   0.2500000

                       cryst. coord.
        k(    1) = (   0.2500000   0.2500000   0.2500000), wk =   0.2500000
        k(    2) = (   0.2500000   0.2500000  -0.2500000), wk =   0.2500000
        k(    3) = (   0.2500000  -0.2500000   0.2500000), wk =   0.2500000
        k(    4) = (   0.2500000  -0.2500000  -0.2500000), wk =   0.2500000

     Dense  grid:  3207259 G-vectors     FFT dimensions: ( 180,  90, 480)

     Dynamical RAM for                 wfc:    2315.69 MB

     Dynamical RAM for     wfc (w. buffer):   20841.21 MB

     Dynamical RAM for           str. fact:      73.41 MB

     Dynamical RAM for           local pot:       0.00 MB

     Dynamical RAM for          nlocal pot:    4460.07 MB

     Dynamical RAM for                qrad:       4.03 MB

     Dynamical RAM for          rho,v,vnew:     324.80 MB

     Dynamical RAM for               rhoin:     108.27 MB

     Dynamical RAM for            rho*nmix:     783.02 MB

     Dynamical RAM for           G-vectors:     104.00 MB

     Dynamical RAM for          h,s,v(r/c):     104.93 MB

     Dynamical RAM for          <psi|beta>:      16.84 MB

     Dynamical RAM for                 psi:    4631.38 MB

     Dynamical RAM for                hpsi:    4631.38 MB

     Dynamical RAM for      wfcinit/wfcrot:    4644.50 MB

     Estimated static dynamical RAM per process >      25.58 GB

     Estimated max dynamical RAM per process >      35.51 GB

     Estimated total dynamical RAM >      71.01 GB
     Generating pointlists ...
     new r_m :   0.0677 (alat units)  2.1872 (a.u.) for type    1
     new r_m :   0.0637 (alat units)  2.0603 (a.u.) for type    2
     new r_m :   0.0637 (alat units)  2.0603 (a.u.) for type    3

     Initial potential from superposition of free atoms

     starting charge    1261.9703, renormalised to    1262.0000

     negative rho (up, down):  1.720E-05 9.941E-06
     Starting wfcs are  730 randomized atomic wfcs +   27 random wfcs

     total cpu time spent up to now is     1543.6 secs

     Self-consistent Calculation

     iteration #  1     ecut=    70.00 Ry     beta= 0.40
     Davidson diagonalization with overlap

---- Real-time Memory Report at c_bands before calling an iterative solver
         28541 MiB given to the printing process from OS
             0 MiB allocation reported by mallinfo(arena+hblkhd)
         85656 MiB available memory on the node where the printing process lives
------------------
     ethr =  1.00E-02,  avg # of iterations =  7.4

     total cpu time spent up to now is     7184.4 secs

     total energy              =  -13020.49393832 Ry
     estimated scf accuracy    <      27.17356323 Ry

     total magnetization       =     4.34 Bohr mag/cell
     absolute magnetization    =    32.63 Bohr mag/cell

     iteration #  2     ecut=    70.00 Ry     beta= 0.40
     Davidson diagonalization with overlap

---- Real-time Memory Report at c_bands before calling an iterative solver
         35743 MiB given to the printing process from OS
             0 MiB allocation reported by mallinfo(arena+hblkhd)
         85730 MiB available memory on the node where the printing process lives
------------------
     ethr =  2.15E-03,  avg # of iterations =  9.6

     total cpu time spent up to now is    13987.5 secs

     total energy              =  -12984.12911718 Ry
     estimated scf accuracy    <    3153.71875826 Ry

     total magnetization       =    18.24 Bohr mag/cell
     absolute magnetization    =    21.44 Bohr mag/cell

     iteration #  3     ecut=    70.00 Ry     beta= 0.40
     Davidson diagonalization with overlap

---- Real-time Memory Report at c_bands before calling an iterative solver
         35852 MiB given to the printing process from OS
             0 MiB allocation reported by mallinfo(arena+hblkhd)
         85778 MiB available memory on the node where the printing process lives
------------------
     ethr =  2.15E-03,  avg # of iterations =  7.1

     total cpu time spent up to now is    21391.2 secs

     total energy              =  -13019.81120937 Ry
     estimated scf accuracy    <     574.88294523 Ry

     total magnetization       =    17.40 Bohr mag/cell
     absolute magnetization    =    25.74 Bohr mag/cell

     iteration #  4     ecut=    70.00 Ry     beta= 0.40
     Davidson diagonalization with overlap

---- Real-time Memory Report at c_bands before calling an iterative solver
         35950 MiB given to the printing process from OS
             0 MiB allocation reported by mallinfo(arena+hblkhd)
         85588 MiB available memory on the node where the printing process lives
------------------
     ethr =  2.15E-03,  avg # of iterations =  4.5

     total cpu time spent up to now is    26824.6 secs

     total energy              =  -13027.04883433 Ry
     estimated scf accuracy    <     112.66468501 Ry

     total magnetization       =    12.69 Bohr mag/cell
     absolute magnetization    =    24.19 Bohr mag/cell

     iteration #  5     ecut=    70.00 Ry     beta= 0.40
     Davidson diagonalization with overlap

---- Real-time Memory Report at c_bands before calling an iterative solver
         36048 MiB given to the printing process from OS
             0 MiB allocation reported by mallinfo(arena+hblkhd)
         85405 MiB available memory on the node where the printing process lives
------------------
     ethr =  2.15E-03,  avg # of iterations =  4.6

     total cpu time spent up to now is    31781.4 secs

     total energy              =  -13030.88888915 Ry
     estimated scf accuracy    <      59.70589084 Ry

     total magnetization       =     7.52 Bohr mag/cell
     absolute magnetization    =    23.25 Bohr mag/cell

     iteration #  6     ecut=    70.00 Ry     beta= 0.40
     Davidson diagonalization with overlap

---- Real-time Memory Report at c_bands before calling an iterative solver
         36146 MiB given to the printing process from OS
             0 MiB allocation reported by mallinfo(arena+hblkhd)
         85282 MiB available memory on the node where the printing process lives
------------------
     ethr =  2.15E-03,  avg # of iterations =  2.0

     total cpu time spent up to now is    36428.1 secs

     total energy              =  -13032.39879052 Ry
     estimated scf accuracy    <      16.17414850 Ry

     total magnetization       =     5.85 Bohr mag/cell
     absolute magnetization    =    21.31 Bohr mag/cell

     iteration #  7     ecut=    70.00 Ry     beta= 0.40
     Davidson diagonalization with overlap

---- Real-time Memory Report at c_bands before calling an iterative solver
         36244 MiB given to the printing process from OS
             0 MiB allocation reported by mallinfo(arena+hblkhd)
         85251 MiB available memory on the node where the printing process lives
------------------
     ethr =  1.28E-03,  avg # of iterations =  7.0

     total cpu time spent up to now is    42449.0 secs

     total energy              =  -13038.41233647 Ry
     estimated scf accuracy    <      26.97724801 Ry

     total magnetization       =     3.39 Bohr mag/cell
     absolute magnetization    =    17.19 Bohr mag/cell

     iteration #  8     ecut=    70.00 Ry     beta= 0.40
     Davidson diagonalization with overlap

---- Real-time Memory Report at c_bands before calling an iterative solver
         36342 MiB given to the printing process from OS
             0 MiB allocation reported by mallinfo(arena+hblkhd)
         85326 MiB available memory on the node where the printing process lives
------------------
     ethr =  1.28E-03,  avg # of iterations =  2.0

     total cpu time spent up to now is    47142.1 secs

     total energy              =  -13037.58212648 Ry
     estimated scf accuracy    <      28.95955004 Ry

     total magnetization       =    -0.01 Bohr mag/cell
     absolute magnetization    =     8.23 Bohr mag/cell

     iteration #  9     ecut=    70.00 Ry     beta= 0.40
     Davidson diagonalization with overlap

---- Real-time Memory Report at c_bands before calling an iterative solver
         36439 MiB given to the printing process from OS
             0 MiB allocation reported by mallinfo(arena+hblkhd)
         85574 MiB available memory on the node where the printing process lives
------------------
     ethr =  1.28E-03,  avg # of iterations =  1.0

     total cpu time spent up to now is    51379.9 secs

     total energy              =  -13037.10228353 Ry
     estimated scf accuracy    <      13.87350187 Ry

     total magnetization       =    -0.52 Bohr mag/cell
     absolute magnetization    =     6.62 Bohr mag/cell

     iteration # 10     ecut=    70.00 Ry     beta= 0.40
     Davidson diagonalization with overlap

---- Real-time Memory Report at c_bands before calling an iterative solver
         36528 MiB given to the printing process from OS
             0 MiB allocation reported by mallinfo(arena+hblkhd)
         85451 MiB available memory on the node where the printing process lives
------------------
     ethr =  1.10E-03,  avg # of iterations =  2.0

     total cpu time spent up to now is    56016.5 secs

     total energy              =  -13037.72121074 Ry
     estimated scf accuracy    <       0.71065739 Ry

     total magnetization       =     0.27 Bohr mag/cell
     absolute magnetization    =     4.88 Bohr mag/cell

     iteration # 11     ecut=    70.00 Ry     beta= 0.40
     Davidson diagonalization with overlap

---- Real-time Memory Report at c_bands before calling an iterative solver
         36635 MiB given to the printing process from OS
             0 MiB allocation reported by mallinfo(arena+hblkhd)
         85455 MiB available memory on the node where the printing process lives
------------------
     c_bands:  1 eigenvalues not converged
     ethr =  5.63E-05,  avg # of iterations = 15.1

     total cpu time spent up to now is    61924.1 secs

     total energy              =  -13037.44983024 Ry
     estimated scf accuracy    <       6.56004411 Ry

     total magnetization       =     1.19 Bohr mag/cell
     absolute magnetization    =     4.27 Bohr mag/cell

     iteration # 12     ecut=    70.00 Ry     beta= 0.40
     Davidson diagonalization with overlap

---- Real-time Memory Report at c_bands before calling an iterative solver
         36635 MiB given to the printing process from OS
             0 MiB allocation reported by mallinfo(arena+hblkhd)
         85464 MiB available memory on the node where the printing process lives
------------------
     ethr =  5.63E-05,  avg # of iterations =  4.0

     total cpu time spent up to now is    66876.6 secs

     total energy              =  -13037.67662858 Ry
     estimated scf accuracy    <       0.38286842 Ry

     total magnetization       =     0.04 Bohr mag/cell
     absolute magnetization    =     3.35 Bohr mag/cell

     iteration # 13     ecut=    70.00 Ry     beta= 0.40
     Davidson diagonalization with overlap

---- Real-time Memory Report at c_bands before calling an iterative solver
         36635 MiB given to the printing process from OS
             0 MiB allocation reported by mallinfo(arena+hblkhd)
         85526 MiB available memory on the node where the printing process lives
------------------
     ethr =  3.03E-05,  avg # of iterations =  4.1

     total cpu time spent up to now is    71553.8 secs

     total energy              =  -13037.69082084 Ry
     estimated scf accuracy    <       0.17278522 Ry

     total magnetization       =    -0.01 Bohr mag/cell
     absolute magnetization    =     2.76 Bohr mag/cell

     iteration # 14     ecut=    70.00 Ry     beta= 0.40
     Davidson diagonalization with overlap

---- Real-time Memory Report at c_bands before calling an iterative solver
         36635 MiB given to the printing process from OS
             0 MiB allocation reported by mallinfo(arena+hblkhd)
         85522 MiB available memory on the node where the printing process lives
------------------
     ethr =  1.37E-05,  avg # of iterations =  7.6

     total cpu time spent up to now is    76437.2 secs

     total energy              =  -13037.68969870 Ry
     estimated scf accuracy    <       0.07010795 Ry

     total magnetization       =    -0.02 Bohr mag/cell
     absolute magnetization    =     2.49 Bohr mag/cell

     iteration # 15     ecut=    70.00 Ry     beta= 0.40
     Davidson diagonalization with overlap

---- Real-time Memory Report at c_bands before calling an iterative solver
         36635 MiB given to the printing process from OS
             0 MiB allocation reported by mallinfo(arena+hblkhd)
         85524 MiB available memory on the node where the printing process lives
------------------
     c_bands:  1 eigenvalues not converged
     c_bands:  1 eigenvalues not converged
     c_bands:  1 eigenvalues not converged
     c_bands:  1 eigenvalues not converged
     c_bands:  1 eigenvalues not converged
     ethr =  5.56E-06,  avg # of iterations = 19.5

     total cpu time spent up to now is    82716.4 secs

     total energy              =  -13037.68245726 Ry
     estimated scf accuracy    <       0.27433580 Ry

     total magnetization       =    -0.00 Bohr mag/cell
     absolute magnetization    =     2.62 Bohr mag/cell

     iteration # 16     ecut=    70.00 Ry     beta= 0.40
     Davidson diagonalization with overlap

---- Real-time Memory Report at c_bands before calling an iterative solver
         36635 MiB given to the printing process from OS
             0 MiB allocation reported by mallinfo(arena+hblkhd)
         85711 MiB available memory on the node where the printing process lives
------------------
     c_bands:  2 eigenvalues not converged

     Maximum CPU time exceeded

     max_seconds     =   84600.00
     elapsed seconds =   84834.97
     Calculation stopped in k-point loop, point #     3
     Calculation stopped in scf loop at iteration #    15

     Writing config to output data dir ./out/mb_spp04_s42.save/ :
     XML data file, charge density
 
     init_run     :   1469.38s CPU   1542.95s WALL (       1 calls)
     electrons    :  76729.82s CPU  83297.34s WALL (       1 calls)

     Called by init_run:
     wfcinit      :   1456.50s CPU   1529.33s WALL (       1 calls)
     wfcinit:atom :      9.63s CPU     13.24s WALL (       8 calls)
     wfcinit:wfcr :   1417.42s CPU   1481.79s WALL (       8 calls)
     potinit      :      4.51s CPU      5.11s WALL (       1 calls)
     hinit0       :      7.22s CPU      7.32s WALL (       1 calls)

     Called by electrons:
     c_bands      :  69626.93s CPU  75778.26s WALL (      16 calls)
     sum_band     :   7013.96s CPU   7413.18s WALL (      15 calls)
     v_of_rho     :     67.17s CPU     84.03s WALL (      16 calls)
     v_h          :      2.74s CPU      3.71s WALL (      16 calls)
     v_xc         :     64.43s CPU     80.32s WALL (      16 calls)
     mix_rho      :     29.80s CPU     39.54s WALL (      15 calls)
     energy_dftd3 :      0.49s CPU      0.49s WALL (       1 calls)

     Called by c_bands:
     init_us_2    :    762.00s CPU    766.98s WALL (     251 calls)
     cegterg      :  67419.77s CPU  73545.60s WALL (     123 calls)

     Called by sum_band:
     sum_band:wei :      0.11s CPU      0.11s WALL (      15 calls)
     sum_band:loo :   7005.91s CPU   7403.13s WALL (      15 calls)
     sum_band:buf :    105.45s CPU    108.01s WALL (     120 calls)
     sum_band:ini :    364.74s CPU    366.80s WALL (     120 calls)

     Called by *egterg:
     cdiaghg      :   1123.01s CPU   1136.84s WALL (     959 calls)
     cegterg:over :   9079.98s CPU   9664.94s WALL (     836 calls)
     cegterg:upda :   5051.07s CPU   5707.57s WALL (     836 calls)
     cegterg:last :   8080.47s CPU   8606.95s WALL (     245 calls)
     h_psi        :  41805.31s CPU  45845.44s WALL (     967 calls)
     g_psi        :    105.51s CPU    120.29s WALL (     836 calls)

     Called by h_psi:
     h_psi:calbec :   7398.25s CPU   7569.34s WALL (     967 calls)
     vloc_psi     :  26723.14s CPU  30097.11s WALL (     967 calls)
     add_vuspsi   :   7525.96s CPU   7717.02s WALL (     967 calls)

     General routines
     calbec       :   7398.25s CPU   7569.33s WALL (     967 calls)
     fft          :     27.52s CPU     35.18s WALL (     303 calls)
     ffts         :      2.70s CPU      3.39s WALL (      30 calls)
     fftw         :  22761.48s CPU  26277.01s WALL (  527590 calls)
     davcio       :      0.02s CPU      8.16s WALL (      26 calls)
 
     Parallel routines
 
     PWSCF        :     21h43m CPU     23h34m WALL

 
   This run was terminated on:  12:31:13  14Sep2026            

=------------------------------------------------------------------------------=
   JOB DONE.
=------------------------------------------------------------------------------=
