61
Properties=species:S:1:pos:R:3:forces:R:3 energy=-194.45206369841804 mlff_rel_energy_eV=0.0 mlff_fmax_eV_A=2.8077782992105575 calculator_label=/data/pclancy3/yi/flare-data/1-Cr-Sb2Te3/3.fine-tuning/2-layer/MACE-omat/MACE-matpes-pbe-omat-ft.model neb_image=0 neb_protocol=mlff_pre_neb pbc="F F F"
Te       2.10710960       1.21612744       3.42192680       0.26366447       0.17542407       0.34109418
Te       4.21457537       4.86636523       3.42192680      -0.53885728       0.88390884      -0.04722076
Te       6.32132606       1.21654029       3.40258279      -0.79640147       0.35292842      -0.25824105
Te      -0.00035754       4.86636602       3.42192681      -0.26482443       1.36120297       0.62351259
Te      -0.07696737       0.04443715       6.96506176       0.15301946       0.94063822       0.41474254
Te       2.10710848       3.64961994       7.10629020      -0.70454320       0.75276376      -0.63861498
Te       4.29118520       0.04443665       6.96506157      -0.13784193       0.84086764       0.19979398
Te      -2.10710848       3.56074564       6.96506157      -0.18391030       1.24053889       0.33672029
Te      -0.00000000      -0.00000000       0.00000000       0.17289250       1.15481399       0.74314339
Te       2.10710891       3.64961970       0.00000000      -0.73455541       0.79252202       0.50701773
Te       4.21421783      -0.00000000       0.00000000      -0.19764423       1.03746267       0.71212950
Te      -2.10710891       3.64961970       0.00000000       0.10677187       1.48063617       1.22095684
Te       0.09510216       2.48798733      13.95071521      -1.07004019      -1.17447097       0.13145604
Te       2.10710870       5.97288480      13.95071521      -0.04433600      -0.95523248       0.43977067
Te       4.11911567       2.48798708      13.95071560       0.23479617      -0.37131195       0.10958798
Te      -2.10710870       6.08269937      14.00926900       0.06049645      -1.44762384      -0.88631311
Te       2.10710913       1.32635459      17.08272201      -0.36967139      -1.60069591      -0.05311537
Te       4.11911567       4.81125206      17.08272201       0.65493413       0.23368382      -0.18018419
Te       6.32132652       1.21654002      17.02416822      -0.22650997       0.03751571       0.64692336
Te       0.09510216       4.81125231      17.08272162       0.68952478      -0.38547815      -0.27337585
Te       2.10710868       1.16191020      10.45735891       0.16417653      -1.24034231       0.33829459
Te       4.26152840       4.89347465      10.45735891      -0.82938195       0.61884418      -0.59061352
Te       6.32132698       1.21653976      10.53271700      -1.23461470      -0.57586280       0.81425293
Te      -0.04731057       4.89347438      10.45735933      -0.90816543       1.08493990      -0.42528772
Te       0.07696737      -0.04443715      24.06837547       0.88422561       0.64870780      -0.52852254
Te       2.10710934       3.64961945      23.92714703       1.12216948      -0.25859141       0.60937586
Te       4.13725046      -0.04443665      24.06837566       1.27767482       0.41619346      -0.21885948
Te      -2.10710934       3.73849375      24.06837566       0.81752131       0.30095151      -0.23583477
Te      -0.00035754       2.43287416      27.61151043       0.73799840      -0.07869971       0.60440394
Te       2.10710823       6.08311195      27.61151043       0.46163139      -0.66239602       0.81969302
Te       4.21457537       2.43287337      27.61151042       0.33204958      -0.23294046       0.59917000
Te      -2.10710823       6.08269910      27.63085443       1.31138571      -0.85616830       0.70233042
Te      -0.04731057       2.40576474      20.57607831      -0.19559302      -0.58052743      -0.30622157
Te       2.10710915       6.13732919      20.57607831       1.04846159      -0.43194153       0.61482607
Te       4.26152840       2.40576501      20.57607789       1.70172691      -0.28214240       0.43081793
Te      -2.10710915       6.08269963      20.50072022       1.02919488      -0.65338461       0.68207117
Sb      -0.04783569       2.40546014       8.59398377      -0.39439800      -1.24158740      -0.80872662
Sb       2.10711038       6.13793626       8.59398377       0.72009216      -1.20885387       0.65380758
Sb       4.26205352       2.40546184       8.59398416       1.17082107      -1.26480043       0.11772985
Sb      -2.10711038       6.08270034       8.39629258       0.61129131      -1.45830585      -0.17945116
Sb       0.00077807       2.43352644       1.84259646       0.20285038      -1.96844273      -1.99190962
Sb       2.10711114       6.08180234       1.84259646       0.62908653      -1.46652688      -0.05575390
Sb       4.21343976       2.43352901       1.84259675       0.51422103      -2.02965912      -0.25782959
Sb      -2.10711114       6.08270078       1.84746453       0.47974487      -1.91202167      -0.91603227
Sb      -0.06737878       0.03890117      18.68632111       0.58489120       1.02795386       0.12014343
Sb       2.10710819       3.64962011      18.79321941      -1.22028838       1.41387944       0.40837155
Sb       4.28159661       0.03890034      18.68632135      -0.00363963       0.22802689      -0.60380527
Sb       6.32132747       3.57181777      18.68632135      -0.63807174      -0.04977227      -0.75819897
Sb       0.06737878      -0.03890117      12.34711612       0.47487458       0.97418498       0.11252119
Sb       2.10710964       3.64961928      12.24021781       1.02635885       1.10807112      -0.26484413
Sb       4.14683905      -0.03890034      12.34711588       0.67248814       1.49793888      -0.88222782
Sb      -2.10710964       3.72742163      12.34711588       0.35459290       1.46673813       1.09315499
Sb       2.10710669       1.21743705      29.19084076      -0.58456176       0.62461704      -0.74395598
Sb       4.21343976       4.86571295      29.19084076      -0.82429823       0.17159565      -0.74822266
Sb       6.32132897       1.21653861      29.18597269      -0.62505809       0.34627102      -0.45362236
Sb       0.00077807       4.86571038      29.19084047      -0.85862407       0.46555029      -1.39815655
Sb       2.10710745       1.16130313      22.43945345      -1.77069884      -0.87989276       0.69202356
Sb       4.26205352       4.89377925      22.43945345      -1.43199836       0.24072549      -0.61921405
Sb       6.32132821       1.21653905      22.63714464      -1.37946867      -0.24228144       0.27020413
Sb      -0.04783569       4.89377756      22.43945306      -2.45154825       0.75994261      -0.73276211
Cr       2.10710891       3.64961970      15.51671861      -0.04608416       0.82991527      -0.05292336
61
Properties=species:S:1:pos:R:3:forces:R:3 energy=-195.5675173939108 mlff_rel_energy_eV=-1.1154536954927607 mlff_fmax_eV_A=2.3777809521228157 calculator_label=/data/pclancy3/yi/flare-data/1-Cr-Sb2Te3/3.fine-tuning/2-layer/MACE-omat/MACE-matpes-pbe-omat-ft.model neb_image=1 neb_protocol=mlff_pre_neb pbc="F F F"
Te       2.11015492       1.21654014       3.43490575       0.21155746       0.15564910       0.35830920
Te       4.20548591       4.88707082       3.42638931      -0.47155067       0.69728052      -0.06545749
Te       6.30507905       1.22371244       3.40557049      -0.67021057       0.28630168      -0.18934310
Te      -0.00542291       4.89292514       3.42949617      -0.23566437       1.05737724       0.48943050
Te      -0.10158333       0.07925700       6.94703844       0.13722061       0.77575599       0.29433167
Te       2.09615970       3.66258352       6.92923519      -0.57218810       0.59404042      -0.45632085
Te       4.24918924       0.00994475       6.93546217      -0.10750551       0.78483678       0.12011203
Te      -2.08617719       3.64356013       6.93856823      -0.24986058       0.93527251       0.19933580
Te       0.00431253       0.02280516       0.00975423       0.15154886       1.07683176       0.68482479
Te       2.09277885       3.66514593       0.01059322      -0.65436955       0.67702937       0.45961260
Te       4.21012327       0.02322158       0.01552123      -0.17360586       0.97531995       0.66753913
Te      -2.10721244       3.67810284       0.02539709       0.03504780       1.35079945       1.03881346
Te       0.03482472       2.41071332      13.79610068      -0.72823651      -0.81397093       0.17570592
Te       2.13421129       6.02009930      13.79151197      -0.06873473      -0.75778460       0.05809322
Te       4.03236749       2.52910966      13.87330831       0.21369028      -0.44227892       0.45742272
Te      -2.10191898       6.05198621      13.76318006       0.07807446      -1.25796708      -0.67736489
Te       2.18373019       0.84313495      17.24598613      -0.61213232      -1.15240890       0.13913229
Te       4.56905282       4.97211118      17.24588909       0.45030186       0.60502235       0.17328424
Te       6.08702310       1.34668215      17.19012284       0.04399432      -0.28863018       0.28109447
Te       0.25421071       4.72032460      17.12522217       0.97125713      -0.50942222      -0.23942866
Te       2.13014693       1.17306552      10.36707730       0.21807730      -1.17561964       0.39326544
Te       4.22297433       4.87294029      10.34861052      -0.65067876       0.64575318      -0.44578935
Te       6.29777646       1.20623615      10.39428203      -0.97688590      -0.47407781       0.80646838
Te      -0.11242263       4.94645777      10.37569950      -0.61171589       1.08272195      -0.37005834
Te       0.12625692      -0.05230677      24.09902397       0.63820100       0.43370507      -0.33888461
Te       2.01121472       3.71274884      24.02433406       1.11223880      -0.30930356       0.40536095
Te       4.13622189      -0.18724718      24.13817981       1.16498906       0.54318755      -0.23392473
Te      -1.97415475       3.84505930      24.14329158       0.48490100       0.19433713      -0.03402638
Te       0.01439968       2.43162293      27.61915916       0.58613531      -0.09185761       0.44045339
Te       2.11600845       6.06967123      27.62323106       0.40218752      -0.51330300       0.62148337
Te       4.22100275       2.42839694      27.59234329       0.24045343      -0.16999482       0.54420552
Te      -2.08364531       6.06703416      27.65061119       1.12161702      -0.74306930       0.52824619
Te      -0.02670723       2.32761092      20.73962744       0.01726226      -0.36355968      -0.64506460
Te       2.20094609       6.14508829      20.75524261       1.07649958      -0.43005807       0.02077785
Te       4.34361428       2.37423509      20.68437930       1.49716139      -0.18725070       0.57403838
Te      -2.17353638       6.12088904      20.61894761       1.00012277      -0.57243414       0.60521210
Sb      -0.00850719       2.41738810       8.51385081      -0.40979651      -1.03913343      -0.78700035
Sb       2.11378930       6.05490689       8.54478570       0.61300179      -0.97400526       0.55684527
Sb       4.24790025       2.39968171       8.50083264       0.96446204      -1.21723166      -0.12308046
Sb      -2.12223688       6.07022865       8.43754456       0.49307045      -1.15982806      -0.19905905
Sb       0.00603395       2.39385381       1.80300110       0.28496979      -1.63849973      -1.66196045
Sb       2.12062265       6.05197479       1.84181994       0.53690832      -1.31005133      -0.06985585
Sb       4.22331867       2.39343470       1.84626980       0.40536492      -1.75019563      -0.26375591
Sb      -2.09773226       6.04468101       1.82450600       0.41284070      -1.70353113      -0.83248133
Sb      -0.15614956       0.10763338      18.81819482       0.38117524       0.53315086       0.00908333
Sb       2.14962217       3.63514608      18.93213313      -1.26814611       1.18308894       0.93654636
Sb       4.31900124      -0.10827126      18.87952654       0.20863553       0.18717598      -0.21795134
Sb       6.45801687       3.61715760      18.87570144      -0.50377125      -0.09117315      -0.38753087
Sb       0.01718475       0.01416634      12.18889787       0.35779049       0.85063058       0.04268039
Sb       2.07788212       3.70751662      12.13677797       0.71592513       1.25442176       0.34839365
Sb       4.22389583       0.04272279      12.23021962       0.56766210       1.33371323      -0.68268765
Sb      -2.11435222       3.67309666      12.26620119       0.15721417       1.15228998       0.90169340
Sb       2.09857303       1.23131408      29.16899001      -0.45651254       0.53378001      -0.61544036
Sb       4.19724037       4.86559666      29.16871549      -0.68483061       0.10143959      -0.62739151
Sb       6.30697907       1.22454466      29.16193810      -0.50980085       0.28016966      -0.38634284
Sb      -0.01627181       4.87486821      29.16745109      -0.74325645       0.39037986      -1.08033275
Sb       2.12525890       1.16046964      22.55458921      -1.30010185      -0.64536228       0.78866787
Sb       4.24454856       4.84558941      22.52683358      -1.31364264       0.15515453      -0.35373124
Sb       6.28764304       1.21079132      22.82485193      -1.25640631      -0.34726116       0.22116164
Sb      -0.10473361       4.91659848      22.35632116      -2.18743521       0.80410777      -0.47157201
Cr       2.81728161       3.24662611      16.47067102      -0.53452029       0.49853922      -1.88578853
61
Properties=species:S:1:pos:R:3:forces:R:3 energy=-195.2584741099983 mlff_rel_energy_eV=-0.8064104115802593 mlff_fmax_eV_A=2.3568403226921038 calculator_label=/data/pclancy3/yi/flare-data/1-Cr-Sb2Te3/3.fine-tuning/2-layer/MACE-omat/MACE-matpes-pbe-omat-ft.model neb_image=2 neb_protocol=mlff_pre_neb pbc="F F F"
Te       2.10874088       1.21716508       3.43410832       0.21558249       0.14874638       0.36804814
Te       4.20416789       4.88796703       3.42551507      -0.46524870       0.69606700      -0.05841681
Te       6.30617093       1.22309491       3.40898543      -0.67870812       0.29170002      -0.19531731
Te      -0.00373770       4.89195723       3.42751090      -0.24272318       1.06056374       0.49682764
Te      -0.07722607       0.06636531       6.93335050       0.14602774       0.82913598       0.32416477
Te       2.09509334       3.66303262       6.92945102      -0.56598107       0.58347228      -0.44767497
Te       4.23576624       0.00882557       6.94016020      -0.11962751       0.78727905       0.12498259
Te      -2.09125400       3.65538680       6.94367663      -0.22844044       0.92526560       0.21819684
Te       0.00554853       0.02210880       0.00773040       0.15264871       1.07820349       0.68669746
Te       2.09380786       3.66452917       0.01136848      -0.65483349       0.67631740       0.45672165
Te       4.20952650       0.02434577       0.01476788      -0.17541403       0.97517927       0.66853091
Te      -2.10840262       3.67805388       0.02475181       0.03795612       1.35317066       1.04463590
Te       0.00762163       2.40241103      13.80586868      -0.67085400      -0.82205502       0.24533387
Te       2.12570075       6.04909879      13.79596877      -0.12702082      -0.73769560      -0.12310611
Te       4.03844905       2.52831128      13.86949547       0.49814750      -0.49782697      -0.02764242
Te      -2.10016189       6.05136350      13.76983944       0.11121845      -1.25880774      -0.64417956
Te       2.06899442       0.85164915      17.24926488      -0.51542890      -1.49264515       0.05370476
Te       4.50069499       5.06867673      17.25056911       0.59834122       0.74273334       0.13202683
Te       5.84384954       1.48755782      17.11425227      -0.14931499      -0.14888115       0.24018696
Te       0.13627822       4.78899723      17.20360227       0.63204911      -0.28992959      -0.03864814
Te       2.12628800       1.18300905      10.37695830       0.27889449      -1.15953864       0.50836741
Te       4.21186979       4.87234241      10.35660968      -0.66137106       0.62390504      -0.41228970
Te       6.29848808       1.20505438      10.39395287      -0.97924545      -0.51157550       0.83478760
Te      -0.09799883       4.93819481      10.36656376      -0.62370377       1.08512067      -0.36394632
Te       0.12760506      -0.05185143      24.09746560       0.68093209       0.46025857      -0.33074617
Te       2.02518111       3.70437344      24.04397554       0.96311286      -0.24820556       0.47116661
Te       4.13956424      -0.16970181      24.11511121       1.19289341       0.51429090      -0.24082475
Te      -1.99038740       3.83304573      24.12163627       0.41694095       0.17730909       0.02843089
Te       0.01274582       2.43346957      27.61909754       0.58749193      -0.09810860       0.43900070
Te       2.11362237       6.07019087      27.62324099       0.41032409      -0.51067117       0.62546345
Te       4.22305618       2.42723420      27.59195205       0.23296120      -0.16517552       0.54626057
Te      -2.08147573       6.06588389      27.64938196       1.11943991      -0.73848708       0.54203170
Te      -0.02374436       2.34758078      20.73135841       0.10621246      -0.30438675      -0.54234189
Te       2.18456333       6.13193135      20.74832612       1.05015119      -0.54743514       0.17264259
Te       4.33610596       2.37913432      20.68601206       1.45734210      -0.13640602       0.45389501
Te      -2.16787918       6.11733905      20.65626801       0.97896216      -0.57007356       0.54621462
Sb      -0.00621210       2.41119398       8.51336040      -0.43060457      -1.06579009      -0.84214327
Sb       2.11993018       6.05542101       8.54565201       0.60080024      -0.96653027       0.55645653
Sb       4.24701594       2.40036407       8.50319643       0.95251164      -1.20108875      -0.13448638
Sb      -2.13043060       6.07471353       8.45076524       0.49467163      -1.16920122      -0.21410133
Sb       0.00563814       2.39346930       1.80276326       0.27772122      -1.63754055      -1.67213283
Sb       2.12086968       6.05244451       1.84165018       0.53567803      -1.30650822      -0.07777144
Sb       4.22356002       2.39330960       1.84765636       0.41327910      -1.75428656      -0.26402155
Sb      -2.09832107       6.04494788       1.82564955       0.41511203      -1.70857484      -0.83545375
Sb      -0.21858513       0.13678362      18.92218521       0.13821437       0.37047891       0.04072611
Sb       2.20213939       3.60634461      18.68519474      -1.48524257       1.35157506       0.56124148
Sb       4.21536601      -0.12290579      18.90340409       0.00091284       0.13943118      -0.24731450
Sb       6.42041174       3.71222946      18.90079414      -0.49275563       0.02111626      -0.35159496
Sb       0.01633639       0.01388499      12.19170888       0.34245781       0.83381758       0.03564524
Sb       2.04951163       3.72616501      12.16087243       0.63175784       1.41176261       0.25072688
Sb       4.23497599       0.02235475      12.23962903       0.58000409       1.30886569      -0.80292225
Sb      -2.09510672       3.67406109      12.27619151       0.03131832       1.17784305       0.82025387
Sb       2.09832631       1.23111886      29.16797002      -0.45464303       0.53621064      -0.61940193
Sb       4.19727992       4.86590068      29.16764525      -0.68553552       0.09840443      -0.63285369
Sb       6.30691351       1.22456328      29.16429155      -0.50639106       0.27762747      -0.38368191
Sb      -0.01609178       4.87473278      29.16960458      -0.74798411       0.39187260      -1.08233229
Sb       2.12105394       1.19946848      22.56323348      -1.41954713      -0.77703381       0.69871528
Sb       4.20815411       4.83005657      22.53416421      -1.27125255       0.34718839      -0.51175734
Sb       6.30275677       1.20167927      22.77213098      -1.32520615      -0.33166360       0.21260261
Sb      -0.11320727       4.92640305      22.37905268      -1.95148469       0.87995535      -0.58308711
Cr       3.52599396       2.83762277      16.42336281       0.34649321       0.00125494      -0.72449683
61
Properties=species:S:1:pos:R:3:forces:R:3 energy=-194.92451075664349 mlff_rel_energy_eV=-0.4724470582254412 mlff_fmax_eV_A=2.719055464328883 calculator_label=/data/pclancy3/yi/flare-data/1-Cr-Sb2Te3/3.fine-tuning/2-layer/MACE-omat/MACE-matpes-pbe-omat-ft.model neb_image=3 neb_protocol=mlff_pre_neb pbc="F F F"
Te       2.11689022       1.22197712       3.42584666       0.20383392       0.13878344       0.36776333
Te       4.20406238       4.87852048       3.41747846      -0.46377478       0.71027157      -0.05048931
Te       6.29724951       1.22825276       3.40687252      -0.67370839       0.28924224      -0.19427879
Te      -0.00630875       4.89343498       3.42667327      -0.23963885       1.05880006       0.49620067
Te      -0.01269693       0.03006046       6.93192223       0.15223192       0.87174310       0.31622987
Te       2.11348144       3.65263076       6.90065039      -0.59047329       0.60798409      -0.47875285
Te       4.20396983       0.01535804       6.92692348      -0.14884912       0.76640098       0.11776108
Te      -2.11175877       3.67820765       6.93131800      -0.18732570       0.90329387       0.24435452
Te       0.00263908       0.02374932       0.00922790       0.15154301       1.07413883       0.68369436
Te       2.08572902       3.66914501       0.00402696      -0.65507314       0.67417119       0.45913886
Te       4.20989927       0.01645478       0.00953890      -0.17463264       0.97334206       0.66184306
Te      -2.10161079       3.68164632       0.01956111       0.02831048       1.35024216       1.03883488
Te      -0.03296858       2.40992571      13.77768463      -0.68253744      -0.73541530       0.23424105
Te       2.10198234       6.07970167      13.77040806      -0.06539916      -0.81283556      -0.02606751
Te       4.19448970       2.43199720      13.75028937       0.12736183      -0.54794972       0.05950350
Te      -2.07612790       6.03684735      13.71350722       0.11033694      -1.29221733      -0.68282801
Te       2.09470026       1.05409061      16.90074096      -0.92403727      -0.91927220       0.00750407
Te       4.35114917       4.93393513      16.90332508       0.49076854       0.31352653       0.04877793
Te       6.08146831       1.35252124      17.16956204      -0.16609798      -0.04835223       0.37430883
Te       0.00519577       4.86494948      17.27839573       0.22884076      -0.03748754       0.23066019
Te       2.10768653       1.20107381      10.35572612       0.01352591      -1.06541472       0.31991731
Te       4.19176066       4.87626900      10.33933171      -0.64766468       0.64718060      -0.41340527
Te       6.31638963       1.19679121      10.35170810      -0.87542086      -0.46420072       0.61553754
Te      -0.03214553       4.90051911      10.34436445      -0.66266192       1.11136575      -0.28746529
Te       0.07336284      -0.01816786      24.08608442       0.73563715       0.53072362      -0.42575258
Te       1.98512788       3.72986692      23.98566713       1.04865963      -0.18786795       0.51751223
Te       4.13233400      -0.20339918      24.02783991       1.12337996       0.56927894      -0.20783994
Te      -1.96135271       3.85538941      24.03263361       0.42931504       0.16536813      -0.01557277
Te       0.01432696       2.42399697      27.61915056       0.57787352      -0.07753270       0.43321869
Te       2.12244116       6.07360993      27.62314096       0.37781068      -0.51285338       0.60506941
Te       4.21959272       2.42929418      27.59875132       0.24775044      -0.17130964       0.53534060
Te      -2.09126743       6.07174398      27.63850972       1.14998311      -0.74604343       0.58174426
Te      -0.10163436       2.27544208      20.69802428      -0.12355256      -0.48838597      -0.59720795
Te       2.20982970       6.23404799      20.71203677       1.13369189      -0.35440687       0.02978237
Te       4.30275979       2.39340897      20.60448260       1.10710299      -0.15665281       0.64630609
Te      -2.24016561       6.15897036      20.54733180       1.13377782      -0.67163198       0.57289060
Sb      -0.00502199       2.41718415       8.47874796      -0.40647604      -1.17194394      -0.87780037
Sb       2.11394472       6.05075971       8.51197914       0.65179860      -0.95841678       0.55715787
Sb       4.24309916       2.40256603       8.50084733       0.98836752      -1.22203353      -0.10503673
Sb      -2.10896427       6.06265775       8.49490784       0.48798240      -1.15443669      -0.22956633
Sb       0.00497156       2.39448847       1.80124847       0.27771518      -1.63909028      -1.66669534
Sb       2.11952517       6.05247717       1.84004740       0.53416197      -1.30632106      -0.07597767
Sb       4.22238041       2.39404960       1.83009227       0.42395827      -1.75506696      -0.26990710
Sb      -2.09918899       6.04561069       1.82219106       0.41708789      -1.70079382      -0.83434182
Sb      -0.14630276       0.10466921      18.67189251       0.57112112       0.58726259      -0.03332725
Sb       1.84160566       3.81019290      19.09272944      -1.67376470       1.31550795      -0.54112674
Sb       4.16819287      -0.04226748      18.86418689      -0.15371056       0.30555951      -0.62995213
Sb       6.32712939       3.71610330      18.85689919      -0.70536317       0.26125449      -0.96661351
Sb       0.01256171       0.01597357      12.19093162       0.38808455       0.80724354       0.00911143
Sb       2.10915964       3.69043894      12.20591586       0.86045041       1.22091514       0.33754851
Sb       4.23801323       0.05138230      12.16246801       0.67203052       1.32496259      -0.57098902
Sb      -2.11638627       3.65968505      12.19488905       0.14858797       1.20198875       0.86634442
Sb       2.09698592       1.23014863      29.16973079      -0.44680611       0.51984249      -0.61501656
Sb       4.19734319       4.86770561      29.16976794      -0.67441467       0.10806624      -0.61171605
Sb       6.30625026       1.22468571      29.16552055      -0.51891647       0.27252073      -0.40409270
Sb      -0.01823208       4.87601507      29.15276177      -0.76742421       0.40589511      -1.08806281
Sb       2.08283283       1.20057965      22.53044775      -1.19984544      -0.90107451       0.88188867
Sb       4.18934897       4.86314232      22.50373847      -0.97919873       0.22184944      -0.22783631
Sb       6.27734514       1.21717169      22.76910962      -1.13277634      -0.39709546       0.32423935
Sb      -0.08008407       4.89766373      22.27204847      -2.54258739       0.84485446      -0.46339282
Cr       3.74859781       2.71072302      17.87907973       1.48904972      -0.65747712       0.41668599
61
Properties=species:S:1:pos:R:3:forces:R:3 energy=-193.14703920827094 mlff_rel_energy_eV=1.3050244901471046 mlff_fmax_eV_A=2.8336537877706727 calculator_label=/data/pclancy3/yi/flare-data/1-Cr-Sb2Te3/3.fine-tuning/2-layer/MACE-omat/MACE-matpes-pbe-omat-ft.model neb_image=4 neb_protocol=mlff_pre_neb pbc="F F F"
Te       2.07681118       1.19904749       3.41874951       0.34147889       0.13632732       0.43387316
Te       4.21421783       4.90114442       3.41874951      -0.49850461       0.84110187      -0.00896070
Te       6.35162447       1.19904749       3.41874951      -0.88095973       0.38731262      -0.27660869
Te       0.00000000       4.86615959       3.44214538      -0.28325266       1.34115083       0.51223968
Te       0.00000000       0.00000000       6.91110412       0.18944225       0.99935237       0.39533005
Te       2.16533053       3.61600542       6.92505787      -0.66416679       0.81785547      -0.51150599
Te       4.21421783       0.06722856       6.92505787      -0.16293055       0.86085939       0.21558835
Te      -2.16533053       3.61600542       6.92505787      -0.04799091       1.16641175       0.45242051
Te       0.00000000       0.00000000      -0.01585640       0.17063435       1.15933463       0.76039819
Te       2.13183918       3.63534166      -0.00539679      -0.74729572       0.80208658       0.57398455
Te       4.21421783       0.02855607      -0.00539679      -0.20204898       1.03459683       0.73634852
Te      -2.13183918       3.63534166      -0.00539679       0.16013272       1.50053060       1.26956404
Te      -0.00000000       2.49282831      13.88098103      -0.88189374      -0.88469863       0.01158263
Te       2.05536521       6.05282524      13.88098103      -0.71217635      -0.86750772       0.82211159
Te       4.21421783       2.43307980      13.79989804      -0.02777797      -0.77461421      -0.04664887
Te      -2.05536521       6.05282524      13.88098103       0.37216685      -1.36976946      -0.25806368
Te       1.96138091       1.13240375      17.15032516       0.16212169      -0.83074125      -0.36131670
Te       4.21421783       5.03443189      17.15032516       0.81733361      -0.79201408       0.04068427
Te       6.46705474       1.13240375      17.15032516      -0.73295631       0.39656152       0.52033522
Te       0.00000000       4.86615959      16.23850217       0.81844790       0.52289965      -1.04646870
Te       2.07052235       1.19541663      10.38043244       0.01803112      -1.16063480       0.46507798
Te       4.21421783       4.90840613      10.38043244      -0.77640002       0.77336212      -0.35064323
Te       6.35791330       1.19541663      10.38043244      -1.12064015      -0.53951551       0.67651475
Te       0.00000000       4.86615959      10.35109097      -0.86068606       1.18500961      -0.30769650
Te       0.00000000      -0.00000000      24.37414111       0.81814971       0.70723124      -0.50264885
Te       2.06440396       3.67427542      24.10437237       1.20330324      -0.23698688       0.74531739
Te       4.21421783      -0.04931145      24.10437237       1.14975247       0.36516070      -0.20690148
Te      -2.06440396       3.67427542      24.10437237       0.81052884       0.26142079      -0.18604223
Te      -0.00000000       2.48047182      27.59663590       0.71730582      -0.22033482       0.58713601
Te       2.06606623       6.05900348      27.59663590       0.52960506      -0.62236220       0.86838070
Te       4.21421783       2.43307980      27.57130687       0.36337244      -0.23417434       0.66640241
Te      -2.06606623       6.05900348      27.59663590       1.26614851      -0.84033131       0.74230565
Te      -0.00000000       2.44919457      20.67789053      -0.15652316      -0.42691206      -0.57643581
Te       2.09315313       6.07464211      20.67789053       0.99634379      -0.21125947       0.33949447
Te       4.21421783       2.43307980      21.01492299       1.19344117       0.22176123       0.89837312
Te      -2.09315313       6.07464211      20.67789053       0.97023666      -0.60376311       0.72738815
Sb       0.00000000       2.43246271       8.46789382      -0.51200668      -1.35224812      -1.04298000
Sb       2.10764333       6.08300804       8.46789382       0.66369311      -1.09826806       0.57567209
Sb       4.21421783       2.43307980       8.62437001       1.12042265      -1.49328839      -0.10013266
Sb      -2.10764333       6.08300804       8.46789382       0.54554062      -1.44857688      -0.31770646
Sb      -0.00000000       2.43434111       1.84055693       0.13867752      -1.86737914      -2.09159080
Sb       2.10601658       6.08206883       1.84055693       0.55663595      -1.47448011      -0.08105023
Sb       4.21421783       2.43307980       1.87858587       0.55728707      -2.05073482      -0.28366803
Sb      -2.10601658       6.08206883       1.84055693       0.49331752      -1.95209241      -0.90415899
Sb       0.00000000      -0.00000000      18.93507092       0.37870907       0.57901766       0.18689496
Sb       1.97526166       3.72574175      18.57680326      -1.37752913       1.48502054       0.60771808
Sb       4.21421783      -0.15224410      18.57680326       0.17599970       0.03233340      -0.28609328
Sb       6.45317400       3.72574175      18.57680326      -0.36156533       0.13152546      -0.64436329
Sb       0.00000000      -0.00000000      12.37598846       0.47247181       0.86274195      -0.12182911
Sb       2.10086875       3.65322246      12.20931014       1.10344631       0.88066643       0.29969169
Sb       4.21421783      -0.00720553      12.20931014       0.75840219       1.73159168      -0.56087932
Sb      -2.10086875       3.65322246      12.20931014       0.42219857       1.03145704       0.95021145
Sb       2.10847988       1.21733143      29.16138514      -0.58752827       0.64675499      -0.75526552
Sb       4.21421783       4.86457654      29.16138514      -0.85002246       0.15903266      -0.79017122
Sb       6.31995578       1.21733143      29.16138514      -0.64539789       0.36372931      -0.46473519
Sb       0.00000000       4.86615959      29.23540596      -0.84406934       0.47512358      -1.46717077
Sb       2.03423865       1.17446823      22.63158697      -1.78100494      -1.08679396       0.85225542
Sb       4.21421783       4.95030294      22.63158697      -1.28434709       0.09223728      -0.66497125
Sb       6.39419701       1.17446823      22.63158697      -1.27944402      -0.30303394       0.42118950
Sb       0.00000000       4.86615959      22.48200101      -2.62614571       0.85412277      -0.63515887
Cr       4.21421783       2.43307980      18.58850245       0.45048536      -0.06316617      -1.50261811
