61
Lattice="8.428435589532 0.0 0.0 -4.214217794766 7.299235931425 0.0 0.0 0.0 31.033440841609" Properties=species:S:1:pos:R:3:forces:R:3 branch_id=tetradymite__Sb2Te3__Mn1__ingap_1-7__reused_path_s42 image_index=0 system_id=tetradymite__Sb2Te3__Mn1__ingap_1-7__reused_path_s42 mapping_role=material_transfer_reused_path energy=-224.3901119772853 mlff_rel_energy_eV=0.0 mlff_fmax_eV_A=1.15319853973375 calculator_label=/home/ycao73/.cache/mace/20231203mace128L1_epoch199model neb_image=0 neb_protocol=mlff_pre_neb pbc="T T T"
Te       2.10710960       1.21450109       3.47277178      -0.00000261       0.01009009       0.99893769
Te       4.21598382       4.86717840       3.47277178      -0.00873282      -0.00504182       0.99893191
Te       6.32132606       1.21654029       3.46337882       0.00000244       0.00000641       1.03088654
Te      -0.00176600       4.86717919       3.47277179       0.00873274      -0.00504474       0.99891257
Te      -0.02683937       0.01549573       6.87268349       0.06943903      -0.04008531      -1.10705138
Te       2.10710848       3.64961994       6.92335299       0.00000181      -0.00000425      -0.99224044
Te       4.24105720       0.01549523       6.87268330      -0.06943904      -0.04008334      -1.10703665
Te      -2.10710848       3.61862849       6.87268330      -0.00000161       0.08017717      -1.10702975
Te       0.00000000       0.00000000       0.00000000       0.00000004       0.00000694      -0.00000970
Te       2.10710891       3.64961970       0.00000000      -0.00000001      -0.00000141      -0.00000922
Te       4.21421783       0.00000000       0.00000000      -0.00000006       0.00000692      -0.00000971
Te      -2.10710891       3.64961970       0.00000000       0.00000011      -0.00000141      -0.00000925
Te       0.04960189       2.46171773      13.94762059      -0.29575230      -0.17074998       0.91083184
Te       2.10710870       6.02542401      13.94762059       0.00000054       0.34150188       0.91083698
Te       4.16461594       2.46171748      13.94762098       0.29575339      -0.17075003       0.91083503
Te      -2.10710870       6.08269937      13.89453363      -0.00000023      -0.00000557       1.15319854
Te       2.10710913       1.27381538      17.08581663      -0.00000057      -0.34150290      -0.91083181
Te       4.16461594       4.83752167      17.08581663       0.29575300       0.17074702      -0.91083642
Te       6.32132652       1.21654002      17.13890359       0.00000027       0.00000279      -1.15319158
Te       0.04960189       4.83752192      17.08581625      -0.29575411       0.17074707      -0.91083967
Te       2.10710868       1.19984378      10.38852379       0.00000091      -0.07551820      -0.00233115
Te       4.22867697       4.87450786      10.38852379       0.06540611       0.03775475      -0.00233173
Te       6.32132698       1.21653976      10.39111941      -0.00000130       0.00000670       0.17475646
Te      -0.01445914       4.87450759      10.38852421      -0.06540640       0.03775597      -0.00233259
Te       0.02683937      -0.01549573      24.16075373      -0.06943892       0.04009810       1.10705107
Te       2.10710934       3.64961945      24.11008424      -0.00000184       0.00000186       0.99224089
Te       4.18737845      -0.01549523      24.16075392       0.06943895       0.04009610       1.10703631
Te      -2.10710934       3.68061090      24.16075392       0.00000181      -0.08017963       1.10703019
Te      -0.00176600       2.43206099      27.56066545       0.00873290       0.00503804      -0.99892858
Te       2.10710823       6.08473830      27.56066545       0.00000253      -0.01008933      -0.99893420
Te       4.21598382       2.43206020      27.56066544      -0.00873277       0.00504093      -0.99890924
Te      -2.10710823       6.08269910      27.57005841      -0.00000245      -0.00000562      -1.03088298
Te      -0.01445914       2.42473153      20.64491344      -0.06540611      -0.03775961       0.00233080
Te       2.10710915       6.09939562      20.64491344      -0.00000097       0.07551733       0.00233193
Te       4.22867697       2.42473180      20.64491301       0.06540639      -0.03776084       0.00233170
Te      -2.10710915       6.08269963      20.64231782       0.00000129      -0.00000697      -0.17475629
Sb      -0.03018654       2.41564989       8.46733874       0.13188980       0.07616036       0.44642279
Sb       2.10711038       6.11755676       8.46733874      -0.00001073      -0.15230591       0.44642694
Sb       4.24440436       2.41565158       8.46733912      -0.13188973       0.07614787       0.44641417
Sb      -2.10711038       6.08270034       8.40301845       0.00001058      -0.00001187       0.51129844
Sb       0.00025079       2.43322202       1.88152630       0.01786820       0.01034096      -0.24562950
Sb       2.10711114       6.08241119       1.88152630      -0.00001757      -0.02065235      -0.24562887
Sb       4.21396703       2.43322459       1.88152659      -0.01786814       0.01032063      -0.24564328
Sb      -2.10711114       6.08270078       1.88047883       0.00001773      -0.00001993      -0.23489431
Sb      -0.05023393       0.02900259      18.75787975       0.12209630      -0.07048450       0.34418310
Sb       2.10710819       3.64962011      18.71293056       0.00000526      -0.00000694       0.73308325
Sb       4.26445176       0.02900175      18.75787999      -0.12209624      -0.07047856       0.34418666
Sb       6.32132747       3.59161494      18.75787999      -0.00000520       0.14097792       0.34418757
Sb       0.05023393      -0.02900259      12.27555748      -0.12209728       0.07049857      -0.34418572
Sb       2.10710964       3.64961928      12.32050666      -0.00000523       0.00000119      -0.73308147
Sb       4.16398389      -0.02900175      12.27555723       0.12209722       0.07049264      -0.34418920
Sb      -2.10710964       3.70762446      12.27555723       0.00000517      -0.14098287      -0.34418588
Sb       2.10710669       1.21682820      29.15191093       0.00001756       0.02065079       0.24563642
Sb       4.21396703       4.86601737      29.15191093      -0.01786821      -0.01034237       0.24563423
Sb       6.32132897       1.21653861      29.15295839      -0.00001776       0.00001840       0.23490186
Sb       0.00025079       4.86601480      29.15191064       0.01786815      -0.01032206       0.24564805
Sb       2.10710745       1.18168263      22.56609849       0.00001073       0.15230503      -0.44642361
Sb       4.24440436       4.88358950      22.56609849      -0.13188978      -0.07616752      -0.44642626
Sb       6.32132821       1.21653905      22.63041878      -0.00001060       0.00001120      -0.51129560
Sb      -0.03018654       4.88358781      22.56609810       0.13188961      -0.07615509      -0.44641750
Mn       2.10710891       3.64961970      15.51671861       0.00000001      -0.00000069      -0.00000040
61
Lattice="8.428435589532 0.0 0.0 -4.214217794766 7.299235931425 0.0 0.0 0.0 31.033440841609" Properties=species:S:1:pos:R:3:forces:R:3 branch_id=tetradymite__Sb2Te3__Mn1__ingap_1-7__reused_path_s42 image_index=1 system_id=tetradymite__Sb2Te3__Mn1__ingap_1-7__reused_path_s42 mapping_role=material_transfer_reused_path energy=-227.24575667548385 mlff_rel_energy_eV=-2.855644698198546 mlff_fmax_eV_A=0.10117762733063733 calculator_label=/home/ycao73/.cache/mace/20231203mace128L1_epoch199model neb_image=1 neb_protocol=mlff_pre_neb pbc="T T T"
Te       2.08155858       1.22591325       3.75593254      -0.00004093       0.00342061      -0.06476454
Te       4.19332640       4.88360072       3.75593261      -0.00298308      -0.00167499      -0.06476456
Te       6.30229509       1.22752926       3.74540536      -0.00253811       0.00146506      -0.06462688
Te      -0.00237958       4.86753326       3.73673201      -0.01210219       0.00698723      -0.05376749
Te      -0.07516801       0.04339942       6.46440508       0.01493513      -0.00862302       0.06374775
Te       2.05268012       3.68104329       6.48552552      -0.00647009       0.00373576       0.06543752
Te       4.14776237       0.02266452       6.44456685       0.01336157       0.00996001       0.07997003
Te      -2.15996357       3.69583904       6.44456670      -0.00194511      -0.01655122       0.07997022
Te      -0.00118261       0.00068438      -0.01933464      -0.00887885       0.00512593       0.00285124
Te       2.09633825       3.65583781      -0.01070173      -0.00394780       0.00227934      -0.00496664
Te       4.20269333       0.00975021       0.00011530      -0.00559378       0.00305723      -0.00590121
Te      -2.12131366       3.65472559       0.00011529      -0.00544479       0.00331568      -0.00590120
Te      -0.07667705       2.46899594      14.05105359      -0.00577488       0.01101635      -0.02622685
Te       2.03766703       6.13114507      14.05105362      -0.01242802      -0.00050692      -0.02622679
Te       4.15619163       2.46658235      14.05805240      -0.02633758       0.01520565      -0.01571465
Te      -2.18901035       6.12998438      14.03078646       0.01711665      -0.00988206      -0.03441755
Te       2.03714099       1.23600360      16.92111614      -0.01185090       0.04319963       0.02376666
Te       4.16237764       4.91702006      16.92111643      -0.04333717      -0.01133612       0.02376664
Te       6.24329980       1.26158895      16.96371415       0.01030304      -0.00594860       0.04022405
Te      -0.09891088       4.92326419      16.92868327       0.02101127      -0.01213050       0.02795116
Te       2.03838366       1.24393083      10.22401759       0.01166145       0.01739870       0.04577139
Te       4.15613457       4.91198163      10.22401755      -0.00923688      -0.01879827       0.04577120
Te       6.25196692       1.25658585      10.27071750      -0.00189514       0.00109388      -0.00356801
Te      -0.07851479       4.91148947      10.24043042       0.00153503      -0.00088618       0.03646601
Te      -0.06012182       0.03471355      24.53833824       0.00297164      -0.00171624      -0.07216578
Te       2.05478675       3.67982829      24.54393298      -0.00137015       0.00079095      -0.10116526
Te       4.16992461       0.02647395      24.52620314      -0.00738955       0.00284199      -0.06630995
Te      -2.15218066       3.67474301      24.52620302      -0.00615654       0.00497818      -0.06630986
Te      -0.01608984       2.44438001      27.27377529      -0.00267685       0.00314077       0.05194404
Te       2.08927753       6.09098138      27.27377533      -0.00405839       0.00074835       0.05194403
Te       4.20798282       2.43667936      27.25663431      -0.00713494       0.00411939       0.05981904
Te      -2.11835868       6.08919237      27.26175700      -0.00687665       0.00397074       0.05593716
Te      -0.07125780       2.46888024      20.72816052       0.00462232      -0.00715264      -0.00287774
Te       2.04047619       6.12650860      20.72816024       0.00850533      -0.00042639      -0.00287766
Te       4.14231583       2.47459270      20.74562578       0.01572916      -0.00908138      -0.01658877
Te      -2.17229961       6.12033586      20.76329033      -0.00222455       0.00128456      -0.04509371
Sb      -0.08362279       2.47386927       8.20109544       0.00307852      -0.01417698       0.03966473
Sb       2.02997284       6.13472243       8.20109482       0.01381688       0.00442283       0.03966490
Sb       4.18011891       2.45276702       8.17248611      -0.01268196       0.00732180       0.05873648
Sb      -2.18905348       6.13000816       8.20411977       0.02487448      -0.01436072       0.02043289
Sb      -0.01140203       2.43181155       1.99721170      -0.00450562       0.00751018      -0.02330595
Sb       2.10250689       6.09320732       1.99721155      -0.00875699       0.00014693      -0.02330583
Sb       4.19576971       2.44373159       2.02572241      -0.00271865       0.00156938      -0.03988178
Sb      -2.11341076       6.08633679       2.01705436      -0.00912437       0.00526813      -0.02917591
Sb      -0.11871173       0.06853908      18.73929045       0.00339760      -0.00196175       0.00266945
Sb       2.02244992       3.69849642      18.71922416       0.02069980      -0.01195075      -0.01767943
Sb       4.17693670       0.07397815      18.75734155       0.02040387      -0.00635427       0.00490557
Sb       6.23861988       3.64491678      18.75734176       0.01570477      -0.01449309       0.00490574
Sb      -0.02354398       0.01359546      12.21503633       0.00299626      -0.00173036       0.01635339
Sb       2.04447963       3.68577860      12.28445489      -0.00799505       0.00461637      -0.02081602
Sb       4.08206086       0.00657398      12.23004900       0.02267559       0.01389276       0.02655050
Sb      -2.17887865       3.76078526      12.23004783      -0.00069398      -0.02658434       0.02655091
Sb       2.10367440       1.22183561      28.99633258      -0.00704269       0.00320838       0.02463863
Sb       4.20791475       4.86648511      28.99633276      -0.00629996       0.00449518       0.02463857
Sb       6.31270795       1.22151647      29.01237547      -0.00445833       0.00257393       0.02001826
Sb      -0.01269954       4.87349045      29.01851156      -0.00489267       0.00282504       0.01655656
Sb       2.05048733       1.24209486      22.81103137      -0.00632565      -0.00987109      -0.04982509
Sb       4.16377706       4.90241809      22.81103135       0.00538548       0.01041355      -0.04982509
Sb       6.26431540       1.24945656      22.77713515      -0.00120784       0.00069705      -0.02255696
Sb      -0.05883739       4.90012892      22.78870633      -0.00953198       0.00550330      -0.03971956
Mn       2.02197868       3.69876913      15.52184373       0.03014281      -0.01740295      -0.02129798
61
Lattice="8.428435589532 0.0 0.0 -4.214217794766 7.299235931425 0.0 0.0 0.0 31.033440841609" Properties=species:S:1:pos:R:3:forces:R:3 branch_id=tetradymite__Sb2Te3__Mn1__ingap_1-7__reused_path_s42 image_index=2 system_id=tetradymite__Sb2Te3__Mn1__ingap_1-7__reused_path_s42 mapping_role=material_transfer_reused_path energy=-226.80974940858076 mlff_rel_energy_eV=-2.419637431295456 mlff_fmax_eV_A=0.23654681411422965 calculator_label=/home/ycao73/.cache/mace/20231203mace128L1_epoch199model neb_image=2 neb_protocol=mlff_pre_neb pbc="T T T"
Te       2.09336436       1.21045020       3.73979495       0.00133523       0.00071608       0.00021174
Te       4.21262064       4.88110809       3.73979487       0.00004738      -0.00151437       0.00021176
Te       6.31892440       1.21792829       3.73883416      -0.00062852       0.00036277       0.00141995
Te       0.01154836       4.85949189       3.72268788       0.00053394      -0.00030820       0.00105478
Te      -0.03307632       0.01909775       6.55230064       0.01380328      -0.00796936       0.00378314
Te       2.14695961       3.62661141       6.51315154       0.00019811      -0.00011437       0.00327195
Te       4.18646243      -0.03654672       6.48632808       0.01104322      -0.00087690       0.00928199
Te      -2.08933529       3.69192970       6.48632782       0.00628105      -0.00912523       0.00928202
Te       0.00348424      -0.00201013      -0.01662153      -0.00095810       0.00055320       0.00146063
Te       2.10690073       3.64973960      -0.00289658      -0.00076523       0.00044183      -0.00042719
Te       4.21142362       0.00917805       0.00055100      -0.00165840       0.00022289       0.00017001
Te      -2.11645310       3.64745099       0.00055105      -0.00102219       0.00132483       0.00017000
Te      -0.19517013       2.19419183      14.08776012       0.00936565      -0.01241034       0.01653589
Te       2.21640750       6.37116421      14.08775949       0.01543062      -0.00190556       0.01653594
Te       4.13024327       2.48156356      14.06633280       0.02203459      -0.01272177       0.00448238
Te      -1.91917856       5.97419747      14.04276726      -0.03933692       0.02271112       0.01059854
Te       2.09499894       1.19914794      16.98713550       0.00753082       0.00542155       0.00982237
Te       4.22322476       4.88534171      16.98713553      -0.00092981      -0.00923264       0.00982239
Te       6.24701805       1.25944199      17.05062538       0.00805199      -0.00464889      -0.00253827
Te       0.00433070       4.86365752      17.08506589       0.00195290      -0.00112737      -0.01263615
Te       2.13951315       1.27178636      10.23546159       0.00806107      -0.00332615       0.01538584
Te       4.18257588       4.81047314      10.23546180       0.00691107      -0.00531782       0.01538580
Te       6.42001958       1.15956089      10.27966499      -0.00466639       0.00269412       0.00276429
Te      -0.03789637       4.88803846      10.33204771       0.01264502      -0.00730072      -0.00055332
Te      -0.02201909       0.01271463      24.57290805       0.00165042      -0.00095307      -0.00534681
Te       2.07579693       3.66769786      24.52054080       0.00044725      -0.00025827      -0.00380630
Te       4.19993468       0.00953581      24.49591011       0.00077439      -0.00047561       0.00084519
Te      -2.12250696       3.65722247      24.49591009       0.00079893      -0.00043294       0.00084520
Te      -0.00732359       2.44553139      27.29566539      -0.00110315       0.00095266      -0.00075905
Te       2.09266355       6.08281405      27.29566542      -0.00137663       0.00047918      -0.00075904
Te       4.21349664       2.43349597      27.27668695      -0.00145917       0.00084243       0.00041435
Te      -2.10424908       6.08104638      27.28999372      -0.00117937       0.00068108      -0.00084972
Te      -0.01621595       2.44752279      20.74286104       0.00390723      -0.00192391       0.00422707
Te       2.08649319       6.08951994      20.74286099       0.00361966      -0.00242190       0.00422706
Te       4.19463536       2.44438584      20.83154685       0.00247826      -0.00143086      -0.00974957
Te      -2.14766325       6.10611198      20.77673640       0.00151632      -0.00087552      -0.00470303
Sb      -0.00120605       2.47471300       8.24669638       0.00786737      -0.01376970       0.00428486
Sb       2.07045074       6.06292602       8.24669656       0.01585856       0.00007153       0.00428482
Sb       4.28079245       2.39464318       8.18199298       0.00053254      -0.00030747      -0.00722097
Sb      -2.13809102       6.10058527       8.27998365       0.01449493      -0.00836860       0.00723211
Sb      -0.00375004       2.42669058       1.99250231      -0.00098643      -0.00016567       0.00571118
Sb       2.11076764       6.08914094       1.99250217      -0.00034976       0.00093712       0.00571132
Sb       4.20781794       2.43677542       2.02062716       0.00008862      -0.00005120       0.00136119
Sb      -2.10599251       6.08205388       1.99945387      -0.00247454       0.00142871       0.00465731
Sb      -0.02825164       0.01631216      18.71578971       0.00398762      -0.00230232      -0.00621236
Sb       2.15232196       3.62351514      18.74548659       0.00132302      -0.00076383      -0.00310854
Sb       4.17930842       0.09312323      18.82685245       0.00499200      -0.00351719      -0.00649565
Sb       6.22322545       3.63329012      18.82685251       0.00554197      -0.00256465      -0.00649548
Sb       0.19894953      -0.11486137      12.06873063      -0.00531552       0.00306893      -0.01713246
Sb       2.00668592       3.70759871      12.38706528       0.01202631      -0.00694328       0.01235728
Sb       4.22441449       0.06886334      12.26798791       0.00974234      -0.01106371       0.02601407
Sb      -2.16164620       3.60635882      12.26798811       0.01445255      -0.00290523       0.02601410
Sb       2.10868143       1.22037895      29.01441784      -0.00141778       0.00081330      -0.00268872
Sb       4.21167989       4.86287742      29.01441791      -0.00141330       0.00082111      -0.00268870
Sb       6.31667453       1.21922647      29.02303536      -0.00158381       0.00091433      -0.00417913
Sb      -0.00580603       4.86951061      29.04155751      -0.00110955       0.00064057      -0.00330446
Sb       2.05803575       1.22224075      22.81393866       0.00251863      -0.00015847      -0.00114859
Sb       4.18474512       4.90580756      22.81393863       0.00139652      -0.00210192      -0.00114858
Sb       6.33112767       1.21088238      22.78009940      -0.00075634       0.00043668       0.00694783
Sb      -0.02171291       4.87869493      22.75071916       0.00015045      -0.00008681      -0.00248490
Mn       0.91606956       4.33726601      14.77474018      -0.16490093       0.09520577      -0.14034936
61
Lattice="8.428435589532 0.0 0.0 -4.214217794766 7.299235931425 0.0 0.0 0.0 31.033440841609" Properties=species:S:1:pos:R:3:forces:R:3 branch_id=tetradymite__Sb2Te3__Mn1__ingap_1-7__reused_path_s42 image_index=3 system_id=tetradymite__Sb2Te3__Mn1__ingap_1-7__reused_path_s42 mapping_role=material_transfer_reused_path energy=-227.23348158208097 mlff_rel_energy_eV=-2.8433696047956687 mlff_fmax_eV_A=0.044484687669651156 calculator_label=/home/ycao73/.cache/mace/20231203mace128L1_epoch199model neb_image=3 neb_protocol=mlff_pre_neb pbc="T T T"
Te       2.12458971       1.20373902       3.77836288       0.00311228       0.00054522      -0.02546555
Te       4.23404539       4.85742163       3.77836293       0.00108375      -0.00296796      -0.02546558
Te       6.33832430       1.20672779       3.77660831       0.00392152      -0.00226435      -0.02690970
Te       0.02326479       4.85272744       3.76159861      -0.00061863       0.00035724      -0.01772753
Te       0.05272148      -0.03043794       6.55680177       0.00280863      -0.00162161       0.02927197
Te       2.14769347       3.62618716       6.56866952       0.00550864      -0.00318011       0.02302161
Te       4.27481437      -0.05496083       6.56317663      -0.00267227       0.01307267       0.02787776
Te      -2.02921203       3.62462143       6.56317650      -0.01265774      -0.00422191       0.02787774
Te       0.01369556      -0.00790559       0.00480700       0.00121331      -0.00070063       0.00906424
Te       2.11664108       3.64411598       0.01733406       0.00404054      -0.00233276      -0.00074548
Te       4.22595945      -0.00586502       0.01839453       0.00204864      -0.00241680       0.00095571
Te      -2.09615750       3.64238410       0.01839453       0.00311721      -0.00056579       0.00095574
Te       0.07710043       2.25025991      14.22637215      -0.02132698      -0.00658043       0.00461390
Te       2.30398668       6.10733770      14.22637186      -0.00496466       0.02176016       0.00461419
Te       4.28564821       2.39184031      14.10634687      -0.01254333       0.00724166      -0.03369562
Te      -2.17319373       6.12085234      14.22509062       0.00026887      -0.00015501       0.00205874
Te       2.15577792       1.20521694      17.01635594      -0.00565650      -0.00211953       0.01115084
Te       4.24835849       4.82967084      17.01635618      -0.00099276       0.00595883       0.01115064
Te       6.33525212       1.20850027      17.01206162       0.00254800      -0.00147116       0.01618049
Te       0.03221902       4.84755664      16.84390257       0.00582527      -0.00336307       0.01457136
Te       2.18415588       1.17981124      10.34656737      -0.00716839       0.00626708       0.00182228
Te       4.28454979       4.81779901      10.34656745      -0.00901147       0.00307439       0.00182224
Te       6.37430185       1.18595548      10.34735619       0.00327009      -0.00188793       0.00285938
Te       0.06524306       4.82849056      10.27858203      -0.00396835       0.00229126       0.00867006
Te       0.01777591      -0.01026077      24.47897740      -0.00026188       0.00015084      -0.02212476
Te       2.11268268       3.64640199      24.52590494       0.01387464      -0.00801058      -0.04149955
Te       4.23329386      -0.00906697      24.52402377       0.00010765       0.00321220      -0.04009438
Te      -2.08971684       3.63763421      24.52402361      -0.00272831      -0.00169956      -0.04009423
Te       0.00790758       2.42556489      27.29456229       0.00342694      -0.00084766       0.02432885
Te       2.11757061       6.07960657      27.29456233       0.00244755      -0.00254366       0.02432887
Te       4.22321530       2.42788488      27.28361805       0.00323597      -0.00186830       0.03375020
Te      -2.10006595       6.07863114      27.29223797       0.00254252      -0.00146759       0.02503047
Te       0.02389038       2.41769419      20.76671577       0.00056821       0.00173703      -0.01512212
Te       2.13237861       6.06970126      20.76671559      -0.00122019      -0.00136052      -0.01512192
Te       4.23916078       2.41867934      20.67456262      -0.00067863       0.00039171       0.01088631
Te      -2.09447469       6.07540363      20.76686679       0.00921730      -0.00532152      -0.01458407
Sb       0.06374465       2.38069562       8.33099113      -0.00297709       0.00318503       0.00175766
Sb       2.18434702       6.05368513       8.33099089      -0.00424668       0.00098602       0.00175789
Sb       4.27879974       2.39579359       8.22793757      -0.00567665       0.00327725       0.01251608
Sb      -2.06101400       6.05608461       8.31504239       0.00526016      -0.00303668       0.01302829
Sb       0.01358047       2.41740833       2.02968806       0.00374783       0.00244262      -0.00343982
Sb       2.12747166       6.07877343       2.02968796      -0.00024160      -0.00446700      -0.00343973
Sb       4.22466989       2.42704596       2.04517057       0.00511138      -0.00295123      -0.01061073
Sb      -2.09384230       6.07503891       2.03257620       0.00065949      -0.00038066      -0.00363266
Sb       0.02163704      -0.01249117      18.74585172       0.00486967      -0.00281154       0.00588255
Sb       2.11722594       3.64377785      18.71160944       0.00841898      -0.00486049      -0.00455589
Sb       4.24320138      -0.03317678      18.72425890       0.00054993       0.00880531      -0.00856481
Sb       6.36455142       3.64110736      18.72425923      -0.00735088      -0.00487882      -0.00856492
Sb       0.06449700      -0.03723522      12.10574297       0.00289526      -0.00167195      -0.01439784
Sb       2.14099876       3.63005343      12.42144483      -0.02011543       0.01161363       0.01918229
Sb       4.28245778      -0.09128893      12.43346280       0.00040599      -0.00577006       0.00805624
Sb      -1.99392846       3.63616783      12.43346306       0.00519955       0.00253315       0.00805589
Sb       2.11811252       1.21348104      29.02746996       0.00162189      -0.00242508       0.00954793
Sb       4.22236913       4.85815869      29.02747008       0.00291105      -0.00019199       0.00954793
Sb       6.32687297       1.21333831      29.03115135       0.00413808      -0.00238923       0.00718099
Sb       0.00674564       4.86226378      29.03775999       0.00331133      -0.00191169      -0.00048491
Sb       2.14058361       1.21813195      22.77657420      -0.00643373      -0.00749766      -0.02528152
Sb       4.22957742       4.83637383      22.77657405       0.00327622       0.00932057      -0.02528141
Sb       6.32732557       1.21307767      22.76319430       0.00534497      -0.00308603      -0.01408380
Sb       0.00838357       4.86131886      22.78025720       0.00904097      -0.00521978      -0.00601359
Mn       0.06549826       4.82834441      13.98372840      -0.00743811       0.00429446       0.03362478
61
Lattice="8.428435589532 0.0 0.0 -4.214217794766 7.299235931425 0.0 0.0 0.0 31.033440841609" Properties=species:S:1:pos:R:3:forces:R:3 branch_id=tetradymite__Sb2Te3__Mn1__ingap_1-7__reused_path_s42 image_index=4 system_id=tetradymite__Sb2Te3__Mn1__ingap_1-7__reused_path_s42 mapping_role=material_transfer_reused_path energy=-225.13940075212975 mlff_rel_energy_eV=-0.7492887748444446 mlff_fmax_eV_A=1.0805300261113435 calculator_label=/home/ycao73/.cache/mace/20231203mace128L1_epoch199model neb_image=4 neb_protocol=mlff_pre_neb pbc="T T T"
Te       2.10098864       1.21300635       3.52044537       0.01019986       0.00589659       0.87626544
Te       4.21421783       4.87322669       3.52044537      -0.00000009      -0.01178092       0.87625965
Te       6.32744702       1.21300635       3.52044537      -0.01019998       0.00589655       0.87626554
Te       0.00000000       4.86615959       3.51368646       0.00000001      -0.00000301       0.86836666
Te       0.00000000       0.00000000       6.80558913       0.00000001       0.00000552      -0.84873915
Te       2.12314963       3.64035858       6.77353864      -0.27109903       0.15651589      -1.03418711
Te       4.21421783       0.01852224       6.77353864      -0.00000007      -0.31303349      -1.03419301
Te      -2.12314963       3.64035858       6.77353864       0.27109921       0.15651596      -1.03418724
Te       0.00000000       0.00000000       0.01304124       0.00000007       0.00000655      -0.05336744
Te       2.10832252       3.64891902       0.00155926       0.01266395      -0.00731302       0.00391779
Te       4.21421783       0.00140136       0.00155926      -0.00000008       0.01462957       0.00391731
Te      -2.10832252       3.64891902       0.00155926      -0.01266385      -0.00731300       0.00391780
Te       0.00000000       2.28878158      14.22382394       0.00000005      -0.11814850       0.10702199
Te       2.23207485       6.15484860      14.22382394       0.10232495       0.05907230       0.10702400
Te       4.21421783       2.43307980      13.80034036      -0.00000013       0.00000297       0.91437711
Te      -2.23207485       6.15484860      14.22382394      -0.10232483       0.05907234       0.10702393
Te       2.10799020       1.21704871      17.17526645       0.04140288       0.02390723      -0.84938379
Te       4.21421783       4.86514198      17.17526645      -0.00000007      -0.04781524      -0.84938984
Te       6.32044546       1.21704871      17.17526645      -0.04140301       0.02390723      -0.84938389
Te       0.00000000       4.86615959      16.93861115       0.00000011      -0.00000674      -0.12733965
Te       2.07669424       1.19897997      10.28149754       0.31144644       0.17982010       0.30325182
Te       4.21421783       4.90127946      10.28149754      -0.00000008      -0.35963694       0.30324874
Te       6.35174142       1.19897997      10.28149754      -0.31144669       0.17982014       0.30325180
Te       0.00000000       4.86615959      10.26823231       0.00000005      -0.00000502       0.35461561
Te       0.00000000       0.00000000      24.24482848       0.00000010       0.00000625       0.69786397
Te       2.11687289       3.64398246      24.19441993      -0.00059525       0.00034455       0.90968840
Te       4.21421783       0.01127447      24.19441993      -0.00000007      -0.00068022       0.90969397
Te      -2.11687289       3.64398246      24.19441993       0.00059533       0.00034454       0.90968851
Te       0.00000000       2.43687328      27.52586254       0.00000011      -0.00913908      -0.93844505
Te       2.10382366       6.08080275      27.52586254       0.00791393       0.00456213      -0.93845045
Te       4.21421783       2.43307980      27.54138885      -0.00000007      -0.00000083      -1.02074263
Te      -2.10382366       6.08080275      27.52586254      -0.00791385       0.00456220      -0.93845055
Te       0.00000000       2.42990033      20.68811130       0.00000012       0.10258880      -0.09352436
Te       2.10986241       6.08428923      20.68811130      -0.08884373      -0.05130045      -0.09352405
Te       4.21421783       2.43307980      20.72632209      -0.00000009       0.00000118      -0.41425781
Te      -2.10986241       6.08428923      20.68811130       0.08884384      -0.05130039      -0.09352407
Sb       0.00000000       2.43230122       8.43536613       0.00000011      -0.11143910       0.16014804
Sb       2.10778318       6.08308878       8.43536613       0.09650998       0.05571382       0.16015103
Sb       4.21421783       2.43307980       8.19671022      -0.00000018       0.00000134       0.83391245
Sb      -2.10778318       6.08308878       8.43536613      -0.09650988       0.05571396       0.16015102
Sb       0.00000000       2.42671799       1.90473875       0.00000012       0.03480979      -0.25197562
Sb       2.11261840       6.08588040       1.90473875      -0.03014243      -0.01741217      -0.25197512
Sb       4.21421783       2.43307980       1.92089496      -0.00000008       0.00000439      -0.27281234
Sb      -2.11261840       6.08588040       1.90473875       0.03014254      -0.01741206      -0.25197515
Sb       0.00000000       0.00000000      18.81923863       0.00000009       0.00000933       0.25113423
Sb       2.10388635       3.65148025      18.72474621      -0.08606463       0.04968518       0.31441744
Sb       4.21421783      -0.00372110      18.72474621      -0.00000005      -0.09937083       0.31441658
Sb       6.32454930       3.65148025      18.72474621       0.08606458       0.04968519       0.31441751
Sb       0.00000000       0.00000000      11.88040369       0.00000015       0.00000611       0.49738580
Sb       1.97849168       3.72387690      12.48317439      -0.19438795       0.11222919      -0.17623936
Sb       4.21421783      -0.14851441      12.48317439      -0.00000010      -0.22445514      -0.17624265
Sb      -1.97849168       3.72387690      12.48317439       0.19438804       0.11222928      -0.17623939
Sb       2.10909386       1.21768591      29.12053626      -0.03699639      -0.02135181       0.34564253
Sb       4.21421783       4.86386757      29.12053626      -0.00000016       0.04271431       0.34564068
Sb       6.31934179       1.21768591      29.12053626       0.03699632      -0.02135191       0.34564252
Sb       0.00000000       4.86615959      29.12384287       0.00000007      -0.00000546       0.32749646
Sb       2.10063901       1.21280450      22.57836874      -0.05438755      -0.03139481      -0.15645812
Sb       4.21421783       4.87363039      22.57836874      -0.00000013       0.06279385      -0.15645960
Sb       6.32779664       1.21280450      22.57836874       0.05438749      -0.03139483      -0.15645818
Sb       0.00000000       4.86615959      22.63293601       0.00000003      -0.00000822      -0.29953071
Mn       0.00000000       4.86615959      14.35116463      -0.00000002      -0.00000114      -0.26876001
