61
Lattice="8.42843558953 0 0 -4.21421779477 7.29923593142 0 0 0 31.0334408416" Properties=species:S:1:pos:R:3:forces:R:3 energy=-133600.387694 ionic_step=0 pbc="T T T"
Te 2.1141503409 1.145215079 3.4402179055 0.000620407244102 3.54812265587e-05 0.00440944228609
Te 0.0652898229 -2.4035119844 3.4402179055 0.000251196799622 -0.000573870273036 0.00432793830914
Te -2.1074899507 1.216759928 3.4698242702 -0.000653831587961 0.000311360618569 0.00589476870515
Te 4.1444192711 -2.3927781219 3.4086662258 -0.000440944228609 0.000280250267746 0.00613208154655
Te -0.3251116608 0.1877033924 7.3446198278 0.00109734691994 -0.00051550622645 -0.0101391461546
Te -2.4250265458 -3.4660663015 7.3662776118 0.0015963980848 -0.0010055585295 -0.00783132376631
Te -3.700115703 -0.2707658708 7.0241718175 -0.00143210457922 0.000277422054035 -0.00355763573835
Te -1.6155678699 3.3397769803 7.0241718175 -0.000977533502725 0.00105286683158 -0.00346944689263
Te -0.0592694728 0.034219262 -0.0294932315 -0.000599324196437 0.000281021598758 -0.0208182240178
Te -2.1086730748 -3.6487131476 0.0221066741 0.0013631990088 -0.000674400414952 -0.0230908222899
Te -4.1658523307 0.0230387716 -0.0291242721 0.000629920326585 0.00171544017101 -0.0214244901933
Te 2.1113394445 -3.7030213333 -0.0291242721 -0.00125701243946 -0.00135188615395 -0.021469227392
Te 0.4166079764 2.2970961532 13.4302690605 0.00664321689727 0.000420375401619 0.011349621623
Te -1.78103966 -1.5093378757 13.4302690605 0.00315937182575 -0.00605160601095 0.0113401085406
Te -4.6469535041 2.6829200107 13.7167795413 -0.00219829338461 0.00155963130656 0.0102916125847
Te 1.6804468866 -0.9702029049 13.799329558 0.00101430028097 -0.000864404954277 0.00791976972237
Te 1.8619689382 1.1570715731 -13.5362314919 0.00251196799622 0.017843971635 0.000406234333063
Te -0.0710688727 -2.1910446735 -13.5362314919 -0.0141161288533 -0.0110212917222 0.00048413876529
Te -1.4112286646 0.8147731297 -13.8502989637 -0.0011878497587 0.00053710349479 0.00867927365899
Te 4.1981619691 -2.4238064975 -14.1732310203 0.0142541971044 -0.00813959906083 0.0137484610708
Te 2.5176549599 0.9468977913 10.2586846814 0.00494603156021 -1.51695099055e-05 -0.0215854412645
Te 0.4387898614 -2.653798754 10.2586846814 0.00257058915314 -0.00437961748696 -0.0214843969019
Te -2.4731141298 1.4278532446 10.5742491652 -0.00956527588161 0.0056034626929 -0.0224066516821
Te 3.8342181199 -2.2136833203 10.4996737544 -0.00623672545387 0.00343036612135 -0.023077195442
Te 0.3717360682 -0.2146220191 -7.5303530602 0.00188590432469 -0.00141127864189 0.0190135665597
Te -1.6607993051 -3.9072933063 -7.51394479 7.84186529014e-05 0.000348127396815 0.0172459329902
Te 3.7351324658 0.2783413752 -7.1204715079 0.0037828643939 -0.0013927666976 0.0186394710188
Te 1.6265156049 -3.373886636 -7.1204715079 0.00289814772297 -0.00246723079751 0.0182859443049
Te 0.0651063094 2.4610993601 -3.5000899711 0.00104309663876 0.00156014552723 0.0218332956298
Te -2.0988213677 -1.2869299641 -3.5000899711 -0.00076593169506 -0.00172161081911 0.0218194116716
Te -4.2910648063 2.4774474795 -3.4807225484 -0.000944880489877 0.000568213845613 0.0212159737097
Te 2.1020211051 -1.2135990086 -3.4230461339 0.00077673032923 -0.000464598379649 0.018906351549
Te -0.4007783528 2.6670773578 -10.2170751601 -0.0077549619961 0.00773542161046 -0.0153854825889
Te -2.5101457982 -0.9864508222 -10.2170751601 -0.0102314487658 0.00256853227044 -0.0152672118337
Te -3.6995671443 2.1359459859 -10.4852931756 0.00649126468787 -0.00337097363341 -0.0142989343031
Te 2.6851597812 -1.5502744351 -10.5834131966 0.00992805856765 -0.00605366289365 -0.0131843609906
Sb 0.0326280872 2.3949721926 9.1898554447 0.00310100777916 0.0018522228705 -0.0266245467669
Sb -2.0577926966 -1.2257394018 9.1898554447 7.19908944669e-05 -0.00364608169441 -0.0265160462045
Sb -4.0976062289 2.3657540657 8.1790088105 -0.00153237761079 0.00116573826969 -0.015303207281
Sb 2.2064716236 -1.2739035729 8.144121524 0.000665144442806 -0.000528361743319 -0.0152039626907
Sb -0.0086773859 2.4255785976 1.8874917406 2.77679164372e-05 -0.00149406817052 -0.020559313908
Sb -2.1049513484 -1.2052709987 1.8874917406 0.00134340151282 0.000645346946828 -0.0207002103729
Sb -4.1995500168 2.4246113665 1.8921887887 1.20841858569e-05 -8.99886180836e-06 -0.0197129066774
Sb 2.1024353138 -1.2138381516 1.7801301484 -0.00105800903833 0.000668486877192 -0.019855860025
Sb 0.1613193858 -0.0931378342 -11.4301763432 -0.00298325124464 0.00145781561295 -0.0136666999835
Sb -2.0873693631 -3.6610128371 -11.2412376188 -0.00285212497257 0.00205045494062 -0.0267212202537
Sb -3.9040418844 0.0898430197 -12.6433716454 0.00149741060491 -0.00156040263757 0.00233893273916
Sb -2.029827245 3.336077871 -12.6433716454 0.00187587702154 -0.000265594978515 0.00247083034224
Sb 0.0081290994 -0.0046933399 11.6457236577 0.0075850120631 -0.00462695763152 -0.00932513482649
Sb -2.1042895465 -3.6512439827 11.5426430658 0.00727570832723 -0.00379057770402 -0.0113979583665
Sb 4.1436050759 0.0187157002 12.6256847805 -0.00689389947621 0.00330823871109 -0.00187819101457
Sb 2.0555942456 -3.5978216205 12.6256847805 -0.00640436139384 0.00435416356356 -0.00200443219023
Sb 2.1056256511 1.2258802167 -1.8570376114 0.000536846384453 0.0032133649966 -0.000619378802752
Sb -0.0088305468 -2.4364619537 -1.8570376114 -0.00255876207762 -0.0019183002272 -0.000636605195357
Sb -2.1150901223 1.2211478924 -1.993925489 -0.000475139903481 0.000253510792658 6.76200187314e-05
Sb 4.22319588 -2.4382598395 -1.878881944 0.0025255948441 -0.00139456646996 -0.00162442311158
Sb 2.1203495445 1.1605794436 -9.3572745348 0.00760815199346 0.00205508292669 -0.00768168554995
Sb 0.0550835033 -2.4165628412 -9.3572745348 0.00203271432734 -0.00759581069727 -0.0075850120631
Sb -2.1221682735 1.2252344683 -8.0763739815 -0.00680622485117 0.00401272103552 0.000154523312766
Sb 4.1430097335 -2.3919643246 -8.0918196163 -0.000725565372091 0.000533761060404 0.00144238899271
Cr -2.107465491 -3.6494099223 17.306718457 -0.00181494187158 0.00119504884815 0.0021404435587
61
Lattice="8.42843558953 0 0 -4.21421779477 7.29923593142 0 0 0 31.0334408416" Properties=species:S:1:pos:R:3:forces:R:3 energy=-133600.396162 ionic_step=1 pbc="T T T"
Te 2.1143151765 1.1444899055 3.4405568881 0.000482596103265 -0.00199774732146 -0.00135548569868
Te 0.0660002591 -2.4032921495 3.4405568881 0.00197512161177 0.000584926017543 -0.00133903063708
Te -2.1075619646 1.2168015053 3.4701088775 -0.000344527852091 0.000204916938893 0.000898857739486
Te 4.1435846112 -2.3922962306 3.408903887 -0.00239781100642 0.00138171095309 -0.00224225925231
Te -0.3247142004 0.1874739184 7.3439082535 -0.000523219536572 0.000255567675357 -0.0184337827489
Te -2.4248945472 -3.466142511 7.3668882095 0.00309740823444 -0.00175554938364 -0.014249312008
Te -3.7013319103 -0.2710833027 7.0254636404 0.000247597254899 0.0052651054889 -0.0149867044556
Te -1.6159010696 3.3409889631 7.0254636404 -0.00446343545695 -0.00282872793187 -0.0149658785183
Te -0.0597716022 0.0345091667 -0.0297261166 8.99886180836e-05 -6.29920326585e-05 0.00371524437516
Te -2.1087507529 -3.6486683001 0.022036741 0.000213144469689 -0.000109529003725 0.00368516246569
Te -4.1654943582 0.0231853705 -0.0293843389 0.000956193344722 0.000969048861591 0.00309869378612
Te 2.1113914724 -3.7034046462 -0.0293843389 -0.000364068237732 -0.0013274606719 0.0030971511241
Te 0.415638198 2.2952802207 13.4295885653 0.000826609734682 -0.00481053441241 0.0204577553248
Te -1.7799519062 -1.5075900563 13.4295885653 0.00461333078364 0.00168561537187 0.0204310158497
Te -4.648106335 2.6835855982 13.7176663208 -0.000881117126207 0.000557672321781 0.0209449794141
Te 1.6788613259 -0.9692874806 13.7985293448 -0.00394921478218 0.00220549247406 0.0158693642439
Te 1.862712497 1.1569878363 -13.5361304316 0.00115853918024 0.00592716460766 0.00565462765003
Te -0.0706245751 -2.1916467462 -13.5361304316 -0.00456473692987 -0.00397826825031 0.00568496666985
Te -1.4119543121 0.8151920827 -13.847822527 0.000401863457327 -0.000236798620728 0.009167011969
Te 4.1995916332 -2.4246319148 -14.1750382045 0.0066496446557 -0.00382323071686 0.00636322373986
Te 2.5163706514 0.9460522486 10.2577356813 -0.00104746751449 0.00109040494084 0.00939301195556
Te 0.4388799683 -2.6522637384 10.2577356813 -0.00146398626105 0.000362525575708 0.00944237714034
Te -2.47276403 1.4276511143 10.5736790234 -0.000852834989095 0.000523219536572 0.0114398673515
Te 3.8364839711 -2.2149915107 10.5013356878 0.000487738310013 -0.000282564260782 0.0157413232959
Te 0.3720606946 -0.2148094423 -7.5301430237 0.000416518746558 -0.000260966992442 -0.0127907250641
Te -1.6627413271 -3.9061720789 -7.5160035974 -0.0048159337295 0.00281407264264 -0.0159264427388
Te 3.7361689066 0.27696021 -7.1202838221 0.000368953334143 -0.00485270050774 -0.0147023404225
Te 1.6282299489 -3.3740936379 -7.1202838221 0.00437858904561 0.00208207951212 -0.0147468205109
Te 0.0654740914 2.4613387988 -3.5006876433 7.43048875033e-05 -0.00022291466251 -0.00955062059238
Te -2.0988448366 -1.2873681921 -3.5006876433 0.000255567675357 3.26530128475e-05 -0.00952233845527
Te -4.2916336028 2.4777758745 -3.4810705915 -0.000276650723023 0.000165321946936 -0.00678745579654
Te 2.1020327089 -1.2136057081 -3.4226486914 -0.000449171759406 0.000240912386127 -0.00541268682256
Te -0.4045695183 2.6662577613 -10.2176587884 -0.000619893023427 -0.00156580195465 -0.00235255958704
Te -2.5113315899 -0.9827577768 -10.2176587884 0.00110351756804 0.00137656874634 -0.00230165174024
Te -3.7007930193 2.1366537455 -10.4846351269 -0.00370573129268 0.00215587017894 0.00105569504529
Te 2.6863930002 -1.5509864348 -10.5821600707 -0.000505993143967 0.00025428212367 0.00148866885344
Sb 0.0339617948 2.396635297 9.1911149523 -0.00188770409706 -0.00727133745149 -0.00143596123428
Sb -2.0585661328 -1.2277259792 9.1911149523 0.00539211799557 0.00523116692437 -0.00143004769652
Sb -4.0973869856 2.3656274854 8.1794462392 0.00273436843805 -0.00153649137619 -0.00747728283173
Sb 2.2084799811 -1.2750630992 8.1435309731 -0.00660259346396 0.00376795199433 -0.012047676189
Sb -0.0083902794 2.4258042624 1.887874059 -0.00100890096389 -0.000853092099432 0.00678668446553
Sb -2.1050032265 -1.2056324728 1.887874059 0.000232427744993 0.00129892142445 0.00677717138304
Sb -4.1999119027 2.4248203015 1.8926432537 0.000710138751848 -0.000424746277354 0.00773105073473
Sb 2.1024122191 -1.2138248178 1.7789893637 -0.000277679164372 0.000170721264021 0.00655657071357
Sb 0.1604274151 -0.0926228544 -11.4336395538 -0.000857977195842 0.00045662795919 0.00238624104124
Sb -2.0879999714 -3.660648755 -11.2441726932 0.00180234346505 -0.00110454600939 0.000102587024615
Sb -3.9046171369 0.0890834444 -12.6442657417 0.00017380658807 -0.00120610459266 0.00233893273916
Sb -2.0294570601 3.3369558421 -12.6442657417 0.00108886227881 0.000459713283238 0.00231116482272
Sb 0.0079406527 -0.0045845401 11.6462453854 0.00149149706715 -0.000925340104236 0.0203970772852
Sb -2.1055280479 -3.6505289332 11.5417367998 0.00417727165144 -0.00233250498073 0.0197620147518
Sb 4.144253412 0.0172614327 12.6259797937 -0.00140330822143 0.00541911458099 0.0224974116312
Sb 2.0571778457 -3.5976559625 12.6259797937 -0.00544868226979 -0.00144753119946 0.0224272205091
Sb 2.10531618 1.226138861 -1.8566249176 0.000217258235087 -0.000579269590121 0.000522448205559
Sb -0.0092092748 -2.4363232659 -1.8566249176 0.000585440238218 0.000126498285992 0.000511392461052
Sb -2.1147522352 1.2209528131 -1.9952397373 -0.000780329873953 0.000428860042753 0.000179205905155
Sb 4.2236615467 -2.4385286924 -1.8787752081 -0.000254025013333 0.000166350388286 0.000185890773927
Sb 2.1225522816 1.1607122567 -9.3571088365 -0.00154857556205 0.000318559708016 -0.00623184035746
Sb 0.0560698524 -2.4185368749 -9.3571088365 -0.00106289413474 0.00118476443465 -0.00615187904253
Sb -2.1226728556 1.2255257891 -8.0755296314 0.00333137864145 -0.00191958577889 -0.0103785158787
Sb 4.1434243365 -2.3922036958 -8.0893068589 0.000971362854628 -0.000601638189473 -0.00858517127551
Cr -2.1078183598 -3.6492061933 17.3091735919 -0.00206845266424 0.00127295328038 0.00581455027989
61
Lattice="8.42843558953 0 0 -4.21421779477 7.29923593142 0 0 0 31.0334408416" Properties=species:S:1:pos:R:3:forces:R:3 energy=-133600.403688 ionic_step=2 pbc="T T T"
Te 2.1145099805 1.1435155717 3.4409355177 0.000252739461646 0.000660516456733 0.00114696921506
Te 0.0669414585 -2.4029736879 3.4409355177 -0.000445572214682 -0.000550987453009 0.00114748343573
Te -2.1076548735 1.2168551463 3.4704258981 -0.000177920353468 0.000106700790013 0.000815811100512
Te 4.1424772798 -2.3916569122 3.4091445598 0.000549959011659 -0.000328329900836 0.00117345157981
Te -0.3243562583 0.1872672604 7.3432905435 0.000486195647989 -0.000274850950661 0.000702425441727
Te -2.4247623114 -3.4662188574 7.3674507406 -0.00124261426057 0.000709624531173 0.00149432528086
Te -3.70250318 -0.2715491532 7.0270464912 -0.00156091685824 -0.00236027289716 0.00112691460874
Te -1.6160832662 3.3422362382 7.0270464912 0.00127063928734 0.00252816594747 0.00112717171908
Te -0.0604680064 0.034911236 -0.0299913837 -0.000201831614845 0.000124184292955 0.0027058291906
Te -2.1088531021 -3.6486092088 0.0220023549 -0.000334243438596 0.000191032980675 0.00282769949052
Te -4.1650042732 0.0233925044 -0.0297154838 6.71057980566e-05 -0.000273051178299 0.00258601577338
Te 2.1114571318 -3.7039326394 -0.0297154838 0.0002709942956 7.35335564911e-05 0.00258730132507
Te 0.4145327334 2.2930423635 13.4287906928 0.000794728052847 0.000764131922698 -0.00092893964896
Te -1.7785665983 -1.5055137669 13.4287906928 -0.000265852088853 -0.00106340835541 -0.000934596076382
Te -4.6493307555 2.6842925181 13.7185341741 -0.00102587024615 0.00058724001058 -0.000794470942509
Te 1.6770004269 -0.9682130895 13.7975741075 8.56177423481e-05 -4.62798607287e-05 -0.001947867916
Te 1.8635903465 1.156881558 -13.5361434539 0.00141950617268 0.00429708506866 -0.00153186339012
Te -0.0700936107 -2.1923538474 -13.5361434539 -0.0030166755885 -0.00338151515724 -0.00152415008
Te -1.412773189 0.8156648617 -13.8449741454 0.000223943103859 -0.000128040948016 -0.00242686447455
Te 4.2011702677 -2.4255433403 -14.1773732345 0.0030084480577 -0.00172855279822 -0.00122590208864
Te 2.5149809209 0.9450113456 10.2567367978 0.000222400441835 -0.000595724651713 0.00344425007956
Te 0.439086551 -2.6505397444 10.2567367978 0.000625292340512 0.000110300334737 0.00344759251395
Te -2.4723232414 1.4273966247 10.5729881973 -0.00038489417506 0.000219829338461 0.00397158338153
Te 3.8387859484 -2.2163205585 10.503451286 0.000389522161133 -0.000225228655546 0.00222194753565
Te 0.3724342171 -0.2150250957 -7.5301563304 -0.000583126245182 0.000341956748718 -3.77952195951e-05
Te -1.665022417 -3.9048550904 -7.5184997032 0.000698054565991 -0.000407262774413 -2.2882820027e-05
Te 3.7373376202 0.2754882605 -7.1198791984 0.000263538095816 0.00128555168691 -0.000569756507638
Te 1.6300890507 -3.3743697992 -7.1198791984 -0.000979590385424 -0.000872118264398 -0.000561528976841
Te 0.0660171068 2.4616596046 -3.5015063272 0.000367924892793 0.000422946504993 -0.00574821581284
Te -2.0988511547 -1.2879988603 -3.5015063272 -0.000186919215276 -0.000532989729392 -0.00575361512993
Te -4.2924201608 2.4782299941 -3.4814903797 -0.000387465278434 0.000223685993522 -0.00612719645014
Te 2.1020373623 -1.2136083947 -3.4220999866 0.000228313979595 -0.000130869161727 -0.00591122376674
Te -0.4086911992 2.6651754409 -10.2183344641 -0.00018563366359 0.00113128548448 0.00122744475066
Te -2.5124551138 -0.9786471346 -10.2183344641 -0.00108037763768 -0.000405720112388 0.0012235880956
Te -3.7022111045 2.1374724777 -10.4841531004 0.000247597254899 -0.00014629578197 0.00168381559951
Te 2.6875805079 -1.5516720429 -10.5807475683 0.00205893958175 -0.00118707842769 0.00144444587541
Sb 0.0354692852 2.3982178818 9.1924301642 0.000735849785586 0.00247931498337 0.00348641617489
Sb -2.0591829456 -1.2298227972 9.1924301642 -0.00177843220367 -0.00187433435951 0.00349078705063
Sb -4.0971671441 2.3655005599 8.1801930096 -0.000894743974088 0.000512420902402 0.00223377461117
Sb 2.2106408432 -1.2763106741 8.1429094079 0.0017483502942 -0.00100735830186 0.00325733086429
Sb -0.0080794391 2.426082289 1.8884707467 0.000296191108664 0.000921226338838 0.00460870279757
Sb -2.1050885844 -1.2060406818 1.8884707467 -0.000655117139648 -0.000715023848258 0.0046069030252
Sb -4.2003064397 2.4250480877 1.8932831019 -0.000369724665155 0.000214944242051 0.00424514878051
Sb 2.102396828 -1.2138159318 1.7775243194 0.000668486877192 -0.000380266188987 0.00499051164858
Sb 0.1595029371 -0.0920891065 -11.4374912914 -0.000392607485182 0.000229085310607 0.00260452771768
Sb -2.0892734559 -3.6599135081 -11.2466268028 -0.000777758770579 0.000447629097381 -0.000997330998703
Sb -3.9054593948 0.0881386897 -12.6452521114 -0.000484652985964 -0.000308789515195 0.00236284400054
Sb -2.0290600078 3.3381576366 -12.6452521114 2.4939702726e-05 0.000573098942024 0.00236438666256
Sb 0.0076282055 -0.0044041485 11.6466063394 0.00042423205668 -0.000247340144561 0.00285186786224
Sb -2.1066077739 -3.6499055528 11.5408982811 -0.000572070500674 0.000332443666234 0.00257496002888
Sb 4.1448796448 0.0159002274 12.626401833 -0.000509335578353 -5.63071638866e-05 0.000633776981646
Sb 2.0586697999 -3.5975176936 12.626401833 -0.000204145607881 0.000474368572469 0.000634034091983
Sb 2.1049656332 1.2264305117 -1.856126098 0.000607551727233 0.000608065947908 -0.00418858450628
Sb -0.009637125 -2.4361655086 -1.856126098 -0.000220600669473 -0.000827895286369 -0.00419269827168
Sb -2.1143894862 1.2207433797 -1.996975946 -0.000558186542456 0.000322930583751 -0.00440172897597
Sb 4.2241838138 -2.4388302236 -1.878629174 0.000139610913198 -7.84186529014e-05 -0.00372090080259
Sb 2.1247530582 1.160770992 -9.3570330775 -0.000208002262942 0.000604723513522 0.00166196122083
Sb 0.0571193744 -2.4204721719 -9.3570330775 -0.000628634774898 -0.000120584748232 0.00165707612442
Sb -2.122982807 1.2257047397 -8.0744233923 0.000182548339541 -0.000101558583266 -0.000182291229204
Sb 4.144148919 -2.392622034 -8.0864908558 0.000466912372685 -0.000270737185263 -0.00146527181274
Cr -2.1079111274 -3.6491526339 17.3114513546 0.000912741697705 -0.000520648433198 -0.00139019559422
61
Lattice="8.42843558953 0 0 -4.21421779477 7.29923593142 0 0 0 31.0334408416" Properties=species:S:1:pos:R:3:forces:R:3 energy=-133600.412172 ionic_step=3 pbc="T T T"
Te 2.1148228868 1.1417659023 3.4415811654 0.000247854365236 -6.42775843454e-05 0.00305961301484
Te 0.0686131691 -2.4023698382 3.4415811654 0.000179977236167 -0.000182805449878 0.00306012723552
Te -2.1078171153 1.2169488167 3.4709865297 -0.000253253682321 0.000145010230283 0.00302516022963
Te 4.1405112365 -2.390521816 3.4095529672 -0.000157608636815 9.12741697705e-05 0.00282050040108
Te -0.3239238298 0.1870175975 7.3427239296 0.000456370848852 -0.00026508075784 0.000828923727718
Te -2.4245735967 -3.4663278119 7.368281176 0.000337842983319 -0.000194632525398 0.00044582932502
Te -3.7039819586 -0.2724073436 7.0297853771 -0.000297476660351 0.000183833891228 0.000483881654952
Te -1.6160794412 3.3439459938 7.0297853771 -0.000310075066882 0.000166350388286 0.000483881654952
Te -0.0617459529 0.0356490591 -0.0304465968 0.000234227517355 -0.000134725816788 0.00563045927832
Te -2.1090269528 -3.6485088359 0.0219825551 8.8960176734e-05 -5.14220674763e-05 0.00563842969878
Te -4.16410927 0.0237818998 -0.03032331 -0.000289506239892 -3.54812265587e-05 0.00566028407746
Te 2.1115674073 -3.7049024329 -0.03032331 -0.000112871438111 0.000268680302564 0.00565951274644
Te 0.412805123 2.2893780502 13.4274857865 0.00017277814672 -0.000748448192118 -0.00280096001544
Te -1.7762570165 -1.502185455 13.4274857865 0.000734564233899 0.000226771317571 -0.00280121712577
Te -4.6510688153 2.6852959878 13.7196622711 0.000367410672118 -0.000212373138677 -0.00290714658477
Te 1.6740904794 -0.9665330298 13.7959768404 -0.000216486904075 0.000122641630931 -0.00272048447984
Te 1.8649640203 1.1567198691 -13.5364183602 -0.000127269617004 -0.00163033664934 -0.001651419697
Te -0.0692667472 -2.1934626399 -13.5364183602 0.0013488008299 0.000923797442212 -0.00165167680734
Te -1.4140643627 0.8164103215 -13.840636864 0.000122384520594 -6.99340117678e-05 -0.00170489864718
Te 4.2036065125 -2.4269499076 -14.1814190547 -0.00153263472113 0.000884973781268 -0.00146887135746
Te 2.5130031618 0.9433425758 10.255281332 -0.000427317380728 -0.000192318532361 -0.00161542424977
Te 0.4395428678 -2.647992569 10.255281332 -4.7822522753e-05 0.000465626820998 -0.00161568136011
Te -2.4716184112 1.4269896907 10.5718331914 -9.7701928205e-05 5.63071638866e-05 -0.00188821831773
Te 3.8419447045 -2.2181442681 10.5069623545 -0.000728136475465 0.000420118291282 -0.00218826608146
Te 0.3730304328 -0.2153693212 -7.5304326799 -0.000306732632496 0.000176377691444 -0.0036962182102
Te -1.6685566386 -3.9028146056 -7.5224655786 -0.000552273004696 0.000320616590715 -0.0035758905723
Te 3.7391393374 0.2734011029 -7.1189601879 -5.14220674763e-05 -0.00036921044448 -0.00260298505565
Te 1.63279744 -3.3748865541 -7.1189601879 0.000294391336302 0.000229085310607 -0.00260247083498
Te 0.067058757 2.462231926 -3.5029542451 -4.7822522753e-05 9.64163765181e-05 0.00382477337889
Te -2.0988259743 -1.2891871171 -3.5029542451 -0.000108243452038 -6.17064809716e-06 0.00382477337889
Te -4.2938525717 2.4790569974 -3.4821502603 6.91626807557e-05 -4.13947643184e-05 0.00434465048107
Te 2.1020294937 -1.2136038518 -3.4210866693 0.000100273031579 -5.78498259109e-05 0.0041852420719
Te -0.4148123657 2.6633352407 -10.2193500683 0.000305704191147 -4.75654124156e-05 -0.00563894391945
Te -2.5139220377 -0.9724259462 -10.2193500683 0.000194632525398 -0.000241683717139 -0.00563945814013
Te -3.7044205614 2.1387481089 -10.4837867217 -0.000145267340621 8.43321906612e-05 -0.00566234096016
Te 2.6891349189 -1.552569483 -10.5786203274 -0.000210316255978 0.000120070527557 -0.00580606563875
Sb 0.0377891341 2.4002459486 9.1943343819 0.000159922629851 -0.000846664340998 -0.00079832759757
Sb -2.0597793777 -1.2328458796 9.1943343819 0.000813754217813 0.000283592702132 -0.000797813376895
Sb -4.0968888431 2.3653398826 8.181798883 -8.07326459378e-05 4.85938537651e-05 0.000165836167611
Sb 2.2137707209 -1.2781177107 8.1421448958 -0.000571299169662 0.000328329900836 7.50762185154e-05
Sb -0.0076230358 2.4265292723 1.8895962324 -8.20181976247e-05 0.000440944228609 0.0048881817343
Sb -2.1052474814 -1.2066594304 1.8895962324 -0.000423460725668 -0.000148352664669 0.00488869595497
Sb -4.2008827969 2.4253808478 1.8944247825 8.51035216733e-05 -5.06507364642e-05 0.00463749915535
Sb 2.1023803981 -1.213806446 1.7749759417 0.000429888484102 -0.000247597254899 0.00486555602461
Sb 0.1582423663 -0.0913613153 -11.4433089711 0.000249911247935 -0.000143724678596 -0.00397646847794
Sb -2.0919604846 -3.6583621506 -11.2492520236 -0.000118527865533 6.76200187314e-05 -0.00287475068226
Sb -3.9069970094 0.0866015704 -12.6467956031 -0.000293362894952 -0.000339899866019 -0.00270634341128
Sb -2.0284976314 3.3402578102 -12.6467956031 0.00014732422332 0.000424489167017 -0.0027058291906
Sb 0.0070100763 -0.0040472713 11.6466713721 0.000617321920053 -0.000357897589635 -0.00271379961106
Sb -2.1078139247 -3.649209181 11.5397744228 0.000997845219378 -0.000573613162698 -0.00251222510656
Sb 4.145683671 0.0142088679 12.6270447626 -0.000605751954871 0.000793956721834 -0.00255284853986
Sb 2.0605365726 -3.5973683213 12.6270447626 -0.000992188791956 0.000129326499703 -0.00255233431919
Sb 2.1044226325 1.226890537 -1.8553589661 0.000522448205559 -4.06234333063e-05 0.00604800646623
Sb -0.0103070188 -2.4359252687 -1.8553589661 0.000296705329338 -0.000431688256464 0.00604774935589
Sb -2.1138590937 1.2204371574 -2.0000597949 -0.000507021585317 0.00029362000529 0.00598732842661
Sb 4.2249908103 -2.4392961435 -1.8784198075 -0.00029362000529 0.000169435712334 0.00632851384431
Sb 2.1277307967 1.1607343049 -9.3570069947 -0.000605237734196 -0.000133183154764 -0.00591173798742
Sb 0.0586400156 -2.4230326267 -9.3570069947 -0.000186147884264 0.00059109666564 -0.00591199509775
Sb -2.1231622963 1.2258083679 -8.0724486219 0.000715280958596 -0.000412662091498 -0.00453311235838
Sb 4.1455777946 -2.393446996 -8.0821948924 0.000295933998326 -0.000170721264021 -0.00475756968291
Cr -2.107676618 -3.649288028 17.3143425863 9.97588109041e-05 -5.83640465856e-05 -0.00174886451487
61
Lattice="8.42843558953 0 0 -4.21421779477 7.29923593142 0 0 0 31.0334408416" Properties=species:S:1:pos:R:3:forces:R:3 energy=-133600.419827 ionic_step=4 pbc="T T T"
Te 2.1153366374 1.1385683661 3.4426091939 0.000205174049231 0.000191804311687 -5.39931708501e-05
Te 0.0716391907 -2.4012159914 3.4426091939 -6.32491429959e-05 -0.000273822509311 -5.39931708501e-05
Te -2.1081069478 1.2171161516 3.4719643488 -0.00020620249058 0.00011878497587 -0.000195918077085
Te 4.1369650236 -2.3884744081 3.4101903626 9.69305971929e-05 -5.60500535492e-05 -0.000132154713414
Te -0.3234648064 0.1867525801 7.3423864346 0.00026713764054 -0.000154266202429 0.00329923984928
Te -2.4242872488 -3.466493135 7.3693730902 -0.000357640479298 0.000206716711255 0.00370573129268
Te -3.7056624766 -0.2739296711 7.0344111993 -0.000768759908771 -0.000666687104831 0.00266134910224
Te -1.6156013265 3.3461625295 7.0344111993 0.000192832753036 0.000999130771065 0.00266134910224
Te -0.0641288389 0.0370248196 -0.0312046514 0.000146038671633 -8.40750803238e-05 0.00138916715287
Te -2.1093290199 -3.6483344373 0.022067864 -4.75654124156e-05 2.72536957625e-05 0.00131383382402
Te -4.1624408107 0.024526409 -0.0314216112 -0.000180491456842 -0.000142182016572 0.00141179286256
Te 2.1117568733 -3.7067196164 -0.0314216112 3.26530128475e-05 0.000227542648583 0.00141179286256
Te 0.4101048733 2.2833154698 13.425456381 0.000285906695168 0.000146552892308 0.0017187826054
Te -1.7723567952 -1.4968156789 13.425456381 1.59408409177e-05 -0.000320873701052 0.0017187826054
Te -4.6534947768 2.686696618 13.7211668503 -0.0003260159078 0.000187947656626 0.000926368545586
Te 1.6695344592 -0.9639026091 13.7933102038 -0.000102587024615 5.96495982725e-05 0.000753590398866
Te 1.8670693196 1.1564468997 -13.5372799914 -2.57110337382e-07 -0.000148352664669 -0.00518591550499
Te -0.0679776992 -2.1951493987 -13.5372799914 0.000127783837679 7.48191081781e-05 -0.00518565839465
Te -1.4161182796 0.8175961515 -13.8340912397 0.000178434574143 -0.00010310124529 -0.00488535352059
Te 4.2074294866 -2.4291571037 -14.1884643943 -0.000195660966747 0.000113128548448 -0.00422535128453
Te 2.5103282425 0.9406881322 10.253241308 0.000120584748232 -0.000111842996761 0.00880088684857
Te 0.4405042227 -2.6443487981 10.253241308 0.00015709441614 -4.85938537651e-05 0.00880062973824
Te -2.4705300849 1.4263613449 10.5699667452 -4.57656400539e-05 2.62252544129e-05 0.00896029525775
Te 3.846088439 -2.2205366554 10.5128009295 0.000236027289716 -0.00013652558915 0.00807275037311
Te 0.3740275371 -0.2159449999 -7.5313222147 -0.000150152437031 8.66461836976e-05 -0.00267446172944
Te -1.6739657873 -3.8996916307 -7.5287931841 -0.000238084172415 0.000137554030499 -0.00277653453338
Te 3.7418983952 0.2705076251 -7.1170867194 2.59681440755e-05 -2.2882820027e-05 -0.00263075297209
Te 1.636682793 -3.3758292304 -7.1170867194 3.29101231848e-05 -1.10557445074e-05 -0.00263101008243
Te 0.0690796808 2.4632713567 -3.5054939411 0.000118013644858 0.000193346973711 -0.00127680993544
Te -2.0987156854 -1.2914570046 -3.5054939411 -0.000108243452038 -0.000198489180459 -0.00127706704577
Te -4.2965011739 2.4805861692 -3.4831473613 -0.000100273031579 5.78498259109e-05 -0.00110223201636
Te 2.101984614 -1.2135779405 -3.4191526362 0.000104386796977 -6.01638189473e-05 -0.00126035487384
Te -0.423890342 2.6602418332 -10.2208553035 8.61319630228e-05 0.000334243438596 -0.00484832963201
Te -2.5157820576 -0.9630174808 -10.2208553035 -0.000246054592874 -0.000241940827476 -0.00484858674234
Te -3.7078797411 2.1407452682 -10.4839235414 4.34516470175e-05 -2.51968130634e-05 -0.00500131028275
Te 2.6911272964 -1.5537197832 -10.5754702817 0.000369724665155 -0.000213658690364 -0.00537669137532
Sb 0.0413538169 2.4026423694 9.1970697655 0.000278450495384 0.00100581563984 0.0077184523282
Sb -2.0600723966 -1.2371311973 9.1970697655 -0.000731736020188 -0.000743820206045 0.00771819521786
Sb -4.0965310593 2.3651333159 8.1849663982 -0.000337328762645 0.000194889635735 0.005567724356
Sb 2.2182151094 -1.2806836808 8.1412271948 0.00078161542564 -0.000451228642105 0.00564562878823
Sb -0.0069692264 2.4272452264 1.8916742185 0.000151695099055 0.000421146732631 0.00122178832324
Sb -2.1055406108 -1.2075836233 1.8916742185 -0.000288992019217 -0.000341956748718 0.00122178832324
Sb -4.2017061058 2.4258561856 1.8964285524 -0.000152980650742 8.84459560593e-05 0.0011369419119
Sb 2.1023564185 -1.2137926013 1.7704238523 0.000282307150445 -0.000163265064237 0.00125829799115
Sb 0.1566306867 -0.0904308112 -11.4520492236 -2.62252544129e-05 1.49123995681e-05 -0.005461794897
Sb -2.0972804065 -3.6552906908 -11.2514432488 -0.000326273018137 0.000188718987638 -0.00496377217349
Sb -3.9097964174 0.0840730472 -12.6491971483 -0.000187176325614 -0.000336043210958 -0.00525353552372
Sb -2.0277075711 3.3439464313 -12.6491971483 0.000197460739109 0.000329872562861 -0.00525327841338
Sb 0.0058408593 -0.0033722233 11.645907861 7.71331012145e-05 -4.42229780296e-05 0.00712067079378
Sb -2.1088371356 -3.6486184297 11.5384589799 -0.000158637078164 9.12741697705e-05 0.00699442961813
Sb 4.1466161868 0.0123251596 12.6281388357 -0.000148866885344 4.47371987044e-05 0.00443026822342
Sb 2.062634169 -3.5972340499 12.6281388357 -0.000112614327773 0.000106443679676 0.00443001111309
Sb 2.103583577 1.2276164276 -1.8540809992 0.000267394750877 0.000308018184183 0.000459713283238
Sb -0.011355186 -2.4355615703 -1.8540809992 -0.000132668934089 -0.000385665506072 0.00046048461425
Sb -2.1131022777 1.2200002093 -2.0055388592 -0.000259167220081 0.000149895326693 0.000196175187422
Sb 4.2262367493 -2.4400154871 -1.8780412207 0.000141924906235 -8.25324182995e-05 0.000644832726153
Sb 2.1315858465 1.1604425914 -9.3571501314 2.05688269905e-06 0.000163522174575 -0.00378723526963
Sb 0.0608201717 -2.4262253426 -9.3571501314 -0.000140639354548 -8.3560859649e-05 -0.00378723526963
Sb -2.1229634837 1.2256935833 -8.0689871736 0.000163265064237 -9.43594938191e-05 -0.00302541733997
Sb 4.1482719728 -2.3950024813 -8.0757646316 0.000256596116707 -0.000148352664669 -0.00317865510105
Cr -2.1067891672 -3.6498003982 17.3179325217 -3.41956748718e-05 1.9540385641e-05 -0.00481799061219
61
Lattice="8.42843558953 0 0 -4.21421779477 7.29923593142 0 0 0 31.0334408416" Properties=species:S:1:pos:R:3:forces:R:3 energy=-133600.423546 ionic_step=5 pbc="T T T"
Te 2.1157769186 1.1353556727 3.4433989413 -0.000454571076491 0.000624006788825 0.00118116488993
Te 0.0746416041 -2.3999909395 3.4433989413 -0.000768502798434 8.20181976247e-05 0.00118116488993
Te -2.1083871955 1.2172779527 3.4729156582 0.000431688256464 -0.000249654137598 0.00117705112453
Te 4.1334753456 -2.3864596406 3.4106821795 0.000693169469581 -0.000399035243616 0.0010330693356
Te -0.3233741388 0.1867002332 7.3428298512 -0.000208773593954 0.000120841858569 0.00223351750083
Te -2.4240504852 -3.4666298306 7.369980456 0.000499051164858 -0.000288220688205 0.00191855733754
Te -3.7061184265 -0.2753229998 7.0384875461 0.00128298058353 0.000599324196437 0.00168021605479
Te -1.614622644 3.3472540583 7.0384875461 0.000122384520594 -0.00141127864189 0.00167970183411
Te -0.0665890119 0.0384452018 -0.0318620977 -0.000377952195951 0.0002180295661 -0.000786243411713
Te -2.1096099863 -3.6481722212 0.022344005 -1.6197951255e-05 9.25597214574e-06 7.63617702023e-05
Te -4.1607040729 0.0253229597 -0.0324950752 0.000391064823157 0.000188718987638 -0.000869547161025
Te 2.1119354094 -3.7086219514 -0.0324950752 3.23959025101e-05 -0.000433745139163 -0.000870575602374
Te 0.4079404705 2.2780740603 13.4238649623 -0.000805269576679 0.00124981335001 -0.00404897359309
Te -1.7688998049 -1.4923205454 13.4238649623 -0.0014842979777 7.22480048042e-05 -0.00404923070342
Te -4.6550178299 2.6875759535 13.722080573 0.000168150160648 -9.69305971929e-05 -0.0042382068014
Te 1.6659622188 -0.9618401741 13.790893274 0.00085334920977 -0.000493394737435 -0.00308249583487
Te 1.8685778948 1.1561772228 -13.5385729895 -0.000419346960269 -0.00211164720092 -0.00405745823422
Te -0.0669898646 -2.1963210254 -13.5385729895 0.00161953801517 0.00141899195201 -0.00405720112388
Te -1.4178431926 0.818592031 -13.8293718323 -0.000258910109743 0.000149895326693 -0.00474985637279
Te 4.2105227225 -2.4309429851 -14.1950389299 -0.0017738042176 0.00102355625312 -0.00518565839465
Te 2.5088983495 0.9386070918 10.2519829684 -0.000210830476653 0.000718623392982 -0.00126061198418
Te 0.4415915092 -2.6420699537 10.2519829684 -0.000727879365127 -0.000176634801781 -0.00126009776351
Te -2.4697197848 1.4258935177 10.5684805973 0.000354555155249 -0.000204916938893 -0.00156863016837
Te 3.8483309876 -2.2218313921 10.5177769832 0.000676971518326 -0.000391064823157 -3.7023888583e-05
Te 0.3749679571 -0.2164879519 -7.5325473605 -0.000290020460566 0.000167378829635 0.00509335578353
Te -1.6779258296 -3.8974052982 -7.5338738955 0.000568985176626 -0.000328587011174 0.00515994736091
Te 3.7439554621 0.2687461479 -7.1151041287 0.000359183141322 0.000461255945263 0.00437961748696
Te 1.6392368098 -3.3767299648 -7.1151041287 -0.000219572228124 -0.000542245701538 0.00437910326628
Te 0.0712719328 2.4643089375 -3.5079104449 -0.000862862292253 -0.00060292374116 0.000124184292955
Te -2.0985181303 -1.2938743418 -3.5079104449 9.0245728421e-05 0.00104875306618 0.000124441403293
Te -4.2992037025 2.4821464756 -3.4839358033 0.000805012466342 -0.000465112600323 -0.000204145607881
Te 2.1018933905 -1.2135252725 -3.4171806798 -0.000102844134953 5.96495982725e-05 -2.31399303643e-05
Te -0.4304197486 2.6575904603 -10.2218391501 -0.000336043210958 -0.000957736006747 0.00361214312987
Te -2.5167506057 -0.9560371597 -10.2218391501 0.000661030677408 0.000769274129446 0.00361265735055
Te -3.7106111847 2.1423222686 -10.4849456928 -0.000424746277354 0.000245283261862 0.00317814088037
Te 2.6922053432 -1.5543421941 -10.5732210987 -0.00113591347055 0.000656145580998 0.00160154029155
Sb 0.0440728778 2.4035696149 9.1990220697 -0.000886002222617 -0.00171775416405 0.000221629110823
Sb -2.059515884 -1.239949597 9.1990220697 0.00104438219044 0.0016259657736 0.000221114890148
Sb -4.0963314461 2.3650180692 8.1883258884 0.000230370862294 -0.000133183154764 0.00156760172702
Sb 2.2211199625 -1.2823607992 8.1409212984 -0.00240269610283 0.00138762449085 0.00144598853743
Sb -0.006543497 2.4278238167 1.8937946254 -8.8960176734e-05 -0.000747419750768 0.000187433435951
Sb -2.1058288199 -1.2082416111 1.8937946254 0.000600609748123 0.000451485752442 0.000188204766963
Sb -4.2022422971 2.426165756 1.8983399859 0.000113642769123 -6.42775843454e-05 0.000368953334143
Sb 2.1023223918 -1.213772956 1.7660161925 -0.000506764474979 0.000292077343266 0.00103898287336
Sb 0.1558936206 -0.0900052657 -11.4583783806 0.000374352651228 -0.000215715573063 -0.000459713283238
Sb -2.1028006112 -3.6521035977 -11.250837311 0.00148969729479 -0.000859776968204 0.000290534681241
Sb -3.9124980901 0.0819344163 -12.651077669 0.000542759922213 0.000176120581106 -0.00485732849381
Sb -2.0272062996 3.3473554651 -12.651077669 0.00011878497587 -0.000557672321781 -0.00485784271449
Sb 0.0046557851 -0.00268802 11.6440483436 -0.00045071442143 0.000259938551093 -0.0033956562258
Sb -2.1085432832 -3.6487880855 11.5380367149 -0.000633776981646 0.000365868010094 -0.00293285761851
Sb 4.1469417128 0.0117975428 12.6291066665 0.000873660926423 -0.000344527852091 -0.0039692693885
Sb 2.0632538614 -3.5972521555 12.6291066665 0.000735335564911 -0.000584411796868 -0.00396901227816
Sb 2.1029214151 1.2282072559 -1.8529571443 -0.000263795206154 -0.000823524410633 -0.00105955170035
Sb -0.0121979389 -2.4352835351 -1.8529571443 0.00058132647282 0.00064020474008 -0.00105980881069
Sb -2.1126022553 1.219711521 -2.0108624507 0.000339385645344 -0.00019540385641 4.62798607287e-06
Sb 4.2272121415 -2.4405786302 -1.8776931638 -0.000639176298731 0.000368696223805 -0.00133080310629
Sb 2.1335699964 1.1599017889 -9.3574618503 -0.000339128535006 -8.76746250471e-05 0.00553918510855
Sb 0.0622805951 -2.4276732664 -9.3574618503 -9.33310524695e-05 0.000337328762645 0.00553944221889
Sb -2.1222844576 1.2253015472 -8.0657874854 -5.21933984885e-05 3.00819094737e-05 0.00605649110736
Sb 4.1508818972 -2.3965093225 -8.0711526691 -0.00053710349479 0.000309560846207 0.00626809291503
Cr -2.1055423581 -3.6505202441 17.3197866342 -0.00105518082461 0.000609094389257 -0.00514709184404
61
Lattice="8.42843558953 0 0 -4.21421779477 7.29923593142 0 0 0 31.0334408416" Properties=species:S:1:pos:R:3:forces:R:3 energy=-133600.427639 ionic_step=6 pbc="T T T"
Te 2.1162737185 1.1311044485 3.4441032838 -0.000301590425749 0.000308018184183 -0.000156323085128
Te 0.0785716705 -2.398295569 3.4441032838 -0.000417547187908 0.000107215010688 -0.000156323085128
Te -2.1087466238 1.2174854689 3.4742050285 0.000292848674278 -0.000169178601997 -0.000209287814629
Te 4.1289570285 -2.3838509878 3.4111544504 0.000381551740674 -0.000220343559136 -0.000376409533927
Te -0.3236107821 0.1868368593 7.3442039577 4.62798607287e-05 -2.67394750877e-05 0.00150332414267
Te -2.4237689668 -3.4667923654 7.3703045013 -7.14766737921e-05 4.11376539811e-05 0.000226514207233
Te -3.7054181644 -0.2769035593 7.0430949893 0.000824038631308 0.000318816818353 0.000471540358758
Te -1.6129037089 3.347437893 7.0430949893 0.000135754258138 -0.000872889595411 0.000471797469095
Te -0.0699183228 0.0403673813 -0.0326200201 -0.000232170634656 0.000134211596113 0.00132103291347
Te -2.1099533501 -3.64797398 0.0229665243 -2.90534681241e-05 1.67121719298e-05 0.00214995664119
Te -4.1583174532 0.026440596 -0.0338798548 0.000146552892308 8.25324182995e-05 0.00107446409992
Te 2.1121608183 -3.7112476438 -0.0338798548 2.05688269905e-06 -0.00016789305031 0.00107472121026
Te 0.4056771866 2.2721940913 13.4222800578 -0.000707310538137 -8.48464113359e-05 -0.00134237307147
Te -1.7649392468 -1.4874204987 13.4222800578 -0.000280507378083 0.000654860029311 -0.00134211596113
Te -4.6560192668 2.6881541337 13.7227751777 0.000525790639945 -0.00030339019811 -0.00129352210737
Te 1.6624401513 -0.9598067066 13.7879368328 0.000269451633576 -0.000155808864453 -0.00136885543622
Te 1.8697402182 1.1557857081 -13.5407207089 0.000266880530202 0.000727108034115 0.00102587024615
Te -0.0660696414 -2.1971318701 -13.5407207089 -0.000495965840809 -0.000594696210364 0.00102587024615
Te -1.4197704012 0.8197047059 -13.825375087 -0.000332443666234 0.000192061422024 0.000431945366801
Te 4.2137678672 -2.4328165712 -14.203034622 0.000482338992928 -0.000278707605722 0.000172263926046
Te 2.5085281991 0.9366516566 10.2512559236 -0.000447629097381 -0.00080809779039 0.00101661427401
Te 0.4430998898 -2.6407716763 10.2512559236 0.000475911234493 0.000791642728798 0.00101687138434
Te -2.4690230269 1.4254912441 10.5670865201 0.000725565372091 -0.000418575629257 0.000713995406909
Te 3.8493316477 -2.2224091237 10.5231162127 -0.000822753079621 0.000475139903481 0.0012449282536
Te 0.3761914464 -0.2171943341 -7.5343140075 -0.00111663019525 0.000644832726153 -0.00137399764297
Te -1.6812856496 -3.8954655043 -7.5389425614 0.000435802021862 -0.000251453909959 -0.00135240037463
Te 3.7457960513 0.2676918471 -7.1125576774 0.000520905543535 0.00100710119152 -0.00149072573614
Te 1.6410701552 -3.3777968121 -7.1125576774 -0.000611665492631 -0.000954393572361 -0.00149072573614
Te 0.0743731771 2.4656759287 -3.5108857693 -0.00103949709403 -0.000592639327665 -0.00213555846229
Te -2.0981513566 -1.297243595 -3.5108857693 -6.42775843454e-06 0.00119659151017 -0.00213581557263
Te -4.3028277422 2.4842388169 -3.4847331772 0.00103692599066 -0.000598809975762 -0.00194452548162
Te 2.1017106902 -1.2134197904 -3.4145826214 2.44254820513e-05 -1.38839582186e-05 -0.0015007530393
Te -0.4360880564 2.6548010207 -10.222463499 9.33310524695e-05 -0.00134751527822 0.00185247998083
Te -2.5171690351 -0.949733539 -10.222463499 0.00121381790278 0.000592639327665 0.00185299420151
Te -3.7133435906 2.1438998246 -10.4871639723 -0.000142439126909 8.25324182995e-05 0.00193398395778
Te 2.6927499178 -1.5546566046 -10.5713490974 -0.000778530101592 0.000449428869743 0.00102638446683
Sb 0.0466614842 2.4033181746 9.2008561718 -0.00165167680734 -0.00226591340334 0.0017187826054
Sb -2.0580038271 -1.2420656768 9.2008561718 0.00113617058089 0.00256313295336 0.0017187826054
Sb -4.0962050174 2.3649450755 8.1927607813 0.0010667507898 -0.000616036368366 0.00210007723573
Sb 2.2232457888 -1.2835881462 8.1412033006 -0.00193552661981 0.00111740152626 0.00194272570926
Sb -0.0062552667 2.4284113599 1.8966020136 -0.000210059145641 -0.000273051178299 0.000918398125127
Sb -2.1061935318 -1.2087849976 1.8966020136 0.000131383382402 0.000318559708016 0.000918398125127
Sb -4.2026124891 2.4263794865 1.9007104146 0.000250168358272 -0.000144496009608 0.000778787211929
Sb 2.1022469406 -1.2137293942 1.760387457 -2.33970407017e-05 1.31126272065e-05 0.00145267340621
Sb 0.1559492618 -0.0900373902 -11.4638961593 -0.000285906695168 0.000165064836599 0.00238521259989
Sb -2.1098292426 -3.6480456136 -11.2475410217 0.0014691284678 -0.000847949892685 -0.000649717822563
Sb -3.9158035172 0.079644076 -12.6529781674 0.000765160364048 0.000644832726153 0.000588525562267
Sb -2.0268755212 3.3513632204 -12.6529781674 -0.000176120581106 -0.000984989702509 0.000589039782941
Sb 0.0031577309 -0.0018231176 11.6403854261 -0.000171235484696 9.89874798919e-05 -0.00137374053263
Sb -2.1068918251 -3.6497415558 11.538451899 -0.000182291229204 0.000105415238326 -0.000468969255384
Sb 4.1467578499 0.0124654503 12.6302049507 0.000483367434277 2.8282137112e-05 -0.00165681901409
Sb 2.0625835053 -3.5974268792 12.6302049507 0.00021700112475 -0.000432716697813 -0.00165656190375
Sb 2.1022466655 1.2288328529 -1.8516260153 0.000348127396815 -0.0010839771824 0.000312646170256
Sb -0.0130770964 -2.435011983 -1.8516260153 0.00111277354019 0.000240398165452 0.000312903280593
Sb -2.1122349492 1.2194994567 -2.0176795926 -0.000222657552172 0.000128812279028 0.000964163765181
Sb 4.2281924579 -2.4411446165 -1.8772714058 -0.0011451694427 0.000660773567071 0.000492880516761
Sb 2.1341748097 1.1589803958 -9.3580130098 -0.000670800870229 0.000689827035195 0.00126344019789
Sb 0.0633809513 -2.4277363538 -9.3580130098 -0.000932796304021 0.000236027289716 0.00126344019789
Sb -2.1210784315 1.2246052474 -8.0620104464 0.000569242286963 -0.000328587011174 -0.000272794067962
Sb 4.1539398265 -2.3982748197 -8.0672464904 3.7023888583e-05 -2.13401580027e-05 -0.00012958361004
Cr -2.1037742991 -3.6515410339 17.3208148608 -0.000546873687611 0.000315988604642 0.000344270741754
61
Lattice="8.42843558953 0 0 -4.21421779477 7.29923593142 0 0 0 31.0334408416" Properties=species:S:1:pos:R:3:forces:R:3 energy=-133600.432151 ionic_step=7 pbc="T T T"
Te 2.1167649185 1.1262997883 3.4445353452 -0.000129840720378 0.000381551740674 0.00132411823752
Te 0.0829782263 -2.3963186308 3.4445353452 -0.000395435698893 -7.8161542564e-05 0.00132437534785
Te -2.1091419105 1.2177136879 3.4757535705 0.00013652558915 -7.89328735762e-05 0.00118964953106
Te 4.1239459238 -2.3809578238 3.4115172171 0.000421918063643 -0.000243740599838 0.00105826614866
Te -0.324081882 0.1871088491 7.34627162 0.000299790653387 -0.000173292367395 0.00416698723794
Te -2.4234499759 -3.466976535 7.3703755098 -0.00111277354019 0.000642518733117 0.00261609768286
Te -3.7037301169 -0.2783715316 7.0475101976 0.000236027289716 -0.000874175147098 0.00310435021355
Te -1.6107883845 3.3467099864 7.0475101976 0.000875203588447 0.00023268485533 0.00310435021355
Te -0.0737447625 0.0425765783 -0.0333732682 1.82548339541e-05 -1.05415238326e-05 0.000171749705371
Te -2.1103183017 -3.647763275 0.0239463328 -0.000127269617004 7.30193358164e-05 0.00108731961679
Te -4.1555130835 0.0277674893 -0.0353945087 -0.000131126272065 -0.000169178601997 -0.000108243452038
Te 2.1124138803 -3.7143397471 -0.0353945087 8.12468666126e-05 0.000197974959784 -0.000108243452038
Te 0.40357659 2.2664999381 13.4209057448 -0.000935110297057 0.000207488042267 -0.00401966301462
Te -1.7610582661 -1.4827542512 13.4209057448 -0.000648175160539 0.000706796317462 -0.00401966301462
Te -4.6563770092 2.6883606765 13.7233465346 0.000591353775978 -0.000341956748718 -0.00310666420658
Te 1.6594753845 -0.9580949968 13.7847185322 0.000625806561187 -0.000360982913684 -0.00375226826375
Te 1.8702413452 1.1552959661 -13.5434206644 0.000882916898569 0.00099373145398 0.00183679625025
Te -0.0653949491 -2.1973209879 -13.5434206644 -0.000419089849932 -0.00126138331519 0.00183705336059
Te -1.4216745948 0.8208040931 -13.822761404 -0.000628377664561 0.000362525575708 0.000943080717516
Te 4.2167496515 -2.434538106 -14.211338116 0.00046742659336 -0.000269451633576 0.000882659788231
Te 2.5094101174 0.9352192704 10.2512258808 -0.000795242273521 -0.00197794982548 0.000422432284318
Te 0.4447813312 -2.6408192472 10.2512258808 0.00131537648604 0.00167790206175 0.000421918063643
Te -2.4685907678 1.4252416791 10.5661150653 0.00131203405166 -0.000758218384938 -0.000134468706451
Te 3.849178644 -2.2223207869 10.5279143124 -0.00109837536129 0.00063429120232 -0.000473854351794
Te 0.3775930352 -0.2180035421 -7.5361909648 -0.00168612959255 0.000973676847664 -0.00137322631196
Te -1.6833743863 -3.894259571 -7.5431555441 0.000765674584722 -0.000441972669959 -0.00153289183147
Te 3.7470996701 0.2674862342 -7.1099941965 0.000977276392388 0.00185299420151 -0.00136474167082
Te 1.6419000306 -3.3788229733 -7.1099941965 -0.00111585886424 -0.00177251866591 -0.00136474167082
Te 0.078061774 2.4672180878 -3.5140148267 -0.00117216602812 -0.000440172897597 -0.00232659144297
Te -2.0976426066 -1.3012090946 -3.5140148267 -0.000204916938893 0.00123515806078 -0.0023268485533
Te -4.3069721091 2.4866315693 -3.4854632921 0.00124878490866 -0.000720680275681 -0.0021363297933
Te 2.1014434628 -1.2132655065 -3.4117372153 0.000238084172415 -0.000137554030499 -0.00146192937835
Te -0.44010622 2.652424026 -10.2225440733 -0.000152723540405 -0.00121690322683 0.00163496463541
Te -2.5171195801 -0.9450652084 -10.2225440733 0.000977533502725 0.000740734881996 0.00163470752507
Te -3.7156722371 2.1452442699 -10.4901844437 3.95949919568e-05 -2.26257096896e-05 0.00183551069857
Te 2.6928467372 -1.5547125033 -10.5701726189 -0.000416004525883 0.000239883944777 0.000402377678002
Sb 0.0487510148 2.4020894285 9.2024998607 -0.0013631990088 -0.00124132870888 0.00302053224356
Sb -2.055894937 -1.2432608911 9.2024998607 0.000393378816194 0.00180157213403 0.00302053224356
Sb -4.0961210287 2.3648965846 8.1975025477 0.00108474851341 -0.000626063671524 0.00416004525883
Sb 2.2243751412 -1.2842401784 8.1420381021 -0.000514734895438 0.000297219550013 0.00436444797705
Sb -0.0061656166 2.4289126195 1.8997461033 -7.35335564911e-05 0.000454056855816 0.00162853687698
Sb -2.1065828101 -1.2091132667 1.8997461033 -0.000430145594439 -0.000163265064237 0.00162853687698
Sb -4.2027479952 2.426457721 1.9032226394 7.58475495276e-05 -4.39658676923e-05 0.0011899066414
Sb 2.1021177186 -1.2136547879 1.7542057475 0.000456370848852 -0.000263023875141 0.00109297604421
Sb 0.1568415667 -0.0905525629 -11.4677898183 -0.000347870286477 0.000200546063158 0.00267728994315
Sb -2.1170307522 -3.6438878181 -11.242521303 0.000845121678973 -0.000487738310013 0.000795499383859
Sb -3.9191610427 0.0775951392 -12.6546448705 5.50216121997e-05 0.000583640465856 0.00180234346505
Sb -2.0267798535 3.3552953925 -12.6546448705 -0.00047822522753 -0.000339385645344 0.00180285768572
Sb 0.001622368 -0.000936675 11.6353819885 -0.000304932860135 0.000176120581106 -0.00464366980345
Sb -2.1043228762 -3.6512247398 11.5396761596 -0.000735335564911 0.00042423205668 -0.00282744238019
Sb 4.1461624525 0.0140893491 12.6312896028 0.000407005664075 -0.000642004512442 -0.00483033190839
Sb 2.0608794696 -3.5977231991 12.6312896028 0.000759503936625 -3.13674611606e-05 -0.00483007479805
Sb 2.1016386616 1.2294189162 -1.8502034224 0.000693426579918 -0.000997073888366 -0.000891401539702
Sb -0.0138886438 -2.4347784677 -1.8502034224 0.00121021835806 -0.000102072803941 -0.000891401539702
Sb -2.112052261 1.2193939815 -2.0251633372 -0.00067362908394 0.000389007940458 -0.00127758126645
Sb 4.2290627068 -2.4416470551 -1.8768186924 -0.00119761995152 0.000691112586882 -0.000435544911524
Sb 2.1333765527 1.1578857667 -9.3587250319 -2.33970407017e-05 0.00125984065317 0.000677485739001
Sb 0.0639297989 -2.426497728 -9.3587250319 -0.00110274623703 -0.000609865720269 0.000677485739001
Sb -2.1197136625 1.2238172973 -8.0583115101 0.000293362894952 -0.000169435712334 -0.000770302570795
Sb 4.1567857882 -2.3999179372 -8.0646939164 0.000887801994979 -0.000512678012739 -0.000468455034709
Cr -2.1019736332 -3.6525806494 17.3213957232 -0.000324730356113 0.000187433435951 0.00130097830715
61
Lattice="8.42843558953 0 0 -4.21421779477 7.29923593142 0 0 0 31.0334408416" Properties=species:S:1:pos:R:3:forces:R:3 energy=-133600.438318 ionic_step=8 pbc="T T T"
Te 2.1174972554 1.1183776761 3.4447009385 5.47645018623e-05 0.000176891912119 0.00153134916944
Te 0.090205142 -2.3929917973 3.4447009385 -0.00012572695498 -0.000135754258138 0.00153134916944
Te -2.1097807678 1.2180825325 3.4785690919 -6.83913497435e-05 3.95949919568e-05 0.00146475759206
Te 4.1158047719 -2.3762575254 3.4118923795 0.000107729231363 -6.22207016464e-05 0.0015159225492
Te -0.3249289224 0.1875978883 7.3501105268 8.74175147098e-06 -5.14220674763e-06 -0.00211936051104
Te -2.4228782556 -3.467306618 7.3703656343 0.000968277530579 -0.000558957873468 -0.00172855279822
Te -3.7002271428 -0.2802710904 7.0536533301 -4.37087573549e-06 0.000780072763616 -0.00138711027017
Te -1.607391832 3.3446260999 7.0536533301 -0.000677742849338 -0.000386179726747 -0.00138711027017
Te -0.0801269178 0.0462613191 -0.0345120417 -4.19089849932e-05 2.41683717139e-05 0.00175863470769
Te -2.1108945246 -3.6474305923 0.0259793884 5.8621156923e-05 -3.39385645344e-05 0.00147735599859
Te -4.1506976123 0.0300485097 -0.0378306007 7.43048875033e-05 9.95017005667e-05 0.00193372684745
Te 2.1128461953 -3.7196505796 -0.0378306007 -4.88509641025e-05 -0.000114156989797 0.00193372684745
Te 0.4005871 2.2583690408 13.419092369 0.000511906681727 6.9419791093e-05 -0.00298479390666
Te -1.7555114506 -1.4760998271 13.419092369 0.000195660966747 -0.000477968117192 -0.00298453679633
Te -4.6561616689 2.6882363496 13.7243998907 0.000224714434872 -0.000129840720378 -0.00277087810596
Te 1.6558138003 -0.9559809793 13.7794388778 0.000198232070121 -0.000114414100135 -0.00163162220102
Te 1.8699375699 1.1544086744 -13.548060097 -3.05961301484e-05 -0.000662573339432 0.00559754915514
Te -0.06477842 -2.1966142648 -13.548060097 0.00055870076313 0.000357640479298 0.00559754915514
Te -1.4245181354 0.8224458128 -13.8207551493 0.000121613189582 -7.01911221052e-05 0.00504450481943
Te 4.220831742 -2.4368949031 -14.2238894496 -0.000602152410148 0.00034761317614 0.00491466409905
Te 2.5124200148 0.933962349 10.2521125632 0.000413947643184 0.00108911938915 -0.00814139883319
Te 0.4473748053 -2.6427974352 10.2521125632 -0.000736364006261 -0.000903228615222 -0.00814139883319
Te -2.4683624266 1.4251098462 10.5654199756 -0.00104026842505 0.000600609748123 -0.00845790165851
Te 3.8479787006 -2.221627999 10.5340359665 -4.7822522753e-05 2.75108060998e-05 -0.00811105981338
Te 0.3799629352 -0.2193718052 -7.5386865407 0.000523990867584 -0.000302618867098 -0.00154240491395
Te -1.6845869236 -3.893559512 -7.548025235 -0.000551501673684 0.000318559708016 -0.00126009776351
Te 3.7482553874 0.2681766452 -7.1065052796 -0.000400320795303 -0.000862348071578 -0.000936395848744
Te 1.641879976 -3.3801690598 -7.1065052796 0.000546359466936 0.000778015880917 -0.000936395848744
Te 0.0843830778 2.4697560531 -3.5187690789 0.000159665519514 -2.31399303643e-05 0.00258781554575
Te -2.0966798961 -1.3079524896 -3.5187690789 9.97588109041e-05 -0.000126755396329 0.00258781554575
Te -4.3138813534 2.4906206253 -3.4864807796 -0.000209802035303 0.000121098968907 0.00259527174553
Te 2.1009181748 -1.2129622312 -3.4072624042 -0.000142439126909 8.22753079621e-05 0.00220523536372
Te -0.4440699585 2.6496728567 -10.2218770645 0.000381551740674 0.000506764474979 0.00026610919919
Te -2.516718868 -0.9402569239 -10.2218770645 -0.000247854365236 -0.000583897576194 0.00026610919919
Te -3.7185590683 2.1469109835 -10.4954548509 -0.00016892149166 9.74448178676e-05 0.000890115988015
Te 2.6927225779 -1.5546408198 -10.5694234405 -0.000108757672712 6.27349223211e-05 0.00159742652615
Sb 0.0512151873 2.3994070184 9.2049881812 0.000584154686531 -0.000134982927125 -0.00627734888717
Sb -2.0523398165 -1.2440537231 9.2049881812 0.000409062546774 -0.000438373125236 -0.00627734888717
Sb -4.0959683617 2.3648084422 8.2045453152 -0.000367410672118 0.00021211602834 -0.00385948327444
Sb 2.2250074857 -1.2846052628 8.1439399283 -0.000257624558056 0.000148866885344 -0.00407057086143
Sb -0.0063114143 2.429525761 1.9048266721 -8.38179699864e-05 -0.00024939702726 0.00131486226537
Sb -2.1071867048 -1.2092935729 1.9048266721 0.000174063698407 0.000197460739109 0.00131486226537
Sb -4.202631128 2.4263902477 1.9070831342 9.48737144938e-05 -5.47645018623e-05 0.00153237761079
Sb 2.1018321579 -1.2134899192 1.7442082968 -0.000162493733225 9.38452731443e-05 0.00146372915071
Sb 0.1592187443 -0.0919250277 -11.4715412158 0.000337328762645 -0.000194632525398 0.00371601570618
Sb -2.1271796872 -3.6380283251 -11.2338642097 -0.000302104646423 0.000174320808745 0.00351906918774
Sb -3.9240028954 0.0750050059 -12.6568767165 -0.000193089863374 -0.000320359480378 0.00540445929176
Sb -2.0269576596 3.3607836286 -12.6568767165 0.000181005677517 0.000327301459487 0.00540445929176
Sb -0.0005390078 0.0003111965 11.626348759 0.000378209306288 -0.000218286676437 -0.00718649104015
Sb -2.0998355799 -3.6538154827 11.5424836603 0.000936395848744 -0.000540703039514 -0.00767397223983
Sb 4.1449372955 0.017347347 12.6328814605 -0.000310589287557 0.000653574477624 -0.00522319650391
Sb 2.0574453835 -3.5982911804 12.6328814605 -0.000721194496355 -5.75927155735e-05 -0.00522319650391
Sb 2.1008013911 1.2302582357 -1.8478780552 -0.000280507378083 0.000303904418785 0.00227465515482
Sb -0.0150341507 -2.4344730296 -1.8478780552 -0.000403663229689 9.10170594331e-05 0.00227465515482
Sb -2.1120021763 1.2193650651 -2.0372034883 0.000289249129554 -0.000167121719298 0.00239935366845
Sb 4.2302543271 -2.4423350377 -1.8760936272 0.000426288939379 -0.000246054592874 0.00211216142159
Sb 2.1306431444 1.1562367383 -9.3599747069 -0.000205431159568 -0.000553301446045 -0.00166761764826
Sb 0.0639911946 -2.4233060118 -9.3599747069 0.000376409533927 0.000454313966153 -0.00166761764826
Sb -2.1178537424 1.2227434715 -8.0531788451 0.000119042086208 -6.89055704183e-05 -0.00197229339805
Sb 4.1603259764 -2.4019618668 -8.0626799053 -0.00039183615417 0.000226257096896 -0.00217155390953
Cr -2.0996773389 -3.6539064161 17.3225109663 -0.000152980650742 8.84459560593e-05 0.00485064362504
61
Lattice="8.42843558953 0 0 -4.21421779477 7.29923593142 0 0 0 31.0334408416" Properties=species:S:1:pos:R:3:forces:R:3 energy=-133600.443846 ionic_step=9 pbc="T T T"
Te 2.1183247424 1.1086886437 3.4441297654 6.91626807557e-05 0.000152723540405 -0.00267394750877
Te 0.0990098298 -2.3888639062 3.4441297654 -9.7701928205e-05 -0.000136268478812 -0.00267369039843
Te -2.1105476347 1.2185252835 3.4825248498 -6.09351499594e-05 3.52241162213e-05 -0.00298479390666
Te 4.1059511777 -2.3705685474 3.4120510427 0.000127526727341 -7.35335564911e-05 -0.00296962439676
Te -0.3257437299 0.1880683178 7.3549629047 0.000114671210472 -6.63344670445e-05 0.00172726724653
Te -2.4220652841 -3.4677759876 7.3705592773 0.000215458462726 -0.000124441403293 0.0018226551817
Te -3.6957762492 -0.2818619576 7.0596454778 -0.000211858918002 9.25597214574e-05 0.00157017283039
Te -1.6037886544 3.3415669447 7.0596454778 -0.000186147884264 0.000137039809824 0.00156991572005
Te -0.0879767477 0.0507934226 -0.0358156621 -0.00053221839838 0.000307246853171 -0.00399086665684
Te -2.1115770817 -3.6470365177 0.0290579449 -8.3560859649e-05 4.83367434277e-05 -0.00381114653101
Te -4.1445128178 0.032951412 -0.0407282511 0.000483367434277 0.00019643229776 -0.0040140065872
Te 2.1134246066 -3.7264582224 -0.0407282511 7.17337841295e-05 -0.000516791778137 -0.00401426369754
Te 0.3973188753 2.2499250556 13.417285053 6.9419791093e-06 2.77679164372e-05 0.000703968103751
Te -1.7498328608 -1.4690474675 13.417285053 -2.05688269905e-05 -1.97974959784e-05 0.000703968103751
Te -4.65524421 2.6877066542 13.7263983053 0.000159151298839 -9.20455007826e-05 0.000411376539811
Te 1.6526269964 -0.9541410763 13.7728729039 0.000131897603077 -7.6104659865e-05 0.000582612024507
Te 1.8682114432 1.1532414085 -13.5536805774 0.000286163805506 -0.000135240037463 -0.000615522147692
Te -0.0646306019 -2.1945357617 -13.5536805774 0.000259424330418 -0.000180491456842 -0.000616036368366
Te -1.427705989 0.8242863218 -13.8206674773 -0.000231913524318 0.000133697375438 -0.000711424303535
Te 4.2248587374 -2.4392198911 -14.2377274644 -0.000317531266666 0.000183062560216 -0.000480796330904
Te 2.5176365602 0.9338176063 10.2541398471 0.000279221826396 0.000129840720378 0.00224071659028
Te 0.4501084288 -2.6472427269 10.2541398471 2.72536957625e-05 -0.000306732632496 0.00224071659028
Te -2.4686555824 1.4252790998 10.5657754401 -0.00029362000529 0.000169435712334 0.00219649361225
Te 3.8463549046 -2.2206904995 10.539244067 -3.85665506072e-05 2.21114890148e-05 0.00212064606272
Te 0.3829303139 -0.2210850229 -7.5404491338 -0.000128040948016 7.37906668285e-05 0.00293902826661
Te -1.6835454836 -3.8941607879 -7.5514502234 0.000213401580027 -0.000123155851606 0.00297553793452
Te 3.7485426419 0.2698390841 -7.1035930975 -0.000216229793738 0.0004340022495 0.00277036388529
Te 1.6405838896 -3.381249049 -7.1035930975 -0.000483881654952 -2.98247991363e-05 0.00277010677495
Te 0.0923765157 2.4728405653 -3.5239566086 -0.000146038671633 -6.86484600809e-05 -0.000342985190067
Te -2.0953544418 -1.3164172691 -3.5239566086 -1.36268478812e-05 0.000160951071201 -0.00034272807973
Te -4.3224587014 2.4955727618 -3.4875558904 0.000169435712334 -9.82161488798e-05 -0.000372552878866
Te 2.1001719481 -1.2125313968 -3.4021931344 3.11103508232e-05 -1.7483502942e-05 -0.000706539207125
Te -0.4464313797 2.6478427731 -10.2201695165 3.65096679082e-05 -0.000146038671633 0.00184091001565
Te -2.5163146804 -0.9372968303 -10.2201695165 0.000144753119946 4.13947643184e-05 0.00184065290532
Te -3.7210162809 2.1483296565 -10.5016977629 -7.79044322266e-05 4.49943090418e-05 0.00142182016572
Te 2.6927552473 -1.5546596816 -10.5698365304 -1.82548339541e-05 1.05415238326e-05 0.00110068935433
Sb 0.0532374446 2.396123407 9.2082060272 8.30466389743e-05 0.000194118304723 0.00240269610283
Sb -2.0484849983 -1.2441632444 9.2082060272 -0.000126755396329 -0.000169178601997 0.00240269610283
Sb -4.0956509022 2.3646251568 8.2116207942 -0.000143210457922 8.27895286369e-05 0.00231913524318
Sb 2.2249670794 -1.2845819343 8.1466440456 8.30466389743e-05 -4.80796330904e-05 0.00223428883185
Sb -0.0068201143 2.4300263747 1.9108231047 -9.66734868555e-05 0.000304932860135 -0.00486735579697
Sb -2.1078745988 -1.2091033324 1.9108231047 -0.000312646170256 -6.86484600809e-05 -0.00486735579697
Sb -4.2021213605 2.4260959332 1.9113789093 9.230261112e-05 -5.34789501754e-05 -0.00502136488906
Sb 2.1013930494 -1.2132363997 1.7321409805 0.000319588149365 -0.000184348111903 -0.0045428825512
Sb 0.1628658063 -0.0940306609 -11.4735866006 1.87690546289e-05 -1.079863417e-05 0.00060189529981
Sb -2.1365356014 -3.6326266829 -11.2243799873 9.07599490957e-05 -5.24505088259e-05 0.000667458435843
Sb -3.9288735 0.0728704443 -12.6591436625 -0.000130097830715 -7.01911221052e-05 -0.000524247977921
Sb -2.0275443782 3.3660689786 -12.6591436625 -4.11376539811e-06 0.000147838443994 -0.000524505088259
Sb -0.0024992934 0.0014429684 11.6149273016 3.93378816194e-05 -2.2882820027e-05 0.00168021605479
Sb -2.0949648384 -3.6566276079 11.5466041237 0.000108757672712 -6.29920326585e-05 0.00146630025409
Sb 4.1435329821 0.0212364972 12.6346557627 -8.02184252631e-05 0.000140896464885 0.00113257103617
Sb 2.0533751255 -3.5990195839 12.6346557627 -0.000162236622888 -1.02844134953e-06 0.00113257103617
Sb 2.0999225287 1.2311828998 -1.8449042435 0.000272536957625 0.000131383382402 -0.0026418087166
Sb -0.0162743641 -2.4341742441 -1.8449042435 2.23685993522e-05 -0.000301590425749 -0.00264155160626
Sb -2.1121482976 1.2194494283 -2.051548694 -0.000285135364156 0.000164550615924 -0.00196303742591
Sb 4.2315336016 -2.4430736275 -1.8751930129 -1.87690546289e-05 1.079863417e-05 -0.0023268485533
Sb 2.1263694112 1.1547287218 -9.3615525852 -0.000130869161727 0.000177663243131 0.00300484851298
Sb 0.063160308 -2.4188508402 -9.3615525852 -0.000219315117787 2.46825923886e-05 0.00300484851298
Sb -2.1164965057 1.2219598701 -8.0483611348 0.00022779975892 -0.000131640492739 0.00317839799071
Sb 4.1629060618 -2.4034514804 -8.0624193028 0.000238341282753 -0.000137811140837 0.00313674611606
Cr -2.0981653871 -3.6547793423 17.3250545695 -6.24778119837e-05 3.65096679082e-05 -0.000559214983805
61
Lattice="8.42843558953 0 0 -4.21421779477 7.29923593142 0 0 0 31.0334408416" Properties=species:S:1:pos:R:3:forces:R:3 energy=-133600.449354 ionic_step=10 pbc="T T T"
Te 2.1190970139 1.0992418676 3.4427295481 9.25597214574e-05 0.000166093277949 0.00266212043325
Te 0.1075771098 -2.3848093252 3.4427295481 -9.28168317948e-05 -0.000164550615924 0.00266494864696
Te -2.1112788933 1.218947476 3.4870569637 -9.89874798919e-05 6.06780396221e-05 0.00211241853193
Te 4.0963365636 -2.3650175448 3.4118767914 0.000107729231363 -6.65915773818e-05 0.00233636163579
Te -0.3259690433 0.1881984026 7.3595095964 0.000248625696248 -0.000142439126909 0.00598347177155
Te -2.4211405792 -3.4683098664 7.3713463676 0.000669772428879 -0.000386951057759 0.00622232727497
Te -3.6920589317 -0.2827080787 7.0639585622 -0.000205945380243 0.000401349236653 0.00553918510855
Te -1.6011972337 3.3387707123 7.0639585622 -0.000450457311093 -2.23685993522e-05 0.00553738533619
Te -0.095598367 0.0551937686 -0.0370542986 -0.000469740586396 0.00027793627471 0.00136422745015
Te -2.1122317195 -3.6466585622 0.0327133347 -1.90261649662e-05 3.85665506072e-06 0.00134468706451
Te -4.1381662679 0.0358618529 -0.0434827156 0.00045174286278 0.000254025013333 0.00146321493004
Te 2.1140773669 -3.7334097188 -0.0434827156 1.10557445074e-05 -0.000522191095222 0.00146681447476
Te 0.3943160957 2.2430520908 13.4157067921 -8.27895286369e-05 -7.32764461538e-05 0.000613979485667
Te -1.7453820912 -1.4630105005 13.4157067921 2.08259373279e-05 0.000109271893387 0.000614493706342
Te -4.654105688 2.6870493279 13.7295733442 0.000396207029905 -0.000229342420944 -0.000280764488421
Te 1.6504990265 -0.9529124917 13.7662522474 0.000153751981754 -8.71604043724e-05 0.000975219509689
Te 1.8654027226 1.1521175794 -13.558813649 -0.000299790653387 -0.00350107146413 -0.00373966985722
Te -0.0650616981 -2.1915414225 -13.558813649 0.00288246399239 0.00201008861765 -0.0037388985262
Te -1.4305899319 0.8259513678 -13.8222349938 -0.000181777008529 0.000105158127989 -0.00336660275768
Te 4.2278402738 -2.4409412827 -14.2495932035 -0.00299302143746 0.00172855279822 -0.00313160390931
Te 2.523632774 0.9349522049 10.2567509468 0.000261481213117 0.000691369697219 0.00520648433198
Te 0.452123945 -2.6530029021 10.2567509468 -0.000465883931336 -0.000572327611012 0.00520468455962
Te -2.469395508 1.4257062963 10.5672820324 -0.000420889622294 0.000242969268826 0.00486761290731
Te 3.8455818056 -2.2202441504 10.5421999563 0.000229856641619 -0.000132668934089 0.00496222951147
Te 0.3858136897 -0.2227497415 -7.5404330728 0.000222143331498 -0.00012572695498 -0.00506584497743
Te -1.6805375581 -3.8958974153 -7.5524905561 1.72263926046e-05 -1.18270755196e-05 -0.0047699109791
Te 3.7478909662 0.271727235 -7.1024797157 -0.000122127410256 -0.000375895313252 -0.00371293038213
Te 1.6386228658 -3.3816287565 -7.1024797157 0.00026713764054 0.000292848674278 -0.00371293038213
Te 0.1003542629 2.475808142 -3.5283062733 -0.000219572228124 -0.000142182016572 0.00143313302057
Te -2.0939355638 -1.3248099925 -3.5283062733 1.02844134953e-05 0.000264052316491 0.00143107613787
Te -4.3310082734 2.5005088617 -3.4885311293 0.000220857779811 -0.000131897603077 0.00157660058882
Te 2.0993560559 -1.212060341 -3.3977707888 -3.26530128475e-05 2.26257096896e-05 0.0010564663763
Te -0.4472311396 2.6475108608 -10.2177997885 -0.000245797482537 -1.05415238326e-05 -0.00979179008884
Te -2.516427116 -0.9364382615 -10.2177997885 -0.000115185431147 0.000218286676437 -0.0097935898612
Te -3.7224719381 2.1491700809 -10.5069936256 -3.08532404858e-06 7.71331012145e-07 -0.00973548292496
Te 2.6934510639 -1.5550614116 -10.571309227 -0.000600609748123 0.000348384507152 -0.0100077627722
Sb 0.0544913653 2.3937072617 9.211893467 0.000324216135438 3.54812265587e-05 0.0063043454726
Sb -2.0457655958 -1.2440410994 9.211893467 0.000131126272065 -0.0002985051017 0.00630460258293
Sb -4.0951088338 2.3643121933 8.216446018 -0.000388750830121 0.000224971545209 0.00668846831665
Sb 2.2249002445 -1.2845433471 8.1493909143 -0.000209287814629 0.00011981341722 0.00635371065737
Sb -0.0075943585 2.4303053036 1.9163824812 -0.000156323085128 5.03936261268e-05 0.00171544017101
Sb -2.1085032802 -1.2085722814 1.9163824812 -0.000122641630931 0.000113128548448 0.00171621150202
Sb -4.2013267456 2.4256371618 1.9150845713 0.000153237761079 -8.8960176734e-05 0.00173780877036
Sb 2.1008943637 -1.2129484832 1.7204732381 8.6903294035e-05 -4.93651847773e-05 0.00188204766963
Sb 0.1666083924 -0.096191445 -11.4740145441 0.000596495982725 -0.000344270741754 -0.00836791304042
Sb -2.141840192 -3.6295640747 -11.2175834002 5.63071638866e-05 -3.26530128475e-05 -0.00588319873997
Sb -3.9324736023 0.0718325055 -12.661125794 -0.000274336729986 -0.000222400441835 -0.00642724421387
Sb -2.0284455484 3.3697057296 -12.661125794 5.60500535492e-05 0.000348384507152 -0.00642801554488
Sb -0.0035152008 0.0020295031 11.6041893669 8.22753079621e-06 -3.08532404858e-06 0.00329358342186
Sb -2.0917115825 -3.658505877 11.5510159732 0.000409062546774 -0.000237827062078 0.00298453679633
Sb 4.1426728584 0.0240914496 12.6362978677 -0.000116213872496 0.000415233194871 0.00208002262942
Sb 2.0504726035 -3.5997021708 12.6362978677 -0.000417547187908 -0.0001079863417 0.0020813081811
Sb 2.0991564115 1.232025159 -1.8417281597 9.51308248312e-06 0.000281535819433 0.00157042994073
Sb -0.0173868402 -2.4339318964 -1.8417281597 -0.000237055731066 -0.000149123995681 0.0015709441614
Sb -2.1123738565 1.2195796549 -2.0651481465 -2.77679164372e-05 1.67121719298e-05 0.00171775416405
Sb 4.2327285352 -2.4437635231 -1.8742631924 0.000251453909959 -0.000146810002645 0.00160796804998
Sb 2.122188458 1.154068112 -9.3630631998 -7.32764461538e-05 -0.000753333288528 -0.00891067296264
Sb 0.061641936 -2.4148997219 -9.3630631998 0.000615522147692 0.000440430007935 -0.00891093007297
Sb -2.1163808738 1.2218931099 -8.0453032631 0.000169949933009 -9.79590385424e-05 -0.00594387677959
Sb 4.1635884725 -2.4038454706 -8.0636067175 -0.000439144456248 0.000253767902996 -0.00618890293111
Cr -2.0982854847 -3.6547100039 17.3293271439 -0.000149381106019 8.53606320107e-05 -0.00360777225414
61
Lattice="8.42843558953 0 0 -4.21421779477 7.29923593142 0 0 0 31.0334408416" Properties=species:S:1:pos:R:3:forces:R:3 energy=-133600.456302 ionic_step=11 pbc="T T T"
Te 2.1199727187 1.0885956982 3.4405956676 -5.09078468016e-05 9.92445902293e-05 0.000748448192118
Te 0.117234811 -2.3802446234 3.4405956676 -0.000111328776086 -5.39931708501e-06 0.000748448192118
Te -2.1120867427 1.2194138883 3.4926577507 6.32491429959e-05 -3.65096679082e-05 0.000414976084534
Te 4.0853831533 -2.3586935875 3.4114425802 0.000142696237247 -8.22753079621e-05 0.000678257070013
Te -0.325595045 0.1879824745 7.3643043648 -8.27895286369e-05 4.7822522753e-05 -0.0023350760841
Te -2.4200302414 -3.4689509205 7.3729126433 0.000156580195465 -9.0245728421e-05 -0.00223634571455
Te -3.6888494778 -0.2833342927 7.0679189928 0.000126241175654 0.000105415238326 -0.00189953117258
Te -1.5990501897 3.3363043494 7.0679189928 -2.80250267746e-05 -0.00016197951255 -0.00189978828291
Te -0.1041067957 0.0601061145 -0.0384796845 -0.000721194496355 0.000416261636221 0.00320693723816
Te -2.1129709999 -3.6462317382 0.0372545513 -0.000109786114062 6.35062533333e-05 0.0032642728434
Te -4.1308382493 0.0391389879 -0.0465512117 0.000701911221052 0.000284878253819 0.0031837973078
Te 2.1149032953 -3.7413945396 -0.0465512117 0.000103872576302 -0.00075024796448 0.0031837973078
Te 0.3909091695 2.2359951332 13.4138694423 0.000166350388286 0.000103872576302 -0.00392118975541
Te -1.7409740526 -1.4565315357 13.4138694423 -6.68486877192e-06 -0.000195918077085 -0.00392118975541
Te -4.6529897871 2.686405062 13.7342337777 -2.8282137112e-05 1.64550615924e-05 -0.00351572675336
Te 1.6484472111 -0.951727875 13.7586785906 5.57929432118e-05 -3.21387921727e-05 -0.00359723073031
Te 1.861851155 1.1509872118 -13.5641038129 0.000655888470661 0.00208645038785 -0.00125084179136
Te -0.0658585553 -2.1879004896 -13.5641038129 -0.00147889866062 -0.00161105337403 -0.00125084179136
Te -1.4337156364 0.827755995 -13.8243186673 4.67940814035e-05 -2.72536957625e-05 -0.00183808180194
Te 4.2305960429 -2.4425323275 -14.2616691659 0.00153263472113 -0.00088471667093 -0.00107086455519
Te 2.5303318547 0.9368478607 10.2597702613 0.000116985203509 0.000444029552658 -0.00600609748123
Te 0.4538318 -2.6597523067 10.2597702613 -0.0003260159078 -0.000323187694089 -0.00600609748123
Te -2.4703726187 1.4262704317 10.5695506198 -0.000282050040108 0.0001630079539 -0.00614390862207
Te 3.8458527325 -2.2204005701 10.5444496419 6.81342394061e-05 -3.93378816194e-05 -0.0061667914421
Te 0.3889260857 -0.224546685 -7.5391283491 -0.000177149022456 0.000102329914278 0.00318971084556
Te -1.6765388491 -3.8982060721 -7.5525298841 0.000339128535006 -0.000195660966747 0.00320950834153
Te 3.74676882 0.2735401835 -7.1025384045 -5.01365157894e-05 0.000567699624939 0.00311334907535
Te 1.6364917341 -3.3815634232 -7.1025384045 -0.0005165346678 -0.000240398165452 0.00311334907535
Te 0.1093715505 2.4791089767 -3.5326830614 -0.0001630079539 -0.000208259373279 0.00375149693274
Te -2.0922855253 -1.3342696136 -3.5326830614 9.87303695545e-05 0.000245283261862 0.00375149693274
Te -4.3408175709 2.5061722649 -3.4896366697 0.000175092139757 -0.000101044362591 0.00366485074904
Te 2.0984028863 -1.211510028 -3.3931641786 -9.07599490957e-05 5.24505088259e-05 0.00339308512243
Te -0.4480176824 2.6478481136 -10.2149647404 0.000194889635735 -4.39658676923e-05 0.002053797375
Te -2.5171124568 -0.9359257215 -10.2149647404 0.0001354971478 -0.000146810002645 0.002053797375
Te -3.7235940167 2.1498179136 -10.5120253285 -0.000458170621214 0.000264566537166 0.00169152890963
Te 2.6949179805 -1.5559083367 -10.5734025869 -0.000178434574143 0.00010310124529 0.00132386112718
Sb 0.0556689916 2.3920131414 9.2165521044 0.000127783837679 -7.86757632388e-05 -0.00495734441506
Sb -2.043709632 -1.2442138941 9.2165521044 0.000132154713414 -7.12195634547e-05 -0.00495734441506
Sb -4.0943042874 2.363847688 8.2202032667 -3.44527852091e-05 1.97974959784e-05 -0.00350492811919
Sb 2.225409959 -1.284837631 8.1523470095 -3.26530128475e-05 1.90261649662e-05 -0.00368207714164
Sb -0.0086003435 2.4305320149 1.9224104695 -0.000141153575223 2.21114890148e-05 0.00155885997554
Sb -2.1092026104 -1.2078144281 1.9224104695 -8.97315077462e-05 0.000111071665749 0.00155885997554
Sb -4.2002963972 2.4250422896 1.9189124214 0.000145781561295 -8.40750803238e-05 0.00154009092092
Sb 2.1003219296 -1.2126179881 1.7073133568 0.000110557445074 -6.4020474008e-05 0.00227311249279
Sb 0.1704071766 -0.0983846751 -11.4743818891 0.000367153561781 -0.000211858918002 0.00100632986051
Sb -2.1450822396 -3.6276922768 -11.2122337565 0.000327558569824 -0.000189233208313 -0.00105775192799
Sb -3.9358194603 0.0712789404 -12.6634085974 -0.000555872549419 -0.000260452771768 -0.00045662795919
Sb -2.0296390762 3.3728801115 -12.6634085974 -5.24505088259e-05 0.000611408382294 -0.000456370848852
Sb -0.0039565558 0.0022843196 11.5929723375 -4.57656400539e-05 2.62252544129e-05 -0.0056502567743
Sb -2.0895470779 -3.6597555549 11.5560096394 0.000333472107584 -0.000192318532361 -0.00581814982461
Sb 4.1423295429 0.0261361008 12.6381780723 4.9879405452e-05 0.000384379954386 -0.00489203838936
Sb 2.0485302266 -3.6004271763 12.6381780723 -0.000308018184183 -0.000235513069042 -0.00489203838936
Sb 2.0983158846 1.2329676375 -1.8378642708 4.67940814035e-05 0.000268680302564 0.00407776995087
Sb -0.0186233137 -2.4336752177 -1.8378642708 -0.000209287814629 -0.00017483502942 0.00407776995087
Sb -2.1125898653 1.2197043677 -2.0801082084 -3.26530128475e-05 1.87690546289e-05 0.00462901451422
Sb 4.2341435917 -2.4445805068 -1.8731388434 0.000197203628772 -0.00011389987946 0.00430325571676
Sb 2.1181906227 1.153998085 -9.3646927548 -3.93378816194e-05 0.00015118087838 0.00284312611077
Sb 0.0597036634 -2.4114024799 -9.3646927548 -0.000150666657706 -4.13947643184e-05 0.0028433832211
Sb -2.117069797 1.2222908602 -8.0429991212 0.000144238899271 -8.33037493116e-05 0.00340851174267
Sb 4.1633423211 -2.403703355 -8.0651446394 0.000170721264021 -9.87303695545e-05 0.00313751744707
Cr -2.0994940558 -3.6540122347 17.3353905484 0.000104386796977 -6.04209292847e-05 -0.00121587478548
61
Lattice="8.42843558953 0 0 -4.21421779477 7.29923593142 0 0 0 31.0334408416" Properties=species:S:1:pos:R:3:forces:R:3 energy=-133600.467019 ionic_step=12 pbc="T T T"
Te 2.1213209853 1.0723218545 3.4369647341 -0.00017277814672 -1.15699651822e-05 -4.62798607287e-05
Te 0.1320024998 -2.3732753353 3.4369647341 -7.66188805397e-05 0.000155551754116 -4.62798607287e-05
Te -2.1132938763 1.2201108276 3.5015177018 0.00017277814672 -9.97588109041e-05 -0.000456885069527
Te 4.0684459769 -2.3489148996 3.4105651369 6.4020474008e-05 -3.7023888583e-05 -0.000130097830715
Te -0.3243663396 0.1872730808 7.3712569796 -0.000176634801781 0.000102072803941 -0.00165810456577
Te -2.4183485599 -3.4699218403 7.3759993213 0.00041729007757 -0.000240912386127 -0.00161465291876
Te -3.685102801 -0.2842939556 7.0734708202 0.000309046625533 0.000481310551578 -0.000892172870714
Te -1.5963457593 3.3335394621 7.0734708202 -0.000262252544129 -0.000508050026666 -0.000892172870714
Te -0.1169888816 0.0675435938 -0.0407229454 -0.00115853918024 0.00066874398753 -0.00145704428194
Te -2.1141002913 -3.6455797412 0.0444116038 -0.000115442541484 6.65915773818e-05 -0.00146604314375
Te -4.1196425535 0.0440408163 -0.0512156882 0.00115493963552 0.000531704177705 -0.00154111936227
Te 2.1162560373 -3.7535412153 -0.0512156882 0.000117242313846 -0.00126601130127 -0.00154111936227
Te 0.3855980655 2.2254999735 13.4108823512 0.000187433435951 -0.000154009092092 -0.00358900319951
Te -1.7345405339 -1.4466844027 13.4108823512 0.000227028427908 -8.53606320107e-05 -0.00358900319951
Te -4.6516911381 2.6856552863 13.7422401761 0.00012469851363 -7.19908944669e-05 -0.00273668243109
Te 1.6452778427 -0.9498980385 13.7472177509 -9.64163765181e-05 5.55358328744e-05 -0.00275570859606
Te 1.8566369132 1.1495380794 -13.5715369702 0.000885230891605 0.00271097139735 0.00172829568788
Te -0.0672106913 -2.1826602554 -13.5715369702 -0.0019051876 -0.00212218872475 0.00172829568788
Te -1.438381402 0.8304497773 -13.8268561034 0.000120327637895 -6.9419791093e-05 0.000929196759297
Te 4.2343687398 -2.444710496 -14.2789136344 0.00206999532626 -0.00119504884815 0.00191958577889
Te 2.5397707179 0.9398542457 10.2640156898 0.00030930373587 0.000638147857381 -0.00858517127551
Te 0.455947627 -2.6694297984 10.2640156898 -0.000398006802267 -0.000586725789905 -0.00858517127551
Te -2.4717657563 1.4270747604 10.5730951703 -0.000389265050796 0.000224714434872 -0.00888547614957
Te 3.8474542909 -2.2213252308 10.5475717932 -5.70784948987e-05 3.29101231848e-05 -0.00880757171735
Te 0.3934011561 -0.2271303693 -7.5362716688 3.0339019811e-05 -1.7483502942e-05 0.00592047973889
Te -1.6708750461 -3.9014760718 -7.5522558172 0.000660516456733 -0.000381294630337 0.00602898030126
Te 3.745052443 0.2755925175 -7.1036094193 -0.000357126258623 0.000718366282644 0.0056186322028
Te 1.633856173 -3.3811031634 -7.1036094193 -0.000800641590606 -4.9879405452e-05 0.0056186322028
Te 0.1230298977 2.4841071413 -3.5389250085 -0.000192061422024 -0.000382837292361 0.00274670973425
Te -2.0897848872 -1.348597177 -3.5389250085 0.000235513069042 0.000357640479298 0.00274670973425
Te -4.3559665568 2.5149185401 -3.4913601997 0.000195146746073 -0.000112614327773 0.0024898565072
Te 2.0969616635 -1.2106779373 -3.3863942761 -0.000231656413981 0.000133697375438 0.00193706928183
Te -0.4499496111 2.6485005174 -10.2109067444 0.000240141055114 -0.000168407270985 0.00505556056393
Te -2.5186434191 -0.9345788233 -10.2109067444 0.00026610919919 -0.000123670072281 0.00505556056393
Te -3.7250044354 2.1506322196 -10.5186706264 -0.000755904391902 0.000436573352874 0.00464032736906
Te 2.6977191254 -1.5575255792 -10.576584801 -0.000571299169662 0.000329872562861 0.00438193148
Sb 0.0575118439 2.3904954232 9.2239696903 -0.000152980650742 -0.000432973808151 -0.00676225898347
Sb -2.0414738241 -1.2450509926 9.2239696903 0.0002985051017 0.000349155838164 -0.00676225898347
Sb -4.0929367354 2.3630581311 8.2245116344 0.00013652558915 -7.86757632388e-05 -0.00385279840566
Sb 2.2271087661 -1.2858184383 8.156569326 -0.00028873490888 0.000166607498623 -0.00421223865732
Sb -0.0101780931 2.4308791276 1.9314007648 -0.000394664367881 -0.000377180864939 -0.00226822739638
Sb -2.1102920935 -1.2066216125 1.9314007648 0.000129326499703 0.000530418626018 -0.00226822739638
Sb -4.1986798688 2.4241089861 1.9244744873 0.000399292353954 -0.000230627972631 -0.00213710112432
Sb 2.0994953167 -1.2121407427 1.6871099212 -6.99340117678e-05 4.03663229689e-05 -0.00120301926861
Sb 0.1753122872 -0.1012166433 -11.4757376278 0.000605237734196 -0.000349412948502 0.00396129896804
Sb -2.1481925926 -3.6258965128 -11.2059961788 0.000627863443886 -0.000362525575708 0.00069419791093
Sb -3.9405561314 0.0707643812 -12.6670979633 -0.000807069349041 -0.000122384520594 0.00242737869522
Sb -2.0315617906 3.3772394705 -12.6670979633 -0.000297476660351 0.0007600181573 0.00242737869522
Sb -0.0040604884 0.0023443252 11.5770591436 -0.000213144469689 0.000123155851606 -0.00753976064372
Sb -2.0875987736 -3.6608804094 11.5634352807 0.00066771554618 -0.000385665506072 -0.00807223615243
Sb 4.1424790082 0.02803167 12.6411694764 0.000133697375438 0.000790100066774 -0.00594927609667
Sb 2.046963349 -3.6015044017 12.6411694764 -0.000617321920053 -0.000510878240377 -0.00594927609667
Sb 2.0970290771 1.2344180869 -1.831681239 -8.63890733602e-05 0.000340414086693 -0.000268166081889
Sb -0.0205228428 -2.4332860338 -1.831681239 -0.000338100093657 -9.53879351686e-05 -0.000267908971552
Sb -2.1128148885 1.2198342849 -2.1025499158 0.000130097830715 -7.50762185154e-05 0.00113797035325
Sb 4.236436571 -2.4459043596 -1.8713204828 0.000319331039028 -0.000184348111903 3.59954472334e-06
Sb 2.1132256283 1.1544102679 -9.367028742 0.00010412968664 -0.000143981788934 0.00594156278655
Sb 0.0568642055 -2.407308758 -9.367028742 0.000176891912119 -1.79977236167e-05 0.00594156278655
Sb -2.1185317208 1.2231349026 -8.0402523518 0.000216229793738 -0.000124955623967 0.00639639097338
Sb 4.1626412432 -2.4032985873 -8.0667992518 -6.99340117678e-05 4.03663229689e-05 0.00608323058245
Cr -2.101947362 -3.6525958171 17.3451553902 0.00033681454197 -0.000194375415061 0.00134340151282
61
Lattice="8.42843558953 0 0 -4.21421779477 7.29923593142 0 0 0 31.0334408416" Properties=species:S:1:pos:R:3:forces:R:3 energy=-133600.481253 ionic_step=13 pbc="T T T"
Te 2.123305659 1.0476140958 3.4313206474 -0.000120841858569 -0.000206459600917 -0.00186507838737
Te 0.1543923735 -2.3626402345 3.4313206474 0.000118527865533 0.000208002262942 -0.00186507838737
Te -2.1150827251 1.2211436204 3.5149690151 0.00012572695498 -7.2762225479e-05 -0.00152337874899
Te 4.0427159747 -2.334059669 3.4090152912 -0.000102587024615 5.91353775978e-05 -0.00191470068248
Te -0.321959854 0.185883695 7.3814808358 -9.95017005667e-05 5.75927155735e-05 -0.00157582925781
Te -2.4159254541 -3.4713208217 7.3812403048 -0.00039080771282 0.000225742876221 -0.00233764718747
Te -3.6805022709 -0.2861054219 7.0818319753 0.000155037533441 0.000116470982834 -0.00174552208048
Te -1.5924767191 3.3304610174 7.0818319753 -2.33970407017e-05 -0.000192832753036 -0.00174603630116
Te -0.1364259822 0.0787656142 -0.044204279 0.000128812279028 -7.45619978407e-05 -0.0050511896882
Te -2.1157983974 -3.6445993388 0.0551615381 -0.000104901017652 6.06780396221e-05 -0.00474702815908
Te -4.1029736309 0.0512388597 -0.058255408 -0.000164293505587 -0.000211601807665 -0.00522525338661
Te 2.1183568131 -3.7715759541 -0.058255408 0.000100787252254 0.000248368585911 -0.00522499627627
Te 0.3774791743 2.2095621031 13.4061654342 -0.000288992019217 -0.000660516456733 0.00355892129004
Te -1.7247973853 -1.4316842982 13.4061654342 0.000427574491066 0.000580812252145 0.0035586641797
Te -4.6502461516 2.6848210225 13.7548164534 -5.88782672604e-05 3.41956748718e-05 0.00408728303336
Te 1.6401387536 -0.9469309826 13.7303344005 -0.000302875977436 0.000175092139757 0.00277782008507
Te 1.8495668455 1.1477531029 -13.5820500599 0.000474368572469 0.00328252767735 0.00336043210958
Te -0.0691998909 -2.1756449061 -13.5820500599 -0.00260555615903 -0.00205174049231 0.00336017499924
Te -1.4453214357 0.8344566094 -13.829213458 3.41956748718e-05 -2.00546063158e-05 0.00329306920118
Te 4.239919871 -2.4479154446 -14.3040405903 0.00265055046807 -0.00153006361776 0.00380754698628
Te 2.5526458453 0.9439974448 10.2696984588 -0.000391064823157 -0.00123721494348 0.000643547174466
Te 0.4587970767 -2.6826515906 10.2696984588 0.000875717809122 0.000957221786072 0.000643547174466
Te -2.4735490164 1.4281043266 10.5780000332 0.000813239997138 -0.000469740586396 0.000904257056571
Te 3.8507492167 -2.223227558 10.5528611073 -0.000763103481349 0.000440430007935 0.00104875306618
Te 0.3997718402 -0.2308084871 -7.531749201 -0.000393635926531 0.000227285538245 0.00204042763746
Te -1.6637518331 -3.9055886627 -7.5523313287 -1.90261649662e-05 1.10557445074e-05 0.0020049464109
Te 3.7428514057 0.277728667 -7.1056657188 -0.000138582471849 0.000561014756167 0.00115622518721
Te 1.6309056955 -3.3802650831 -7.1056657188 -0.000555101218407 -0.000160436850526 0.00115622518721
Te 0.1434489884 2.4916813946 -3.5480119062 0.000182548339541 8.25324182995e-05 -0.00499565385533
Te -2.0861348346 -1.3700677631 -3.5480119062 1.97974959784e-05 -0.000199517621808 -0.00499539674499
Te -4.3788941996 2.528155827 -3.4939870925 -0.000160436850526 9.30739421321e-05 -0.00506301676372
Te 2.0948466418 -1.2094568284 -3.3762471483 1.59408409177e-05 -9.25597214574e-06 -0.00484550141829
Te -0.4541687043 2.6490213848 -10.2054659124 0.000274850950661 -0.000223428883185 0.00596058895152
Te -2.52120405 -0.9311854134 -10.2054659124 0.000330643893873 -0.000126498285992 0.00596058895152
Te -3.7270534563 2.1518152229 -10.5277850168 -5.16791778137e-05 2.98247991363e-05 0.00579423856323
Te 2.7021818846 -1.5601021556 -10.5809564281 0.000411890760485 -0.000237569951741 0.00602152410148
Sb 0.0605540228 2.3890242204 9.2351492317 -0.000949251365613 -0.000819667755573 -0.000862862292253
Sb -2.0386786361 -1.2469499966 9.2351492317 0.000235255958704 0.0012318156264 -0.000862605181915
Sb -4.0908308661 2.3618423063 8.2301085711 0.000736878226936 -0.000425517608367 -0.00172932412923
Sb 2.2306748974 -1.2878773461 8.1626220198 -0.000362268465371 0.000209287814629 -0.00145473028891
Sb -0.0124925163 2.4315016803 1.9448189252 0.00026713764054 0.000189747428988 -0.00302953110537
Sb -2.1119884513 -1.2049285386 1.9448189252 -3.05961301484e-05 -0.000325758797463 -0.00302978821571
Sb -4.1962949771 2.4227320676 1.9327036635 -0.000259938551093 0.000150152437031 -0.00304778593932
Sb 2.098326024 -1.2114656509 1.6562153949 7.76473218893e-05 -4.49943090418e-05 -0.00273616821042
Sb 0.1814831609 -0.1047794006 -11.4792653459 -0.000590839555303 0.000341185417705 0.00555486883913
Sb -2.1523489708 -3.6234968256 -11.1976219556 0.000115699651822 -6.71057980566e-05 0.00257418869786
Sb -3.9477745009 0.069996795 -12.6729691844 0.000288477798542 0.000284106922807 0.00452745593095
Sb -2.0345062265 3.3838745578 -12.6729691844 -0.000101815693603 -0.000392093264507 0.00452797015163
Sb -0.0038824572 0.0022415388 11.5542832118 -0.000114156989797 6.60773567071e-05 0.00250759712048
Sb -2.085513396 -3.6620844033 11.5743133291 -0.000371524437516 0.000214430021376 0.00243560622602
Sb 4.1432682236 0.0299292356 12.64589278 -0.000108757672712 -0.000495708730472 0.00288992019217
Sb 2.0457146175 -3.6031366654 12.64589278 0.00037512398224 0.000342213859055 0.00289017730251
Sb 2.0950705079 1.2366138638 -1.8221030063 0.000136268478812 -0.000213658690364 -0.00668589721327
Sb -0.0234037251 -2.4326877509 -1.8221030063 0.000252996571984 -1.05415238326e-05 -0.00668486877192
Sb -2.1130430704 1.2199660259 -2.1362137021 -0.000107472121026 6.14493706342e-05 -0.00604877779724
Sb 4.2400469872 -2.4479888353 -1.8684437896 -0.000272279847287 0.00015709441614 -0.00644549904782
Sb 2.1070036514 1.1552606765 -9.3703303615 -9.41023834817e-05 0.00079344250116 0.00559703493446
Sb 0.053016742 -2.4023455698 -9.3703303615 -0.000734050013225 -0.00031521727363 0.00559703493446
Sb -2.1205814967 1.2243183419 -8.0363406535 0.000306218411822 -0.000176634801781 0.0028220430631
Sb 4.1620616555 -2.402963962 -8.0678686535 0.00069034125587 -0.000398778133279 0.00319716704534
Cr -2.105671562 -3.6504456482 17.3593401226 0.000168664381322 -9.74448178676e-05 0.00328175634634
61
Lattice="8.42843558953 0 0 -4.21421779477 7.29923593142 0 0 0 31.0334408416" Properties=species:S:1:pos:R:3:forces:R:3 energy=-133600.497169 ionic_step=14 pbc="T T T"
Te 2.1260051445 1.009924839 3.4216897062 0.000111071665749 -0.00058029803147 0.00119530595849
Te 0.1883819549 -2.3461334303 3.4216897062 0.000558186542456 0.000194118304723 0.00119530595849
Te -2.1177381681 1.2226767418 3.5358512236 -0.00010412968664 6.01638189473e-05 0.00203348565835
Te 4.0042737002 -2.3118650011 3.4058295194 -0.000524247977921 0.000302618867098 0.00110094646467
Te -0.3172332648 0.1831547962 7.3967233194 0.000251968130634 -0.000145267340621 0.00146115804734
Te -2.4124873415 -3.4733058179 7.3903346702 -0.000359183141322 0.000207488042267 0.000752561957516
Te -3.6751819075 -0.2891144248 7.0933058412 -7.73902115519e-05 -0.000195660966747 0.000814782659162
Te -1.5872106657 3.3273579469 7.0933058412 0.000130869161727 0.000164807726262 0.0008150397695
Te -0.1660889464 0.0958915426 -0.049657044 0.00128580879725 -0.000742277544021 -0.00452385638623
Te -2.1183652624 -3.6431173578 0.0717665279 3.11103508232e-05 -1.79977236167e-05 -0.00406748553738
Te -4.0780460653 0.061933782 -0.0689018386 -0.00137991118073 -0.000730964689176 -0.00461538766634
Te 2.1215585259 -3.7985113304 -0.0689018386 -5.70784948987e-05 0.00156065974791 -0.00461538766634
Te 0.3655590593 2.1864589912 13.3990602752 -0.000602409520485 -0.000505478923292 0.00275853680977
Te -1.7107495703 -1.409809615 13.3990602752 0.000136782699487 0.000774159225856 0.00275853680977
Te -4.6484032816 2.6837570405 13.7750832702 0.000359954472334 -0.000207488042267 0.00297553793452
Te 1.6327514144 -0.9426658983 13.7057521315 2.08259373279e-05 -1.20841858569e-05 0.00248934228653
Te 1.8395147064 1.1458436579 -13.5965933199 -0.000321387921727 -0.00113257103617 0.00489178127902
Te -0.0725723333 -2.1659847717 -13.5965933199 0.000820181976247 0.000844607458299 0.00489178127902
Te -1.4553246201 0.8402319534 -13.8317448485 -0.000324216135438 0.000186919215276 0.00516791778137
Te 4.247049269 -2.4520316064 -14.3386796953 -0.0010564663763 0.000610122830607 0.00434336492939
Te 2.5707120642 0.9505864317 10.2777178759 -0.000829437948393 -0.0012724390597 0.00364299637036
Te 0.4621239587 -2.7015918958 10.2777178759 0.000687513042158 0.00135420014699 0.00364299637036
Te -2.4760554717 1.4295514299 10.5853188296 0.00101250050861 -0.000584411796868 0.0038062614346
Te 3.8567079614 -2.2266678424 10.5605422584 -0.00058724001058 0.000338614314332 0.00393944458936
Te 0.4086727899 -0.2359474553 -7.5238968749 -0.000532475508717 0.000307503963508 -0.00443541043017
Te -1.6539244661 -3.9112624983 -7.5515365589 -0.00090631393927 0.000523219536572 -0.00471951735298
Te 3.7394548555 0.2798519842 -7.1104577557 0.000423974946342 -0.000421403842968 -0.00434516470175
Te 1.6273685746 -3.3783852416 -7.1104577557 0.000576698486747 -0.000156580195465 -0.00434490759141
Te 0.1741941898 2.5033645788 -3.5605549853 0.000396464140242 0.000535303722429 -0.00492212029883
Te -2.0808801635 -1.4025354932 -3.5605549853 -0.000265337868178 -0.000610894161619 -0.00492212029883
Te -4.4130815016 2.5478938842 -3.4978172522 -0.000390550602483 0.000225485765884 -0.00461204523195
Te 2.0916607435 -1.2076174482 -3.3612156064 0.000292077343266 -0.000168407270985 -0.00396772672647
Te -0.4608009695 2.6499631433 -10.1979762332 5.99067086099e-05 0.000247597254899 -0.000302875977436
Te -2.525335769 -0.9259125798 -10.1979762332 -0.00018460522224 -0.000175606360432 -0.000302875977436
Te -3.729118285 2.1530073529 -10.5399568258 0.000657688243022 -0.000379751968313 0.000546616577273
Te 2.709133037 -1.5641154073 -10.5878268229 0.000999130771065 -0.000576955597084 0.000790357177111
Sb 0.0647981252 2.3879807754 9.2518760449 -0.000455342407503 -0.000683142166423 0.00286652315147
Sb -2.0356529355 -1.2501037763 9.2518760449 0.000364068237732 0.000735849785586 0.00286652315147
Sb -4.0875455992 2.3599455557 8.2358043123 0.000275622281673 -0.000158894188502 0.00158405678861
Sb 2.2370753823 -1.2915726695 8.1716224567 -0.000444029552658 0.000256339006369 0.00207076665727
Sb -0.0161167769 2.4324829368 1.9646507834 0.000707053427799 0.000649974932901 0.000106957900351
Sb -2.1146503743 -1.2022804637 1.9646507834 -0.000209287814629 -0.000937424290093 0.000106957900351
Sb -4.1925361415 2.4205619018 1.9445525616 -0.000710395862185 0.000410348098461 -6.76200187314e-05
Sb 2.0966693843 -1.2105091891 1.6085889587 0.000254796344345 -0.000147067112982 -0.000471283248421
Sb 0.188934433 -0.1090813966 -11.4853442761 -0.000899886180836 0.000519619991848 0.00289043441284
Sb -2.1558350646 -3.6214841275 -11.186841792 -0.000572070500674 0.000330386783535 0.00370778817538
Sb -3.9582612085 0.0696589348 -12.6820586998 0.00080424113533 6.99340117678e-05 0.00483598833581
Sb -2.0394569849 3.3931252474 -12.6820586998 0.000341442528043 -0.000731478909851 0.00483598833581
Sb -0.0024676256 0.001424685 11.5218038378 0.000128812279028 -7.45619978407e-05 0.00343370855573
Sb -2.083979574 -3.6629699563 11.5908208071 -0.000617064809716 0.000356354927611 0.00334706237203
Sb 4.1454415408 0.0312651951 12.6533575533 -0.000197460739109 -0.00084152213425 0.00309226602769
Sb 2.0456443018 -3.605686794 12.6533575533 0.000630177436922 0.000591867996653 0.00309200891735
Sb 2.0921971226 1.2398134069 -1.8069710453 0.000325758797463 -0.000700368559028 -0.00617321920053
Sb -0.0276113021 -2.4317990965 -1.8069710453 0.000769274129446 6.78771290688e-05 -0.00617321920053
Sb -2.1134113545 1.2201786549 -2.1867091375 -0.000288992019217 0.000166607498623 -0.00608862989953
Sb 4.2455648891 -2.451174599 -1.863767825 -0.000778787211929 0.00044968598008 -0.0061076560645
Sb 2.0989557274 1.1572083046 -9.3749155682 -7.43048875033e-05 0.00079832759757 -0.0025042546861
Sb 0.0473060854 -2.3963496739 -9.3749155682 -0.000728393585802 -0.000335014769608 -0.0025042546861
Sb -2.1237288087 1.2261354441 -8.0317778673 0.000148866885344 -8.61319630228e-05 -0.00495605886337
Sb 4.161100241 -2.4024088888 -8.0684831823 0.000703968103751 -0.0004064914434 -0.00446394967762
Cr -2.1121396722 -3.6467112813 17.3796520961 -0.000367924892793 0.000212630249015 0.0048627278109
61
Lattice="8.42843558953 0 0 -4.21421779477 7.29923593142 0 0 0 31.0334408416" Properties=species:S:1:pos:R:3:forces:R:3 energy=-133600.509996 ionic_step=15 pbc="T T T"
Te 2.1270072028 0.9889239049 3.413590689 0.000150666657706 -0.000143981788934 0.00270608630094
Te 0.2070703179 -2.3365007716 3.413590689 0.000200031842483 -5.83640465856e-05 0.00270608630094
Te -2.1191655281 1.2235008289 3.5490973526 -0.00014141068556 8.150397695e-05 0.00293337183919
Te 3.9831324319 -2.2996590785 3.402305103 -0.000171492595034 9.89874798919e-05 0.00251273932723
Te -0.3124204339 0.1803761057 7.4049891632 0.000364839568745 -0.000210830476653 0.00131974736178
Te -2.410969282 -3.4741822703 7.3977126928 0.000229342420944 -0.000132411823752 0.00101969959806
Te -3.6750409771 -0.2909810757 7.0967287855 -0.000171749705371 9.0245728421e-05 0.00122050277155
Te -1.5855236341 3.328169223 7.0967287855 -0.000164036395249 0.000103615465965 0.00122050277155
Te -0.1825184913 0.1053771492 -0.0531721988 0.000398521022942 -0.000230113751957 -0.000311617728907
Te -2.1198797044 -3.642242994 0.0822263707 0 -0 0.000107215010688
Te -4.06400931 0.0681221387 -0.0749936793 -0.000512935123076 -0.000274336729986 -0.000381551740674
Te 2.1232176318 -3.8137617011 -0.0749936793 -1.87690546289e-05 0.00058132647282 -0.000381551740674
Te 0.3598717933 2.1757439394 13.3953238274 -4.75654124156e-05 -0.000148095554332 -0.000492366296086
Te -1.7043137006 -1.39952677 13.3953238274 0.000104386796977 0.000115185431147 -0.000492366296086
Te -4.6475608304 2.6832706509 13.7891931366 0.000215715573063 -0.00012469851363 -4.4480088367e-05
Te 1.6301017738 -0.9411361269 13.6936453706 0.000222400441835 -0.000128555168691 -0.000417032967233
Te 1.8342753564 1.1462522347 -13.602261791 0.000236027289716 9.25597214574e-05 0.00259475752486
Te -0.075545846 -2.1616516478 -13.602261791 3.77952195951e-05 -0.000250682578947 0.00259475752486
Te -1.4598010807 0.8428164403 -13.8326110096 -0.000388493719784 0.000224457324534 0.00275673703741
Te 4.2484254179 -2.4528261267 -14.3511924723 -8.27895286369e-05 4.7822522753e-05 0.00259012953878
Te 2.5791919523 0.9556923723 10.2817950937 -0.000214944242051 -0.000400577905641 -0.0012043048203
Te 0.4619420305 -2.7114886681 10.2817950937 0.000239369724102 0.000386436837085 -0.0012043048203
Te -2.4774702098 1.4303682297 10.5898539746 1.15699651822e-05 -6.68486877192e-06 -0.00139868023536
Te 3.8614945745 -2.2294313961 10.5630176401 -0.000519105771174 0.000299790653387 -0.00118347888297
Te 0.4123361861 -0.238062519 -7.5169889206 -0.000203374276869 0.000117499424183 -0.00246671657684
Te -1.6486611789 -3.91430126 -7.5479894985 -0.000427574491066 0.000246825923886 -0.00237338552437
Te 3.7368008776 0.2794945357 -7.117078674 8.25324182995e-05 -0.000322930583751 -0.00224483035568
Te 1.6263511449 -3.375908104 -7.117078674 0.00032113081139 8.99886180836e-05 -0.00224483035568
Te 0.1909570499 2.5100198575 -3.5649822366 0.000269451633576 0.000294905556977 -0.00218903741247
Te -2.0782623712 -1.420380202 -3.5649822366 -0.000120841858569 -0.000380780409662 -0.00218903741247
Te -4.4310534251 2.5582699839 -3.4993311976 -0.000257624558056 0.000148609775007 -0.00194478259195
Te 2.0898008551 -1.2065436407 -3.3533422964 0.000154523312766 -8.92172870714e-05 -0.00178845950683
Te -0.4634853658 2.6516517607 -10.1946558531 -0.000137039809824 0.000149638216356 -0.00103255511492
Te -2.528140352 -0.924432132 -10.1946558531 -0.000198232070121 4.39658676923e-05 -0.00103255511492
Te -3.7277041649 2.1521909099 -10.543813819 0.000365096679082 -0.000210830476653 -0.000765417474385
Te 2.7133624078 -1.5665572367 -10.5930591102 0.000371524437516 -0.000214687131714 -0.000421146732631
Sb 0.0659279166 2.3895078857 9.2609756437 2.44254820513e-05 -0.000453028414466 -0.0002180295661
Sb -2.0364105555 -1.25184576 9.2609756437 0.000404434560701 0.000205174049231 -0.0002180295661
Sb -4.0854508618 2.358736158 8.2329191479 -0.00010412968664 6.01638189473e-05 0.000702168331389
Sb 2.241999155 -1.2944154123 8.1767227919 -0.000441972669959 0.000255053454683 0.000835351486153
Sb -0.0185830904 2.4329706446 1.9748965766 0.000488766751362 0.000538646156815 0.00246954479055
Sb -2.1163058981 -1.2003884265 1.9748965766 -0.000222143331498 -0.000692655248906 0.00246954479055
Sb -4.1899631031 2.4190763567 1.9498778534 -0.000486195647989 0.000280764488421 0.00238958347562
Sb 2.0958876616 -1.2100578611 1.5802465656 0.00026122410278 -0.000150923768043 0.00249756981733
Sb 0.189973371 -0.109681228 -11.4887441954 -0.000225485765884 0.000130097830715 0.00119787706186
Sb -2.1509978271 -3.6242769091 -11.1847790648 -0.000260452771768 0.000150409547368 0.000490309413387
Sb -3.9629355315 0.0716499162 -12.6873748009 0.000205174049231 -9.51308248312e-06 0.00239858233743
Sb -2.0435183861 3.3961778411 -12.6873748009 0.000110814555411 -0.000173035257058 0.00239858233743
Sb 0.0008690677 -0.0005017567 11.5070189436 0.000345299183104 -0.000199260511471 -0.0016830442685
Sb -2.0863581647 -3.6615966756 11.600647829 0.00015220931973 -8.79317353845e-05 -0.00177894642434
Sb 4.1484895507 0.0292359224 12.6580693527 -0.000392093264507 -0.000112357217436 -0.00123155851606
Sb 2.0489257076 -3.6073118129 12.6580693527 -9.87303695545e-05 0.000395949919568 -0.00123155851606
Sb 2.0908405254 1.2412402854 -1.7970152842 0.00028282137112 -0.000146038671633 -0.00238675526191
Sb -0.0295253131 -2.4313376876 -1.7970152842 0.000267908971552 -0.000172006815708 -0.00238675526191
Sb -2.1138129577 1.2204105207 -2.2139251966 -0.000234484627692 0.000135240037463 -0.00232607722229
Sb 4.2485895964 -2.4529209154 -1.8604253536 -0.000284364033144 0.000164293505587 -0.00224740145905
Sb 2.0962927291 1.1597840763 -9.3767397802 -9.46166041564e-05 6.42775843454e-06 -0.00202422968621
Sb 0.0437439036 -2.3953313346 -9.3767397802 -5.27076191632e-05 7.86757632388e-05 -0.00202422968621
Sb -2.1260575833 1.2274799634 -8.0324955364 0.000263795206154 -0.00015220931973 -0.00285803851033
Sb 4.1594901476 -2.4014793005 -8.0682665654 0.000193089863374 -0.000111585886424 -0.00273308288637
Cr -2.1181054721 -3.6432669235 17.3893552009 -7.2762225479e-05 4.19089849932e-05 0.00245797482537
61
Lattice="8.42843558953 0 0 -4.21421779477 7.29923593142 0 0 0 31.0334408416" Properties=species:S:1:pos:R:3:forces:R:3 energy=-133600.526883 ionic_step=16 pbc="T T T"
Te 2.127739402 0.9677078401 3.4033536971 -0.000417804298245 1.33697375438e-05 -0.00524247977921
Te 0.22581006 -2.3265268425 3.4033536971 -0.000220343559136 0.000354555155249 -0.00523990867584
Te -2.1205505119 1.2243004501 3.5636074062 0.000397235471255 -0.000228571089932 -0.00615367881489
Te 3.9611974423 -2.2869949004 3.3969968698 0.000143981788934 -8.22753079621e-05 -0.00493883247076
Te -0.3059748966 0.1766547713 7.4134481766 -0.00104926728685 0.000605751954871 0.00121716033716
Te -2.410126501 -3.4746688504 7.4066648781 -0.000738677999297 0.000426288939379 0.00207668019503
Te -3.6767515464 -0.2941602538 7.0989624102 0.000390550602483 -0.000180748567179 0.00153623426586
Te -1.583625671 3.3312402092 7.0989624102 0.000351726941538 -0.000248368585911 0.00153803403822
Te -0.1986052108 0.1146648253 -0.0573149486 -0.00186199306332 0.00107626387228 -0.00833320314488
Te -2.121567333 -3.6412686407 0.0934350179 -0.000240655275789 0.000138582471849 -0.00845018834838
Te -4.0498017998 0.0748128738 -0.0815228421 0.00211601807665 0.000861833850903 -0.00836662748874
Te 2.1245270431 -3.8294111391 -0.0815228421 0.000310846397894 -0.00226205674828 -0.00836611326806
Te 0.3548868361 2.1650394744 13.3917014054 -0.000221114890148 -0.000126755396329 0.00717337841295
Te -1.6975358449 -1.3898574359 13.3917014054 -5.14220674763e-07 0.000256339006369 0.0071702930889
Te -4.6469675726 2.6829281332 13.8047210731 -0.000408548326099 0.000236027289716 0.00654474363805
Te 1.6279158347 -0.9398740738 13.6835786789 -0.000746134199081 0.000431945366801 0.00673063441198
Te 1.8306145164 1.1482735398 -13.60591549 0.000105672348664 0.00282769949052 0.00274336729986
Te -0.0791267668 -2.1594919184 -13.60591549 -0.00239601123406 -0.00150538102537 0.00274285307919
Te -1.4633094129 0.8448419778 -13.8308850695 0.000719908944669 -0.000415747415546 0.00224971545209
Te 4.247888625 -2.452516209 -14.3588577443 0.00281510108399 -0.00162545155293 0.00309123758634
Te 2.5851126443 0.9607753792 10.28485608 0.00111611597457 0.000533246839729 0.00793905299767
Te 0.4605003655 -2.7191576436 10.28485608 9.66734868555e-05 -0.00123438672977 0.00793905299767
Te -2.4784618047 1.4309407276 10.5932742601 -4.83367434277e-05 2.80250267746e-05 0.00811080270304
Te 3.8663848838 -2.2322548187 10.5665044855 0.000952336689662 -0.000549959011659 0.0077927572157
Te 0.414697117 -0.2394256037 -7.5098324439 0.000375638202915 -0.000215972683401 0.000777501660242
Te -1.6458157157 -3.9159440897 -7.5440214428 0.00117602268318 -0.000680056842374 0.000881631346882
Te 3.7346230591 0.2772766277 -7.1256479205 -0.000346327624453 0.00114671210472 -2.2882820027e-05
Te 1.6271829995 -3.3729131028 -7.1256479205 -0.00116599538003 -0.000274593840324 -2.21114890148e-05
Te 0.2070653183 2.5166346936 -3.5676221915 -0.000376409533927 -0.000633262760971 -0.00693915089559
Te -2.0759368504 -1.4376377962 -3.5676221915 0.000360211582672 0.000643547174466 -0.00693889378526
Te -4.4483579296 2.5682607489 -3.5001149974 0.000263538095816 -0.000152723540405 -0.00773824982417
Te 2.0879614079 -1.2054816349 -3.3449113343 -0.000459456172901 0.000265594978515 -0.0082900086082
Te -0.4667692398 2.6527966452 -10.1932730314 0.000350441389851 -0.000480796330904 0.00427703046234
Te -2.5307737876 -0.9221606548 -10.1932730314 0.000590582444966 -6.22207016464e-05 0.00427600202099
Te -3.7246481035 2.1504264912 -10.5456413066 -0.000968277530579 0.000557415211443 0.00481876194321
Te 2.7168824348 -1.5685895263 -10.598683349 -0.00105183839023 0.000608580168582 0.00474265728334
Sb 0.066599097 2.3919503617 9.26912091 -0.00076593169506 0.00113745613258 0.00601998143945
Sb -2.0381902106 -1.2536482575 9.26912091 -0.00136679855352 9.41023834817e-05 0.0060210098808
Sb -4.0833376449 2.3575160911 8.2263980156 0.000480282110229 -0.000275108060998 0.00433102363319
Sb 2.2481449251 -1.297963676 8.1820984647 0.001037183101 -0.000600095527449 0.00356329216577
Sb -0.021295039 2.4336267346 1.984958104 -0.0011114879885 -0.00139122403557 -0.00803161271913
Sb -2.1182300628 -1.198367854 1.984958104 0.000648175160539 0.0016575903451 -0.00803058427778
Sb -4.1871484216 2.4174512989 1.954587094 0.00112588616739 -0.000649974932901 -0.00750787896188
Sb 2.0953150007 -1.209727235 1.5490611356 -0.000630948767935 0.000365610899757 -0.00682190858175
Sb 0.1875463406 -0.1082799807 -11.4940312216 0.000515763336788 -0.000296191108664 0.00386462548118
Sb -2.144156016 -3.6282270325 -11.1837695304 0.000934338966045 -0.000540445929176 0.00112022973997
Sb -3.967958549 0.0746892012 -12.6932788155 -0.000238084172415 0.000622207016464 0.00327095771217
Sb -2.0486619917 3.3990082613 -12.6932788155 -0.000657174022347 -0.000104901017652 0.00327018638116
Sb 0.0057142647 -0.0032991338 11.494955821 -0.00122513075762 0.000705767876113 0.00954547838563
Sb -2.0898700203 -3.6595691039 11.61086585 -0.000612951044318 0.000354298044912 0.00810308939292
Sb 4.1527151041 0.0258778538 12.6634841645 0.000815811100512 2.21114890148e-05 0.0072548823899
Sb 2.0539466556 -3.6092922168 12.6634841645 0.000388236609446 -0.000717337841295 0.00725411105889
Sb 2.0896962512 1.2423154705 -1.7855273564 -0.000828152396706 0.00040160634699 -0.010058670619
Sb -0.0310285874 -2.4308843092 -1.7855273564 -0.000762075039999 0.000515249116113 -0.0100576421777
Sb -2.1143073213 1.2206959418 -2.2411923396 0.000749990854142 -0.000433230918488 -0.00849286866439
Sb 4.2515779125 -2.4546462212 -1.8561411184 0.000741249102671 -0.000428602932415 -0.0100980085007
Sb 2.0952860169 1.1627623729 -9.3778140768 0.000601381079136 4.37087573549e-05 0.00390267781112
Sb 0.0406612681 -2.3959486442 -9.3778140768 0.000261995433792 -0.0005419885912 0.00390216359044
Sb -2.1274081264 1.2282597002 -8.0345581067 -0.000531704177705 0.000307246853171 0.00238289860685
Sb 4.159176396 -2.4012981559 -8.0658246065 -0.000231656413981 0.000133954485776 0.00234201806321
Cr -2.124253026 -3.6397176299 17.3951606783 0.000651774705262 -0.000377952195951 0.00250039803104
61
Lattice="8.42843558953 0 0 -4.21421779477 7.29923593142 0 0 0 31.0334408416" Properties=species:S:1:pos:R:3:forces:R:3 energy=-133600.547911 ionic_step=17 pbc="T T T"
Te 2.1289514546 0.9366623808 3.3885105508 0.000172006815708 -0.000553558556383 0.00235024559401
Te 0.2533022302 -2.3120537818 3.3885105508 0.00056461430089 0.000127783837679 0.00235024559401
Te -2.1225846048 1.2254748346 3.5841625387 -0.000186662104939 0.000107215010688 0.00322879161684
Te 3.9290841952 -2.2684542999 3.3887309395 -0.00058621156923 0.000339128535006 0.00219212273652
Te -0.2970214204 0.171485477 7.4261384654 0.000479767889554 -0.000279478936734 0.000231913524318
Te -2.4094267332 -3.4750728617 7.4188376361 0.000205945380243 -0.000115699651822 -0.000625292340512
Te -3.6782392065 -0.3000433118 7.103358061 -3.34243438596e-05 0.000213401580027 -0.000306218411822
Te -1.5792746258 3.3354700903 7.103358061 -0.000203631387206 -7.71331012145e-05 -0.000307503963508
Te -0.2216217385 0.12795343 -0.0635476386 0.00135677125036 -0.000783158087664 -0.000504193371605
Te -2.1240712286 -3.6398230152 0.1093612526 0.000164550615924 -9.51308248312e-05 3.85665506072e-06
Te -4.029593302 0.0846680033 -0.0912070721 -0.00150460969436 -0.000633262760971 -0.000685456159459
Te 2.1260965035 -3.8518397845 -0.0912070721 -0.000203117166531 0.00161876668415 -0.000685199049122
Te 0.3478046832 2.1478894524 13.3867838238 -7.73902115519e-05 -0.000668229766855 0.00220035026731
Te -1.6862245736 -1.3751490977 13.3867838238 0.000538903267152 0.000401092126315 0.00219932182596
Te -4.6459139952 2.6823198497 13.8256610775 0.000281278709096 -0.000160951071201 0.00216024105468
Te 1.6243139023 -0.9377944962 13.6704489283 -3.13674611606e-05 1.67121719298e-05 0.00176300558343
Te 1.8266027432 1.1516238895 -13.6111747804 0.000193089863374 -0.00064020474008 0.000779301432604
Te -0.08403414 -2.1576927941 -13.6111747804 0.000649460712226 0.000154266202429 0.000778787211929
Te -1.4680295636 0.8475671593 -13.8262593477 -0.000514734895438 0.000295162667314 0.00118913531039
Te 4.247004243 -2.4520056106 -14.370266177 -0.000740220661322 0.000429374263427 0.00139970867671
Te 2.5924413608 0.9668337564 10.2886451379 -0.000769788350121 -0.000819667755573 0.000687770152496
Te 0.4589180177 -2.7285336898 10.2886451379 0.000322159252739 0.00107832075498 0.000688284373171
Te -2.4795329418 1.4315591492 10.5963582731 0.000536075053441 -0.000312389059919 0.000895772415438
Te 3.8714208492 -2.2351623361 10.5743706603 -0.000881117126207 0.000511392461052 0.00126266886688
Te 0.4177593844 -0.2411936055 -7.5019914056 -8.22753079621e-05 4.65369710661e-05 -0.00254873477446
Te -1.6439361973 -3.9170292307 -7.5404992257 -0.000585440238218 0.000338357203994 -0.00252662328545
Te 3.7327570405 0.2737347298 -7.1362481322 0.00020028895282 -0.000754618840215 -0.00236567221425
Te 1.6293173624 -3.3695261337 -7.1362481322 0.000751276405829 0.000205431159568 -0.00236490088324
Te 0.2298748934 2.5257890353 -3.5715483233 0.000414204753522 0.000490566523724 -0.00161105337403
Te -2.0724599517 -1.4619686477 -3.5715483233 -0.000217772455762 -0.000603695072172 -0.00161156759471
Te -4.4732344304 2.58262321 -3.5007747538 -0.000330643893873 0.000190261649662 -0.00114774054607
Te 2.085389983 -1.2039970213 -3.3315844448 0.000276136502348 -0.000158379967827 -0.000800641590606
Te -0.4722908033 2.6529155054 -10.1927739344 -0.000293105784615 0.000470769027746 -0.00234381783557
Te -2.5336375052 -0.9174382683 -10.1927739344 -0.00055484410807 1.90261649662e-05 -0.00234407494591
Te -3.7207133683 2.1481547697 -10.5488565688 0.000571299169662 -0.000331415224885 -0.00241735139206
Te 2.720347287 -1.5705899605 -10.6061205286 0.000655888470661 -0.000376923754601 -0.00199080534235
Sb 0.0679173225 2.3940040084 9.2795752007 -0.000155808864453 -0.00137142653959 -0.000323187694089
Sb -2.0393096072 -1.2558166982 9.2795752007 0.00110968821614 0.000820439086585 -0.000322930583751
Sb -4.0805846088 2.3559266242 8.2186688128 5.55358328744e-05 -3.18816818353e-05 -0.000415490305209
Sb 2.2564927303 -1.3027832858 8.1903685887 -0.00110660289209 0.000639176298731 -0.000443001111309
Sb -0.0251463293 2.4347837847 1.9999536824 0.00111637308491 0.000881117126207 0.00251711020297
Sb -2.1211577423 -1.1956110622 1.9999536824 -0.000204145607881 -0.00140716487649 0.00251916708567
Sb -4.1831959012 2.415169309 1.9618039459 -0.00111945840896 0.000647918050202 0.00232016368453
Sb 2.094583643 -1.2093049853 1.5022800978 0.000250939689284 -0.000145267340621 0.00246594524583
Sb 0.1830985317 -0.1057120358 -11.5030655203 -0.000167121719298 9.53879351686e-05 -0.000964163765181
Sb -2.1387199564 -3.6313655444 -11.1794698008 -0.00049879405452 0.000290020460566 -0.000885230891605
Sb -3.9766413296 0.0783411649 -12.7019749225 0.000233199076005 -0.000145524450958 0.000169178601997
Sb -2.0561660738 3.4047017916 -12.7019749225 0.000242712158488 -0.000128555168691 0.000169692822672
Sb 0.0118741498 -0.0068555468 11.4775252009 0.000412662091498 -0.000242197937813 0.00145473028891
Sb -2.0925911101 -3.6579980813 11.6255348898 0.000308789515195 -0.000174320808745 0.00176377691444
Sb 4.1581469425 0.0227361926 12.6714271664 -0.000572584721349 -6.7362908394e-05 0.00236361533155
Sb 2.059383332 -3.6124254985 12.6714271664 -0.000231913524318 0.00053118995703 0.00236361533155
Sb 2.0881345228 1.2437522448 -1.768692 0.000543274142887 -0.000440430007935 -0.00169744244739
Sb -0.033053734 -2.4302501993 -1.768692 0.000653831587961 -0.000249139916923 -0.00169641400604
Sb -2.1150158592 1.2211050165 -2.2812548505 -0.000486966979001 0.000282307150445 -0.00188976097975
Sb 4.2557206318 -2.4570380224 -1.8494977857 -0.000658202463697 0.000379751968313 -0.00155963130656
Sb 2.0935063477 1.1659112352 -9.3792163496 -3.95949919568e-05 -0.00019051876 -0.00289043441284
Sb 0.0370444401 -2.3959818358 -9.3792163496 0.000143467568259 0.00012958361004 -0.00288992019217
Sb -2.1274485695 1.2282830501 -8.0359499391 0.000169692822672 -0.000100787252254 -0.00308532404858
Sb 4.1613434084 -2.4025492817 -8.0608469729 -8.53606320107e-05 5.24505088259e-05 -0.00307735362812
Cr -2.1309432789 -3.6358550088 17.4001458752 -0.000215972683401 0.00012469851363 0.0008955153051
61
Lattice="8.42843558953 0 0 -4.21421779477 7.29923593142 0 0 0 31.0334408416" Properties=species:S:1:pos:R:3:forces:R:3 energy=-133600.574294 ionic_step=18 pbc="T T T"
Te 2.1307556387 0.8915756025 3.3647795298 -0.000176891912119 -0.000951822468987 0.00384997019195
Te 0.2932505994 -2.2910728626 3.3647795298 0.000734821344237 0.00063043454726 0.0038509986333
Te -2.1255225231 1.2271710434 3.6139954557 0.000187433435951 -0.000109786114062 0.0040793126129
Te 3.8831509237 -2.2419347008 3.3743062318 -0.000888830436328 0.000515249116113 0.00376383822893
Te -0.283422188 0.1636339528 7.4447371692 -0.000191290091012 0.000112100107098 0.00211807495935
Te -2.4094831137 -3.4750403104 7.4361537639 -0.000225485765884 0.000128812279028 0.0017930874929
Te -3.680247249 -0.3100374332 7.1086323985 0.000679799732037 0.000185376553252 0.00136705566386
Te -1.5716234881 3.3422061676 7.1086323985 0.000180491456842 -0.000682370835411 0.00136602722251
Te -0.2543974171 0.1468764857 -0.0731112642 0.000274336729986 -0.000157865747152 -0.00148044132264
Te -2.1277663293 -3.6376896468 0.1326315534 -4.75654124156e-05 2.72536957625e-05 -0.000508564247341
Te -4.0016471783 0.0987804648 -0.1055593077 -0.000285649584831 -0.000242197937813 -0.00183833891228
Te 2.1278478208 -3.8830980796 -0.1055593077 6.63344670445e-05 0.000368439113468 -0.00184245267768
Te 0.3384975027 2.1232046476 13.3809201247 -0.000564871411227 -0.000550473232334 0.00324498956809
Te -1.6695005057 -1.3547464368 13.3809201247 0.000192318532361 0.000765674584722 0.00324576089911
Te -4.6436959094 2.6810392367 13.854977294 0.000297476660351 -0.000174320808745 0.00334783370305
Te 1.620444275 -0.9355603648 13.6552845157 -0.000205431159568 0.000122384520594 0.00323393382359
Te 1.8221182927 1.1577780857 -13.6171464993 0.000160951071201 -0.00109066205117 0.00421223865732
Te -0.091606053 -2.1568862424 -13.6171464993 0.00102612735649 0.000404948781376 0.00421506687103
Te -1.4730902406 0.8504889439 -13.8173925287 -0.000439401566585 0.000253510792658 0.00389033651492
Te 4.2433258435 -2.4498818847 -14.3819018486 -0.00110248912669 0.00063634808502 0.00398521022942
Te 2.6008580939 0.9750620869 10.2934228776 -0.000645346946828 -0.000459713283238 0.00369518976885
Te 0.4560004442 -2.7399369631 10.2934228776 7.8161542564e-05 0.000787786073737 0.00369647532054
Te -2.4809096338 1.432353983 10.5986343198 0.00113797035325 -0.000655631360323 0.00358977453052
Te 3.8760062748 -2.237809734 10.5877533838 -2.31399303643e-06 5.14220674763e-07 0.00424463455983
Te 0.4208530965 -0.2429797618 -7.492726744 -3.9080771282e-05 2.00546063158e-05 -0.0072294284665
Te -1.643154631 -3.9174804684 -7.5356259642 -0.000568985176626 0.000332186555897 -0.00745362868069
Te 3.7311926363 0.267865717 -7.1514523572 7.58475495276e-05 -0.000651517594925 -0.0073566980835
Te 1.6336178721 -3.3652368129 -7.1514523572 0.000600095527449 0.000260452771768 -0.00735772652485
Te 0.2614628952 2.538047266 -3.5751238419 -0.000107729231363 0.000178434574143 -0.0065905092781
Te -2.067281885 -1.4954537878 -3.5751238419 -0.000208773593954 3.85665506072e-06 -0.00659076638844
Te -4.5073375522 2.6023126658 -3.5002648178 -2.57110337382e-07 -5.14220674763e-07 -0.00627812021818
Te 2.0817293887 -1.2018835752 -3.3112071295 0.000200803173495 -0.000116470982834 -0.00584591774105
Te -0.4789487573 2.6524741355 -10.1945332942 0.000335014769608 0.000833808824129 -0.00210624788383
Te -2.5365842449 -0.9114516234 -10.1945332942 -0.000552273004696 -0.000708338979486 -0.00210393389079
Te -3.7138940846 2.1442176526 -10.5525059135 -0.000137811140837 8.07326459378e-05 -0.00121253235109
Te 2.7229188461 -1.5720746515 -10.6173535863 0.000470254807071 -0.000273051178299 -0.000767731467422
Sb 0.0689641029 2.3957408539 9.2921793217 -0.00054790212896 -0.00122101699223 0.00320565168647
Sb -2.0402903686 -1.2575916598 9.2921793217 0.000782900977327 0.00108731961679 0.00320333769344
Sb -4.0768879145 2.3537923357 8.2058496664 0.000297476660351 -0.000175092139757 0.00278013407811
Sb 2.267627893 -1.3092121779 8.2034626218 -0.00108320585139 0.000627863443886 0.00234098962186
Sb -0.0309053622 2.436554837 2.0215253329 0.000451228642105 -6.32491429959e-05 0.00416158792086
Sb -2.1255710343 -1.1915091172 2.0215253329 0.00027690783336 -0.000357897589635 0.00416210214153
Sb -4.1772828037 2.411755379 1.9717615102 -0.000421403842968 0.000240141055114 0.00427805890369
Sb 2.0937065862 -1.208798616 1.4321044155 -0.000192832753036 0.000115699651822 0.00465806798234
Sb 0.1737811782 -0.1003326568 -11.5163833087 0.000361754244696 -0.000211344697328 0.00172623880518
Sb -2.1322929266 -3.6350761935 -11.1724364836 -0.000395178588556 0.000230370862294 0.00162570866326
Sb -3.9898454192 0.0843636715 -12.7143762845 -7.97042045883e-06 -0.000406234333063 0.00364788146677
Sb -2.0679837598 3.4131256206 -12.7143762845 0.000348384507152 0.000211601807665 0.00364993834947
Sb 0.021137157 -0.012203549 11.4547401317 -0.000533246839729 0.000312903280593 0.00342136725954
Sb -2.0948108594 -3.6567165078 11.647003212 -0.000492366296086 0.000279221826396 0.00334217727562
Sb 4.1658590538 0.019478487 12.6830172617 0.000161465291876 -0.000507021585317 0.00339411356377
Sb 2.0660606421 -3.6174755331 12.6830172617 0.000523476646909 0.000110814555411 0.00339411356377
Sb 2.0863515997 1.2452530959 -1.7432752809 2.87963577867e-05 -0.000566928293926 -0.00553969932922
Sb -0.0352449702 -2.4294565674 -1.7432752809 0.000506507364642 0.000256853227044 -0.00553738533619
Sb -2.116300956 1.2218469679 -2.3382094219 2.46825923886e-05 -1.43981788934e-05 -0.00536049342407
Sb 4.2610748583 -2.460129288 -1.8387229593 -0.000597524424075 0.000342213859055 -0.00568650933187
Sb 2.0909183662 1.1696751758 -9.3806164825 0.000185376553252 2.05688269905e-05 -0.00468712145047
Sb 0.0324907827 -2.3956225474 -9.3806164825 7.30193358164e-05 -0.000169435712334 -0.00468789278148
Sb -2.125313381 1.2270502978 -8.0381511122 4.4480088367e-05 -2.75108060998e-05 -0.00676508719719
Sb 4.1669977791 -2.4058138356 -8.0527793182 -3.54812265587e-05 2.33970407017e-05 -0.00717055019924
Cr -2.1393399978 -3.6310071586 17.4018385985 -0.000367410672118 0.000210573366316 0.00438707368674
61
Lattice="8.42843558953 0 0 -4.21421779477 7.29923593142 0 0 0 31.0334408416" Properties=species:S:1:pos:R:3:forces:R:3 energy=-133600.604221 ionic_step=19 pbc="T T T"
Te 2.1305713422 0.8651404519 3.340837111 -0.000101301472928 0.000576698486747 -0.00492083474715
Te 0.3160519525 -2.2776956818 3.340837111 -0.000549959011659 -0.000200803173495 -0.00492134896782
Te -2.1270688328 1.2280638061 3.6345037237 0.00011878497587 -6.83913497435e-05 -0.00477016808944
Te 3.8553506676 -2.225884208 3.3567095317 0.000623235457813 -0.000359954472334 -0.00487943998283
Te -0.2706745721 0.1562741099 7.4562198654 2.59681440755e-05 -1.46552892308e-05 -0.00512678012739
Te -2.4125855873 -3.4732490956 7.4488905089 -2.8282137112e-06 1.28555168691e-06 -0.00535072323125
Te -3.6847751018 -0.3198267653 7.1048666406 -0.000113128548448 9.66734868555e-05 -0.00392761751384
Te -1.5654096081 3.351022071 7.1048666406 -0.000140125133873 4.96222951147e-05 -0.00392761751384
Te -0.272291165 0.1572074507 -0.0808707746 -0.00049493739946 0.000285649584831 -0.0046467551275
Te -2.1303950695 -3.6361719423 0.149103153 -0.000204145607881 0.000117756534521 -0.00402377678002
Te -3.9868060718 0.1071961997 -0.1153531979 0.000548416349635 8.56177423481e-05 -0.00454725342693
Te 2.1279801373 -3.9001587283 -0.1153531979 0.000200031842483 -0.000518077329824 -0.00454673920626
Te 0.336362475 2.1118364208 13.380908575 0.000619121692415 0.000181005677517 -0.000578241148771
Te -1.660722851 -1.3472133344 13.380908575 0.000152466430067 -0.000626835002536 -0.000577469817759
Te -4.640719456 2.6793207797 13.8742825197 -0.000618350361403 0.000357640479298 0.000886002222617
Te 1.6236477606 -0.9374098989 13.6576871214 0.000113385658785 -6.55631360323e-05 -0.00133363132
Te 1.8226585834 1.1665697711 -13.6135489049 0.000884973781268 0.00808560588998 0.00446420678796
Te -0.098949727 -2.1617499907 -13.6135489049 -0.00655991314795 -0.00480924886072 0.00446394967762
Te -1.4702647496 0.8488576452 -13.8063110714 0.000196946518434 -0.00011389987946 0.003958984975
Te 4.2313371789 -2.4429602227 -14.367863712 0.00666687104831 -0.0038489417506 0.00582689157608
Te 2.5988541535 0.9808938905 10.2941661043 0.000350698500189 -0.000213915800702 -0.00859699835103
Te 0.4499479864 -2.7411174008 10.2941661043 0.000360468693009 -0.000196946518434 -0.00859674124069
Te -2.4814021313 1.4326383267 10.595306514 -0.000565385631902 0.000326273018137 -0.00870112803767
Te 3.8744825969 -2.2369300378 10.5981367608 -0.000735078454574 0.000424489167017 -0.00851575148442
Te 0.4179120963 -0.2412817738 -7.4886208209 0.000128812279028 -7.40477771659e-05 0.00895592438201
Te -1.6470151121 -3.9152516175 -7.5287666047 0.000222657552172 -0.000128555168691 0.00884073895087
Te 3.7320522628 0.2604754785 -7.1657456904 -8.76746250471e-05 -3.47098955465e-05 0.0078670621032
Te 1.6404478166 -3.3622861523 -7.1657456904 -1.36268478812e-05 9.30739421321e-05 0.00786757632388
Te 0.2765153872 2.5429720689 -3.5686308771 -0.000519877102186 -0.000308018184183 -0.000379494857975
Te -2.0640206415 -1.5109520358 -3.5686308771 6.9419791093e-06 0.000603952182509 -0.000379494857975
Te -4.5224147776 2.61101751 -3.4953480651 0.000445057994008 -0.000257110337382 -0.000822238858946
Te 2.0795256098 -1.2006112223 -3.2966167387 1.02844134953e-06 -5.14220674763e-07 -0.000958764448096
Te -0.4781241451 2.6525640556 -10.2027539916 0.000574127383373 0.000470769027746 0.0115982473193
Te -2.5362498118 -0.9122107188 -10.2027539916 -0.000120327637895 -0.000733021571875 0.0115982473193
Te -3.70352623 2.1382317662 -10.5481714072 -0.000232941965668 0.000134468706451 0.0112058969444
Te 2.7191592307 -1.5699040355 -10.6274802245 0.000776987439567 -0.000448914649068 0.0119759424049
Sb 0.0657830249 2.3966610379 9.293482098 7.97042045883e-06 -0.000110300334737 -0.00820259109349
Sb -2.04267781 -1.2552968562 9.293482098 9.89874798919e-05 4.83367434277e-05 -0.00820259109349
Sb -4.0748544124 2.3526182922 8.1858087576 9.07599490957e-05 -5.24505088259e-05 -0.00606651841052
Sb 2.2739283144 -1.3128497297 8.214551579 -7.89328735762e-05 4.55085297165e-05 -0.00662290518061
Sb -0.0354831984 2.4376174942 2.0333816567 0.00019643229776 9.71877075303e-05 -0.00680776751319
Sb -2.1287802401 -1.1880759215 2.0333816567 1.4141068556e-05 -0.000219058007449 -0.00680776751319
Sb -4.1724605004 2.4089712196 1.97492346 -0.000139610913198 8.09897562752e-05 -0.00671932155713
Sb 2.093776328 -1.2088388815 1.3805849705 2.36541510391e-05 -1.38839582186e-05 -0.00559857759648
Sb 0.1570702155 -0.0906845734 -11.5247283063 -0.00025042546861 0.000144238899271 0.00982392888101
Sb -2.1223544102 -3.6408142013 -11.1722276382 -0.000673886194277 0.000389522161133 0.00256673249808
Sb -3.9975454113 0.0929250629 -12.7216706451 0.00028770646753 -0.000600352637786 0.00717877773003
Sb -2.0792481349 3.4155133168 -12.7216706451 0.000663601780782 5.09078468016e-05 0.0071785206197
Sb 0.0310728891 -0.0179399492 11.4511551068 0.000237055731066 -0.00013652558915 -0.00671160824701
Sb -2.0964287433 -3.6557824217 11.6618244676 0.000421660953306 -0.000243740599838 -0.00654937162412
Sb 4.1727629814 0.0169222601 12.6909841832 -0.000462284386612 0.000166350388286 -0.00398263912604
Sb 2.0717263623 -3.6221763991 12.6909841832 -0.000375638202915 0.000317531266666 -0.00398263912604
Sb 2.0868315754 1.2442000661 -1.7232213132 -0.000246311703212 -0.000355840706936 -0.00319253905927
Sb -0.0340930322 -2.4293457239 -1.7232213132 0.000184862332577 0.000391579043832 -0.00319253905927
Sb -2.1178788576 1.2227579702 -2.3685739717 0.000259424330418 -0.000149895326693 -0.00179051638953
Sb 4.2627274908 -2.4610834363 -1.8282006564 -0.000223685993522 0.000129069389366 -0.00306012723552
Sb 2.0918188527 1.1720717846 -9.3789620848 -4.2423205668e-05 -2.69965854251e-05 0.0117193462882
Sb 0.0308655028 -2.3976006963 -9.3789620848 1.79977236167e-06 4.96222951147e-05 0.0117188320675
Sb -2.1196068586 1.223755634 -8.0446047079 -0.000123412961943 7.14766737921e-05 0.0103810869821
Sb 4.1749684853 -2.4104157271 -8.0453797086 -0.000516277557462 0.000298247991363 0.00955730546115
Cr -2.1445443031 -3.6280024502 17.3878454801 -4.01092126315e-05 2.39112613765e-05 0.00469200654688
61
Lattice="8.42843558953 0 0 -4.21421779477 7.29923593142 0 0 0 31.0334408416" Properties=species:S:1:pos:R:3:forces:R:3 energy=-133600.635287 ionic_step=20 pbc="T T T"
Te 2.129769612 0.8377719502 3.3154197278 0.000263023875141 0.00101352894996 -0.00215124219287
Te 0.3393528941 -2.2633171118 3.3154197278 -0.000748962412793 -0.000729422027152 -0.00214969953085
Te -2.1288620139 1.2290991002 3.6535285057 -0.000147067112982 8.71604043724e-05 -0.00415181772804
Te 3.8270029869 -2.2095176593 3.3366976786 0.001079863417 -0.000618864582078 -0.0028811784407
Te -0.2601115865 0.1501755645 7.4679753116 0.000642775843454 -0.000372038658191 0.00601381079136
Te -2.4161100008 -3.4712142736 7.4576191438 0.00100607275017 -0.000577469817759 0.00632440007891
Te -3.6849394973 -0.3300866524 7.1021897493 -0.000696769014304 0.000609351499594 0.00520699855265
Te -1.5566064872 3.3562943853 7.1021897493 -0.000878546022833 0.000300561984399 0.00521445475244
Te -0.2909001148 0.1679513379 -0.0886886711 -0.0022078064671 0.00128040948016 0.00573201786159
Te -2.1331362471 -3.6345893219 0.165211706 -0.000454828186828 0.000255824785695 0.00528875963994
Te -3.9713673073 0.1154712324 -0.1256149919 0.00204659828556 0.000744077316382 0.00604749224555
Te 2.1285331343 -3.9176666131 -0.1256149919 0.000380266188987 -0.0021486710895 0.00604029315611
Te 0.3341475086 2.0989603402 13.3833059498 0.00034272807973 -0.00015220931973 0.0013570283607
Te -1.6506793265 -1.338857076 13.3833059498 0.000302875977436 -0.000220343559136 0.00136242767779
Te -4.6359152423 2.6765470643 13.8896803424 -0.00017380658807 9.25597214574e-05 -0.00044480088367
Te 1.627784591 -0.9397983002 13.6627618948 -0.000159408409177 9.7701928205e-05 0.000366382230769
Te 1.821537869 1.1741413013 -13.611562625 -0.0006245210095 0.000505221812955 -0.0122109412533
Te -0.1060672187 -2.1645651882 -13.611562625 -0.000757447053926 0.000288220688205 -0.0122037421638
Te -1.4670032547 0.8469746193 -13.7958954562 0.000241940827476 -0.000147581333657 -0.0111855852278
Te 4.2187098042 -2.4356698012 -14.3561373404 0.000704225214088 -0.000404177450364 -0.00935418829462
Te 2.5989308028 0.98615245 10.2956127077 0.000827123955357 0.000707824758812 0.00787683229602
Te 0.4454322671 -2.7438130608 10.2956127077 -0.000197460739109 -0.00107112166553 0.0078711758686
Te -2.4826300018 1.4333472384 10.5894624194 -0.000959792889446 0.000554072777057 0.00780921227729
Te 3.8689504914 -2.2337360737 10.6118893224 -0.000121613189582 6.35062533333e-05 0.00762692104809
Te 0.4159838455 -0.2401684972 -7.4892358991 -0.000469740586396 0.000276650723023 -0.00130329230019
Te -1.649172317 -3.9140061541 -7.5242820559 -0.000163522174575 0.000100273031579 -0.001227701861
Te 3.7350773796 0.254997363 -7.175117907 -0.000103358355627 0.000318816818353 2.98247991363e-05
Te 1.64670456 -3.3621669239 -7.175117907 -0.000327301459487 -7.25051151416e-05 2.80250267746e-05
Te 0.2913730701 2.5468568444 -3.5622246055 -0.000882659788231 -0.000479767889554 0.00592485061462
Te -2.0599561127 -1.5257615604 -3.5622246055 -2.41683717139e-05 0.0010014447641 0.00592767882833
Te -4.5377174781 2.6198525323 -3.4886938602 0.000867233167988 -0.000493651847773 0.00606600418984
Te 2.0772697711 -1.1993088126 -3.2793526935 3.85665506072e-06 -1.079863417e-05 0.00552710092269
Te -0.4749920615 2.6524947492 -10.212096024 0.000492880516761 -0.000935624517732 -0.0101471165751
Te -2.534623749 -0.9148885309 -10.212096024 0.00104772462483 4.11376539811e-05 -0.0101453168027
Te -3.6954732435 2.1335823701 -10.5462902059 0.000236027289716 -0.000139353802861 -0.0113318810098
Te 2.7126335082 -1.5661364062 -10.6376705426 -0.000455342407503 0.000274336729986 -0.0121631187305
Sb 0.0624173372 2.3936070544 9.2931377766 0.000399035243616 7.14766737921e-05 0.00823010189959
Sb -2.0417158278 -1.250855092 9.2931377766 0.000145524450958 -0.000388236609446 0.00822315992048
Sb -4.0730598081 2.3515821765 8.1708414107 -0.000473083020782 0.000274336729986 0.0080740359248
Sb 2.2768992756 -1.3145650157 8.2282674815 -0.000260709882105 0.000140896464885 0.00718366282644
Sb -0.0402093656 2.438410949 2.0464704895 -0.00109477581657 6.86484600809e-05 -0.00189978828291
Sb -2.1318304753 -1.1843796663 2.0464704895 -0.000610637051281 0.000915312801079 -0.00189336052448
Sb -4.1675253668 2.4061219176 1.9792482632 0.00118167911061 -0.000686741711146 -0.00166298966218
Sb 2.0935229749 -1.2086926079 1.3258559231 0.000628120554223 -0.000359697361997 0.00101404317063
Sb 0.1420613982 -0.0820192247 -11.5305146472 -0.000282050040108 0.000172006815708 -0.0131149411995
Sb -2.1206404603 -3.6418037512 -11.1695127918 -0.00053710349479 0.00031033217722 -0.012722076604
Sb -4.0061109525 0.1007697093 -12.7277666148 0.000490823634062 -0.000458170621214 -0.0144028068794
Sb -2.0903245654 3.4190089733 -12.7277666148 0.000641490291767 -0.00019540385641 -0.0144007499967
Sb 0.0381505091 -0.022026217 11.4454852817 0.000101301472928 -5.19362881511e-05 0.0064316150896
Sb -2.0923499066 -3.6581373402 11.6774393524 0.000924825883562 -0.000540188818839 0.00545588135924
Sb 4.1772883896 0.0198798035 12.6979100082 -0.000406748553738 0.000935367407394 0.00334577682035
Sb 2.0714277599 -3.6275742912 12.6979100082 -0.00100941518456 -0.000114414100135 0.00333806351023
Sb 2.0876331796 1.2430812006 -1.7032411523 5.6564274224e-05 0.00046742659336 0.00800744434741
Sb -0.0327232646 -2.4294805011 -1.7032411523 -0.000373324209878 -0.00028282137112 0.00799998814763
Sb -2.1194492428 1.223664633 -2.3990574817 -5.14220674763e-06 4.11376539811e-06 0.00887004952933
Sb 4.2638427818 -2.4617273501 -1.8165975364 0.000360982913684 -0.000210830476653 0.00845250234142
Sb 2.0897101464 1.1720356428 -9.3779071323 -0.00123001585403 5.93924879352e-05 -0.00614519417376
Sb 0.0298424494 -2.3957564313 -9.3779071323 -0.000666429994493 0.00103486910796 -0.00614827949781
Sb -2.111644314 1.2191584546 -8.04816207 0.00104026842505 -0.000604466403184 -0.00210007723573
Sb 4.1857430234 -2.4166364125 -8.0403545249 0.000661030677408 -0.000377952195951 -0.00229059599573
Cr -2.1470688047 -3.6265449278 17.3726994672 -0.00042423205668 0.000243740599838 -0.0112778878389
61
Lattice="8.42843558953 0 0 -4.21421779477 7.29923593142 0 0 0 31.0334408416" Properties=species:S:1:pos:R:3:forces:R:3 energy=-133600.668883 ionic_step=21 pbc="T T T"
Te 2.1277328431 0.8099684847 3.2859247842 -0.000343756521079 0.000225742876221 -0.00357126258623
Te 0.3624130058 -2.2476514847 3.2859247842 -0.000369981775492 0.000185376553252 -0.00357229102758
Te -2.1310379019 1.2303553503 3.6707377698 0.000262766764804 -0.000152723540405 -0.00297168127946
Te 3.7984764473 -2.1930478463 3.3114846422 0.000163265064237 -9.33310524695e-05 -0.00322493496178
Te -0.2518939983 0.1454311355 7.4786012633 -0.000292848674278 0.000169435712334 -0.000759246826288
Te -2.4201645232 -3.4688733928 7.4610269575 -0.000680313952712 0.000392607485182 -0.000968277530579
Te -3.6808981614 -0.3405636442 7.0989570498 0.000236027289716 -0.000421403842968 -0.000866461836976
Te -1.5455124824 3.35803298 7.0989570498 0.000484395875627 5.91353775978e-06 -0.000865176285289
Te -0.3097719847 0.1788470221 -0.0965333548 0.000682885056086 -0.000395949919568 0.000359954472334
Te -2.135928271 -3.6329773454 0.1808784319 0.000106186569339 -6.09351499594e-05 -0.000126498285992
Te -3.955260786 0.1233464264 -0.1361773332 -0.000479510779217 -0.00023859839309 0.00025531056502
Te 2.1297662801 -3.9355528733 -0.1361773332 -3.44527852091e-05 0.000536589274115 0.000256081896032
Te 0.332369746 2.0859358008 13.389907703 -0.000392350374844 1.79977236167e-05 0.000238084172415
Te -1.640288631 -1.330805218 13.389907703 -0.000211858918002 0.000331415224885 0.000237569951741
Te -4.6287553418 2.6724132919 13.9004959479 -0.000112614327773 6.45346946828e-05 0.000295162667314
Te 1.6345584743 -0.9437092054 13.6729705992 -0.000167121719298 9.7701928205e-05 0.000155037533441
Te 1.8173468961 1.1799717359 -13.6102605732 4.21660953306e-05 -3.34243438596e-05 -5.34789501754e-05
Te -0.1132120072 -2.1638509148 -13.6102605732 5.03936261268e-05 -1.90261649662e-05 -5.45073915249e-05
Te -1.4627237875 0.8445038666 -13.7874519198 -2.57110337382e-07 0 -0.000372809989203
Te 4.2047623747 -2.4276172452 -14.3434424871 4.73083020782e-05 -2.64823647503e-05 -0.000635833864345
Te 2.6013420121 0.9916089982 10.2979823653 -0.000283849812469 -0.000446343545695 0.00161799535314
Te 0.4419123646 -2.7486295044 10.2979823653 0.000245283261862 0.000468197924372 0.00161773824281
Te -2.485179601 1.4348192509 10.5804112281 0.000841779244587 -0.000485938537651 0.0017614629214
Te 3.8599144369 -2.2285191028 10.6287331908 0.000328587011174 -0.000189747428988 0.00166067566915
Te 0.4153639367 -0.2398105925 -7.4951478989 0.000121613189582 -6.9419791093e-05 0.000104386796977
Te -1.6474166733 -3.915019776 -7.5214825797 0.000377952195951 -0.000218286676437 -0.000146552892308
Te 3.7411037466 0.2514849886 -7.1792986867 0.000128040948016 0.000135754258138 -0.000145267340621
Te 1.6527595475 -3.365629726 -7.1792986867 -5.34789501754e-05 -0.000178434574143 -0.000144238899271
Te 0.304059883 2.5485350786 -3.554008357 -0.000145267340621 -0.000164807726262 0.00211550385598
Te -2.055066099 -1.5375877849 -3.554008357 7.09624531173e-05 0.000208516483617 0.00211601807665
Te -4.5518558108 2.6280153063 -3.4789258307 0.000134468706451 -7.76473218893e-05 0.00204762672691
Te 2.0749382758 -1.1979627225 -3.258879839 -9.82161488798e-05 5.57929432118e-05 0.0025317654922
Te -0.4678173083 2.6536876023 -10.2232539906 -0.000147581333657 -6.55631360323e-05 0.000726079592766
Te -2.5320694129 -0.9216984788 -10.2232539906 -2.00546063158e-05 0.000160951071201 0.000726336703103
Te -3.6903036743 2.1305977165 -10.5458991953 -0.000201060283832 0.000114414100135 0.000895258194763
Te 2.7027926453 -1.5604547787 -10.6484979148 -0.000164550615924 9.74448178676e-05 0.000905799718595
Sb 0.0581481118 2.3869901249 9.2905802564 -0.000387208168097 0.000180491456842 0.00083072350008
Sb -2.0381200141 -1.2438493679 9.2905802564 -0.000350184279514 0.000245797482537 0.000830980610417
Sb -4.0713249279 2.3505805424 8.1598344704 0.000318559708016 -0.000184348111903 -0.000415747415546
Sb 2.2761589108 -1.3141375657 8.245606304 0.000299019322375 -0.000172521036383 -0.00028770646753
Sb -0.0452461775 2.4385972682 2.0600159069 0.000521162653873 -0.00033090100421 -0.00340671197031
Sb -2.1345102384 -1.1801108167 2.0600159069 0.000548159239298 -0.000286163805506 -0.00340619774963
Sb -4.1624532775 2.4031935441 1.9841718252 -0.000530675736356 0.000306732632496 -0.00312826147492
Sb 2.0926688602 -1.2081994844 1.2666743846 -0.000525276419271 0.000302104646423 -0.00233019098769
Sb 0.1287689787 -0.0743448391 -11.5313123991 0.000164550615924 -9.38452731443e-05 0.000536332163778
Sb -2.1262009647 -3.638593391 -11.1679931505 0.000409319657112 -0.000237312841403 0.000753847509203
Sb -4.0141777221 0.1091198225 -12.7316703069 3.21387921727e-05 0.00029953354305 0.000396978360917
Sb -2.101589357 3.4218199474 -12.7316703069 -0.000243226379163 -0.00017869168448 0.000396207029905
Sb 0.0423163327 -0.0244313575 11.4405379701 -0.000565385631902 0.000327044349149 0.00178023197603
Sb -2.0827393585 -3.6636859953 11.6941274085 -0.000894229753413 0.000515763336788 0.00162416600124
Sb 4.1794831024 0.0288457048 12.70305877 0.000409062546774 -0.000692398138569 0.000981390157786
Sb 2.0647604216 -3.6339579197 12.70305877 0.000804498245667 -8.74175147098e-06 0.000982161488798
Sb 2.0890303722 1.2416346337 -1.6827230485 -0.000279221826396 -0.000452514193792 0.00297759481722
Sb -0.0307719052 -2.4299672224 -1.6827230485 0.000251711020297 0.000468455034709 0.00297810903789
Sb -2.1210080492 1.2245646107 -2.4269695218 0.000203374276869 -0.000118527865533 0.00310435021355
Sb 4.2641390396 -2.4618983947 -1.8029545273 -0.000249911247935 0.000144753119946 0.00286215227573
Sb 2.0849229012 1.1694260383 -9.3772403461 0.00044480088367 6.86484600809e-05 0.00042423205668
Sb 0.0297088094 -2.3903057512 -9.3772403461 0.000161722402213 -0.000419346960269 0.000425003387692
Sb -2.1017009059 1.2134176226 -8.0498667329 -0.000500336716545 0.000288992019217 0.00027202273695
Sb 4.198707293 -2.4241213406 -8.039468996 -0.000408291215762 0.000237055731066 0.000328072790499
Cr -2.1486089897 -3.6256557012 17.3561940072 0.000307503963508 -0.000176891912119 1.69692822672e-05
61
Lattice="8.42843558953 0 0 -4.21421779477 7.29923593142 0 0 0 31.0334408416" Properties=species:S:1:pos:R:3:forces:R:3 energy=-133600.690067 ionic_step=22 pbc="T T T"
Te 2.125357857 0.8029358217 3.2704044671 0.000327815680162 -4.91080744399e-05 -0.000778272991254
Te 0.3673159748 -2.2420783539 3.2704044671 0.000206716711255 -0.000259167220081 -0.000778015880917
Te -2.1320492029 1.2309392255 3.673725979 -0.000271251405938 0.000156837305803 -0.0011348850292
Te 3.7908077735 -2.1886203334 3.2957587882 -1.36268478812e-05 7.71331012145e-06 -0.00101661427401
Te -0.2514611094 0.1451812069 7.4786726356 0.000412919201835 -0.000239369724102 0.000229856641619
Te -2.4220556835 -3.4677815305 7.4558534503 0.000366639341106 -0.00021108758699 0.000137039809824
Te -3.6766494722 -0.3437302392 7.0956923335 -0.000529390184669 0.000175092139757 -0.000102844134953
Te -1.5406457873 3.355936803 7.0956923335 -0.000416775856896 0.000371010216842 -0.000102072803941
Te -0.3148558325 0.1817821844 -0.0987775967 -0.000468969255384 0.0002709942956 4.4480088367e-05
Te -2.1368427213 -3.632449387 0.1850003406 -5.6564274224e-06 3.08532404858e-06 3.88236609446e-05
Te -3.9502975209 0.1249008403 -0.1393368333 0.000237312841403 0.000242455048151 0.000179463015492
Te 2.1309017514 -3.9406283959 -0.1393368333 -9.07599490957e-05 -0.000326787238812 0.000179977236167
Te 0.3329555258 2.0835098618 13.3977563597 0.000407776995087 -0.000458170621214 0.0017676335695
Te -1.6378948173 -1.3300995489 13.3977563597 0.000600866858461 -0.000124441403293 0.00176737645916
Te -4.6242352262 2.6698036007 13.8987717999 0.00024939702726 -0.000143210457922 0.000989103467907
Te 1.6408428172 -0.9473374741 13.6840465275 -3.08532404858e-05 1.7483502942e-05 0.00127141061835
Te 1.8123070005 1.1799111192 -13.6088206306 -0.000115185431147 -0.00121870299919 -0.00150358125301
Te -0.1156794594 -2.1594559268 -13.6088206306 0.000997845219378 0.000709110310499 -0.00150358125301
Te -1.4596944263 0.8427548633 -13.7872478333 -0.000178948794818 0.00010310124529 -0.000997845219378
Te 4.1979917178 -2.4237082028 -14.3340062926 -0.00104309663876 0.000602409520485 -0.00105158127989
Te 2.6033671987 0.9939724532 10.2992741239 1.20841858569e-05 -3.77952195951e-05 0.00207308065031
Te 0.4408781467 -2.7515650958 10.2992741239 3.80523299325e-05 8.48464113359e-06 0.00207333776065
Te -2.4875022906 1.436160257 10.5735524643 -0.000448914649068 0.000259424330418 0.00213273024858
Te 3.8548681668 -2.225605636 10.6363310646 -0.000493394737435 0.000284106922807 0.00189001809009
Te 0.4164200411 -0.2404203349 -7.5024794428 -0.000141667795897 8.12468666126e-05 -6.53060256949e-05
Te -1.6418073148 -3.9182583421 -7.5219485327 -0.000675171745964 0.000390293492145 -6.9419791093e-06
Te 3.7468892508 0.2516695746 -7.1755994188 -7.22480048042e-05 -0.000583640465856 -4.34516470175e-05
Te 1.6554924435 -3.3707324149 -7.1755994188 0.000468969255384 0.000354555155249 -4.37087573549e-05
Te 0.3035932888 2.5456873399 -3.5473389883 0.000156323085128 0.000192575642699 -0.000461770165937
Te -2.0528331832 -1.5357598329 -3.5473389883 -8.8960176734e-05 -0.000231399303643 -0.0004615130556
Te -4.5527509392 2.6285321092 -3.4714905536 -7.50762185154e-05 4.29374263427e-05 -0.000120327637895
Te 2.0741646597 -1.1975160748 -3.2492468741 0.000109271893387 -6.27349223211e-05 -0.000624778119837
Te -0.4609923424 2.6564731327 -10.2293754079 1.56837305803e-05 3.18816818353e-05 -0.000362011355033
Te -2.531069269 -0.9290018407 -10.2293754079 -1.97974959784e-05 -2.93105784615e-05 -0.000362011355033
Te -3.6919078448 2.1315238852 -10.5454206098 0.000389522161133 -0.000224971545209 -0.000976762171713
Te 2.6960857959 -1.5565825755 -10.652529143 0.00025531056502 -0.00014732422332 -0.000869547161025
Sb 0.0554664723 2.3825767964 9.2867119701 0.000314703052955 -4.65369710661e-05 0.00142284860707
Sb -2.0356387811 -1.2393203345 9.2867119701 0.000198489180459 -0.000249654137598 0.00142284860707
Sb -4.0707051741 2.3502227272 8.1582782191 -0.000314445942618 0.000182291229204 0.000693683690256
Sb 2.2726592438 -1.312117031 8.254803681 -0.000115442541484 6.60773567071e-05 0.000893972643076
Sb -0.0471464014 2.4377825069 2.063136016 -9.7701928205e-06 0.000536846384453 -0.000588782672604
Sb -2.1347547467 -1.1780577931 2.063136016 -0.000469740586396 -0.000259681440755 -0.000588782672604
Sb -4.1609281912 2.4023130347 1.9852629176 4.34516470175e-05 -2.54539234008e-05 -0.000770045460458
Sb 2.091630485 -1.2075999779 1.2432510682 0.000484395875627 -0.000279221826396 0.000309817956545
Sb 0.1256805083 -0.0725617091 -11.5250395661 -0.000212630249015 0.000122384520594 -0.00149509661187
Sb -2.133289282 -3.6345009472 -11.1731532922 -0.000404177450364 0.000233456186343 -0.000177663243131
Sb -4.0146281388 0.1135871371 -12.7297261112 0.00011878497587 -1.87690546289e-05 -0.00185762218758
Sb -2.1056833714 3.4199763626 -12.7297261112 7.48191081781e-05 -9.33310524695e-05 -0.00185813640826
Sb 0.0409751935 -0.02365705 11.4441280672 0.000651774705262 -0.000377180864939 0.00242275070915
Sb -2.0754031071 -3.667921584 11.7000807976 0.000752047736841 -0.000433230918488 0.00233739007714
Sb 4.1783039514 0.0370002927 12.7020773031 -0.000688798593845 0.000603695072172 0.00245951748739
Sb 2.0571087691 -3.6370140384 12.7020773031 -0.000867490278326 0.000294905556977 0.00245900326672
Sb 2.0903080468 1.2405689898 -1.675187908 0.000401349236653 0.000495451620134 -0.000362782686045
Sb -0.0292101937 -2.4305408996 -1.675187908 -0.000229085310607 -0.000595210431038 -0.000362782686045
Sb -2.1214802685 1.2248372468 -2.4288109705 -0.000335528990283 0.000193089863374 -0.000155037533441
Sb 4.2632266091 -2.4613716025 -1.7958014283 0.000224971545209 -0.00012958361004 -8.8960176734e-05
Sb 2.0823238156 1.1661983964 -9.3769526443 -0.000454828186828 -0.000104901017652 -2.87963577867e-05
Sb 0.0312044852 -2.386441055 -9.3769526443 -0.000136782699487 0.000446343545695 -2.87963577867e-05
Sb -2.0970099649 1.2107093053 -8.0501724122 0.000524762198596 -0.000303133087773 -6.65915773818e-05
Sb 4.2043288266 -2.427366936 -8.0442188603 0.000238855503428 -0.000137811140837 4.16518746558e-05
Cr -2.1495360464 -3.6251204645 17.3486447853 1.33697375438e-05 -7.19908944669e-06 -0.00138093962208
61
Lattice="8.42843558953 0 0 -4.21421779477 7.29923593142 0 0 0 31.0334408416" Properties=species:S:1:pos:R:3:forces:R:3 energy=-133600.711242 ionic_step=23 pbc="T T T"
Te 2.1235215553 0.7786970027 3.2461564142 0.000209287814629 0.00028770646753 0.000673114863265
Te 0.3873892471 -2.2283686598 3.2461564142 -0.000144496009608 -0.000325244576788 0.000673371973602
Te -2.1346963535 1.2324675593 3.6856894246 -0.000155808864453 9.0245728421e-05 0.0004340022495
Te 3.7650295071 -2.1737372374 3.2734079128 0.000365610899757 -0.000211344697328 0.000776216108555
Te -0.2494493469 0.1440197147 7.482393028 0.000470254807071 -0.000271508516275 -0.00209622058067
Te -2.4219620466 -3.4678355917 7.4521676259 -0.000705767876113 0.000407776995087 -0.001736008998
Te -3.6707594976 -0.3480302526 7.0974493187 -0.00111817285727 -0.000955164903373 -0.00109503292691
Te -1.533976881 3.3529859397 7.0974493187 0.000267908971552 0.0014457314271 -0.00109503292691
Te -0.3342187846 0.1929613952 -0.1032869332 -0.000725308261754 0.000418832739595 -0.00361934221932
Te -2.1391102903 -3.6311402048 0.1965370798 -0.000133697375438 7.73902115519e-05 -0.00301076205074
Te -3.9325462646 0.1315325042 -0.1473231236 0.000507535805991 0.000207488042267 -0.00379880523481
Te 2.1340341927 -3.9593172739 -0.1473231236 7.40477771659e-05 -0.000543788363562 -0.00379880523481
Te 0.3277791976 2.0704100652 13.405086073 0.000791128508123 9.95017005667e-05 0.00277087810596
Te -1.62913823 -1.3190668168 13.405086073 0.00030930373587 -0.000735078454574 0.00277062099562
Te -4.6192866329 2.6669465277 13.9053840139 -0.000149638216356 8.61319630228e-05 0.00293182917716
Te 1.6448237635 -0.9496358756 13.6865973124 0.000399292353954 -0.000230885082969 0.00195686677781
Te 1.8006118208 1.1777361635 -13.6130877943 0.00105363816259 0.00305421369776 0.00222400441835
Te -0.1196434833 -2.1482401216 -13.6130877943 -0.00211807495935 -0.00243920577074 0.00222374730801
Te -1.461672213 0.8438967395 -13.7885280272 -0.00022188622116 0.000128040948016 0.00235538780075
Te 4.1948193369 -2.421876627 -14.3384107338 0.0021527848549 -0.0012428713709 0.00322416363077
Te 2.6132501087 0.9997104949 10.3040081538 0.000433745139163 -0.000693683690256 -0.00113848457393
Te 0.4408503142 -2.7629929717 10.3040081538 0.000817096652199 -2.87963577867e-05 -0.00113822746359
Te -2.4912320181 1.4383136172 10.5681398496 -0.000827638176031 0.000477711006855 -0.000988589247232
Te 3.855712554 -2.2260931434 10.6490219129 -0.000758218384938 0.000438116014898 -0.00184322400869
Te 0.4231053218 -0.2442800853 -7.5077529452 -0.000371781547854 0.000214687131714 0.00176480535579
Te -1.6292330344 -3.9255181097 -7.5244644025 -0.000402377678002 0.000232170634656 0.00185993618062
Te 3.7538902184 0.2518385129 -7.1718617035 0.000109529003725 5.19362881511e-05 0.00108654828577
Te 1.6588466226 -3.3768799027 -7.1718617035 1.02844134953e-05 -0.000120584748232 0.00108654828577
Te 0.3155548623 2.5469888408 -3.5442623014 0.000861576740566 0.000628634774898 -0.00401040704248
Te -2.0479795288 -1.5467696147 -3.5442623014 -0.000113642769123 -0.00106032303136 -0.00401040704248
Te -4.5683219418 2.6375220359 -3.4635346956 -0.000823267300296 0.000474882793144 -0.00392504641047
Te 2.0717866808 -1.1961431474 -3.2305009292 0.000115956762159 -6.65915773818e-05 -0.00476605432404
Te -0.458735189 2.6609034911 -10.2330827013 0.000144753119946 0.000513449343751 0.00423872102207
Te -2.5337774934 -0.933171773 -10.2330827013 -0.000372038658191 -0.000382065961349 0.00423872102207
Te -3.6977173753 2.1348780208 -10.5493926327 -5.88782672604e-05 3.3681454197e-05 0.00387876654974
Te 2.6924562135 -1.5544870342 -10.6586654266 0.000743563095708 -0.00042911715309 0.00404640248971
Sb 0.055493873 2.3792816157 9.2904676241 0.000182805449878 0.00133183154764 -0.00212064606272
Sb -2.0327713719 -1.237696474 9.2904676241 -0.00106186569339 -0.000824295741646 -0.00212038895239
Sb -4.0682398945 2.3487993967 8.1594744628 -0.000194375415061 0.000112100107098 -0.00207050954693
Sb 2.2735227798 -1.312615594 8.2691629447 0.00116933781441 -0.000675171745964 -0.00190261649662
Sb -0.0508405123 2.4371013101 2.0741554866 0.000663087560107 0.000774416336193 -0.000473597241457
Sb -2.1360118687 -1.1745179994 2.0741554866 -0.000339128535006 -0.000961849772145 -0.000473597241457
Sb -4.1582308672 2.4007557332 1.9914485168 -0.00061860747174 0.000357126258623 -0.000663601780782
Sb 2.0890691858 -1.2061212104 1.1929747871 0.000418575629257 -0.000241426606801 -0.000130097830715
Sb 0.1266900753 -0.0731445831 -11.5201109787 -1.51695099055e-05 8.74175147098e-06 0.00390473469381
Sb -2.1435059127 -3.62860237 -11.1799034216 -0.000116470982834 6.71057980566e-05 0.0013061205139
Sb -4.0186062796 0.1192462673 -12.7308470677 -0.000371781547854 -0.000142953347584 0.00323727625797
Sb -2.11257339 3.4205919701 -12.7308470677 -6.1963591309e-05 0.000393378816194 0.00323727625797
Sb 0.0392030162 -0.0226338825 11.4379841583 0.000983704150822 -0.000568213845613 0.000344527852091
Sb -2.0680295183 -3.6721787295 11.7139852357 0.000361754244696 -0.000208516483617 0.000378723526963
Sb 4.1783155674 0.0458355794 12.7032004191 -0.000906056828933 0.000237055731066 0.0016107962637
Sb 2.049462998 -3.6414417416 12.7032004191 -0.000658716684372 0.000666429994493 0.0016107962637
Sb 2.0902357347 1.2411081938 -1.658802545 0.000369981775492 0.00143261879989 -0.00634342624388
Sb -0.0297133138 -2.4307478775 -1.658802545 -0.00105620926596 -0.00103666888032 -0.00634316913354
Sb -2.1219394451 1.2251023526 -2.4499812889 -0.000355840706936 0.000205431159568 -0.00558443652793
Sb 4.265277095 -2.4625554516 -1.7845662021 0.00100890096389 -0.000582354914169 -0.00598784264728
Sb 2.0784367882 1.163468177 -9.3787000445 6.01638189473e-05 0.000492880516761 0.00371473015449
Sb 0.0316254098 -2.3817096793 -9.3787000445 -0.000396978360917 -0.000298247991363 0.00371447304415
Sb -2.0941061806 1.2090328038 -8.0490436093 0.00020723093193 -0.00011981341722 0.0021486710895
Sb 4.2094377626 -2.4303165829 -8.0505970457 0.000440944228609 -0.000254539234008 0.00213992933803
Cr -2.1553889377 -3.6217412945 17.3505070303 0.000365868010094 -0.000211601807665 0.00221346289452
61
Lattice="8.42843558953 0 0 -4.21421779477 7.29923593142 0 0 0 31.0334408416" Properties=species:S:1:pos:R:3:forces:R:3 energy=-133600.730889 ionic_step=24 pbc="T T T"
Te 2.118941992 0.7864979776 3.2263115961 0.000129326499703 -0.000394407257543 -0.00427805890369
Te 0.3783436262 -2.2283031273 3.2263115961 0.000407005664075 8.48464113359e-05 -0.00427805890369
Te -2.1357042298 1.2330494572 3.6790307723 -0.00016789305031 9.71877075303e-05 -0.00278450495384
Te 3.7724309496 -2.1780104642 3.2490620818 -0.000466912372685 0.000268423192226 -0.00397672558828
Te -0.2531436332 0.1461526129 7.4684680202 8.150397695e-05 -4.67940814035e-05 0.00129197944534
Te -2.4224530241 -3.4675521257 7.4373497926 -0.000387465278434 0.000223428883185 0.00135728547104
Te -3.670447386 -0.346407869 7.089365564 -0.000530932846693 -0.000457913510877 0.00148018421231
Te -1.5352258499 3.3519044512 7.089365564 0.000131126272065 0.000688541483508 0.00148018421231
Te -0.3300103745 0.1905316673 -0.1017719385 -3.49670058839e-05 2.00546063158e-05 -0.0104003702574
Te -2.1392760277 -3.6310445163 0.1940034047 0.000251711020297 -0.000145010230283 -0.0103144954047
Te -3.9337844593 0.1285332033 -0.1453938834 -8.6903294035e-05 0.000340156976356 -0.0104394510287
Te 2.136012565 -3.9567453149 -0.1453938834 -0.000338100093657 -9.43594938191e-05 -0.0104399652494
Te 0.3308738227 2.0785924276 13.4208934922 0.000715023848258 -0.000339385645344 0.00805166732544
Te -1.6346770479 -1.3258380232 13.4208934922 0.000651260484588 -0.00044968598008 0.00805166732544
Te -4.6168493752 2.6655393757 13.8954508349 -0.000536846384453 0.000310075066882 0.00841599267351
Te 1.6563699272 -0.9563020594 13.7078702762 -0.000393121705857 0.000227028427908 0.007282393196
Te 1.7912941244 1.1738209891 -13.6063248606 0.000133954485776 0.00235333091805 0.00423306459465
Te -0.1209116926 -2.1382131688 -13.6063248606 -0.0019712649567 -0.00129223655568 0.00423280748431
Te -1.4577353168 0.8416237704 -13.7937085651 0.000415233194871 -0.000240398165452 0.00502342177176
Te 4.1877721347 -2.417807921 -14.3167733286 0.00230910794002 -0.00133285998899 0.00565925563611
Te 2.6113701645 1.0021469308 10.3037659938 -0.00033192944556 -0.000342470969392 0.00455856628178
Te 0.4378003276 -2.7625831095 10.3037659938 0.000130097830715 0.000458941952226 0.00455882339211
Te -2.4933784323 1.4395528505 10.5586722832 0.000219058007449 -0.000127269617004 0.00446883477403
Te 3.8593256718 -2.2281791789 10.6518382208 8.48464113359e-06 -4.11376539811e-06 0.00437704638358
Te 0.4262423478 -0.246091249 -7.5172384509 0.000236541510391 -0.00013652558915 -0.000859005637192
Te -1.6159323148 -3.9331972873 -7.5281205206 -0.000795756494196 0.000459713283238 -0.00116908070407
Te 3.764473103 0.2510905813 -7.1622582557 0.000422432284318 -0.00129275077635 -0.0010502957282
Te 1.6647857923 -3.3856709881 -7.1622582557 0.00133054599595 0.000280507378083 -0.0010502957282
Te 0.3005263737 2.5371320987 -3.5297243399 0.000269194523239 0.000411633650148 -0.00283284169727
Te -2.046957588 -1.5288261847 -3.5297243399 -0.000221372000486 -0.00043888734591 -0.0028323274766
Te -4.5556082249 2.6301817646 -3.4510637791 -7.32764461538e-05 4.2423205668e-05 -0.00259347197317
Te 2.0717170396 -1.1961029401 -3.2236405463 0.000289763350229 -0.000167635939973 -0.00323650492696
Te -0.4519826733 2.668586346 -10.2396069137 0.000115185431147 0.000591610886315 6.29920326585e-05
Te -2.53705478 -0.9428610533 -10.2396069137 -0.000455085297165 -0.000395435698893 6.32491429959e-05
Te -3.7069077022 2.1401840609 -10.5430437063 4.01092126315e-05 -2.31399303643e-05 1.28555168691e-06
Te 2.6866920959 -1.5511591178 -10.6579886351 0.000500850937219 -0.000289249129554 0.00130380652086
Sb 0.0534288404 2.3804158579 9.283260528 8.94743974088e-05 0.000812725776463 0.0031398314401
Sb -2.0347861703 -1.2364752236 9.283260528 -0.000658973794709 -0.00048311032394 0.00314008855044
Sb -4.0677785225 2.3485330234 8.1573158325 -0.000120070527557 6.89055704183e-05 0.00164550615924
Sb 2.2710095728 -1.3111645926 8.2758107254 0.000696254793629 -0.00040160634699 0.00206562445052
Sb -0.0515353489 2.434947489 2.0664986523 0.000155037533441 1.67121719298e-05 -0.00818125093548
Sb -2.1344940241 -1.1728393424 2.0664986523 6.4020474008e-05 -0.000143210457922 -0.00818125093548
Sb -4.1596664693 2.4015845789 1.9873447734 -0.00011492832081 6.68486877192e-05 -0.008552775373
Sb 2.0864192341 -1.2045912594 1.1802834345 -2.57110337382e-07 -1.02844134953e-06 -0.0090520836482
Sb 0.1274651521 -0.0735920742 -11.5046978859 -0.000110557445074 6.4020474008e-05 0.00103538332864
Sb -2.1478485575 -3.6260951417 -11.2064293995 3.0339019811e-05 -1.77406132793e-05 -0.000908885042644
Sb -4.0099770321 0.1270189051 -12.7224179058 0.000110043224399 0.000716052289608 0.00364016815665
Sb -2.114990065 3.4092325001 -12.7224179058 -0.000564871411227 -0.000453285524804 0.00364068237732
Sb 0.0347066194 -0.0200378854 11.4629027805 0.000437601794224 -0.000252996571984 0.00576184266072
Sb -2.0659592434 -3.6733740038 11.7147134279 -0.000139610913198 8.12468666126e-05 0.00606883240356
Sb 4.1768193674 0.0515263029 12.69572234 -0.000601381079136 -0.00014038224421 0.00734281412528
Sb 2.0437865892 -3.6429913554 12.69572234 -0.000179977236167 0.000590839555303 0.00734358545629
Sb 2.0919983317 1.2395647945 -1.6539005344 0.000404177450364 -0.000224971545209 -0.00811028848237
Sb -0.027495393 -2.4315026323 -1.6539005344 0.000396978360917 -0.000238084172415 -0.00810951715135
Sb -2.1218086602 1.2250268439 -2.4235233189 -0.000453542635141 0.000262252544129 -0.00559677782412
Sb 4.2636821955 -2.4616346356 -1.7761730395 -0.000422432284318 0.000243226379163 -0.00791745572933
Sb 2.0836685186 1.1603207446 -9.3776724665 0.000332186555897 2.67394750877e-05 -0.00166658920691
Sb 0.0369670302 -2.3846667766 -9.3776724665 0.000143210457922 -0.000301590425749 -0.00166633209657
Sb -2.0929120694 1.2083433831 -8.054047074 -0.000374352651228 0.000216486904075 -0.00149149706715
Sb 4.2099397341 -2.4306063965 -8.0622464987 -0.000367924892793 0.000212630249015 -0.00123464384011
Cr -2.1607538496 -3.6186438598 17.3445604536 0.00101327183962 -0.000585440238218 0.00410939452237
61
Lattice="8.42843558953 0 0 -4.21421779477 7.29923593142 0 0 0 31.0334408416" Properties=species:S:1:pos:R:3:forces:R:3 energy=-133600.748582 ionic_step=25 pbc="T T T"
Te 2.1179730425 0.7574431067 3.1984810872 -0.000373581320216 -1.28555168691e-06 0.00379263458672
Te 0.403021396 -2.2129365565 3.1984810872 -0.00018563366359 0.000324216135438 0.00379289169705
Te -2.1389170469 1.2349043789 3.6951969968 0.000269451633576 -0.000155808864453 0.00339257090175
Te 3.7421975983 -2.1605552225 3.2243183971 -2.59681440755e-05 1.51695099055e-05 0.00384457087487
Te -0.2479719192 0.143166721 7.4723563258 0.000170207043347 -9.84732592172e-05 -0.00154677578969
Te -2.4208703094 -3.4684659069 7.4384810811 2.18543786774e-05 -1.25984065317e-05 -0.00213787245533
Te -3.6705963087 -0.3511363932 7.0925806459 -0.000100530141916 0.000425260498029 -0.00115571096653
Te -1.5312052911 3.3543976842 7.0925806459 -0.000418061408583 -0.00012572695498 -0.00115571096653
Te -0.3536506612 0.2041803996 -0.106712628 0.000450200200755 -0.000259938551093 0.000891915760377
Te -2.1421751821 -3.6293706879 0.2085011258 -0.000136268478812 7.86757632388e-05 0.00187844812491
Te -3.9123103981 0.1370647641 -0.1542079322 -0.000207488042267 -0.000428602932415 0.000551501673684
Te 2.1393610507 -3.9796081865 -0.1542079322 0.00026713764054 0.000394150147206 0.000550987453009
Te 0.3235063399 2.0636177396 13.426067843 2.77679164372e-05 -0.00033192944556 -0.000806040907691
Te -1.6253923351 -1.3119702489 13.426067843 0.000301333315411 0.000141924906235 -0.000806298018029
Te -4.6151464278 2.6645561781 13.9099402628 -0.000246825923886 0.000142439126909 1.54266202429e-06
Te 1.6582377776 -0.9573804639 13.7048271614 -0.00020620249058 0.000119299196545 -0.00117190891779
Te 1.7806384016 1.1738001634 -13.6098385516 0.000433488028825 0.00307529674542 0.000718880503319
Te -0.1262215184 -2.128974625 -13.6098385516 -0.00244691908086 -0.00191315802046 0.000718880503319
Te -1.4622446646 0.8442272448 -13.7922767037 0.000230627972631 -0.000133440265101 0.000573870273036
Te 4.1851788233 -2.4163106713 -14.3223029705 0.0026335811858 -0.00151977920426 0.00123155851606
Te 2.6184013248 1.0088490902 10.30800421 -5.99067086099e-05 -0.000815811100512 -0.0040985958882
Te 0.4355116702 -2.7720233555 10.30800421 0.000676714407988 0.000459970393576 -0.00409885299854
Te -2.4946420681 1.4402824114 10.5559317641 0.000274593840324 -0.000158894188502 -0.00418369940987
Te 3.8684593169 -2.2334524938 10.6638977094 -0.000813754217813 0.000469997696734 -0.00383017269597
Te 0.4334721049 -0.2502653531 -7.5162594035 0.000122127410256 -7.04482324426e-05 0.00142721948281
Te -1.6047819149 -3.9396349767 -7.5309888668 -0.000363554017058 0.000210316255978 0.00176660512815
Te 3.7702868123 0.2473459021 -7.1634439637 -0.00026713764054 -0.000505221812955 0.000612179713306
Te 1.6709356327 -3.3888334708 -7.1634439637 0.000303647308448 0.00048413876529 0.000612179713306
Te 0.3165035831 2.540723752 -3.5265816698 0.000590839555303 0.000316245714979 -0.00462438652815
Te -2.0420794448 -1.544458687 -3.5265816698 2.13401580027e-05 -0.000669515318542 -0.00462412941781
Te -4.5752114348 2.6414996884 -3.4439897789 -0.000789328735762 0.000455856628178 -0.00478096672361
Te 2.0688412495 -1.1944426011 -3.2036329803 -6.99340117678e-05 4.03663229689e-05 -0.00460818857689
Te -0.4565913764 2.6724542606 -10.2417846478 2.05688269905e-06 0.00044480088367 0.00486966979001
Te -2.5427088422 -0.9408037548 -10.2417846478 -0.000384379954386 -0.000224200214197 0.00486966979001
Te -3.7124527264 2.1433854837 -10.5449123372 0.000171492595034 -9.89874798919e-05 0.00451202931071
Te 2.6876828288 -1.551731118 -10.6627989718 0.000407262774413 -0.000234998848367 0.00519234326342
Sb 0.0559275801 2.3825211447 9.2903071785 -0.00073944933031 -0.00092791120761 -0.00377592241479
Sb -2.0353600314 -1.23969184 9.2903071785 0.0004340022495 0.00110480311973 -0.00377617952512
Sb -4.0648887768 2.3468646271 8.1531904586 0.00063043454726 -0.000364068237732 -0.00259167220081
Sb 2.2787222712 -1.3156175232 8.2882795178 -0.000508564247341 0.00029362000529 -0.00296525352102
Sb -0.0558370815 2.4349836013 2.0775185209 0.000975219509689 7.04482324426e-05 0.00466680973381
Sb -2.1366761646 -1.1691319871 2.0775185209 0.000426288939379 -0.000879574464183 0.00466655262348
Sb -4.1572706855 2.4002013718 1.9933069606 -0.000953622241348 0.000550216121997 0.00494911688426
Sb 2.0834646976 -1.2028854561 1.1209907814 -0.0003535267139 0.000204402718218 0.0046763228163
Sb 0.1266091238 -0.0730978457 -11.50497446 9.20455007826e-05 -5.3221839838e-05 0.00397723980896
Sb -2.1510804705 -3.6242291949 -11.2164910629 -0.000300819094737 0.000173549477733 0.00106726501047
Sb -4.0148863479 0.1343420138 -12.726391557 -0.000166350388286 -0.000257881668394 0.00260298505565
Sb -2.1237867181 3.40982254 -12.726391557 0.000139610913198 0.000272794067962 0.00260349927633
Sb 0.0360773137 -0.0208292565 11.4589530423 5.91353775978e-06 -3.34243438596e-06 -0.0030634696699
Sb -2.0662783407 -3.6731897728 11.7309074581 0.000121613189582 -7.01911221052e-05 -0.00250811134116
Sb 4.1805258704 0.052509996 12.6987741371 -0.000121870299919 -3.41956748718e-05 -0.00193629795082
Sb 2.0447879379 -3.6466931293 12.6987741371 -3.11103508232e-05 0.000122898741268 -0.00193604084048
Sb 2.0908143183 1.2407514661 -1.632805067 -0.000350955610526 0.000200803173495 -0.00376229556691
Sb -0.029115087 -2.4310705819 -1.632805067 -0.000349412948502 0.000203631387206 -0.00376255267724
Sb -2.1224371604 1.2253897088 -2.4488811348 0.000337585872982 -0.000194889635735 -0.00478045250294
Sb 4.2678245145 -2.4640262056 -1.7637843717 0.000297476660351 -0.000171749705371 -0.00408188371627
Sb 2.0852917451 1.1608837227 -9.3795470441 -0.000178177463805 -0.000446343545695 0.004340022495
Sb 0.0372910903 -2.3863540217 -9.3795470441 0.000297219550013 0.000377695085614 0.00434027960534
Sb -2.0917803104 1.2076899615 -8.0564998775 0.00028179292977 -0.000162493733225 0.00232633433263
Sb 4.2133595215 -2.4325808126 -8.0647959884 -0.000289249129554 0.000167121719298 0.00219469383989
Cr -2.1695201865 -3.6135826105 17.347204554 0.000218286676437 -0.000125469844642 0.000651260484588
61
Lattice="8.42843558953 0 0 -4.21421779477 7.29923593142 0 0 0 31.0334408416" Properties=species:S:1:pos:R:3:forces:R:3 energy=-133600.764692 ionic_step=26 pbc="T T T"
Te 2.1170474139 0.7468748435 3.1796715423 -0.000328587011174 -0.000159151298839 -0.00412970623902
Te 0.4117109619 -2.2068508066 3.1796715423 -2.64823647503e-05 0.00036432534807 -0.00412970623902
Te -2.1409270401 1.2360648495 3.7007595986 0.000283335591795 -0.000163522174575 -0.00431071191654
Te 3.731839364 -2.1545748904 3.2054084847 -5.29647295006e-05 3.05961301484e-05 -0.00388108054278
Te -0.2453160153 0.1416333335 7.4695748775 -0.000249139916923 0.000143724678596 0.00344322163821
Te -2.4187618781 -3.4696832107 7.4377393794 -0.000930482310984 0.00053710349479 0.00364479614272
Te -3.6761538229 -0.3528520365 7.0936911842 -0.000154780423104 -0.000783672308339 0.00285598162764
Te -1.5324982582 3.3600684566 7.0936911842 0.000601381079136 0.000526047750283 0.00285598162764
Te -0.3630747835 0.2096214217 -0.1075885394 -0.000893458422401 0.000516020447125 -0.00584360374801
Te -2.1438749575 -3.6283893217 0.2144530606 -6.7362908394e-05 3.88236609446e-05 -0.0060904296719
Te -3.9030202909 0.1405018157 -0.1564232783 0.00112768593976 0.000512420902402 -0.00581095073516
Te 2.1410295316 -3.9893721849 -0.1564232783 0.000120070527557 -0.00123284406774 -0.00581095073516
Te 0.3201066596 2.0602050967 13.4312407925 -0.000362268465371 0.000291048901916 0.00276573589921
Te -1.6241367412 -1.3073197166 13.4312407925 -0.000433230918488 0.000168407270985 0.00276573589921
Te -4.6172555348 2.6657738722 13.9176942771 -0.000226771317571 0.000130869161727 0.00255696230526
Te 1.6600425705 -0.958422462 13.7050795983 -8.87030663967e-05 5.11649571389e-05 0.00240552431654
Te 1.7766697302 1.1754861157 -13.6081434853 9.87303695545e-05 0.0014375038963 0.00246723079751
Te -0.129665931 -2.1263806293 -13.6081434853 -0.00119556306882 -0.00080424113533 0.00246723079751
Te -1.4654219955 0.8460616785 -13.790412817 0.000209287814629 -0.000120841858569 0.00204968360961
Te 4.1823004979 -2.4146488685 -14.3190769633 0.00131049138963 -0.000756675722914 0.0019877200183
Te 2.615802163 1.0117043143 10.3084991967 -1.23412961943e-05 -0.000403149009014 0.00778221569187
Te 0.4317393939 -2.7712000263 10.3084991967 0.000342985190067 0.00021211602834 0.00778221569187
Te -2.4917972769 1.4386399696 10.554404847 0.000766703026072 -0.000442486890634 0.00775110534104
Te 3.8797630917 -2.2399787343 10.6688748972 0.000615522147692 -0.000355326486261 0.00698774474936
Te 0.4371335176 -0.2523792717 -7.5139376129 -4.26803160054e-05 2.46825923886e-05 -0.00221372000486
Te -1.5998957064 -3.9424560318 -7.5349722394 0.00040160634699 -0.000231913524318 -0.00240449587519
Te 3.7743875413 0.2419717178 -7.1640271626 0.000279993157409 0.000642775843454 -0.00260529904869
Te 1.6776401752 -3.3896977157 -7.1640271626 -0.000416775856896 -0.000563842969878 -0.00260504193835
Te 0.3201447675 2.540666094 -3.5209851657 -8.71604043724e-05 -0.000259938551093 -0.00359131719255
Te -2.0402089194 -1.5475832177 -3.5209851657 0.000181519898191 0.000205431159568 -0.00359131719255
Te -4.5804967097 2.6445511447 -3.4382940622 -1.9540385641e-05 1.13128548448e-05 -0.0039335310516
Te 2.0675919716 -1.1937213298 -3.1935614477 -0.000263280985479 0.000151952209393 -0.00407365618547
Te -0.4629882887 2.6741086807 -10.243068203 9.30739421321e-05 7.19908944669e-05 0.00158662789198
Te -2.5473400676 -0.9360910736 -10.243068203 -1.56837305803e-05 -0.000116470982834 0.00158688500232
Te -3.717586506 2.1463494741 -10.5420573327 -0.000378209306288 0.000218543786774 0.00248342874877
Te 2.6903041365 -1.5532445314 -10.6611778113 -9.89874798919e-05 5.70784948987e-05 0.00235898734548
Sb 0.0592353571 2.3872224858 9.2916622793 -0.000474882793144 0.00086311940259 0.00767011558477
Sb -2.0377776218 -1.2449071308 9.2916622793 -0.000984989702509 -2.03117166531e-05 0.00767011558477
Sb -4.0640483679 2.3463794166 8.1479636537 0.000141667795897 -8.17610872874e-05 0.0055065320957
Sb 2.2863704864 -1.3200332244 8.2919533426 0.000806040907691 -0.000465369710661 0.00590736711168
Sb -0.058039209 2.4351932552 2.07746047 -0.000656402691335 -0.000790100066774 -0.00569062309727
Sb -2.1379587938 -1.1673297148 2.07746047 0.000356097817274 0.000963392434169 -0.00569062309727
Sb -4.1576133206 2.4003991924 1.9932141489 0.000711681413872 -0.000410862319136 -0.00565385631902
Sb 2.0813033981 -1.2016376287 1.0902689569 -0.000366125120431 0.000211344697328 -0.00516586089867
Sb 0.1252623119 -0.0723202632 -11.5050258956 0.000172263926046 -9.95017005667e-05 0.0028873490888
Sb -2.1500453808 -3.6248268046 -11.2275429217 0.000347870286477 -0.000200803173495 0.00164499193857
Sb -4.0153014363 0.1401651365 -12.7278366511 -5.42502811875e-05 6.91626807557e-05 0.00322416363077
Sb -2.1290372321 3.4072704559 -12.7278366511 -8.6903294035e-05 1.23412961943e-05 0.00322416363077
Sb 0.0375045641 -0.0216532803 11.4682921475 -0.000673886194277 0.000389007940458 0.0058978540292
Sb -2.072031846 -3.6698679835 11.7386074214 -0.000906828159945 0.000523476646909 0.00536023631373
Sb 4.1843393506 0.0475156258 12.6990330109 0.000477453896518 -0.000552530115033 0.00376255267724
Sb 2.0510199274 -3.6474985164 12.6990330109 0.000717337841295 -0.000137296920162 0.00376255267724
Sb 2.0897407034 1.2412597996 -1.6201484542 -0.000464855489986 0.000147838443994 -0.00546719421408
Sb -0.030092124 -2.4303949705 -1.6201484542 -0.000360468693009 0.000328587011174 -0.00546719421408
Sb -2.1229520997 1.2256870093 -2.4501408174 0.000402891898677 -0.00023268485533 -0.00406054355827
Sb 4.2706930373 -2.4656823488 -1.7559893716 0.000366896451444 -0.000211858918002 -0.00543736941495
Sb 2.0927092448 1.1625564925 -9.3802022818 0.000480282110229 0.000387208168097 -2.98247991363e-05
Sb 0.0395511797 -2.3936141528 -9.3802022818 -9.51308248312e-05 -0.000609608609932 -2.98247991363e-05
Sb -2.0910693537 1.2072794902 -8.0619314797 -0.000620664354439 0.00035841181031 -0.00154163358294
Sb 4.2146059826 -2.4333004576 -8.0649986306 5.37360605128e-05 -3.11103508232e-05 -0.00167378829635
Cr -2.1743838159 -3.6107745914 17.3428201029 0.000296705329338 -0.000171235484696 0.00240166766148
61
Lattice="8.42843558953 0 0 -4.21421779477 7.29923593142 0 0 0 31.0334408416" Properties=species:S:1:pos:R:3:forces:R:3 energy=-133600.774556 ionic_step=27 pbc="T T T"
Te 2.1162966318 0.7412027223 3.1641986753 -0.000466141041673 0.000318816818353 -7.94470942509e-05
Te 0.4162477695 -2.2033645493 3.1641986753 -0.000509078468016 0.000244254820513 -7.94470942509e-05
Te -2.1426170065 1.2370405526 3.7026006137 0.000359697361997 -0.000207745152604 -0.00113359947752
Te 3.7268959905 -2.151720831 3.1886426882 0.000350184279514 -0.000202345835519 0.000148866885344
Te -0.2440291076 0.1408903367 7.4671601613 -0.000172521036383 9.95017005667e-05 -0.00481670506051
Te -2.4165790725 -3.4709434547 7.43609646 -0.000340156976356 0.00019643229776 -0.0048524433974
Te -3.681233186 -0.3542387091 7.095159224 0.000315988604642 -0.000268166081889 -0.00429477107562
Te -1.5338370466 3.3651606524 7.095159224 0.000390293492145 -0.000139610913198 -0.00429477107562
Te -0.3685687139 0.2127933453 -0.1071337975 -0.000190775870337 0.000110300334737 0.0104919015375
Te -2.1453352558 -3.6275462176 0.2180897232 -4.52514193792e-05 2.62252544129e-05 0.00908679354374
Te -3.8974498638 0.1427170035 -0.1566223875 0.000550730342671 0.00014732422332 0.0105003861787
Te 2.1418963372 -3.9953039124 -0.1566223875 0.000147838443994 -0.000550730342671 0.0105003861787
Te 0.3181359299 2.0601837738 13.4364975895 -0.000404177450364 0.0004064914434 -0.0082013055418
Te -1.6251036399 -1.3056023525 13.4364975895 -0.000554072777057 0.000146810002645 -0.0082013055418
Te -4.6193902542 2.6670063535 13.9224158015 -0.00014038224421 8.09897562752e-05 -0.00696177660528
Te 1.6616770919 -0.9593661539 13.7054615216 0.000181519898191 -0.000104643907314 -0.00745671400474
Te 1.7754639666 1.1784250349 -13.6059628534 -0.000154266202429 -0.000357640479298 -0.00371884391989
Te -0.1328139902 -2.1268058665 -13.6059628534 0.000232427744993 0.000312389059919 -0.00371884391989
Te -1.4681785717 0.8476531892 -13.7889883502 -1.36268478812e-05 7.71331012145e-06 -0.00413896221117
Te 4.1785915599 -2.4125075112 -14.3151607575 -0.000162493733225 9.38452731443e-05 -0.00467580859562
Te 2.6109984438 1.0130289542 10.3086020148 -0.0003535267139 -5.6564274224e-06 -0.00926471389721
Te 0.428190363 -2.7677022014 10.3086020148 -0.000171749705371 0.000309046625533 -0.00926471389721
Te -2.4871923406 1.4359813072 10.5536563555 0.000509078468016 -0.000293877115627 -0.00930430888917
Te 3.8879510696 -2.2447060677 10.6719624833 0.000414461863859 -0.000239369724102 -0.00917549661014
Te 0.4394094544 -0.2536932851 -7.5124518452 0.000299790653387 -0.000173035257058 0.00418575629257
Te -1.5978944307 -3.9436114694 -7.5387891639 0.000416004525883 -0.000240141055114 0.00397698269862
Te 3.7769165316 0.2373008271 -7.1637873055 4.34516470175e-05 0.000246054592874 0.00381911695147
Te 1.6829497784 -3.3895524413 -7.1637873055 -0.000191547201349 -0.000160693960864 0.00381911695147
Te 0.3213704676 2.5399489038 -3.5155843936 -0.000677999959675 -0.000483367434277 0.00865793350099
Te -2.0389749646 -1.5482861105 -3.5155843936 7.97042045883e-05 0.000828666617381 0.00865793350099
Te -4.5823557459 2.6456244603 -3.4330225095 0.000604980623859 -0.000349412948502 0.00852603589791
Te 2.0668283662 -1.1932804618 -3.1860226291 -0.000242969268826 0.000140125133873 0.00871141245116
Te -0.4678360729 2.6738064259 -10.2438232751 -0.000440944228609 4.83367434277e-05 0.00280198845678
Te -2.5495021994 -0.9317416401 -10.2438232751 -0.000262252544129 0.000357640479298 0.00280198845678
Te -3.721431926 2.1485696294 -10.5397748711 1.82548339541e-05 -1.05415238326e-05 0.0025063115688
Te 2.6922909528 -1.5543916208 -10.6576372348 -0.000199774732146 0.000115442541484 0.00197486450143
Sb 0.0625795297 2.3893204792 9.289596648 -4.52514193792e-05 -1.64550615924e-05 -0.00789637268166
Sb -2.0379224503 -1.2488522673 9.289596648 -8.22753079621e-06 4.73083020782e-05 -0.00789637268166
Sb -4.0643466066 2.3465516049 8.144967046 0.000281021598758 -0.000162236622888 -0.00650334887373
Sb 2.2914235498 -1.3229506132 8.2937276555 0.000242712158488 -0.000140125133873 -0.00668872542698
Sb -0.0599687128 2.4355190834 2.0745974393 -0.000158894188502 -0.000596753093063 0.00297245261047
Sb -2.1392057211 -1.1658216288 2.0745974393 0.000437601794224 0.000436059132199 0.00297245261047
Sb -4.1583397635 2.4008186046 1.9914701192 0.000112357217436 -6.47918050202e-05 0.00340979729436
Sb 2.0796813655 -1.2007011473 1.0680236479 -0.000513192233414 0.000296448219001 0.00604286425948
Sb 0.1245173748 -0.0718901733 -11.5039687794 0.000204659828556 -0.000118270755196 -0.000384637064723
Sb -2.1510855152 -3.6242262824 -11.2323408889 0.000162750843563 -9.41023834817e-05 0.000591610886315
Sb -4.01574535 0.1446175078 -12.7289866399 -7.71331012145e-05 9.51308248312e-06 -0.00252688039579
Sb -2.1331150538 3.4054287109 -12.7289866399 -4.67940814035e-05 6.1963591309e-05 -0.00252688039579
Sb 0.0386737103 -0.0223282874 11.4781505604 -0.000343499410742 0.000198232070121 -0.00909219286083
Sb -2.0760894886 -3.6675253013 11.7449726219 -0.000690598366207 0.000398778133279 -0.00899191982925
Sb 4.1871461296 0.0432126428 12.6988363038 0.000499051164858 -0.000691626807557 -0.00858105751011
Sb 2.0561498078 -3.647777768 12.6988363038 0.000848464113359 -8.63890733602e-05 -0.00858105751011
Sb 2.0887359525 1.2414425676 -1.6104720528 -0.000508307137003 0.000166093277949 0.0127503587411
Sb -0.030752781 -2.4296162143 -1.6104720528 -0.000398006802267 0.000357126258623 0.0127503587411
Sb -2.1238019248 1.2261776562 -2.4454348729 0.000362011355033 -0.000209030704291 0.0114894896466
Sb 4.2728593295 -2.4669330588 -1.7498482062 0.000449428869743 -0.000259424330418 0.0125498126779
Sb 2.0988200885 1.1632062128 -9.3808246307 0.00053221839838 -0.000220086448799 0.0039548712096
Sb 0.0420439276 -2.3992311613 -9.3808246307 0.00045662795919 -0.000350955610526 0.0039548712096
Sb -2.0886017192 1.2058548001 -8.0670832721 -0.000491852075411 0.000283849812469 0.0043269098678
Sb 4.2169926618 -2.4346784081 -8.0646575153 -0.000273822509311 0.00015812285749 0.0042808871174
Cr -2.1756179504 -3.6100620631 17.3333169622 -4.83367434277e-05 2.80250267746e-05 -0.00377643663546
61
Lattice="8.42843558953 0 0 -4.21421779477 7.29923593142 0 0 0 31.0334408416" Properties=species:S:1:pos:R:3:forces:R:3 energy=-133600.783492 ionic_step=28 pbc="T T T"
Te 2.1154730647 0.7354477306 3.1465966625 -0.000108243452038 -1.69692822672e-05 0.000610379940944
Te 0.4208199527 -2.1997738232 3.1465966625 -3.93378816194e-05 0.000102072803941 0.000610379940944
Te -2.1447158755 1.2382523357 3.7028296707 0.000170207043347 -9.79590385424e-05 -0.000735335564911
Te 3.7222498282 -2.1490383668 3.1688653863 0.000104386796977 -6.04209292847e-05 0.000599067086099
Te -0.2437866228 0.1407503379 7.4653090545 0.000199003401133 -0.000114671210472 -0.000816839541861
Te -2.4136442833 -3.4726378569 7.4327032902 -0.000365610899757 0.00021108758699 -0.000622721237138
Te -3.6851904615 -0.3555049305 7.0975769421 -0.000358926030985 -0.000498279833846 -0.000864919174952
Te -1.534719105 3.3692208658 7.0975769421 0.000252225240971 0.000559986314817 -0.000865176285289
Te -0.3744700145 0.2162004645 -0.1058191021 -0.000508564247341 0.00029362000529 0.00218389520572
Te -2.1471061451 -3.6265237938 0.2219538906 -3.21387921727e-05 1.85119442915e-05 0.00169718533706
Te -3.8916476691 0.1451974757 -0.1560099305 0.000508821357678 0.000266880530202 0.00207359487098
Te 2.1426492835 -4.0015689988 -0.1560099305 2.33970407017e-05 -0.000574384493711 0.00207359487098
Te 0.3162977851 2.0616008253 13.443475714 -0.00050470759228 -2.72536957625e-05 -0.00607166061727
Te -1.6272499143 -1.3047189974 13.443475714 -0.00022882820027 0.000450971531767 -0.00607140350693
Te -4.62082779 2.6678363156 13.9262985735 0.000728136475465 -0.000420632511956 -0.00551938761257
Te 1.6638034944 -0.9605938335 13.7050822053 0.000235770179379 -0.000136011368475 -0.00488149686553
Te 1.7741107937 1.1820878487 -13.6043075057 -0.000678771290688 -0.00531369934267 0.00902431573176
Te -0.136662665 -2.1274653907 -13.6043075057 0.00426211806278 0.00324473245776 0.0090245728421
Te -1.4715170679 0.8495806718 -13.7893517232 -0.000224457324534 0.00012958361004 0.00777321683006
Te 4.1738611824 -2.4097764252 -14.3124192477 -0.00467118060955 0.0026968303288 0.00413819088016
Te 2.6063419165 1.0143669585 10.3097073696 -0.000257624558056 -0.000408291215762 -0.00301024783006
Te 0.4247033542 -2.7643385308 10.3097073696 0.000224714434872 0.000427574491066 -0.0030105049404
Te -2.4811571517 1.4324968876 10.5538706344 0.000263795206154 -0.000152466430067 -0.00323187694089
Te 3.8946241006 -2.2485587458 10.6742660007 0.000110043224399 -6.32491429959e-05 -0.00388905096323
Te 0.4421820709 -0.2552940567 -7.5115434825 -0.000213401580027 0.000123155851606 -0.00462644341085
Te -1.5952798168 -3.9451210182 -7.5425068958 -0.000329101231848 0.000190004539325 -0.00468763567114
Te 3.7787149832 0.2334597039 -7.1624641649 -0.000199260511471 0.000619893023427 -0.00461590188701
Te 1.687175513 -3.3891893852 -7.1624641649 -0.000636862305694 -0.000137296920162 -0.00461590188701
Te 0.3230259834 2.5390096092 -3.5097679592 0.000558957873468 0.000298247991363 -0.002222975977
Te -2.0373337542 -1.5492501827 -3.5097679592 2.13401580027e-05 -0.000633262760971 -0.00222323308734
Te -4.5844046253 2.6468073819 -3.4264728435 -0.000533246839729 0.000308018184183 -0.00209339236696
Te 2.0659738838 -1.192787126 -3.1773044444 -0.00010901478305 6.29920326585e-05 -0.00215047086186
Te -0.4711004001 2.6726930209 -10.2436889411 0.000142953347584 -0.000508050026666 0.00561117600302
Te -2.5501701265 -0.928357946 -10.2436889411 0.000511392461052 0.000130354941052 0.00561117600302
Te -3.725350243 2.1508318718 -10.5389159662 -7.71331012145e-07 5.14220674763e-07 0.0074433442672
Te 2.6942095037 -1.5554992973 -10.6527613971 -0.000405977222726 0.000234484627692 0.00710678683557
Sb 0.0664887701 2.388641631 9.2851215096 0.000148866885344 0.000500850937219 -0.00106315124507
Sb -2.0353799305 -1.2518983463 9.2851215096 -0.000359183141322 -0.000379237747638 -0.00106289413474
Sb -4.0652093191 2.3470496924 8.144857275 -7.8161542564e-05 4.49943090418e-05 -0.000683656387098
Sb 2.2942581328 -1.3245871612 8.2961657545 0.000522705315897 -0.000301847536086 -0.000339642755681
Sb -0.0625642697 2.4357686264 2.0704212305 -0.000298762212037 -0.000150923768043 0.00218492364707
Sb -2.14071961 -1.1636985811 2.0704212305 -1.87690546289e-05 0.000333986328259 0.00218466653673
Sb -4.1590019312 2.4012009075 1.9888603606 0.000220857779811 -0.000127526727341 0.00217643900594
Sb 2.0778571339 -1.1996479262 1.0439399658 -3.34243438596e-05 1.9540385641e-05 0.0029341431702
Sb 0.1257064465 -0.0725766845 -11.5003517477 -0.000143724678596 8.27895286369e-05 0.0100003065725
Sb -2.1550304723 -3.6219486593 -11.2336268314 0.000202345835519 -0.000116728093171 0.0146010389496
Sb -4.0166142085 0.1489174295 -12.7303348255 0.000201831614845 0.000217515345425 0.0106142860581
Sb -2.1372733227 3.404031204 -12.7303348255 -8.74175147098e-05 -0.000283592702132 0.0106142860581
Sb 0.0394236173 -0.0227612467 11.487555661 4.62798607287e-05 -2.64823647503e-05 -0.00491517831972
Sb -2.0779425012 -3.6664554635 11.7533557487 -0.000584926017543 0.000337585872982 -0.0056014058102
Sb 4.189220937 0.0404426407 12.6981819386 0.000143981788934 -0.000582354914169 -0.00597704401311
Sb 2.0595861025 -3.6481896037 12.6981819386 0.000576184266072 0.000166607498623 -0.00597678690277
Sb 2.0875287605 1.2415743459 -1.600178914 -9.7701928205e-06 0.000971619964965 -4.37087573549e-05
Sb -0.0314705004 -2.4286366441 -1.600178914 -0.00084640723066 -0.000477453896518 -4.37087573549e-05
Sb -2.1252029359 1.2269865308 -2.4381579879 -6.71057980566e-05 3.88236609446e-05 -0.000934081855707
Sb 4.2750303135 -2.4681864776 -1.7431317562 0.000880345795195 -0.000508307137003 -0.000115699651822
Sb 2.1030667876 1.1624664774 -9.381978041 0.000233970407017 0.000922254780188 0.000751019295492
Sb 0.0448079064 -2.4025390446 -9.381978041 -0.000681856614736 -0.000663858891119 0.000751019295492
Sb -2.084632751 1.2035633142 -8.0722661689 -0.000204659828556 0.000118013644858 -0.00440764251373
Sb 4.2205059429 -2.4367068028 -8.0654747027 0.00107497832059 -0.000620664354439 -0.00335914655789
Cr -2.1755043555 -3.6101276473 17.3207370959 -0.000264823647503 0.000152723540405 0.00829386526326
61
Lattice="8.42843558953 0 0 -4.21421779477 7.29923593142 0 0 0 31.0334408416" Properties=species:S:1:pos:R:3:forces:R:3 energy=-133600.79162 ionic_step=29 pbc="T T T"
Te 2.1147558349 0.730731598 3.1294076311 3.3681454197e-05 0.00039569280923 6.71057980566e-05
Te 0.4245456265 -2.1967946174 3.1294076311 -0.0003260159078 -0.000225742876221 6.76200187314e-05
Te -2.1470703218 1.2396116766 3.7006228838 2.4939702726e-05 -1.51695099055e-05 -0.000801670031956
Te 3.7190291989 -2.1471789347 3.1488518619 0.00046639815201 -0.000268937412901 5.39931708501e-06
Te -0.2448485424 0.1413634378 7.4639523272 6.86484600809e-05 -4.06234333063e-05 -0.00449326025608
Te -2.4099277637 -3.4747835915 7.4277797556 2.05688269905e-05 -1.10557445074e-05 -0.00455496673705
Te -3.6874138056 -0.3558849851 7.1008561062 0.000166864608961 -0.000178434574143 -0.00428320111044
Te -1.5355016402 3.3713363665 7.1008561062 0.000238084172415 -5.57929432118e-05 -0.00428242977943
Te -0.3798722301 0.2193194365 -0.1034206275 -0.000484652985964 0.000280764488421 0.00513732165122
Te -2.1489844104 -3.6254393763 0.2255218317 -9.51308248312e-05 5.52787225371e-05 0.00478919425441
Te -3.8866463961 0.1476640056 -0.1542309747 0.000404177450364 0.000155037533441 0.00519542858747
Te 2.1430138435 -4.0071334953 -0.1542309747 6.63344670445e-05 -0.000426803160054 0.00519465725646
Te 0.3149126261 2.0649789026 13.4512697614 0.000149381106019 -0.000110557445074 -0.00353398158731
Te -1.6308679932 -1.3052084525 13.4512697614 0.000171492595034 -7.43048875033e-05 -0.0035332102563
Te -4.6211337179 2.6680129432 13.9291102219 0.00012572695498 -7.22480048042e-05 -0.00313417501268
Te 1.6658854214 -0.9617958352 13.7030108943 -8.99886180836e-06 4.37087573549e-06 -0.00317608399768
Te 1.772656906 1.1858855015 -13.6035603541 0.000279993157409 -0.000971362854628 -0.00035249827255
Te -0.1406784711 -2.1281051129 -13.6035603541 0.000981133047448 0.000244254820513 -0.0003535267139
Te -1.4750994353 0.8516489536 -13.7922808151 -0.000450971531767 0.000259424330418 -0.00049493739946
Te 4.1691129276 -2.4070350178 -14.3122711555 -0.00102407047379 0.000591867996653 -0.00096030711012
Te 2.6029871955 1.0156182782 10.3120764608 -0.000320359480378 0.000244769041187 -0.0058029803147
Te 0.4219423195 -2.7620589157 10.3120764608 -0.000371781547854 0.000154523312766 -0.00580375164572
Te -2.4742586423 1.4285140295 10.5562180702 -1.54266202429e-05 8.74175147098e-06 -0.00567596780804
Te 3.8989928265 -2.251081032 10.6740895268 5.11649571389e-05 -2.98247991363e-05 -0.00567879602175
Te 0.4452641717 -0.2570735092 -7.5105355319 -0.000176377691444 0.000103615465965 0.00311129219266
Te -1.5921303871 -3.9469393431 -7.5450602344 -0.000116470982834 6.63344670445e-05 0.0031143775167
Te 3.7789659828 0.2314312691 -7.1606256194 2.36541510391e-05 -0.000116213872496 0.00263615228917
Te 1.689057688 -3.3883925399 -7.1606256194 0.000114414100135 3.7023888583e-05 0.00263666650985
Te 0.3251379943 2.5380537402 -3.5045398053 -0.000283078481457 -8.92172870714e-05 0.00280584511185
Te -2.0354499423 -1.550601304 -3.5045398053 -6.35062533333e-05 0.000289506239892 0.00280713066353
Te -4.5865575124 2.6480503525 -3.4194516014 0.000269194523239 -0.000154523312766 0.00293748560459
Te 2.065104731 -1.1922853201 -3.1689717168 1.79977236167e-05 -1.05415238326e-05 0.0027140567214
Te -0.472095126 2.6708137129 -10.2418549455 -0.000313160390931 0.000152466430067 0.00362988374315
Te -2.5490399617 -0.9265568337 -10.2418549455 -0.000290020460566 0.00019540385641 0.00362988374315
Te -3.7285650389 2.1526879359 -10.5398746057 0.00036921044448 -0.000214430021376 0.00299559254083
Te 2.6967334111 -1.5569564766 -10.6466369141 0.000324730356113 -0.000186662104939 0.00294262781133
Sb 0.0707204066 2.385098907 9.2786745092 0.000381294630337 -0.000151695099055 -0.00604003604577
Sb -2.0301960247 -1.2537916907 9.2786745092 0.000322673473414 -0.00025428212367 -0.00604029315611
Sb -4.0664108559 2.3477434003 8.1488930064 -0.000285906695168 0.000164807726262 -0.00543042743584
Sb 2.2937949771 -1.3243197581 8.2988118404 -0.000202088725182 0.000116470982834 -0.00556695302499
Sb -0.0655785735 2.4358211369 2.0648917706 -1.49123995681e-05 0.000218286676437 0.00196715119131
Sb -2.1422722373 -1.1611143714 2.0648917706 -0.000197203628772 -9.59021558433e-05 0.00196663697063
Sb -4.1595093362 2.401493858 1.9851931871 3.41956748718e-05 -2.13401580027e-05 0.00199080534235
Sb 2.0760143297 -1.1985839822 1.0223914133 0.000184091001565 -0.000105158127989 0.00377078020804
Sb 0.1295761021 -0.0748108323 -11.4945386747 -4.01092126315e-05 2.31399303643e-05 0.00198463469425
Sb -2.1608084918 -3.6186127166 -11.2317653671 -0.000175092139757 0.000101044362591 0.00303878707751
Sb -4.01762384 0.1520361416 -12.732045501 -5.93924879352e-05 4.42229780296e-05 0.000563071638866
Sb -2.1404790212 3.4033462149 -12.732045501 -6.83913497435e-05 3.00819094737e-05 0.000563071638866
Sb 0.0396510201 -0.0228925378 11.4949216969 0.000242969268826 -0.000140896464885 -0.00493960380178
Sb -2.0773805926 -3.6667798817 11.7629406859 0.000300304874062 -0.000173292367395 -0.00483444567379
Sb 4.1902088859 0.0394739868 12.6969430291 -0.000128812279028 0.000215201352388 -0.00376306689792
Sb 2.0609189554 -3.648560866 12.6969430291 -0.000251453909959 4.37087573549e-06 -0.00376306689792
Sb 2.0861223078 1.2417009087 -1.5909873288 7.12195634547e-05 0.000452514193792 0.00515043427843
Sb -0.0322833332 -2.4274819011 -1.5909873288 -0.00035738336896 -0.000288220688205 0.0051488916164
Sb -2.1270713773 1.2280652765 -2.4287252567 -3.62525575708e-05 2.08259373279e-05 0.00427420224863
Sb 4.2769253539 -2.4692805802 -1.7370830527 0.000348641617489 -0.000200546063158 0.00521368342142
Sb 2.1042710792 1.1601792404 -9.3836420134 -8.74175147098e-05 -0.0001630079539 0.00413150601139
Sb 0.0473908566 -2.4024383737 -9.3836420134 9.61592661807e-05 0.000157865747152 0.00413099179071
Sb -2.0803271786 1.2010774896 -8.0765791333 0.00023371329668 -0.0001354971478 0.00363322617754
Sb 4.2240424818 -2.4387486254 -8.0674656013 -6.65915773818e-05 3.85665506072e-05 0.00343036612135
Cr -2.1748355548 -3.6105137797 17.3083340721 0.000116985203509 -6.78771290688e-05 -0.000470769027746
61
Lattice="8.42843558953 0 0 -4.21421779477 7.29923593142 0 0 0 31.0334408416" Properties=species:S:1:pos:R:3:forces:R:3 energy=-133600.796479 ionic_step=30 pbc="T T T"
Te 2.1144466038 0.7286643956 3.1202069523 0.000467169483022 0.000377180864939 0.00123130140572
Te 0.4261812599 -2.195493214 3.1202069523 -9.30739421321e-05 -0.000592896438002 0.00123130140572
Te -2.1486997503 1.240552428 3.6973116011 -0.000382580182024 0.000220857779811 0.00140485088345
Te 3.7181820985 -2.1466898608 3.1378288829 0.000457656400539 -0.000264309426828 0.00113977012561
Te -0.2462267877 0.1421591684 7.4633182113 0.000589296893279 -0.000340414086693 0.00314240254348
Te -2.4071549314 -3.4763844877 7.4240488786 -0.000383094402699 0.000221114890148 0.00325938774699
Te -3.6872709345 -0.355107575 7.1033427889 -0.000389007940458 -0.00155860286521 0.00287423646159
Te -1.5361034613 3.3708239314 7.1033427889 0.00115519674586 0.00111637308491 0.00287423646159
Te -0.3826133751 0.2209020381 -0.1013187062 -0.000779558542941 0.000449943090418 -0.00303287353975
Te -2.1501626069 -3.6247591439 0.2276172525 -0.000229599531282 0.000132411823752 -0.00272794067962
Te -3.8846243528 0.1492030191 -0.1523854067 0.000361754244696 0.000135240037463 -0.00308301005554
Te 2.142692041 -4.0096541437 -0.1523854067 6.35062533333e-05 -0.00038103752 -0.00308301005554
Te 0.3146123998 2.0684111715 13.4560101756 -0.000277422054035 0.000241169496464 -0.00247340144561
Te -1.633990537 -1.3066645833 13.4560101756 -0.000347870286477 0.000119556306882 -0.00247314433527
Te -4.6198838752 2.6672913459 13.9305515138 0.000527590412307 -0.000304675749797 -0.00245514661166
Te 1.6667270164 -0.9622817304 13.7001590814 0.000297733770688 -0.000171749705371 -0.00231836391217
Te 1.7717621776 1.1880167795 -13.6038463923 0.00110068935433 -0.000768759908771 -0.00571556279999
Te -0.1429715754 -2.128395894 -13.6038463923 0.00121613189582 -0.000568985176626 -0.00571530568966
Te -1.4769642213 0.8527255888 -13.7959227961 -0.00143776100664 0.000829952169068 -0.00519260037376
Te 4.1665710375 -2.4055674561 -14.3147938253 -0.00111328776086 0.000642775843454 -0.00383737178542
Te 2.6026623214 1.0163121046 10.3146281383 -0.000185890773927 5.96495982725e-05 0.000753590398866
Te 0.4211790115 -2.7621244796 10.3146281383 -0.000144496009608 0.000131383382402 0.000753333288528
Te -2.469920348 1.426009313 10.5600244917 -0.000245283261862 0.000141667795897 0.0016534765797
Te 3.8994799724 -2.251362286 10.6712650621 8.53606320107e-05 -4.91080744399e-05 -8.20181976247e-05
Te 0.4471497083 -0.2581621248 -7.5091463072 -0.000648689381214 0.000374609761565 0.00756418612577
Te -1.5901250171 -3.9480971445 -7.5449640042 0.000314703052955 -0.000181777008529 0.00791642728798
Te 3.7776554842 0.231985742 -7.1599831761 0.000601123968798 0.000524247977921 0.00733998591157
Te 1.6879222514 -3.3875348508 -7.1599831761 -0.000153237761079 -0.00078264386699 0.00733998591157
Te 0.3270776116 2.5376419387 -3.5021724745 6.11922602968e-05 0.000351726941538 0.000431174035789
Te -2.0341235032 -1.552075162 -3.5021724745 -0.000274079619649 -0.000228571089932 0.000431431146126
Te -4.5882030006 2.6490003759 -3.415077412 0.000192061422024 -0.000110814555411 0.000149381106019
Te 2.0645132395 -1.1919438222 -3.1647998343 0.000418061408583 -0.000241426606801 -0.000389007940458
Te -0.4706646203 2.6690352587 -10.2392982397 -0.00103821154235 0.00025531056502 -0.000519877102186
Te -2.5467845231 -0.9269064614 -10.2392982397 -0.000740220661322 0.000771331012145 -0.000519877102186
Te -3.7292165693 2.1530640974 -10.5418093602 0.00103872576302 -0.000599581306774 -0.00305112837371
Te 2.6993200392 -1.5584498677 -10.6422541312 0.000918655235465 -0.000530418626018 -0.00364711013576
Sb 0.0733596298 2.3810495302 9.2736864877 0.000660259346396 0.00148455508804 0.00176866201085
Sb -2.0253695516 -1.2540526377 9.2736864877 -0.000955679124048 -0.00131409093436 0.00176866201085
Sb -4.0669681256 2.3480651403 8.1551058785 -0.000981647268123 0.000566414073252 0.00200366085922
Sb 2.2904710868 -1.3224007082 8.3006865417 0.00115082587012 -0.000664373111794 0.00270145831487
Sb -0.0676433159 2.435612242 2.0608227452 0.00014141068556 0.000717337841295 -0.00115288275282
Sb -2.1431237003 -1.1592218037 2.0608227452 -0.000550730342671 -0.000481053441241 -0.00115313986316
Sb -4.1595374874 2.4015101111 1.9819866055 6.04209292847e-05 -3.52241162213e-05 -0.00137065520858
Sb 2.0749909684 -1.197993144 1.0125059464 0.000712195634547 -0.000410862319136 -0.00221731954958
Sb 0.1337770995 -0.0772362804 -11.4904317955 -0.000739963550984 0.000427060270391 -0.00562943083697
Sb -2.1645682476 -3.6164420196 -11.2292239413 0.000159151298839 -9.17883904452e-05 -0.00440070053462
Sb -4.0183581235 0.1524331085 -12.7338730894 1.10557445074e-05 0.000518848660836 -0.00654860029311
Sb -2.1411899461 3.4037836399 -12.7338730894 -0.000444286662995 -0.000268680302564 -0.00654860029311
Sb 0.0395262903 -0.022820525 11.4970116005 0.000211344697328 -0.000121870299919 -0.00101867115671
Sb -2.0752179241 -3.6680284995 11.769482959 -0.000162236622888 9.35881628069e-05 -0.00194941057803
Sb 4.1899920223 0.0403356954 12.695830411 0.000105158127989 0.000157351526478 -0.00170721264021
Sb 2.0600642625 -3.6488039108 12.695830411 -8.3560859649e-05 -0.000169692822672 -0.00170721264021
Sb 2.0851171462 1.2417538722 -1.5867648065 0.000623235457813 0.000178434574143 -0.00260067106262
Sb -0.0328317818 -2.4266378869 -1.5867648065 0.000156837305803 -0.000628891885235 -0.00260067106262
Sb -2.1284911875 1.2288850046 -2.4227634711 -0.000332700776572 0.000191804311687 -0.00133208865797
Sb 4.2776789814 -2.4697156874 -1.7344160044 -0.000276650723023 0.000159922629851 -0.00197152206704
Sb 2.1020091618 1.1575499659 -9.3849041842 0.000208773593954 0.00031418883228 0.00402789054542
Sb 0.0485369154 -2.3991648576 -9.3849041842 -0.000167635939973 -0.000338100093657 0.00402789054542
Sb -2.0783909771 1.1999596227 -8.0777481215 -0.00022188622116 0.000128298058353 0.00730501890569
Sb 4.2256759935 -2.4396917343 -8.068966737 -0.000268423192226 0.000155037533441 0.00698311676329
Cr -2.1751217671 -3.6103485349 17.3033805214 -7.94470942509e-05 4.60227503913e-05 -0.00375586780847
61
Lattice="8.42843558953 0 0 -4.21421779477 7.29923593142 0 0 0 31.0334408416" Properties=species:S:1:pos:R:3:forces:R:3 energy=-133600.799653 ionic_step=31 pbc="T T T"
Te 2.1142456816 0.7268032246 3.1145381194 0.00034761317614 0.000616036368366 0.00116393849733
Te 0.4276926195 -2.1943886247 3.1145381194 -0.000359697361997 -0.000609094389257 0.00116393849733
Te -2.1500063984 1.2413068219 3.694584778 -9.38452731443e-05 5.42502811875e-05 0.000373324209878
Te 3.7172301846 -2.1461402728 3.1314298846 0.000809383342077 -0.000467169483022 0.00105749481765
Te -0.2468701153 0.142530594 7.4625652661 0.000519619991848 -0.000300047763724 -0.00374584050531
Te -2.4052456272 -3.4774868255 7.4217225427 -0.000883945339918 0.000510364019703 -0.00419064138898
Te -3.6864961036 -0.3540289541 7.1050045307 -0.000118013644858 -0.00154317624496 -0.00368516246569
Te -1.5366501585 3.3696135974 7.1050045307 0.00127732415611 0.00087391803676 -0.00368516246569
Te -0.3846141878 0.2220572084 -0.1001775008 -0.000658459574034 0.00038000907865 0.000791642728798
Te -2.1510342629 -3.6242558929 0.229619643 -0.000281535819433 0.000162493733225 0.000643032953791
Te -3.8836484278 0.1505495158 -0.1513725053 0.000258910109743 -4.37087573549e-06 0.000600095527449
Te 2.1420139037 -4.0111725683 -0.1513725053 0.000133440265101 -0.00022188622116 0.000599838417111
Te 0.3147457061 2.0705810062 13.4587287422 0.000305704191147 -0.000114414100135 0.00471000427049
Te -1.6358030149 -1.3078649473 13.4587287422 0.000251968130634 -0.000207488042267 0.00471000427049
Te -4.6175534733 2.6659458871 13.9324830418 0.000524762198596 -0.000303133087773 0.00467812258866
Te 1.6667638374 -0.9623029891 13.6977653706 0.000149638216356 -8.63890733602e-05 0.00441535582385
Te 1.771081972 1.1891234243 -13.6042867526 0.00160282584324 0.000685199049122 0.00506507364642
Te -0.1442700603 -2.1283601408 -13.6042867526 0.000208002262942 -0.00173086679125 0.00506533075676
Te -1.4773987727 0.8529764772 -13.7985131191 -0.00134854371957 0.000778787211929 0.00550344677165
Te 4.1650321749 -2.404678993 -14.3180449486 -1.59408409177e-05 8.99886180836e-06 0.00619970156528
Te 2.603882082 1.0168121853 10.3169443819 1.43981788934e-05 -0.000483624544615 -0.00144007499967
Te 0.4213558094 -2.763430864 10.3169443819 0.000426031829041 0.000229599531282 -0.00144033211001
Te -2.46765128 1.4246992653 10.5640216027 -0.000591610886315 0.000341442528043 -3.31672335222e-05
Te 3.8986671783 -2.2508930189 10.668001017 -0.000860805409554 0.000496994282159 -0.00126318308756
Te 0.4482369111 -0.2587898219 -7.507161651 -0.000762075039999 0.00043991578726 -0.00386282570882
Te -1.5890730346 -3.9487045072 -7.5436603391 -0.000425260498029 0.000245540372199 -0.00313134679897
Te 3.7763076439 0.2333273089 -7.1607831025 0.000435544911524 0.000420632511956 -0.00312337637851
Te 1.6860865007 -3.3870383698 -7.1607831025 -0.00014629578197 -0.000587754231254 -0.00312363348885
Te 0.3291903766 2.5375992494 -3.5009745818 0.000506250254304 0.000861833850903 -0.00148686908108
Te -2.0330301507 -1.5538835263 -3.5009745818 -0.000493137627098 -0.000869290050687 -0.00148686908108
Te -4.5900559337 2.6500701679 -3.4119647525 -0.000286935136518 0.000165579057274 -0.00127886681814
Te 2.063917588 -1.1915999225 -3.1623623286 0.000551501673684 -0.000318302597678 -0.0012937792177
Te -0.4686795541 2.6675101993 -10.2372714702 -0.000338614314332 0.000317274156329 -0.00249448449328
Te -2.5444712504 -0.9278630503 -10.2372714702 -0.000444029552658 0.000134468706451 -0.00249474160361
Te -3.7283644958 2.1525721523 -10.5434739777 0.000843836127287 -0.000487224089338 -0.00291717388793
Te 2.7020964739 -1.5600528437 -10.6396145922 0.000762332150337 -0.000440172897597 -0.00254307834704
Sb 0.074987349 2.3781069032 9.2705162885 0.000480796330904 0.000458941952226 -0.00436444797705
Sb -2.0220073035 -1.253990971 9.2705162885 -0.00015709441614 -0.000645604057165 -0.00436444797705
Sb -4.0665704043 2.3478355156 8.1613756043 -0.000736621116598 0.000425260498029 -0.00438784501775
Sb 2.2866487748 -1.3201938943 8.3026967634 0.000408034105425 -0.000235513069042 -0.00421429554002
Sb -0.0691142201 2.4352602643 2.0585143977 0.000105672348664 0.000799613149257 0.00115571096653
Sb -2.1435543309 -1.1577719739 2.0585143977 -0.000639690519405 -0.000491337854736 0.00115596807687
Sb -4.159224128 2.4013291929 1.9792983348 -2.21114890148e-05 1.28555168691e-05 0.000898600629149
Sb 2.0743955571 -1.197649383 1.0064212843 0.000730193358164 -0.000421660953306 0.00084152213425
Sb 0.1366194217 -0.0788772966 -11.4891469065 -0.000229342420944 0.000132411823752 0.00173446633598
Sb -2.1660532142 -3.6155846733 -11.2286420748 -0.00029362000529 0.000169692822672 -0.000529647295006
Sb -4.0190952281 0.1516592898 -12.7361773196 -0.000260452771768 0.000653831587961 0.00429837062035
Sb -2.1408883521 3.4048089008 -12.7361773196 -0.000696511903967 -0.000101558583266 0.00429837062035
Sb 0.039520924 -0.0228174267 11.4968291805 0.000490823634062 -0.000283592702132 0.00112022973997
Sb -2.0730028162 -3.6693073933 11.7743563103 0.000712966965559 -0.000411633650148 0.00229856641619
Sb 4.1896913393 0.0416509839 12.6951419053 -0.000161722402213 0.000877003360809 0.00369107600345
Sb 2.0587748482 -3.6492011558 12.6951419053 -0.000840236582563 -0.0002985051017 0.00369107600345
Sb 2.0843870893 1.2417133894 -1.5843266356 0.000682370835411 0.00082095330726 -0.000302361756761
Sb -0.0331617511 -2.4259853974 -1.5843266356 -0.000369724665155 -0.0010014447641 -0.000302361756761
Sb -2.1294580485 1.2294432223 -2.4211508286 -0.000601381079136 0.000347098955465 -0.000503936261268
Sb 4.2778491707 -2.4698139463 -1.7330813182 0.000361240024021 -0.000208516483617 -4.9879405452e-05
Sb 2.0986896586 1.1552076219 -9.3856160422 -8.12468666126e-05 0.000442486890634 -0.00372450034731
Sb 0.0489056922 -2.3951189101 -9.3856160422 -0.000423717836005 -0.000150923768043 -0.00372450034731
Sb -2.0783665187 1.1999455016 -8.076876386 0.000296448219001 -0.000170978374359 -0.00450277333856
Sb 4.2263416791 -2.4400760683 -8.0690399053 0.000712195634547 -0.000411376539811 -0.00439067323147
Cr -2.1771278243 -3.6091903366 17.3038285326 0.00107394987924 -0.000620150133764 0.00450174489721
61
Lattice="8.42843558953 0 0 -4.21421779477 7.29923593142 0 0 0 31.0334408416" Properties=species:S:1:pos:R:3:forces:R:3 energy=-133600.802524 ionic_step=32 pbc="T T T"
Te 2.1139161813 0.7250022881 3.1089303075 0.000183062560216 0.000902714394547 8.33037493116e-05
Te 0.4290875254 -2.1932028007 3.1089303075 -0.00069034125587 -0.000609865720269 8.33037493116e-05
Te -2.1514924304 1.2421647833 3.6916219518 4.85938537651e-05 -2.80250267746e-05 -0.000384379954386
Te 3.7163053327 -2.1456063091 3.1255353129 0.00103435488729 -0.000597267313738 0.000127783837679
Te -0.2468674344 0.1425290462 7.4604757305 0.000528104632982 -0.000304932860135 -0.00108012052734
Te -2.4035010923 -3.4784940337 7.4197514329 -0.0010860340651 0.000627092112874 -0.00162750843563
Te -3.6862620374 -0.3526734987 7.1062861105 -5.03936261268e-05 -0.00185376553252 -0.00147478489522
Te -1.5377069836 3.3687331623 7.1062861105 0.00158020013355 0.000970591523616 -0.00147478489522
Te -0.3864231132 0.2231015924 -0.099630464 -0.00061860747174 0.000357126258623 0.000257624558056
Te -2.1519788805 -3.6237105173 0.2319118106 -0.00022291466251 0.000128812279028 -0.000288992019217
Te -3.8832097688 0.1520075775 -0.1508262786 0.000169692822672 4.88509641025e-06 -0.000244769041187
Te 2.1409705154 -4.0122814891 -0.1508262786 8.04755356005e-05 -0.000149381106019 -0.000244769041187
Te 0.3152067255 2.0722927974 13.4610292537 -1.13128548448e-05 0.00027690783336 0.000337328762645
Te -1.6370549592 -1.3091200976 13.4610292537 -0.000245540372199 -0.000128555168691 0.000337328762645
Te -4.6142663376 2.6640480575 13.9354385316 0.000562043197516 -0.000324473245776 0.000208516483617
Te 1.6663636938 -0.962071966 13.6963090529 0.000394407257543 -0.00022779975892 9.51308248312e-05
Te 1.770761261 1.1900348925 -13.6042185411 0.00168381559951 -0.000392864595519 -0.00018357678089
Te -0.14521977 -2.1285381309 -13.6042185411 0.00118219333128 -0.00126189753587 -0.00018357678089
Te -1.4768406685 0.8526542555 -13.7998072504 -0.00166453232421 0.000961078441133 0.000318045487341
Te 4.1632687507 -2.4036608791 -14.3212340229 -0.00104541063179 0.000603695072172 0.000248882806585
Te 2.6050712243 1.0170276189 10.319075663 -8.02184252631e-05 -0.00051550622645 0.000864662064614
Te 0.4217638096 -2.7645684088 10.319075663 0.000406234333063 0.000327301459487 0.000864662064614
Te -2.4659261372 1.4237032532 10.5683261567 -0.000336557431633 0.000194375415061 0.00198926268032
Te 3.8981166717 -2.2505751836 10.6645327956 -0.0005165346678 0.000298247991363 0.000512163792064
Te 0.4489248362 -0.2591869958 -7.5042544832 -0.000168150160648 9.69305971929e-05 0.000402120567665
Te -1.5888966868 -3.9488063217 -7.542319159 -0.000420632511956 0.000242969268826 0.00156451640297
Te 3.7754091833 0.2346619523 -7.1626747942 0.000302618867098 0.000574127383373 0.00108834805814
Te 1.6844814359 -3.3869276013 -7.1626747942 -0.000345813403778 -0.000549187680647 0.00108834805814
Te 0.3310520828 2.5374365958 -3.4994478314 0.000663601780782 0.00122924452302 0.000146552892308
Te -2.0319584355 -1.5554144852 -3.4994478314 -0.000732764461538 -0.00118939242073 0.000146552892308
Te -4.5917254238 2.6510340489 -3.408524149 -0.000325758797463 0.000187947656626 8.56177423481e-05
Te 2.0631354673 -1.1911483647 -3.1602701709 0.000840750803238 -0.000485424316977 2.41683717139e-05
Te -0.4668787654 2.665701539 -10.2358561478 -0.0005970102034 9.25597214574e-06 -0.000130354941052
Te -2.542004511 -0.9285182496 -10.2358561478 -0.000306475522159 0.000512420902402 -0.000130354941052
Te -3.7268319518 2.1516873372 -10.544492408 0.00084743567201 -0.000489280972037 -0.00159716941581
Te 2.7057219111 -1.5621459919 -10.637352035 0.000328329900836 -0.00018949031865 -0.00158302834726
Sb 0.0765406354 2.3763680675 9.2678419002 0.000598809975762 0.000692141028231 -0.00134417284383
Sb -2.0197247851 -1.2544667392 9.2678419002 -0.000300047763724 -0.000864662064614 -0.00134442995417
Sb -4.0653015976 2.3471029694 8.1682572526 -0.000827381065694 0.000477711006855 -0.00131357671368
Sb 2.2827731784 -1.3179563166 8.305051356 0.000435287801187 -0.000251196799622 -0.00105415238326
Sb -0.0703967632 2.4347815291 2.0564311691 0.000469226365721 0.000861319630228 -0.000776987439567
Sb -2.1437810058 -1.1564218909 2.0564311691 -0.000511392461052 -0.000837151258515 -0.000776987439567
Sb -4.1589415594 2.4011660518 1.9760186375 -0.000420118291282 0.000242455048151 -0.00125906932216
Sb 2.0738736443 -1.1973480564 1.0001962769 0.000647660939864 -0.000373838430553 -0.000898086408474
Sb 0.1381719974 -0.079773677 -11.4903204853 2.05688269905e-05 -1.18270755196e-05 -0.000301590425749
Sb -2.1661080577 -3.6155530094 -11.2303798911 -9.25597214574e-05 5.34789501754e-05 -0.000416004525883
Sb -4.0198131339 0.1504690625 -12.7391939326 -0.000325501687125 0.000852577878757 -0.000643804284804
Sb -2.1402165385 3.4060257394 -12.7391939326 -0.000901171732523 -0.000144238899271 -0.000643804284804
Sb 0.0396720593 -0.0229046848 11.4973120486 0.000276650723023 -0.000159665519514 0.00085823430618
Sb -2.0712409181 -3.6703246261 11.7789739684 0.000385151285398 -0.000222400441835 0.00151952209393
Sb 4.1897330359 0.0425794669 12.6945655805 2.90534681241e-05 0.000667972656517 0.000908370821969
Sb 2.057991607 -3.6497015076 12.6945655805 -0.000563842969878 -0.000359183141322 0.000908370821969
Sb 2.0836601037 1.2415405643 -1.5818466529 0.00087983157452 0.00104103975606 0.000351469831201
Sb -0.033375573 -2.4252693966 -1.5818466529 -0.000461770165937 -0.00128246636286 0.000351469831201
Sb -2.1302103493 1.2298775636 -2.4212540035 -0.000919169456139 0.000530675736356 0.000607294616895
Sb 4.2777669281 -2.4697664635 -1.731802496 0.000430402704777 -0.000248368585911 0.00057541293506
Sb 2.095419169 1.1529325765 -9.385904989 -5.78498259109e-05 0.000412147870823 0.000748191081781
Sb 0.0492406936 -2.3911490591 -9.385904989 -0.000385665506072 -0.000156065974791 0.000748191081781
Sb -2.0795734842 1.2006423438 -8.0747504863 -0.000186919215276 0.000107729231363 0.000274593840324
Sb 4.2268652513 -2.4403783529 -8.0673174847 0.00099373145398 -0.000573613162698 0.00118142200027
Cr -2.1807180524 -3.6071175166 17.3068634799 0.00165501924173 -0.000955679124048 -0.00192138555125
61
Lattice="8.42843558953 0 0 -4.21421779477 7.29923593142 0 0 0 31.0334408416" Properties=species:S:1:pos:R:3:forces:R:3 energy=-133600.805083 ionic_step=33 pbc="T T T"
Te 2.113452138 0.7225162432 3.1021983506 5.16791778137e-05 -0.000133697375438 -0.00238238438618
Te 0.4310084807 -2.1915579048 3.1021983506 0.000141667795897 2.21114890148e-05 -0.00238238438618
Te -2.1533659221 1.2432464448 3.6888397373 7.45619978407e-06 -4.37087573549e-06 -0.00241118074396
Te 3.714596383 -2.1446196461 3.1188509416 -8.87030663967e-05 5.11649571389e-05 -0.00238521259989
Te -0.2461634091 0.1421225768 7.4570060365 -0.000112100107098 6.45346946828e-05 -0.000435544911524
Te -2.4016965926 -3.4795358626 7.4181042748 -3.85665506072e-06 2.31399303643e-06 -0.000446600656032
Te -3.6871079185 -0.3513603941 7.1076549011 5.45073915249e-05 0.000231913524318 -0.000805269576679
Te -1.5392671056 3.3688091649 7.1076549011 -0.000173549477733 -0.0001630079539 -0.000805269576679
Te -0.38891143 0.2245382234 -0.0999066617 5.03936261268e-05 -2.90534681241e-05 -0.00280558800151
Te -2.1531856162 -3.6230138078 0.234724968 4.19089849932e-05 -2.41683717139e-05 -0.00286960847552
Te -3.8825158802 0.1538239566 -0.1511063145 -2.64823647503e-05 3.34243438596e-05 -0.00261995433792
Te 2.1397444299 -4.0137906042 -0.1511063145 -4.21660953306e-05 6.17064809716e-06 -0.00261995433792
Te 0.3156095808 2.0728981524 13.4631583654 9.59021558433e-05 -0.000343499410742 0.0054108870502
Te -1.6373777842 -1.3097716582 13.4631583654 0.000345299183104 8.87030663967e-05 0.0054108870502
Te -4.6102366215 2.6617214988 13.9398040816 -6.14493706342e-05 3.54812265587e-05 0.00437961748696
Te 1.6654819361 -0.9615628827 13.6958687202 -0.000360468693009 0.000208002262942 0.005080757377
Te 1.770874466 1.1910150327 -13.6038233959 -0.000348641617489 -0.000890115988015 0.00177431843827
Te -0.1460119934 -2.1291262394 -13.6038233959 0.000596495982725 0.000747162640431 0.00177431843827
Te -1.4757008548 0.8519961834 -13.7992336286 0.000327044349149 -0.000188718987638 0.00182728316777
Te 4.1609462434 -2.4023199782 -14.3247812583 -0.000664630222132 0.000383608623373 0.00177611821063
Te 2.6055556634 1.0168319182 10.3209384698 0.000167635939973 2.57110337382e-06 0.00500388138612
Te 0.4221755109 -2.7648900952 10.3209384698 8.150397695e-05 -0.000146552892308 0.00500388138612
Te -2.4641694804 1.4226890464 10.5725453919 -8.61319630228e-05 4.96222951147e-05 0.00533966748674
Te 3.8988375941 -2.2509914085 10.661971919 -2.64823647503e-05 1.51695099055e-05 0.00564382901586
Te 0.4495134108 -0.2595268097 -7.5003846001 -2.85392474494e-05 1.64550615924e-05 -0.00252019552701
Te -1.5895729426 -3.948415885 -7.5420085361 -0.000158894188502 9.17883904452e-05 -0.00237801351044
Te 3.7753162108 0.2355169575 -7.1652107242 -2.10830476653e-05 -0.000183062560216 -0.00242403626083
Te 1.6836944937 -3.3872745874 -7.1652107242 0.000148095554332 0.000109786114062 -0.00242403626083
Te 0.3329352025 2.5372485889 -3.4973799443 4.55085297165e-05 -0.000112357217436 -0.00275030927897
Te -2.0308540571 -1.5569513119 -3.4973799443 0.00011981341722 1.67121719298e-05 -0.00275030927897
Te -4.593626836 2.6521318302 -3.4044590511 -9.7701928205e-05 5.63071638866e-05 -0.00271894181781
Te 2.062018187 -1.1905033023 -3.1577247943 -0.000147581333657 8.53606320107e-05 -0.00266623419865
Te -0.466071896 2.6634016616 -10.2352291327 0.000169435712334 -7.48191081781e-05 -0.00059109666564
Te -2.539609325 -0.9280670806 -10.2352291327 0.000149381106019 -0.000109271893387 -0.00059109666564
Te -3.7252597111 2.1507796032 -10.5450354356 4.88509641025e-06 -2.8282137112e-06 -0.000252225240971
Te 2.7102051591 -1.5647343975 -10.6354328345 -0.000115185431147 6.65915773818e-05 -0.00015220931973
Sb 0.0783958961 2.376132376 9.2657396353 -0.000121356079244 7.97042045883e-06 0.00285315341392
Sb -2.01859304 -1.2559555972 9.2657396353 -6.76200187314e-05 0.000101044362591 0.00285315341392
Sb -4.063193774 2.3458860163 8.1756363367 3.59954472334e-05 -2.08259373279e-05 0.000845378789311
Sb 2.2797497035 -1.3162107118 8.3077932953 -1.18270755196e-05 6.68486877192e-06 0.00108063474801
Sb -0.0715536193 2.4342828848 2.0546156454 -0.000199260511471 -4.01092126315e-05 -0.0025297086095
Sb -2.1439275954 -1.1551707015 2.0546156454 -6.50489153576e-05 0.000192575642699 -0.0025297086095
Sb -4.158926969 2.401157628 1.9722098431 0.000215201352388 -0.000124184292955 -0.00261481213117
Sb 2.0733147181 -1.19702536 0.9913882584 2.2882820027e-05 -1.33697375438e-05 -0.0025510487675
Sb 0.138253502 -0.0798207338 -11.4941987895 2.57110337382e-06 -1.54266202429e-06 0.000535560832766
Sb -2.1655730144 -3.6158619169 -11.233374199 -7.99613149257e-05 4.62798607287e-05 0.00100787252254
Sb -4.0208135389 0.1493922683 -12.7429597017 3.95949919568e-05 -1.00273031579e-05 0.00138376783579
Sb -2.1397842103 3.407430513 -12.7429597017 2.85392474494e-05 -2.93105784615e-05 0.00138376783579
Sb 0.0399394963 -0.0230590897 11.4990252932 -6.32491429959e-05 3.65096679082e-05 0.00651131929419
Sb -2.0702087518 -3.6709205479 11.783872498 6.42775843454e-06 -3.59954472334e-06 0.00657199733381
Sb 4.1903603007 0.042556842 12.6942974335 -2.59681440755e-05 5.70784948987e-05 0.00629560372113
Sb 2.0583248332 -3.6502334227 12.6942974335 -6.24778119837e-05 -6.17064809716e-06 0.00629560372113
Sb 2.0828097094 1.241305621 -1.5783013831 -8.58748526855e-05 -5.57929432118e-05 -0.00290611814342
Sb -0.0335973034 -2.4244154615 -1.5783013831 5.39931708501e-06 0.000102329914278 -0.00290611814342
Sb -2.1307255244 1.2301750002 -2.4234345511 0.000120841858569 -6.99340117678e-05 -0.0028963479506
Sb 4.2777006621 -2.4697282048 -1.7299883804 1.92832753036e-05 -1.10557445074e-05 -0.00289274840588
Sb 2.0929062884 1.1509035714 -9.3858397298 -0.000158894188502 -0.000114156989797 -0.00148866885344
Sb 0.0497414225 -2.3879583371 -9.3858397298 1.9540385641e-05 0.000194632525398 -0.00148866885344
Sb -2.0815272317 1.2017703409 -8.0714812058 0.000186919215276 -0.0001079863417 -0.00215869839266
Sb 4.2278186478 -2.4409287969 -8.0633363526 -6.53060256949e-05 3.75381092577e-05 -0.00224097370062
Cr -2.1853326156 -3.604453296 17.310882173 0.000173292367395 -0.000100015921241 0.00145370184756
61
Lattice="8.42843558953 0 0 -4.21421779477 7.29923593142 0 0 0 31.0334408416" Properties=species:S:1:pos:R:3:forces:R:3 energy=-133600.806789 ionic_step=34 pbc="T T T"
Te 2.1129373832 0.7198982172 3.0955699299 0.000512935123076 -0.000763103481349 0.00199671888011
Te 0.4330183793 -2.1898031009 3.0955699299 0.000917369683778 -6.24778119837e-05 0.00199671888011
Te -2.1551546148 1.2442791475 3.6873270623 -0.000387979499109 0.000223943103859 0.00152260741797
Te 3.7123003517 -2.1432940312 3.1124338293 -0.00080912623174 0.000467169483022 0.00208002262942
Te -0.2451949242 0.1415634215 7.4534620874 0.000649974932901 -0.000375381092577 -0.00131691914807
Te -2.4002521842 -3.4803697925 7.4169983886 0.000177149022456 -0.000102329914278 -0.00116702382138
Te -3.6887755982 -0.3506692006 7.1086681383 -0.000359183141322 -0.000126241175654 -0.00150743790807
Te -1.5406995363 3.3699078218 7.1086681383 -7.01911221052e-05 0.00037409554089 -0.00150743790807
Te -0.3917961604 0.2262037241 -0.1010037429 0.000842036354925 -0.000486195647989 0.00302644578132
Te -2.1543872351 -3.6223200526 0.2371769477 0.000554586997732 -0.000320359480378 0.00232144923622
Te -3.8812399597 0.1554716124 -0.1523170026 -0.00103564043897 0.000140125133873 0.00343653676944
Te 2.1389554791 -4.0157194121 -0.1523170026 -0.000639176298731 0.000826866845019 0.00343653676944
Te 0.3156908012 2.0721334727 13.4649503641 -0.00022188622116 -0.000145781561295 -0.00537154916858
Te -1.6366749422 -1.3094596573 13.4649503641 1.54266202429e-05 0.00026508075784 -0.00537154916858
Te -4.6067475043 2.659707055 13.9439928873 0.000195918077085 -0.000113128548448 -0.00523399513808
Te 1.6648399852 -0.961192252 13.6969956503 0.000109529003725 -6.32491429959e-05 -0.00520725566299
Te 1.7710663121 1.1918313444 -13.6034639061 -0.000564871411227 -0.00205636847838 -0.00124595669495
Te -0.1466230167 -2.129700539 -13.6034639061 0.00149843904626 0.00151746521123 -0.00124595669495
Te -1.4745452914 0.8513290183 -13.7972275658 0.000165321946936 -9.53879351686e-05 -0.00162905109765
Te 4.1584295741 -2.4008669778 -14.3274690709 -0.00184142423633 0.00106315124507 -0.0025765026909
Te 2.6050055343 1.0164050665 10.3220938639 -0.000432973808151 -0.000310846397894 -0.00360622959211
Te 0.4222701106 -2.7642002433 10.3220938639 5.27076191632e-05 0.000530418626018 -0.00360622959211
Te -2.4626539946 1.4218140799 10.5749645685 -7.30193358164e-05 4.21660953306e-05 -0.00339874154985
Te 3.9009329127 -2.2522011418 10.6617758942 -0.00029953354305 0.000173035257058 -0.00356457771746
Te 0.4501210834 -0.2598776498 -7.4970614171 -0.000492366296086 0.000284106922807 0.00245514661166
Te -1.5901725711 -3.9480696892 -7.5432771262 -0.000356869148286 0.000205945380243 0.0024176085024
Te 3.7761547456 0.2355678126 -7.1669956577 -7.63617702023e-05 0.00050573603363 0.00259038664912
Te 1.6840697193 -3.3880262077 -7.1669956577 -0.000476168344831 -0.000186919215276 0.00259038664912
Te 0.3342437909 2.5370338058 -3.4951737096 0.000585697348555 -0.000139868023536 0.00206973821592
Te -2.0300137553 -1.5579771917 -3.4951737096 0.000413947643184 -0.000437344683886 0.00206973821592
Te -4.5952870528 2.6530903573 -3.4008196711 -0.000375638202915 0.00021700112475 0.00244486219816
Te 2.0608081177 -1.1898046681 -3.1550442696 -0.000388750830121 0.000224457324534 0.00265389290245
Te -0.4663172008 2.661572526 -10.2355978836 0.000390550602483 -0.000223428883185 0.00206999532626
Te -2.5381479002 -0.9269400726 -10.2355978836 0.000388750830121 -0.000226514207233 0.00206999532626
Te -3.7245973479 2.1503971874 -10.5452212168 9.89874798919e-05 -5.70784948987e-05 0.00192498509598
Te 2.7136934235 -1.5667483488 -10.6347776908 0.000231142193306 -0.000133440265101 0.00117550846251
Sb 0.079901384 2.37722904 9.2646456888 0.000636862305694 -7.45619978407e-06 -0.00262149699994
Sb -2.0187900345 -1.2578077206 9.2646456888 0.000324730356113 -0.00054790212896 -0.00262149699994
Sb -4.0611137442 2.34468511 8.1809177674 -0.000420118291282 0.000242455048151 -0.00208465061549
Sb 2.2787914872 -1.3156574851 8.3101799694 -0.000286163805506 0.000165321946936 -0.00186070751163
Sb -0.0723187382 2.4339413891 2.0536120533 -0.000590582444966 6.76200187314e-05 0.00339051401905
Sb -2.1440144111 -1.1543373409 2.0536120533 -0.000353783824237 0.000477711006855 0.00339051401905
Sb -4.1593024509 2.4013744127 1.9691743886 0.000502650709581 -0.000290277570904 0.00303647308448
Sb 2.0728105639 -1.1967342863 0.9814043037 0.000214944242051 -0.000124184292955 0.00323701914763
Sb 0.1370773606 -0.0791416879 -11.4985481053 -0.000358154699973 0.000206716711255 0.000809640452415
Sb -2.1653163225 -3.6160101181 -11.2354078657 -0.000371010216842 0.000214172911039 0.00333343552415
Sb -4.0217435582 0.1494619744 -12.745855987 0.0001354971478 -0.000478739448205 -0.000425774718704
Sb -2.1403095871 3.4082010808 -12.745855987 0.000482338992928 0.000122127410256 -0.000425774718704
Sb 0.0401466827 -0.0231787088 11.5017068701 0.000501365157894 -0.000289506239892 -0.00417444343773
Sb -2.070039731 -3.6710181321 11.7879494397 -3.75381092577e-05 2.15972683401e-05 -0.00470434784307
Sb 4.1913268998 0.0415637048 12.6944718533 -0.000276136502348 -0.000401349236653 -0.00487044112102
Sb 2.0596682144 -3.6505739539 12.6944718533 0.000209544924966 0.00043991578726 -0.00487044112102
Sb 2.0821101898 1.24108958 -1.5742785549 0.000331158114548 -5.14220674763e-07 0.00260015684194
Sb -0.0337599663 -2.423701639 -1.5742785549 0.000166093277949 -0.000286678026181 0.00260015684194
Sb -2.1308563003 1.2302505038 -2.4266965248 -0.000268680302564 0.000155037533441 0.00206922399525
Sb 4.277747045 -2.469754984 -1.7278253622 -7.79044322266e-05 4.49943090418e-05 0.00279530358801
Sb 2.0920800257 1.1497491355 -9.3855556657 -0.000568985176626 0.000660259346396 0.0027222842522
Sb 0.0503280615 -2.3866655543 -9.3855556657 -0.000856434533818 0.000162750843563 0.0027222842522
Sb -2.0830261846 1.2026357622 -8.0684792509 0.000535560832766 -0.00030930373587 0.00237621373808
Sb 4.2291454802 -2.4416948443 -8.0588536399 0.000982675709473 -0.000567442514601 0.00224585879703
Cr -2.1889815738 -3.602346568 17.3129538563 -0.000170978374359 9.87303695545e-05 -0.00148609775007
61
Lattice="8.42843558953 0 0 -4.21421779477 7.29923593142 0 0 0 31.0334408416" Properties=species:S:1:pos:R:3:forces:R:3 energy=-133600.808105 ionic_step=35 pbc="T T T"
Te 2.1124315362 0.7179321184 3.0895489746 9.20455007826e-05 -4.57656400539e-05 -0.000333214997247
Te 0.4344681465 -2.1883819748 3.0895489746 8.56177423481e-05 -5.68213845613e-05 -0.000333214997247
Te -2.1569300899 1.245304219 3.6862026518 -7.04482324426e-05 4.06234333063e-05 -0.000334243438596
Te 3.7102735962 -2.1421238827 3.1065787153 -2.26257096896e-05 1.28555168691e-05 -0.000349670058839
Te -0.2445064584 0.1411659354 7.4500932243 0.000134725816788 -7.76473218893e-05 0.001672759855
Te -2.3988499438 -3.4811793767 7.4160143682 -4.65369710661e-05 2.67394750877e-05 0.00180440034774
Te -3.6907522536 -0.3502099156 7.1094046371 -0.000222400441835 -0.00023859839309 0.00149278261884
Te -1.5420856163 3.3713900138 7.1094046371 9.53879351686e-05 0.000311874839244 0.00149278261884
Te -0.3947105842 0.2278863682 -0.1025331419 -0.000137554030499 7.94470942509e-05 -0.000491080744399
Te -2.1556066348 -3.6216160314 0.2388933966 -1.72263926046e-05 9.7701928205e-06 -0.000733021571875
Te -3.8797917241 0.1568025506 -0.1540353923 0.000108757672712 8.84459560593e-05 -0.00037409554089
Te 2.1385269711 -4.0176390907 -0.1540353923 -2.21114890148e-05 -0.000138325361511 -0.00037409554089
Te 0.3156713786 2.070913472 13.4666066015 -0.000155294643779 8.99886180836e-06 0.00117345157981
Te -1.6356281024 -1.3088328365 13.4666066015 -8.56177423481e-05 0.000130097830715 0.00117345157981
Te -4.6034671087 2.6578131169 13.9474704749 0.00015118087838 -8.74175147098e-05 0.00086311940259
Te 1.6645565596 -0.9610286161 13.6991563837 1.02844134953e-06 -7.71331012145e-07 0.00133080310629
Te 1.771228486 1.1924264972 -13.6035261032 -0.00023859839309 -0.00173420922564 4.21660953306e-05
Te -0.1470573469 -2.1301385622 -13.6035261032 0.0013824822841 0.00107369276891 4.2423205668e-05
Te -1.473459516 0.8507021453 -13.7949443311 -2.33970407017e-05 1.33697375438e-05 0.000107729231363
Te 4.1558499534 -2.3993776324 -14.3300767365 -0.00141050731088 0.000814268438488 -0.000188461877301
Te 2.6038807648 1.0157711427 10.3230323279 -4.62798607287e-05 -1.6197951255e-05 0.00268551747395
Te 0.4222567197 -2.762909202 10.3230323279 -9.25597214574e-06 4.80796330904e-05 0.00268551747395
Te -2.4611311677 1.420934875 10.5764037864 8.58748526855e-05 -4.96222951147e-05 0.00286009539303
Te 3.9037942315 -2.2538531258 10.6629007873 0.000202345835519 -0.000116985203509 0.00259295775249
Te 0.4509051847 -0.2603303511 -7.4940949023 -0.000104901017652 6.04209292847e-05 -0.00246003170807
Te -1.5902169999 -3.9480440382 -7.5455590852 -6.58202463697e-05 3.80523299325e-05 -0.00252533773376
Te 3.7771739868 0.2354654032 -7.1678231199 1.25984065317e-05 9.20455007826e-05 -0.00192138555125
Te 1.6846680291 -3.3888576921 -7.1678231199 -7.35335564911e-05 -5.70784948987e-05 -0.00192138555125
Te 0.3349871481 2.5368013372 -3.4930987523 8.58748526855e-05 -6.9419791093e-06 0.000706282096787
Te -2.0294407531 -1.5585047239 -3.4930987523 4.91080744399e-05 -7.09624531173e-05 0.000706282096787
Te -4.5965999489 2.6538483586 -3.3976905961 -8.40750803238e-05 4.85938537651e-05 0.000774416336193
Te 2.0594803521 -1.189038082 -3.1527297334 -6.11922602968e-05 3.52241162213e-05 0.00073944933031
Te -0.4667495431 2.6601935685 -10.2361603331 5.91353775978e-06 -0.000311360618569 -0.0036728211695
Te -2.5371698597 -0.9258761742 -10.2361603331 0.000272536957625 0.000150409547368 -0.0036728211695
Te -3.7245764896 2.1503851449 -10.5456290899 -8.63890733602e-05 4.9879405452e-05 -0.00350801344323
Te 2.7163608611 -1.5682883954 -10.6352125851 -0.000350441389851 0.000202345835519 -0.00368747645873
Sb 0.080998689 2.378760796 9.2638959408 0.00018949031865 0.000429631373765 0.00264155160626
Sb -2.019567921 -1.259523893 9.2638959408 -0.000277164943697 -0.000378723526963 0.00264155160626
Sb -4.0592947686 2.3436349235 8.1851897226 -0.000261995433792 0.00015118087838 0.00194478259195
Sb 2.2788622331 -1.3156983303 8.3120088212 0.000222657552172 -0.000128555168691 0.00223171772847
Sb -0.07279564 2.4336960169 2.0528373878 -0.000204659828556 -2.31399303643e-06 -0.000854634761457
Sb -2.1440403635 -1.1538016456 2.0528373878 -0.000100273031579 0.000178434574143 -0.000854634761457
Sb -4.160076685 2.4018214171 1.9665075924 0.000242197937813 -0.000139868023536 -0.000875460698784
Sb 2.072383068 -1.1964874713 0.9719880846 8.33037493116e-05 -4.80796330904e-05 -0.00069419791093
Sb 0.135750754 -0.0783757708 -11.5021920424 6.04209292847e-05 -3.49670058839e-05 -0.00243843443973
Sb -2.1655324297 -3.6158853485 -11.2352479134 0.000259938551093 -0.000150152437031 -0.000986532364533
Sb -4.0224213878 0.1505271883 -12.7477869478 -2.31399303643e-06 0.000213401580027 -0.00109657558893
Sb -2.1415710038 3.4082554918 -12.7477869478 -0.000185890773927 -0.000104643907314 -0.00109657558893
Sb 0.0401925334 -0.0232051808 11.50472102 -5.91353775978e-05 3.41956748718e-05 0.00239241168934
Sb -2.0700859156 -3.6709914674 11.791450941 -0.000280507378083 0.00016197951255 0.00203734231341
Sb 4.19225879 0.0399550754 12.6948974725 6.7362908394e-05 -0.000198232070121 0.00177071889355
Sb 2.0615272728 -3.6505766801 12.6948974725 0.000205174049231 4.08805436437e-05 0.00177071889355
Sb 2.0815253513 1.2408896105 -1.5703985035 1.18270755196e-05 6.60773567071e-05 0.000114671210472
Sb -0.033879207 -2.423095169 -1.5703985035 -5.14220674763e-05 -4.31945366801e-05 0.000114671210472
Sb -2.1307457026 1.2301866501 -2.4300211314 6.17064809716e-06 -3.59954472334e-06 0.000719394723994
Sb 4.2777497495 -2.4697565454 -1.7257588886 5.39931708501e-05 -3.11103508232e-05 0.000282564260782
Sb 2.091952398 1.1490085745 -9.3852179076 -5.75927155735e-05 0.000160951071201 -0.00388365164615
Sb 0.0509055919 -2.3861847449 -9.3852179076 -0.000168407270985 -3.05961301484e-05 -0.00388365164615
Sb -2.0840133179 1.2032056842 -8.0656833482 6.81342394061e-05 -3.93378816194e-05 -0.00309612268275
Sb 4.2304961228 -2.4424746386 -8.054460749 0.000259938551093 -0.000150152437031 -0.00286935136518
Cr -2.1915442697 -3.6008669941 17.3131501788 0.000192061422024 -0.000111071665749 -7.19908944669e-05
61
Lattice="8.42843558953 0 0 -4.21421779477 7.29923593142 0 0 0 31.0334408416" Properties=species:S:1:pos:R:3:forces:R:3 energy=-133600.809434 ionic_step=36 pbc="T T T"
Te 2.1119299748 0.7164000241 3.0836292903 0.000105415238326 -5.45073915249e-05 -0.00207153798828
Te 0.4355441978 -2.1871815626 3.0836292903 0.000100015921241 -6.42775843454e-05 -0.00207179509862
Te -2.159032158 1.2465178492 3.6849786561 -8.09897562752e-05 4.70511917408e-05 -0.00162776554596
Te 3.7083408804 -2.1410080282 3.1008530621 -4.39658676923e-05 2.51968130634e-05 -0.00205482581635
Te -0.2442345502 0.141008949 7.4468570025 0.000207488042267 -0.00011981341722 0.000729164916814
Te -2.3970924991 -3.4821940384 7.4149946393 -6.45346946828e-05 3.72809989203e-05 0.000791128508123
Te -3.6928034685 -0.3496997435 7.110009417 -0.000264823647503 -0.00030441863946 0.000671572201241
Te -1.5435530455 3.3729113329 7.110009417 0.000131126272065 0.000381551740674 0.000671572201241
Te -0.3981190147 0.2298542274 -0.1045706501 -0.000117242313846 6.78771290688e-05 -0.00419681203708
Te -2.1570867901 -3.620761463 0.2400771557 3.80523299325e-05 -2.18543786774e-05 -0.00419424093371
Te -3.8780226961 0.1580328653 -0.1564047882 5.60500535492e-05 0.000145524450958 -0.00406028644793
Te 2.1383460019 -4.0197862719 -0.1564047882 -9.79590385424e-05 -0.000121098968907 -0.00406054355827
Te 0.3156647778 2.0694032133 13.4683746567 -6.81342394061e-05 0.000110557445074 0.000906828159945
Te -1.634323481 -1.3080719907 13.4683746567 -0.000129840720378 3.59954472334e-06 0.000906828159945
Te -4.5995279683 2.655538852 13.950661007 4.39658676923e-05 -2.51968130634e-05 0.0010014447641
Te 1.6645745599 -0.9610390085 13.7021082341 5.37360605128e-05 -3.08532404858e-05 0.000908370821969
Te 1.7711554891 1.1928046781 -13.6044045195 -0.000162493733225 3.05961301484e-05 0.00338691447433
Te -0.1474213595 -2.1302644354 -13.6044045195 -0.000107472121026 0.000125212734305 0.00338665736399
Te -1.472271773 0.8500164012 -13.7928454437 0.000289763350229 -0.000167121719298 0.00317042757025
Te 4.1531119475 -2.3977968433 -14.3337808765 0.000100530141916 -5.81069362482e-05 0.00261712612421
Te 2.6027045164 1.0149763555 10.3243792122 -3.16245714979e-05 -0.000139610913198 0.00115391119417
Te 0.4223569011 -2.7614931469 10.3243792122 0.000105415238326 9.69305971929e-05 0.00115391119417
Te -2.4594395726 1.4199582316 10.5777735591 3.59954472334e-06 -1.79977236167e-06 0.00131409093436
Te 3.9072591784 -2.2558536147 10.6647814133 2.77679164372e-05 -1.59408409177e-05 0.00102612735649
Te 0.4521502364 -0.2610491824 -7.4907973272 -0.00010412968664 5.99067086099e-05 -0.000400063684966
Te -1.5893354096 -3.9485530248 -7.5485189659 -0.000119299196545 6.89055704183e-05 -0.000367153561781
Te 3.7779286371 0.2356770908 -7.1679274984 -0.000100273031579 0.000277679164372 -0.000225228655546
Te 1.6848620275 -3.3896170826 -7.1679274984 -0.000291048901916 -5.19362881511e-05 -0.000224971545209
Te 0.3356863933 2.5366852449 -3.4912267611 0.000283849812469 8.45893009986e-05 -0.0013233469065
Te -2.0289905917 -1.5590522422 -3.4912267611 6.89055704183e-05 -0.000288220688205 -0.0013233469065
Te -4.5981157489 2.6547235065 -3.3947870552 -0.000246825923886 0.000142696237247 -0.00135754258138
Te 2.0577623161 -1.188046173 -3.1507337105 -4.70511917408e-05 2.67394750877e-05 -0.00148146976399
Te -0.4668341534 2.6591321842 -10.2363997869 0.000333214997247 -0.000335271879946 0.0016341933044
Te -2.5362929796 -0.9252722073 -10.2363997869 0.000456885069527 -0.000120841858569 0.00163445041474
Te -3.7248044281 2.1505167453 -10.5467442738 -0.000273565398974 0.00015812285749 0.00206948110558
Te 2.7187957996 -1.5696942084 -10.6369355728 -0.000280764488421 0.00016197951255 0.00200751751428
Sb 0.0817185151 2.3802771352 9.2631364684 0.000197203628772 0.000413690532847 0.00135317170564
Sb -2.0205211956 -1.2609054506 9.2631364684 -0.000259681440755 -0.000377695085614 0.0013529145953
Sb -4.0575913702 2.3426514655 8.1898017681 -0.000301590425749 0.000174063698407 0.000876232029797
Sb 2.2791764807 -1.3158797613 8.3136207701 0.000191032980675 -0.000110043224399 0.0012174174475
Sb -0.0731906374 2.4334692305 2.0521219163 -0.00015812285749 3.59954472334e-05 -0.00340311242558
Sb -2.1440414595 -1.1533461744 2.0521219163 -0.000110300334737 0.000119042086208 -0.00340336953592
Sb -4.1612365589 2.402491071 1.9636714128 0.000222400441835 -0.000128298058353 -0.00354015223541
Sb 2.0719891106 -1.1962600198 0.9626351537 0.000105672348664 -6.09351499594e-05 -0.00370521707201
Sb 0.1348283867 -0.0778432416 -11.5050825305 -5.34789501754e-05 3.11103508232e-05 0.00291126035017
Sb -2.1661063165 -3.6155540147 -11.23246704 0.000232941965668 -0.000134468706451 0.00283078481457
Sb -4.0229392778 0.1526311873 -12.749196558 -1.64550615924e-05 0.000184091001565 0.00349052994029
Sb -2.1436520646 3.4076519983 -12.749196558 -0.000167635939973 -7.73902115519e-05 0.00349052994029
Sb 0.0401322489 -0.0231703755 11.5075661976 4.88509641025e-05 -2.80250267746e-05 0.000763360591686
Sb -2.0697696144 -3.6711740841 11.7952442353 -0.000267394750877 0.000154266202429 0.000514734895438
Sb 4.1930630289 0.0378453029 12.695661469 2.46825923886e-05 -0.000229599531282 0.000567956735276
Sb 2.0637565079 -3.6502182855 12.695661469 0.000211344697328 9.33310524695e-05 0.000567956735276
Sb 2.0809487552 1.2406792464 -1.5664773549 5.19362881511e-05 4.88509641025e-06 -0.00348153107848
Sb -0.0339853244 -2.4224906398 -1.5664773549 2.21114890148e-05 -4.75654124156e-05 -0.00348178818882
Sb -2.1304876733 1.2300376767 -2.4340997483 -4.42229780296e-05 2.54539234008e-05 -0.00223480305252
Sb 4.2775623291 -2.4696483381 -1.7238533194 1.92832753036e-05 -1.10557445074e-05 -0.00330746738008
Sb 2.0915770159 1.1481557472 -9.3848963858 -6.63344670445e-05 0.000477968117192 0.000536075053441
Sb 0.0514564707 -2.3854332406 -9.3848963858 -0.000447114876707 -0.000181519898191 0.000536075053441
Sb -2.0847276122 1.2036180823 -8.0625336925 7.97042045883e-06 -4.88509641025e-06 -0.000394921478218
Sb 4.2317138122 -2.4431776722 -8.0498327097 0.000469483476059 -0.0002709942956 -6.14493706342e-05
Cr -2.1937279981 -3.5996062174 17.3124495348 0.000225742876221 -0.000130354941052 0.00306938320766
61
Lattice="8.42843558953 0 0 -4.21421779477 7.29923593142 0 0 0 31.0334408416" Properties=species:S:1:pos:R:3:forces:R:3 energy=-133600.810945 ionic_step=37 pbc="T T T"
Te 2.11144324 0.7156835702 3.0778786177 6.32491429959e-05 2.54539234008e-05 -0.00255799074661
Te 0.4359212973 -2.1864018108 3.0778786177 9.25597214574e-06 -6.76200187314e-05 -0.00255850496728
Te -2.161735928 1.2480788722 3.6830326403 -7.94470942509e-05 4.60227503913e-05 -0.00193424106812
Te 3.7068961363 -2.1401739045 3.0953498118 -2.2882820027e-05 1.33697375438e-05 -0.00250142647239
Te -0.2445924302 0.1412155713 7.4437107617 0.000301076205074 -0.00017380658807 0.00141025020054
Te -2.3946646899 -3.4835957353 7.4138962648 2.23685993522e-05 -1.25984065317e-05 0.00136936965689
Te -3.694793784 -0.3489000153 7.1104071948 -0.00033090100421 -0.000245797482537 0.00132437534785
Te -1.5452407879 3.3742351334 7.1104071948 4.7822522753e-05 0.000409062546774 0.00132437534785
Te -0.4020115502 0.2321015849 -0.1071692292 -0.000128040948016 7.35335564911e-05 -0.00391861865203
Te -2.1590441206 -3.6196313972 0.2404790808 7.32764461538e-05 -4.19089849932e-05 -0.00406568576502
Te -3.8761352447 0.1591501929 -0.1595048791 0.00010901478305 0.000246568813549 -0.00379649124178
Te 2.1383220938 -4.0219795173 -0.1595048791 -0.000158637078164 -0.000217772455762 -0.00379726257279
Te 0.3159113892 2.0679165799 13.4704019846 -6.11922602968e-05 2.03117166531e-05 0.000268166081889
Te -1.6329127136 -1.3075422458 13.4704019846 -4.83367434277e-05 4.26803160054e-05 0.000268166081889
Te -4.5942649039 2.652500219 13.9535602898 3.75381092577e-05 -2.15972683401e-05 0.000385408395735
Te 1.6648594183 -0.9612034717 13.7058837004 -1.4141068556e-05 8.22753079621e-06 0.000272536957625
Te 1.7707681898 1.1929387766 -13.6063701909 -0.00041240498116 -0.000245540372199 0.00302696000199
Te -0.1477311418 -2.1299960734 -13.6063701909 6.42775843454e-06 0.000480282110229 0.00302721711233
Te -1.4707021372 0.8491101711 -13.7912428855 0.000573098942024 -0.000331158114548 0.00275159483066
Te 4.1502985215 -2.3961725102 -14.3393246487 2.10830476653e-05 -1.15699651822e-05 0.00205688269905
Te 2.6017115098 1.0139505682 10.3265942324 -7.84186529014e-05 -0.000186662104939 0.000905799718595
Te 0.4227487552 -2.760120284 10.3265942324 0.000122127410256 0.000160951071201 0.000906571049608
Te -2.4574879308 1.4188314502 10.579730891 -4.11376539811e-06 2.8282137112e-06 0.00097213418564
Te 3.9112069641 -2.258132871 10.6669337056 -4.13947643184e-05 2.44254820513e-05 0.000572070500674
Te 0.4540729542 -0.2621592646 -7.4866111995 -6.06780396221e-05 3.49670058839e-05 -0.000347870286477
Te -1.5873225431 -3.9497151544 -7.5518921388 -4.01092126315e-05 2.2882820027e-05 -0.00028179292977
Te 3.7779894923 0.236511273 -7.1673725277 -0.000224200214197 0.000383094402699 2.62252544129e-05
Te 1.6841700324 -3.3900868759 -7.1673725277 -0.000443515331983 2.8282137112e-06 2.57110337382e-05
Te 0.3364661293 2.5367392688 -3.4896974223 0.000273822509311 5.14220674763e-07 -0.000232941965668
Te -2.0286475097 -1.5597545256 -3.4896974223 0.000137039809824 -0.000237312841403 -0.00023268485533
Te -4.5999634855 2.6557902983 -3.3921069422 -0.000213401580027 0.000123927182618 -0.00025042546861
Te 2.0554030462 -1.1866840472 -3.1494483711 -0.000120841858569 6.9419791093e-05 -0.000420118291282
Te -0.4662397027 2.6583669715 -10.2358230205 0.000427574491066 -0.000720937386018 0.00113977012561
Te -2.5353330609 -0.9254044106 -10.2358230205 0.000838693920539 -1.02844134953e-05 0.00114028434629
Te -3.7249401091 2.1505950808 -10.5487748418 -0.00044582932502 0.000258138778731 0.00167378829635
Te 2.7213974105 -1.5711962499 -10.6402300089 -0.000713224075897 0.00041240498116 0.00145730139228
Sb 0.08195501 2.3814141834 9.2619466521 0.000203117166531 0.000336557431633 0.00154677578969
Sb -2.0213876602 -1.2616787854 9.2619466521 -0.000190004539325 -0.000344270741754 0.00154703290003
Sb -4.0560229629 2.3417459447 8.1956453466 -0.000301590425749 0.000173549477733 0.00133491687169
Sb 2.2791210761 -1.3158477734 8.3150316983 0.000133697375438 -7.66188805397e-05 0.00170104199212
Sb -0.0736253731 2.43322256 2.0511662175 -0.000161465291876 -9.0245728421e-05 -0.00397852536064
Sb -2.1440452046 -1.1528463468 2.0511662175 -2.57110337382e-06 0.000185119442915 -0.00397852536064
Sb -4.1628444419 2.4034193831 1.9601353387 0.000222400441835 -0.000128298058353 -0.00407211352345
Sb 2.0716342578 -1.1960551453 0.9540379953 -1.9540385641e-05 1.15699651822e-05 -0.00409988143989
Sb 0.1347644098 -0.0778063045 -11.5071146133 -1.28555168691e-06 7.71331012145e-07 0.00226154252761
Sb -2.1667764689 -3.6151671018 -11.2268164676 0.000470511917408 -0.000271251405938 0.0025042546861
Sb -4.0232275047 0.1559814768 -12.7503331825 -4.31945366801e-05 0.000299276432712 0.00286369493776
Sb -2.1466976125 3.4062264655 -12.7503331825 -0.000281535819433 -0.000112357217436 0.00286369493776
Sb 0.040062567 -0.0231301446 11.5100810654 0.000113128548448 -6.55631360323e-05 0.000129840720378
Sb -2.0685882195 -3.6718561631 11.7997698111 -0.000188976097975 0.000109271893387 -0.000166864608961
Sb 4.1936456247 0.0351400077 12.6968483024 -2.59681440755e-05 -0.000171235484696 -0.000175863470769
Sb 2.0663906591 -3.649370181 12.6968483024 0.000135240037463 0.0001079863417 -0.000175863470769
Sb 2.0803313294 1.2403934951 -1.5627294786 4.19089849932e-05 -7.97042045883e-05 -0.00259090086979
Sb -0.0340465696 -2.4218130575 -1.5627294786 8.94743974088e-05 3.85665506072e-06 -0.00259167220081
Sb -2.1301389788 1.2298363578 -2.4391383444 -2.4939702726e-05 1.38839582186e-05 -0.001037183101
Sb 4.2769224641 -2.4692789117 -1.7224395075 -2.57110337382e-05 1.49123995681e-05 -0.00237261419336
Sb 2.090294195 1.1466626299 -9.384572642 -0.000184091001565 0.00046639815201 0.000154266202429
Sb 0.0521081371 -2.383575726 -9.384572642 -0.000496222951147 -7.37906668285e-05 0.000154009092092
Sb -2.0853141788 1.2039567369 -8.0586300645 5.14220674763e-05 -3.0339019811e-05 -0.000438373125236
Sb 4.2325520793 -2.4436616462 -8.0445641954 0.000558186542456 -0.000321645032064 7.07053427799e-05
Cr -2.1960717349 -3.5982530597 17.3117937806 0.000313931721943 -0.000181005677517 0.00261352657948
61
Lattice="8.42843558953 0 0 -4.21421779477 7.29923593142 0 0 0 31.0334408416" Properties=species:S:1:pos:R:3:forces:R:3 energy=-133600.812466 ionic_step=38 pbc="T T T"
Te 2.1110802798 0.7156444903 3.0730447604 4.31945366801e-05 -4.01092126315e-05 -0.0012408144882
Te 0.4357736615 -2.1860679379 3.0730447604 5.73356052361e-05 -1.7483502942e-05 -0.0012408144882
Te -2.1648054035 1.2498510355 3.6806291833 -6.89055704183e-05 3.98521022942e-05 -0.00103384066661
Te 3.7059391283 -2.1396213754 3.0908541686 -0.00011878497587 6.76200187314e-05 -0.00117910800723
Te -0.2455066471 0.1417433949 7.4415419314 0.000363811127395 -0.000210059145641 -0.00033090100421
Te -2.3918185932 -3.4852389308 7.413175002 0.000186662104939 -0.000107472121026 -0.000412147870823
Te -3.6962458189 -0.3480388262 7.1104687946 -0.000250682578947 -4.49943090418e-05 -0.000235513069042
Te -1.5467126166 3.3750620385 7.1104687946 -8.71604043724e-05 0.000239883944777 -0.000235513069042
Te -0.4059674131 0.2343855045 -0.109964261 -5.16791778137e-05 3.0339019811e-05 -0.000986532364533
Te -2.1613935834 -3.6182749335 0.2399747759 0.000132926044426 -7.68759908771e-05 -0.00128375191455
Te -3.8743015173 0.1600594743 -0.1629874786 6.1963591309e-05 0.000284621143481 -0.000905028387583
Te 2.1384514972 -4.0240222133 -0.1629874786 -0.000215201352388 -0.000195918077085 -0.000904514166909
Te 0.3164709712 2.0666337307 13.4724986193 -9.10170594331e-05 -0.000197460739109 -0.00222888951476
Te -1.6315219431 -1.3073854336 13.4724986193 0.00012572695498 0.000177406132793 -0.00222940373544
Te -4.5882834311 2.6490468125 13.9558205423 0.000214687131714 -0.000123412961943 -0.00174783607352
Te 1.6652964187 -0.9614557741 13.7097429634 -4.42229780296e-05 2.54539234008e-05 -0.00196098054321
Te 1.7699648944 1.1929157291 -13.6092183392 -0.000649717822563 -0.000993988564317 0.00400500772539
Te -0.1481128298 -2.1292888752 -13.6092183392 0.000536589274115 0.00105955170035 0.00400552194607
Te -1.4688385517 0.848034229 -13.7904050706 0.000728136475465 -0.000420375401619 0.00354169489743
Te 4.1481180679 -2.3949136242 -14.3460329872 -0.000550987453009 0.000317788377004 0.00230885082969
Te 2.6012656675 1.0129392249 10.3296426847 -0.000149895326693 -0.000191290091012 -0.00297810903789
Te 0.4234016827 -2.7592285013 10.3296426847 8.99886180836e-05 0.000225742876221 -0.00297862325857
Te -2.455643466 1.4177665474 10.5822451167 -0.000103615465965 5.93924879352e-05 -0.00297425238283
Te 3.9148635558 -2.2602440062 10.668911558 -0.000242969268826 0.000140125133873 -0.00329024098747
Te 0.4566007613 -0.2636186953 -7.4819512915 -1.79977236167e-06 7.71331012145e-07 -0.000207488042267
Te -1.5844811188 -3.9513556523 -7.5548447741 -0.000205688269905 0.000119556306882 -2.44254820513e-05
Te 3.7771389506 0.2377381563 -7.1663703197 -0.000231399303643 0.000148352664669 0.000223171772847
Te 1.68268225 -3.3899637265 -7.1663703197 -0.00024451193085 0.00012572695498 0.000223685993522
Te 0.3376102796 2.5370954922 -3.4889412458 0.000224714434872 -5.39931708501e-06 0.000886002222617
Te -2.0283839329 -1.560923501 -3.4889412458 0.000116470982834 -0.000192061422024 0.00088574511228
Te -4.6022484507 2.6571095241 -3.3901918952 -0.000153751981754 8.81888457219e-05 0.000988075026558
Te 2.0525747349 -1.1850511201 -3.1491523892 -0.00015118087838 8.71604043724e-05 0.000839979472226
Te -0.4651862207 2.658093774 -10.2342372881 0.000482338992928 -0.000805526687017 0.00239395435136
Te -2.534569724 -0.9261801545 -10.2342372881 0.00093973828313 -1.64550615924e-05 0.00239369724102
Te -3.7247408786 2.150480055 -10.5512741538 -0.000423460725668 0.000245540372199 0.00306475522159
Te 2.7239210183 -1.5726532562 -10.6447963985 -0.000901943063535 0.000519619991848 0.00291460278456
Sb 0.0815866624 2.3815920483 9.2602793094 0.000226514207233 -6.37633636706e-05 -0.00174680763217
Sb -2.0217258696 -1.2614487192 9.2602793094 0.000168664381322 -0.000164293505587 -0.00174706474251
Sb -4.0550010927 2.3411559674 8.2018657413 -0.000241169496464 0.000139610913198 -0.00108140607903
Sb 2.2784608664 -1.315466601 8.3161995235 -0.000154780423104 8.87030663967e-05 -0.000895772415438
Sb -0.0742482061 2.4330314182 2.0501483607 -0.00019643229776 -0.000171492595034 -0.0016383070698
Sb -2.1441910875 -1.1522113865 2.0501483607 5.01365157894e-05 0.000255824785695 -0.00163856418013
Sb -4.1645446643 2.4044010074 1.9562999773 0.00025042546861 -0.000144496009608 -0.00164782015228
Sb 2.071344596 -1.195887909 0.9475012284 -8.22753079621e-05 4.70511917408e-05 -0.00136602722251
Sb 0.1357582609 -0.078380105 -11.5080105985 6.53060256949e-05 -3.83094402699e-05 0.00359645939929
Sb -2.1672153518 -3.6149137125 -11.2196604228 0.00043888734591 -0.000251711020297 0.00443206799578
Sb -4.0233544034 0.1603706595 -12.7514129742 -4.96222951147e-05 0.000237827062078 0.00409113968842
Sb -2.1505622038 3.4041417717 -12.7514129742 -0.000231399303643 -7.55904391902e-05 0.00409113968842
Sb 0.040232793 -0.0232284247 11.5116720224 0.000252739461646 -0.000146552892308 -0.00360083027503
Sb -2.0662899786 -3.6731830537 11.8047836967 6.9419791093e-05 -3.98521022942e-05 -0.00382631604091
Sb 4.193957599 0.0322251067 12.698464606 -0.000128812279028 3.98521022942e-05 -0.00327430014656
Sb 2.0690710234 -3.6481829082 12.698464606 -9.89874798919e-05 9.17883904452e-05 -0.00327378592588
Sb 2.0797435212 1.2400312761 -1.5597258388 4.26803160054e-05 -3.9080771282e-05 -0.000139353802861
Sb -0.0340267829 -2.421122891 -1.5597258388 5.50216121997e-05 -1.7483502942e-05 -0.000139610913198
Sb -2.1298640922 1.2296776519 -2.4448654779 -4.06234333063e-05 2.39112613765e-05 0.000851035216733
Sb 4.2757457085 -2.4685995113 -1.7219407478 2.33970407017e-05 -1.36268478812e-05 -2.13401580027e-05
Sb 2.0879854788 1.144276937 -9.3842996585 -0.000297733770688 0.000323444804426 0.000896029525775
Sb 0.0530198487 -2.3803834717 -9.3842996585 -0.00042911715309 9.64163765181e-05 0.000895258194763
Sb -2.0855673917 1.2041029295 -8.0546007218 0.000104901017652 -6.06780396221e-05 -6.96769014304e-05
Sb 4.2328410803 -2.443828501 -8.0391929273 0.000476939675843 -0.000274593840324 0.000460741724588
Cr -2.1987302871 -3.5967181431 17.3122071411 0.000326273018137 -0.000188461877301 0.00334629104102
61
Lattice="8.42843558953 0 0 -4.21421779477 7.29923593142 0 0 0 31.0334408416" Properties=species:S:1:pos:R:3:forces:R:3 energy=-133600.813979 ionic_step=39 pbc="T T T"
Te 2.1108659606 0.7161648418 3.0693660307 2.23685993522e-05 2.62252544129e-05 -0.00163804995946
Te 0.4352158644 -2.1861425077 3.0693660307 -1.20841858569e-05 -3.26530128475e-05 -0.00163882129047
Te -2.1680467549 1.2517224315 3.6779651503 -2.72536957625e-05 1.56837305803e-05 -0.00128349480421
Te 3.7055002054 -2.139367963 3.0875579833 -7.2762225479e-05 4.19089849932e-05 -0.00159742652615
Te -0.2466982906 0.1424313909 7.440582246 0.000359697361997 -0.000207745152604 0.000185119442915
Te -2.388865268 -3.4869440347 7.4131743471 0.000249654137598 -0.000144238899271 -2.57110337382e-06
Te -3.6971337854 -0.3473920676 7.1101317178 -0.000168664381322 4.70511917408e-05 0.000179463015492
Te -1.547716709 3.3755076611 7.1101317178 -0.000126755396329 0.000122127410256 0.000179463015492
Te -0.4094659756 0.2364054014 -0.1126327985 -1.56837305803e-05 8.74175147098e-06 -0.00159562675379
Te -2.164079466 -3.6167242378 0.2385192221 0.000158894188502 -9.10170594331e-05 -0.00178511707244
Te -3.8727808814 0.160689482 -0.1664967097 7.71331012145e-06 0.000252739461646 -0.00151052323212
Te 2.1386662127 -4.025654127 -0.1664967097 -0.000215458462726 -0.000133183154764 -0.00151052323212
Te 0.3173958153 2.0655958763 13.474625355 2.18543786774e-05 -0.000349412948502 -0.00164190661452
Te -1.6301607133 -1.3076674453 13.474625355 0.000312646170256 0.000156323085128 -0.00164164950418
Te -4.5823418575 2.6456164417 13.9573166858 0.000111071665749 -6.50489153576e-05 -0.00124544247428
Te 1.6656914965 -0.9616838725 13.7133481385 -0.000161208181538 9.33310524695e-05 -0.00138993848389
Te 1.7688780807 1.1929619211 -13.6123690746 -0.000661287787746 -0.00107729231363 0.00355763573835
Te -0.1486962401 -2.1283707625 -13.6123690746 0.000602152410148 0.0011114879885 0.00355789284869
Te -1.4666894135 0.8467934229 -13.7899244957 0.000783158087664 -0.000451999973117 0.0031776266597
Te 4.1469891812 -2.3942618608 -14.3527603298 -0.000567956735276 0.000328072790499 0.00214995664119
Te 2.6012045321 1.0120285169 10.3331785107 -0.000189747428988 -0.000127012506667 -0.00235898734548
Te 0.4241598108 -2.7587202025 10.3331785107 1.54266202429e-05 0.000226771317571 -0.0023605300075
Te -2.4541310119 1.4168933313 10.5850176317 -8.74175147098e-05 5.11649571389e-05 -0.00246568813549
Te 3.9179293828 -2.262014063 10.670564944 -0.000296448219001 0.000171235484696 -0.0026713764054
Te 0.4595620798 -0.2653284142 -7.4772064654 4.08805436437e-05 -2.31399303643e-05 -9.28168317948e-05
Te -1.5815603619 -3.9530419528 -7.5570813311 1.7483502942e-05 -1.02844134953e-05 0.000230885082969
Te 3.7756551412 0.2387973041 -7.1651593567 -0.000259681440755 0.000151952209393 0.000439658676923
Te 1.6810230968 -3.3892082831 -7.1651593567 -0.00026122410278 0.000149381106019 0.00043991578726
Te 0.3390820197 2.5376951848 -3.4890229826 -4.21660953306e-05 -0.000175863470769 0.000968020420242
Te -2.0281674116 -1.5624979123 -3.4890229826 0.000131897603077 0.000124955623967 0.000968277530579
Te -4.6047667423 2.6585634612 -3.3892618043 0.000135754258138 -7.84186529014e-05 0.000999387881402
Te 2.0494462911 -1.1832449114 -3.1499042063 -0.000122641630931 7.12195634547e-05 0.000900143291173
Te -0.464339423 2.6582846127 -10.2318636287 0.000414461863859 -0.00091814101479 0.00194195437824
Te -2.5343115963 -0.9270089225 -10.2318636287 0.00100195898478 9.97588109041e-05 0.00194118304723
Te -3.7242350757 2.1501880294 -10.5534121468 -0.000361497134359 0.000208259373279 0.00257624558056
Te 2.7262926479 -1.5740225178 -10.6499909356 -0.00112048685031 0.000648175160539 0.00239446857204
Sb 0.0807380581 2.3807115076 9.2581397066 0.000180234346505 -0.000316245714979 -0.00111714441592
Sb -2.0213876014 -1.2602735357 9.2581397066 0.000364068237732 2.05688269905e-06 -0.0011176586366
Sb -4.0547287035 2.3409987033 8.2075245985 -0.000188718987638 0.000110300334737 -0.000314445942618
Sb 2.2773711444 -1.3148374494 8.3171390215 -0.000339899866019 0.000195918077085 -0.000322930583751
Sb -0.0751431454 2.432980442 2.0490657788 -0.000142696237247 -0.000157608636815 -0.00240578142688
Sb -2.1445944105 -1.1514108578 2.0490657788 6.58202463697e-05 0.000202088725182 -0.00240603853722
Sb -4.1661043335 2.4053014832 1.9523999742 0.000178434574143 -0.000102587024615 -0.00245797482537
Sb 2.0710909814 -1.1957414844 0.9434972673 -8.61319630228e-05 4.96222951147e-05 -0.002307565278
Sb 0.137447759 -0.0793555376 -11.5082136548 0.000208002262942 -0.000120070527557 0.00299842075454
Sb -2.167252587 -3.6148922148 -11.2128214109 0.000394150147206 -0.000227028427908 0.00355480752464
Sb -4.0234284316 0.1655808842 -12.7528165044 -0.000128555168691 0.000146552892308 0.00339745599816
Sb -2.1551114027 3.4016007697 -12.7528165044 -0.000191032980675 3.80523299325e-05 0.00339642755681
Sb 0.0408116499 -0.023562628 11.5126945003 0.000269965854251 -0.000155808864453 -0.00305138548405
Sb -2.0630186263 -3.6750717707 11.8099342732 0.000246311703212 -0.000142182016572 -0.00318302597678
Sb 4.1941550347 0.0292249683 12.700434854 -0.000193089863374 0.000167121719298 -0.00263075297209
Sb 2.0717679361 -3.6468538235 12.700434854 -0.000241426606801 8.38179699864e-05 -0.0026315243031
Sb 2.0792119654 1.2395819751 -1.5577146574 5.8621156923e-05 -0.00022291466251 -0.00028873490888
Sb -0.033903455 -2.4204378995 -1.5577146574 0.00022188622116 6.09351499594e-05 -0.000288220688205
Sb -2.1297784541 1.2296282086 -2.4507173642 -7.09624531173e-05 4.08805436437e-05 0.000700882779702
Sb 4.2740267896 -2.4676070926 -1.722516702 -0.000191290091012 0.000110557445074 -0.000173035257058
Sb 2.0851320552 1.1409359651 -9.3840317931 -0.000389265050796 -6.89055704183e-05 0.000769788350121
Sb 0.0544865021 -2.3762418473 -9.3840317931 -0.000135754258138 0.000371524437516 0.000769274129446
Sb -2.085329679 1.2039656859 -8.0509686649 0.000149638216356 -8.63890733602e-05 0.000259938551093
Sb 4.232806587 -2.4438085863 -8.0337543793 0.000169435712334 -9.7701928205e-05 0.000591353775978
Cr -2.201818768 -3.594935007 17.3142446529 0.000333729217921 -0.000193089863374 0.00280353111881
61
Lattice="8.42843558953 0 0 -4.21421779477 7.29923593142 0 0 0 31.0334408416" Properties=species:S:1:pos:R:3:forces:R:3 energy=-133600.815747 ionic_step=40 pbc="T T T"
Te 2.1106701204 0.7166330278 3.0651459929 6.65915773818e-05 9.38452731443e-05 -0.00179180194121
Te 0.4347124835 -2.186206998 3.0651459929 -4.67940814035e-05 -0.000105672348664 -0.00179283038256
Te -2.1720852579 1.2540540634 3.6748780088 1.02844134953e-06 2.57110337382e-07 -0.00130792028626
Te 3.7048894625 -2.1390153503 3.0837918831 0.000200031842483 -0.000116213872496 -0.00192524220631
Te -0.2478808461 0.1431141399 7.4402757352 6.42775843454e-06 -3.59954472334e-06 0.00085232076842
Te -2.3854707609 -3.4889038552 7.4140165331 6.68486877192e-05 -3.9080771282e-05 0.000764646143373
Te -3.6979573483 -0.3471469892 7.109406562 9.7701928205e-06 7.22480048042e-05 0.000755904391902
Te -1.5483407345 3.3760983487 7.109406562 -5.8621156923e-05 -4.49943090418e-05 0.000757447053926
Te -0.4132123344 0.2385683637 -0.1155767719 -0.000159151298839 9.17883904452e-05 -0.00292977229446
Te -2.1676992377 -3.6146343607 0.2362173688 -0.000157865747152 9.15312801079e-05 -0.00279838891206
Te -3.8711110046 0.1613305812 -0.1706075724 0.000101815693603 -6.78771290688e-05 -0.00279067560194
Te 2.1389459431 -4.0274208331 -0.1706075724 0.000110043224399 -5.34789501754e-05 -0.00279118982261
Te 0.3187893462 2.0642883161 13.4775097067 0.000121613189582 6.4020474008e-05 0.00202988611363
Te -1.628331568 -1.3082204989 13.4775097067 4.37087573549e-06 -0.000137811140837 0.00202988611363
Te -4.5758448291 2.6418653789 13.9588071635 -0.000129840720378 7.58475495276e-05 0.00163573596642
Te 1.6660204475 -0.9618737925 13.7174465479 1.92832753036e-05 -1.15699651822e-05 0.00187999078693
Te 1.7673496812 1.1934295458 -13.6157484328 0.000427574491066 -0.000178177463805 -0.00130534918289
Te -0.1498654145 -2.1272809414 -13.6157484328 0.000366896451444 -0.000282564260782 -0.00130534918289
Te -1.4638394006 0.8451479665 -13.7888729772 -0.000508307137003 0.000293105784615 -0.00112974282245
Te 4.146530241 -2.3939968915 -14.3596476254 -0.000300304874062 0.00017380658807 -0.000646375388177
Te 2.601163566 1.0111436743 10.3375008167 4.2423205668e-05 5.70784948987e-05 0.0020283434516
Te 0.4249056237 -2.7582423035 10.3375008167 -2.77679164372e-05 -6.55631360323e-05 0.00202885767228
Te -2.4526934201 1.4160633369 10.5881760269 -2.95676887989e-05 1.77406132793e-05 0.00207976551908
Te 3.9212751509 -2.263945744 10.6724778333 7.04482324426e-05 -4.21660953306e-05 0.00221474844621
Te 0.4634716018 -0.2675855788 -7.4716257399 5.34789501754e-05 -3.13674611606e-05 0.00165244813835
Te -1.5786482381 -3.9547232691 -7.5592443588 0.000401349236653 -0.000230627972631 0.00189516029684
Te 3.7739860931 0.239209487 -7.1637759211 2.77679164372e-05 0.000111842996761 0.00146578603341
Te 1.679831612 -3.3879689358 -7.1637759211 -8.40750803238e-05 -7.91899839135e-05 0.00146655736442
Te 0.3412189335 2.5384969043 -3.4895794826 -0.000149895326693 -3.47098955465e-05 -0.000263023875141
Te -2.0277932638 -1.5647493945 -3.4895794826 -4.49943090418e-05 0.00014629578197 -0.000263280985479
Te -4.6080053874 2.6604332946 -3.3887898257 0.000123155851606 -7.01911221052e-05 -0.000458941952226
Te 2.0454383848 -1.1809309446 -3.1512688046 7.19908944669e-05 -4.21660953306e-05 -0.000568470955951
Te -0.4642684843 2.6588117722 -10.2287966276 -0.000672343532253 2.57110337382e-07 7.22480048042e-05
Te -2.5347326601 -0.927333937 -10.2287966276 -0.000337071652307 0.000582097803832 7.04482324426e-05
Te -3.723641727 2.1498454592 -10.5547561291 0.000339385645344 -0.000197203628772 -0.000332443666234
Te 2.7291316543 -1.5756616197 -10.6561402935 2.75108060998e-05 -1.56837305803e-05 -0.000565385631902
Sb 0.0795937458 2.3788731106 9.2552532086 8.48464113359e-06 5.14220674763e-06 0.00159125587805
Sb -2.0203676598 -1.2583633332 9.2552532086 2.31399303643e-06 -1.02844134953e-05 0.00159022743671
Sb -4.0550169033 2.3411650956 8.2129893842 -3.34243438596e-05 2.13401580027e-05 0.00102098514974
Sb 2.2761471816 -1.3141307938 8.3184722341 -5.39931708501e-06 2.57110337382e-06 0.00111303065053
Sb -0.0766144386 2.4331159828 2.0477055831 2.21114890148e-05 0.000247854365236 -0.00283772679368
Sb -2.1454474388 -1.1502044504 2.0477055831 -0.000203374276869 -0.000143467568259 -0.00283849812469
Sb -4.1677018881 2.4062238323 1.9477199347 0.00012469851363 -7.07053427799e-05 -0.00291434567422
Sb 2.07067593 -1.1955018543 0.9394962372 0.000222657552172 -0.000129326499703 -0.00310383599287
Sb 0.1394055347 -0.0804858605 -11.5086114005 0.000111071665749 -6.29920326585e-05 -0.000847692782347
Sb -2.1670555901 -3.6150059511 -11.2066278437 8.71604043724e-05 -5.11649571389e-05 -0.00110351756804
Sb -4.0236921016 0.1726510421 -12.755397143 -0.000142953347584 -6.76200187314e-05 -0.00139636624232
Sb -2.1613661712 3.3982940357 -12.755397143 -1.43981788934e-05 0.000155808864453 -0.00139816601468
Sb 0.0419658113 -0.0242289838 11.5143135736 -5.27076191632e-05 2.98247991363e-05 0.00237415685538
Sb -2.0585149118 -3.6776719927 11.8163148145 -9.17883904452e-05 5.19362881511e-05 0.00244691908086
Sb 4.1946291116 0.0255364105 12.7030564061 -9.30739421321e-05 8.8960176734e-05 0.00243097823994
Sb 2.0751993578 -3.6454201074 12.7030564061 -0.000124441403293 3.47098955465e-05 0.00243072112961
Sb 2.0785771502 1.2389729484 -1.5557375199 5.39931708501e-06 -6.63344670445e-05 -0.00202705789992
Sb -0.0336934302 -2.4195836197 -1.5557375199 5.99067086099e-05 2.77679164372e-05 -0.00202731501025
Sb -2.1299507237 1.2297276686 -2.457641495 3.62525575708e-05 -2.10830476653e-05 -0.00096133555147
Sb 4.2715713015 -2.4661894152 -1.7239076104 2.21114890148e-05 -1.25984065317e-05 -0.00167404540669
Sb 2.0819270292 1.1361077092 -9.3836535541 0.000289763350229 -0.000393378816194 0.00115365408383
Sb 0.0570653794 -2.3710520841 -9.3836535541 0.000484652985964 -5.52787225371e-05 0.00115468252518
Sb -2.0844326703 1.2034477975 -8.0473318213 -0.000130354941052 7.58475495276e-05 0.00164756304194
Sb 4.2331321144 -2.4439965297 -8.0268720799 -0.000418061408583 0.000241683717139 0.00162133778753
Cr -2.2061264421 -3.5924479691 17.3182058922 2.31399303643e-06 -5.14220674763e-07 -0.0013508577126
61
Lattice="8.42843558953 0 0 -4.21421779477 7.29923593142 0 0 0 31.0334408416" Properties=species:S:1:pos:R:3:forces:R:3 energy=-133600.817679 ionic_step=41 pbc="T T T"
Te 2.1104396637 0.7170981214 3.0606273129 -1.15699651822e-05 5.45073915249e-05 -0.000356097817274
Te 0.4341944726 -2.1862399634 3.0606273129 -5.42502811875e-05 -1.69692822672e-05 -0.000356354927611
Te -2.1765181863 1.256613417 3.6715807052 3.21387921727e-05 -1.9540385641e-05 -0.000413947643184
Te 3.7042751382 -2.1386606698 3.0796666759 0.000143467568259 -8.27895286369e-05 -0.000411890760485
Te -0.248666749 0.1435678814 7.4399004909 3.0339019811e-05 -1.79977236167e-05 -0.00163342197339
Te -2.3821299389 -3.4908326806 7.4155312429 3.16245714979e-05 -1.67121719298e-05 -0.00172803857754
Te -3.6989723037 -0.3473179293 7.108460182 7.71331012145e-07 3.65096679082e-05 -0.0014966392739
Te -1.5487001738 3.3770627963 7.108460182 -3.21387921727e-05 -1.87690546289e-05 -0.0014966392739
Te -0.4165350839 0.2404867549 -0.1184401167 -4.91080744399e-05 2.90534681241e-05 0.000856691644156
Te -2.1719071861 -3.6122048994 0.2333022875 -0.000109271893387 6.35062533333e-05 0.00083663703784
Te -3.8696876447 0.1618833501 -0.174791058 2.57110337382e-05 -6.55631360323e-05 0.000880345795195
Te 2.1391789114 -4.028929884 -0.174791058 6.86484600809e-05 1.10557445074e-05 0.000880088684857
Te 0.3205323265 2.0627467321 13.4809952823 9.230261112e-05 -6.14493706342e-05 -0.000331672335222
Te -1.6261250276 -1.3089591729 13.4809952823 0.000100273031579 -5.01365157894e-05 -0.000329615452523
Te -4.5697247445 2.6383319448 13.96034328 1.9540385641e-05 -1.079863417e-05 -0.000410862319136
Te 1.6661746338 -0.9619628121 13.7218602556 -1.85119442915e-05 8.99886180836e-06 -0.00022188622116
Te 1.765703001 1.1943787978 -13.6186208098 0.000263795206154 -0.000850263885721 -0.000799613149257
Te -0.1515108305 -2.1263294998 -13.6186208098 0.000867233167988 0.000195660966747 -0.000800127369932
Te -1.4605183919 0.8432305803 -13.7867687529 -0.000401349236653 0.000229599531282 -0.000783672308339
Te 4.1465529985 -2.3940100305 -14.3654934466 -0.000828666617381 0.000479510779217 -0.000861576740566
Te 2.6008350101 1.0102707154 10.3418115484 -2.62252544129e-05 4.16518746558e-05 -0.00171235484696
Te 0.4254973499 -2.7575212862 10.3418115484 -4.91080744399e-05 5.14220674763e-07 -0.0017105550746
Te -2.4514527816 1.4153470536 10.591193649 -3.67667782456e-05 2.18543786774e-05 -0.00161542424977
Te 3.9249392755 -2.2660612283 10.6745124841 -2.41683717139e-05 1.33697375438e-05 -0.00153134916944
Te 0.4678639292 -0.2701214914 -7.4657037245 4.11376539811e-06 -2.31399303643e-06 0.00183525358823
Te -1.5764626319 -3.95598513 -7.5615507828 0.000381551740674 -0.000221372000486 0.00206845266424
Te 3.772847339 0.2386985398 -7.1624182635 0.000107729231363 0.000181005677517 0.00164113528351
Te 1.679704728 -3.3867272718 -7.1624182635 -0.000103358355627 -0.00018460522224 0.00163984973182
Te 0.3434862085 2.5392132336 -3.4903614654 -0.000117499424183 -6.09351499594e-05 0.00086311940259
Te -2.0272799854 -1.5670710778 -3.4903614654 -6.9419791093e-06 0.000133183154764 0.000863890733602
Te -4.6113040613 2.6623377858 -3.3886560132 0.000126241175654 -7.35335564911e-05 0.000799613149257
Te 2.0409454169 -1.1783369272 -3.1531063594 7.19908944669e-06 -3.34243438596e-06 0.000741506213009
Te -0.4652704642 2.659421269 -10.2257217741 -0.000596238872388 -0.000103358355627 0.00149921037727
Te -2.5357614896 -0.9267709449 -10.2257217741 -0.000208773593954 0.000568470955951 0.00149715349457
Te -3.7233596971 2.1496826291 -10.5547763763 0.000328072790499 -0.00019051876 0.00122513075762
Te 2.7323992216 -1.5775481515 -10.6621859552 -0.000100273031579 5.81069362482e-05 0.000869547161025
Sb 0.0785192586 2.3766893644 9.2521669701 2.57110337382e-05 -7.89328735762e-05 -0.00206048224378
Sb -2.0190137246 -1.2563409265 9.2521669701 8.09897562752e-05 1.72263926046e-05 -0.00206099646445
Sb -4.0555713936 2.3414852309 8.2175721186 2.72536957625e-05 -1.59408409177e-05 -0.00206768133322
Sb 2.2753002327 -1.3136418074 8.3201669213 -5.11649571389e-05 3.00819094737e-05 -0.00214121488971
Sb -0.0784198996 2.4334356488 2.046008237 0.000107729231363 0.000192575642699 7.71331012145e-05
Sb -2.146627008 -1.1488007076 2.046008237 -0.000112614327773 -0.000190004539325 7.68759908771e-05
Sb -4.1692924717 2.4071421566 1.9425770498 -4.65369710661e-05 2.72536957625e-05 0.000114671210472
Sb 2.0700639879 -1.1951485492 0.9355025266 9.51308248312e-05 -5.47645018623e-05 0.00055381566672
Sb 0.1409171334 -0.0813585828 -11.5098030515 0.000160179740189 -9.17883904452e-05 0.000396464140242
Sb -2.1669231486 -3.6150824162 -11.2019175053 0.00011492832081 -6.68486877192e-05 0.000906571049608
Sb -4.0241377824 0.1808698122 -12.7591704482 -0.000154780423104 -7.71331012145e-05 -0.000454828186828
Sb -2.168706672 3.3945706218 -12.7591704482 -1.25984065317e-05 0.00017277814672 -0.000455342407503
Sb 0.0433792265 -0.0250450198 11.5171464019 4.49943090418e-05 -2.64823647503e-05 -0.00090142884286
Sb -2.0536620622 -3.680473788 11.8229767898 6.42775843454e-05 -3.67667782456e-05 -0.000727365144453
Sb 4.195508439 0.0214026436 12.7059243483 -8.45893009986e-05 0.000157608636815 -0.000271251405938
Sb 2.079218967 -3.6441147441 12.7059243483 -0.000179205905155 -5.14220674763e-06 -0.000271508516275
Sb 2.0778429336 1.2383216955 -1.5539265417 -3.85665506072e-06 4.62798607287e-05 0.000996045447016
Sb -0.0334965372 -2.4186221428 -1.5539265417 -4.21660953306e-05 -1.97974959784e-05 0.000996816778029
Sb -2.1303263156 1.2299445168 -2.4645552868 -1.28555168691e-06 5.14220674763e-07 0.000965192206531
Sb 4.268708562 -2.464536611 -1.7259329716 6.63344670445e-05 -3.77952195951e-05 0.00111457331255
Sb 2.0792015215 1.1305693446 -9.3831295492 0.000269708743913 -0.000268166081889 0.00204839805792
Sb 0.0604989878 -2.3659225419 -9.3831295492 0.000367667782456 -9.92445902293e-05 0.00204916938893
Sb -2.0830841776 1.2026692445 -8.0439119421 -0.00018563366359 0.000107729231363 0.00205559714737
Sb 4.2342908532 -2.4446655282 -8.0188513011 -0.000345299183104 0.000198489180459 0.00206870977457
Cr -2.2110534565 -3.5896033546 17.3233612043 -9.51308248312e-06 6.68486877192e-06 -0.000930482310984
61
Lattice="8.42843558953 0 0 -4.21421779477 7.29923593142 0 0 0 31.0334408416" Properties=species:S:1:pos:R:3:forces:R:3 energy=-133600.820302 ionic_step=42 pbc="T T T"
Te 2.1100436444 0.7175839142 3.0542763089 8.94743974088e-05 0.0002180295661 -0.00347176088566
Te 0.4335757542 -2.1861398968 3.0542763089 -0.000143724678596 -0.000187690546289 -0.00347176088566
Te -2.1826831132 1.2601727409 3.6671273511 -3.80523299325e-05 2.26257096896e-05 -0.00277859141608
Te 3.70330878 -2.1381027424 3.0737265214 0.000338614314332 -0.000195918077085 -0.00362679841911
Te -0.2490428378 0.1437850165 7.4387193306 1.4141068556e-05 -7.45619978407e-06 0.000507535805991
Te -2.3779957869 -3.4932195355 7.4180550439 0.000107472121026 -6.35062533333e-05 0.000328329900836
Te -3.7006307575 -0.3479120826 7.1071339119 1.00273031579e-05 0.000155551754116 0.000338100093657
Te -1.549014849 3.3787961367 7.1071339119 -0.000130097830715 -8.71604043724e-05 0.000338100093657
Te -0.4203716098 0.2427017752 -0.1220600468 -0.000230113751957 0.000133440265101 -0.00483830232885
Te -2.1779775301 -3.608700183 0.2290090461 -0.000266880530202 0.000153751981754 -0.00448451850461
Te -3.8681167059 0.162520908 -0.1802647932 0.000155294643779 -6.65915773818e-05 -0.00462155831443
Te 2.1394122397 -4.0306091364 -0.1802647932 0.000135240037463 -0.000101301472928 -0.0046213012041
Te 0.3231083184 2.060372303 13.4862580406 0.000301333315411 -4.29374263427e-05 0.00418498496156
Te -1.6227807166 -1.3100028338 13.4862580406 0.000187433435951 -0.000238855503428 0.00418549918224
Te -4.5623011979 2.6340459562 13.962643564 -0.000258138778731 0.000148866885344 0.00345916247913
Te 1.6662827639 -0.962025241 13.7280059696 -0.000176120581106 0.000102329914278 0.00379212036604
Te 1.763404557 1.1961081704 -13.621661764 0.000439401566585 0.000246054592874 -0.000773387894844
Te -0.1541577325 -2.1252036744 -13.621661764 5.6564274224e-06 -0.000503422040593 -0.000772616563832
Te -1.4557325495 0.8404674716 -13.7827142109 -0.00039569280923 0.000228571089932 -0.000528618853657
Te 4.1467502404 -2.3941239083 -14.3718246007 0.000113642769123 -6.50489153576e-05 0.000182291229204
Te 2.6001298195 1.0091749891 10.3471619368 4.16518746558e-05 1.02844134953e-05 0.00358154699973
Te 0.426093681 -2.7563627098 10.3471619368 1.28555168691e-05 -4.21660953306e-05 0.00358103277905
Te -2.4500574686 1.4145414689 10.5948500087 -1.15699651822e-05 6.42775843454e-06 0.00376975176669
Te 3.9303028285 -2.2691578786 10.6772783522 0.000100015921241 -5.83640465856e-05 0.00393224549991
Te 0.4741107964 -0.2737281235 -7.4575363444 6.78771290688e-05 -3.9080771282e-05 0.00185787929792
Te -1.5743305447 -3.9572160916 -7.5650193141 0.000737649557948 -0.000425003387692 0.00220472114305
Te 3.7723397199 0.2371200017 -7.160725874 0.000162750843563 0.000325758797463 0.00142824792415
Te 1.6808179719 -3.3854983916 -7.160725874 -0.00020131739417 -0.000302618867098 0.00142850503449
Te 0.3464249946 2.539916153 -3.4915206337 -7.68759908771e-05 -3.77952195951e-05 -0.00167970183411
Te -2.0264193381 -1.5699676021 -3.4915206337 -5.39931708501e-06 8.56177423481e-05 -0.00167944472378
Te -4.6155470877 2.6647874994 -3.3886928969 4.9879405452e-05 -2.85392474494e-05 -0.00195789521916
Te 2.0345723492 -1.1746574331 -3.155928319 -4.88509641025e-06 1.79977236167e-06 -0.00213967222769
Te -0.4675534951 2.6601996464 -10.2219709248 -0.000902971504884 -0.000120584748232 0.00129223655568
Te -2.5375770993 -0.9251829699 -10.2219709248 -0.000347356065803 0.000842293465262 0.00129172233501
Te -3.7236332962 2.1498405917 -10.5534099352 0.000489795192712 -0.00028282137112 0.00110865977479
Te 2.7372614914 -1.5803553856 -10.6697176032 -2.21114890148e-05 1.31126272065e-05 0.000604466403184
Sb 0.0773531185 2.3737949612 9.2483412917 -2.90534681241e-05 -9.51308248312e-06 0.00216332637873
Sb -2.0170901691 -1.2538838175 9.2483412917 -6.17064809716e-06 2.93105784615e-05 0.0021638405994
Sb -4.0562515626 2.3418779268 8.2225504465 -4.11376539811e-05 2.54539234008e-05 0.000997073888366
Sb 2.2748837938 -1.3134013762 8.3229403189 -9.82161488798e-05 5.63071638866e-05 0.00111045954715
Sb -0.0810196038 2.4340243937 2.0434209103 0.000107729231363 0.00038592261641 -0.00461950143174
Sb -2.1484367279 -1.1468436691 2.0434209103 -0.000279993157409 -0.000286678026181 -0.00462001565241
Sb -4.1714637216 2.4083957289 1.9353615295 7.79044322266e-05 -4.42229780296e-05 -0.00470229096037
Sb 2.0689861133 -1.1945262377 0.9297418515 0.000273051178299 -0.000157351526478 -0.00487712598979
Sb 0.1421166669 -0.0820511341 -11.5123341712 0.00018357678089 -0.000104901017652 0.000164550615924
Sb -2.1672153434 -3.6149137174 -11.196720614 0.000160693960864 -9.20455007826e-05 -0.000633519871308
Sb -4.02491273 0.1928864164 -12.7654526559 -0.00017869168448 -0.00018460522224 -0.000555615439082
Sb -2.1795008254 3.3892334443 -12.7654526559 7.09624531173e-05 0.000246311703212 -0.000555615439082
Sb 0.0452015619 -0.0260971461 11.5223405884 3.39385645344e-05 -1.90261649662e-05 0.00465472554796
Sb -2.0473587592 -3.6841130034 11.8317020047 -3.49670058839e-05 2.00546063158e-05 0.00490926478196
Sb 4.197147833 0.0156295693 12.7097659429 -0.000175863470769 0.00012572695498 0.00486324203157
Sb 2.0850382906 -3.6426479645 12.7097659429 -0.000195918077085 8.92172870714e-05 0.0048627278109
Sb 2.076727804 1.2375462665 -1.5516464592 -3.49670058839e-05 -0.000112357217436 -0.00386205437781
Sb -0.0333825611 -2.4172686972 -1.5516464592 8.04755356005e-05 8.63890733602e-05 -0.00386282570882
Sb -2.1309799917 1.230321917 -2.4734264075 5.45073915249e-05 -3.16245714979e-05 -0.00267163351573
Sb 4.2647024556 -2.4622236833 -1.7291777718 -2.00546063158e-05 1.20841858569e-05 -0.00354657999384
Sb 2.0763478275 1.1230148226 -9.3822764617 0.000473854351794 -0.000529904405344 0.00207153798828
Sb 0.0656145457 -2.3596739082 -9.3822764617 0.000695740572955 -0.000145781561295 0.00207282353997
Sb -2.0809990408 1.2014653896 -8.0395065245 -0.000374352651228 0.000217515345425 0.00209570636
Sb 4.2371071741 -2.4462915326 -8.0071546438 -0.000700625669365 0.000403406119352 0.00211961762137
Cr -2.2178146765 -3.5856997606 17.3307423628 -5.50216121997e-05 3.21387921727e-05 -0.000787271853063
61
Lattice="8.42843558953 0 0 -4.21421779477 7.29923593142 0 0 0 31.0334408416" Properties=species:S:1:pos:R:3:forces:R:3 energy=-133600.82375 ionic_step=43 pbc="T T T"
Te 2.1093503938 0.7179950156 3.0450015502 5.55358328744e-05 2.13401580027e-05 0.00167661651007
Te 0.4328731048 -2.1857450746 3.0450015502 1.49123995681e-05 -6.1963591309e-05 0.00167867339276
Te -2.191425984 1.265220442 3.6609035226 7.19908944669e-06 3.34243438596e-06 0.00122384520594
Te 3.7016193294 -2.1371273372 3.064908237 0.000117242313846 -7.2762225479e-05 0.00151258011482
Te -0.2487822941 0.1436345914 7.435805296 -0.000196946518434 0.000114156989797 -0.000151952209393
Te -2.372672715 -3.4962928139 7.4217160249 5.03936261268e-05 -2.85392474494e-05 -4.26803160054e-05
Te -3.7032272316 -0.3488645181 7.1054676416 0.000102329914278 0.000258910109743 4.55085297165e-05
Te -1.5494882531 3.381520968 7.1054676416 -0.000172521036383 -0.000217258235087 3.83094402699e-05
Te -0.4252560863 0.2455218303 -0.1269102055 -0.000166093277949 0.000100273031579 0.000340414086693
Te -2.186718435 -3.6036536168 0.2229591616 -0.000303647308448 0.000172521036383 0.000961592661807
Te -3.8662051344 0.1633564776 -0.1877322432 0.000117499424183 -0.000160179740189 0.000286420915843
Te 2.1396444013 -4.0326823915 -0.1877322432 0.00020620249058 -2.64823647503e-05 0.000287449357193
Te 0.3268140111 2.05680299 13.4941898446 3.77952195951e-05 0.000254539234008 0.00171184062629
Te -1.617836756 -1.3114274028 13.4941898446 -0.000198489180459 -0.000162750843563 0.00170978374359
Te -4.5525979548 2.6284437835 13.9664295257 0.000161208181538 -9.30739421321e-05 0.0016218520082
Te 1.6665628846 -0.9621869689 13.7367022899 0.000240141055114 -0.000140896464885 0.00175092139757
Te 1.7600055457 1.1987918557 -13.6251442024 0.000799613149257 0.000112357217436 0.00126446863924
Te -0.1581813767 -2.1236018855 -13.6251442024 0.000307246853171 -0.000749476633467 0.00126755396329
Te -1.4488206262 0.836476869 -13.7761005004 -0.00104001131471 0.000605751954871 0.0014436745444
Te 4.1466799032 -2.394083299 -14.3794644753 -0.000315474383967 0.00017972012583 0.00182419784372
Te 2.5991560129 1.0078016833 10.354097276 0.000256081896032 3.62525575708e-05 -1.54266202429e-06
Te 0.4267960949 -2.7548327152 10.354097276 9.15312801079e-05 -0.000238855503428 1.54266202429e-06
Te -2.4483042038 1.4135292205 10.599708369 -0.000168150160648 9.48737144938e-05 -1.28555168691e-05
Te 3.9383415486 -2.2737990379 10.6809648968 9.35881628069e-05 -5.01365157894e-05 0.000139353802861
Te 0.4832117135 -0.2789825429 -7.4457164383 -9.51308248312e-05 5.52787225371e-05 -0.00166838897927
Te -1.5716609876 -3.9587573619 -7.5703771802 0.000303647308448 -0.000177663243131 -0.00154857556205
Te 3.7728166974 0.23448568 -7.1586274715 0.000566671183589 -0.000117756534521 -0.00223763126623
Te 1.6833378491 -3.3845943055 -7.1586274715 0.000390293492145 -0.00042808871174 -0.00224020236961
Te 0.3503154923 2.5405330556 -3.49315038 8.04755356005e-05 0.000199260511471 -0.00306732632496
Te -2.0250083424 -1.5736453248 -3.49315038 -0.000142953347584 -0.000160693960864 -0.0030737540834
Te -4.6212530097 2.6680818165 -3.3887203945 -0.000180234346505 9.5645045506e-05 -0.00313597478504
Te 2.0253944605 -1.1693585741 -3.160097317 0.000102587024615 -5.27076191632e-05 -0.00310923530996
Te -0.4710316417 2.6611363755 -10.2172174683 -0.00111328776086 0.000494423178785 -0.000260966992442
Te -2.5401274034 -0.9226391698 -10.2172174683 -0.000987046585208 0.000716309399945 -0.000261738323454
Te -3.7248035194 2.1505162206 -10.5506399422 0.000730450468501 -0.000417804298245 -0.000105929459001
Te 2.7446806947 -1.5846388666 -10.6795117858 0.000683913497435 -0.000394921478218 -5.68213845613e-05
Sb 0.076108427 2.3700500893 9.2437499633 -0.000193346973711 0.00011981341722 -0.000128040948016
Sb -2.0144693622 -1.2509334465 9.2437499633 -0.000207488042267 0.000104901017652 -0.000121613189582
Sb -4.0567124916 2.3421440445 8.2286971008 0.000115699651822 -7.14766737921e-05 -0.000263795206154
Sb 2.2750499922 -1.3134973309 8.327492933 1.33697375438e-05 -6.17064809716e-06 -0.000342213859055
Sb -0.0846730498 2.4349207241 2.0395090046 0.000155294643779 0.00027690783336 0.00226231385862
Sb -2.1510396954 -1.1441278557 2.0395090046 -0.000161465291876 -0.000276136502348 0.00226231385862
Sb -4.1746617305 2.410242101 1.9249235944 3.31672335222e-05 -1.87690546289e-05 0.00241915116442
Sb 2.067192875 -1.1934909106 0.9207046535 0.000214172911039 -0.000122898741268 0.00188333322132
Sb 0.1429384177 -0.0825255723 -11.5164945421 1.90261649662e-05 -1.10557445074e-05 0.0010667507898
Sb -2.168429621 -3.6142126535 -11.1892095018 -7.04482324426e-05 4.52514193792e-05 4.93651847773e-05
Sb -4.0261018068 0.2106730364 -12.7753151866 -2.26257096896e-05 -0.000271508516275 0.0016280226563
Sb -2.1954990214 3.3813699055 -12.7753151866 0.000223685993522 0.000157351526478 0.00163265064237
Sb 0.0473040014 -0.0273109906 11.5307243535 -8.43321906612e-05 4.39658676923e-05 0.0004890238617
Sb -2.0391637689 -3.6888443854 11.8435033233 -0.000117242313846 7.19908944669e-05 0.000876232029797
Sb 4.1998143042 0.0076070352 12.7149321938 -1.4141068556e-05 0.000216486904075 0.00146604314375
Sb 2.0933192414 -3.6409459303 12.7149321938 -0.000196689408097 -9.46166041564e-05 0.00147812732961
Sb 2.0749907719 1.236707643 -1.5485211478 -1.02844134953e-05 6.4020474008e-05 -0.00208053685009
Sb -0.0335248083 -2.4153450708 -1.5485211478 -5.6564274224e-05 -2.00546063158e-05 -0.00207770863638
Sb -2.1319588379 1.2308870544 -2.485376563 6.1963591309e-05 -3.18816818353e-05 -0.00276110791314
Sb 4.2591788505 -2.4590346269 -1.7341199095 0.000264566537166 -0.000153494871417 -0.0021720681302
Sb 2.0729761407 1.1128427042 -9.3809716623 0.000742020433683 -0.000267394750877 -0.00104412508011
Sb 0.0727380112 -2.3516678812 -9.3809716623 0.000607037506558 -0.000511135350715 -0.00105492371428
Sb -2.0781295029 1.1998086604 -8.0332355176 -0.000559472094142 0.000325501687125 -0.0019113582481
Sb 4.2424351503 -2.4493676425 -7.9901521161 -0.000616807699379 0.000357126258623 -0.00184219556734
Cr -2.2270629631 -3.5803602574 17.3406961231 -0.000137811140837 7.09624531173e-05 0.00119042086208
61
Lattice="8.42843558953 0 0 -4.21421779477 7.29923593142 0 0 0 31.0334408416" Properties=species:S:1:pos:R:3:forces:R:3 energy=-133600.828829 ionic_step=44 pbc="T T T"
Te 2.1083108068 0.7197372281 3.0334536345 -2.33970407017e-05 0.000159922629851 0.000849235444372
Te 0.4308445117 -2.1857158717 3.0334536345 -0.000150923768043 -5.73356052361e-05 0.00084743567201
Te -2.2038036688 1.272366705 3.6514038618 3.39385645344e-05 -2.23685993522e-05 0.000417032967233
Te 3.70014386 -2.1362754741 3.0539007341 0.000211344697328 -0.000117756534521 0.000642775843454
Te -0.2479082553 0.1431299647 7.4302919537 -0.000489795192712 0.000284364033144 -0.000145267340621
Te -2.365714426 -3.5003101858 7.4271230231 1.92832753036e-05 -1.05415238326e-05 0.00019540385641
Te -3.7068896505 -0.3500037984 7.1031970453 0.000220086448799 0.000383608623373 0.00014732422332
Te -1.5503328174 3.3852623575 7.1031970453 -0.000222143331498 -0.000384122844048 0.000146552892308
Te -0.4307118297 0.2486717068 -0.1334421109 -0.000115442541484 6.76200187314e-05 0.000356354927611
Te -2.1992260573 -3.5964323344 0.2134267865 -0.000298247991363 0.000171492595034 0.000628634774898
Te -3.8647159215 0.1639726458 -0.197898426 7.04482324426e-05 -0.000188461877301 0.000182291229204
Te 2.1398553907 -4.0342801724 -0.197898426 0.000203117166531 2.77679164372e-05 0.000183062560216
Te 0.3324564392 2.0521010706 13.5056092857 -0.00016892149166 0.000359697361997 0.00238469837921
Te -1.6109435622 -1.3139629315 13.5056092857 -0.000401092126315 -2.95676887989e-05 0.00238624104124
Te -4.5394725619 2.6208658308 13.9716600353 0.00061372237533 -0.000354298044912 0.00199774732146
Te 1.667187275 -0.962547461 13.7490373201 0.000458941952226 -0.000263538095816 0.0026569782265
Te 1.7551181573 1.2025052445 -13.629519983 0.00100992940524 -0.00151900787325 0.000850263885721
Te -0.1638409584 -2.1212259754 -13.629519983 0.0018185414163 -0.000110557445074 0.000845121678973
Te -1.4385242715 0.830532263 -13.7662769311 -0.00186610682872 0.00107215010688 0.00109529003725
Te 4.14665946 -2.3940714961 -14.3895209824 -0.00199826154213 0.00115416830451 0.00157377237511
Te 2.598041873 1.0058337111 10.3633301618 0.000543788363562 0.000219572228124 0.0008425505756
Te 0.427943338 -2.7528838552 10.3633301618 8.33037493116e-05 -0.000579012479783 0.000834580155141
Te -2.4461790495 1.4123022615 10.6066490233 -0.000266366309527 0.000148866885344 0.000763617702023
Te 3.9499118361 -2.2804791497 10.6853197716 0.00030339019811 -0.00017380658807 0.000993217233305
Te 0.4965987421 -0.2867115511 -7.4282726922 0.000348641617489 -0.000202602945857 -0.00105003861787
Te -1.5679128267 -3.9609213646 -7.5782773296 -0.000503679150931 0.000292334453603 -0.00132463245819
Te 3.7743228002 0.2308696673 -7.1558313813 0.000545073915249 -0.000996302557354 -0.00211318986294
Te 1.6872224579 -3.3840906231 -7.1558313813 0.0011348850292 2.87963577867e-05 -0.00211601807665
Te 0.354987846 2.5409668515 -3.4961421921 0.000263538095816 0.000491594965074 -0.0032498746645
Te -2.0230478436 -1.5779086017 -3.4961421921 -0.000292077343266 -0.000471026138083 -0.00325090310585
Te -4.628462155 2.6722440204 -3.3895364023 -0.000369467554817 0.000219058007449 -0.00315654361203
Te 2.0121285257 -1.1616994795 -3.1676556894 0.000205431159568 -0.00011878497587 -0.00318739685252
Te -0.4757347128 2.6624221184 -10.210493863 -0.00099964499174 0.00188513299368 -0.00030930373587
Te -2.5435924245 -0.9192090603 -10.210493863 -0.00213350157959 -7.94470942509e-05 -0.000307246853171
Te -3.7271188743 2.151852992 -10.5461690797 0.00070113989004 -0.000405463002051 -0.000784700749689
Te 2.7558553228 -1.5910905441 -10.6928775116 0.00178665973446 -0.00103049823223 -0.000190775870337
Sb 0.0744135807 2.3648712592 9.2381566625 -0.000353269603562 0.000306989742834 0.000431688256464
Sb -2.010831789 -1.2468762508 9.2381566625 -0.000443772442321 0.000153751981754 0.000433745139163
Sb -4.0569584115 2.3422860265 8.2367002947 0.000317274156329 -0.000180491456842 0.000169435712334
Sb 2.2757743817 -1.3139155576 8.3340288092 0.000263795206154 -0.000153751981754 0.000125984065317
Sb -0.0896064545 2.4362631056 2.0333702088 0.000218286676437 0.000237312841403 0.00162288044955
Sb -2.1546689338 -1.1405265907 2.0333702088 -0.000100787252254 -0.000308789515195 0.00162647999428
Sb -4.1795984516 2.4130923196 1.9095577657 -4.01092126315e-05 2.03117166531e-05 0.00181417054056
Sb 2.0644886754 -1.1919296395 0.9104171868 0.000177149022456 -9.92445902293e-05 0.00139122403557
Sb 0.1436374153 -0.082929139 -11.5223263183 -8.02184252631e-05 4.85938537651e-05 2.8282137112e-05
Sb -2.1708201279 -3.6128324931 -11.176668426 -0.000511906681727 0.000290534681241 0.00163779284912
Sb -4.0275067255 0.2373347193 -12.7901825072 0.000261481213117 -0.000188718987638 0.00100221609511
Sb -2.2192911647 3.3692557599 -12.7901825072 0.0002985051017 -0.000137554030499 0.00100581563984
Sb 0.0495934055 -0.0286327794 11.5432143877 -0.000345556293441 0.000201060283832 0.00146270070936
Sb -2.0281718781 -3.6951905595 11.8588786734 -0.000231913524318 0.00013061205139 0.00176789067984
Sb 4.2036795144 -0.003688566 12.7219745667 0.000165836167611 0.000287449357193 0.00252173818904
Sb 2.1050341195 -3.6386455015 12.7219745667 -0.000169178601997 -0.000288477798542 0.00252585195444
Sb 2.0723833256 1.2358534212 -1.545588892 4.06234333063e-05 0.000280250267746 -0.00194761080567
Sb -0.034088754 -2.4126598442 -1.545588892 -0.000225228655546 -0.00017380658807 -0.00195352434343
Sb -2.1333183143 1.2316719489 -2.5011647397 -2.03117166531e-05 9.25597214574e-06 -0.0027649645682
Sb 4.2512040217 -2.4544303552 -1.7426480181 0.000362268465371 -0.000212630249015 -0.00212835937285
Sb 2.0683957074 1.0988488369 -9.3789271817 0.00129840720378 0.000238084172415 -0.000695740572955
Sb 0.0825668335 -2.3407041741 -9.3789271817 0.000445572214682 -0.00124235715023 -0.000688027262833
Sb -2.0743564876 1.197630308 -8.0239419645 -0.000873146705748 0.000505221812955 -0.00162005223584
Sb 4.2510284373 -2.4543289814 -7.965355314 -0.000472825910445 0.000271508516275 -0.00171338328831
Cr -2.2396209952 -3.5731098708 17.3547580448 -0.000250168358272 0.000143467568259 0.00107189299654
61
Lattice="8.42843558953 0 0 -4.21421779477 7.29923593142 0 0 0 31.0334408416" Properties=species:S:1:pos:R:3:forces:R:3 energy=-133600.836071 ionic_step=45 pbc="T T T"
Te 2.1066692727 0.7221126748 3.0165588192 -0.000147067112982 0.00029953354305 0.00238238438618
Te 0.4279665483 -2.1854819841 3.0165588192 -0.000329872562861 -2.44254820513e-05 0.00238366993787
Te -2.2216679645 1.2826806657 3.6375554534 0.000154523312766 -9.05028387583e-05 0.00156657328567
Te 3.6976673507 -2.1348456601 3.0378170498 0.000471026138083 -0.000273051178299 0.00213478713128
Te -0.2461131182 0.1420935413 7.4212071177 -0.000509078468016 0.000292848674278 0.000378723526963
Te -2.3561073068 -3.5058568613 7.4346803249 2.93105784615e-05 -1.64550615924e-05 0.000700882779702
Te -3.7120241658 -0.3514680847 7.1001810399 0.000145010230283 0.000415233194871 0.000423460725668
Te -1.5516319665 3.3904411233 7.1001810399 -0.000282564260782 -0.000333214997247 0.000425517608367
Te -0.4383702659 0.253093309 -0.1426606102 2.18543786774e-05 -7.45619978407e-06 -7.99613149257e-05
Te -2.2172396041 -3.5860322035 0.1998013177 -0.000529133074331 0.000303904418785 0.000917626794115
Te -3.8627535909 0.1647441745 -0.2123463494 6.11922602968e-05 -0.000550730342671 -0.00037409554089
Te 2.1401683928 -4.0363653657 -0.2123463494 0.000508050026666 0.000220086448799 -0.000372809989203
Te 0.3405927461 2.0457375268 13.5225758561 -6.1963591309e-05 0.000368439113468 0.0027243411349
Te -1.6013644207 -1.3178274114 13.5225758561 -0.000347356065803 -0.000132668934089 0.00272177003152
Te -4.5205728375 2.6099540648 13.9797680358 0.000160693960864 -9.230261112e-05 0.00163882129047
Te 1.6687686512 -0.9634604694 13.7666456473 0.000159151298839 -9.53879351686e-05 0.0024726301146
Te 1.7476168316 1.2077394029 -13.6353872629 0.000755647281565 0.000400577905641 -0.0019368121715
Te -0.1721245333 -2.117346713 -13.6353872629 3.05961301484e-05 -0.000850263885721 -0.00193809772318
Te -1.4234198216 0.8218117008 -13.7524610177 -0.00159459831244 0.000919169456139 -0.00178563129312
Te 4.1461058868 -2.3937518903 -14.4035613841 -0.000397235471255 0.000228571089932 -0.000704739434763
Te 2.5970103853 1.0033539773 10.3764085878 0.000618093251065 0.000295419777651 0.00360648670245
Te 0.4295751056 -2.7507506934 10.3764085878 5.55358328744e-05 -0.00068442771811 0.00361111468852
Te -2.4431908264 1.4105770093 10.6168821883 -0.000208259373279 0.000124184292955 0.00362576997776
Te 3.966697004 -2.2901700753 10.6908959879 0.000348898727827 -0.000206459600917 0.00372938544372
Te 0.5164745216 -0.2981868431 -7.4024751934 0.00040751988475 -0.000230885082969 -0.000284621143481
Te -1.5615271287 -3.9646081508 -7.5896306721 0.000329615452523 -0.000194118304723 -0.000444543773333
Te 3.7772294828 0.2260603048 -7.1522730132 0.000585440238218 -0.000267394750877 -0.00178743106548
Te 1.6928408274 -3.384203204 -7.1522730132 0.000529904405344 -0.00037409554089 -0.00178151752772
Te 0.3613705022 2.541200658 -3.5004949573 0.000606523285883 0.000537617715465 -0.00602898030126
Te -2.0200589978 -1.5835530499 -3.5004949573 -0.000158637078164 -0.000796527825208 -0.00602872319092
Te -4.6386059328 2.678100536 -3.3906305351 -0.000838179699864 0.000485167206639 -0.00637325104302
Te 1.9928599268 -1.1505747435 -3.1788585718 7.73902115519e-05 -4.60227503913e-05 -0.00628429086628
Te -0.4817126741 2.664308698 -10.2008010409 -0.00134828660923 0.00176943334186 0.000851806547745
Te -2.5482152302 -0.9149752814 -10.2008010409 -0.00220934912912 0.000283849812469 0.000849492554709
Te -3.7309212203 2.1540482786 -10.5397582808 0.000987303695545 -0.000573613162698 0.00089654374645
Te 2.772485136 -1.6006917757 -10.7115960119 0.00214430021376 -0.00123412961943 0.000987046585208
Sb 0.072102836 2.3574093063 9.2307824131 -0.000446600656032 0.000320616590715 0.00282127173209
Sb -2.0055249236 -1.2411441099 9.2307824131 -0.00049879405452 0.000228056869258 0.00281844351838
Sb -4.0567600098 2.3421714791 8.2477941926 0.000409833877786 -0.000236798620728 0.00171312617797
Sb 2.2770445665 -1.3146488995 8.3440972443 0.000360982913684 -0.000208773593954 0.00165193391768
Sb -0.0967133792 2.4381532452 2.0241861246 0.000658459574034 0.000443772442321 0.00373504187114
Sb -2.1598593043 -1.1353168803 2.0241861246 -5.81069362482e-05 -0.000795242273521 0.00373607031249
Sb -4.1869542907 2.4173392173 1.8868794881 -0.00044480088367 0.000258138778731 0.00403997473128
Sb 2.0603634141 -1.1895479176 0.8950032952 0.000187176325614 -0.000106700790013 0.00286729448248
Sb 0.1443817939 -0.0833589064 -11.5297106906 -0.000553558556383 0.000320616590715 -6.89055704183e-05
Sb -2.1747861949 -3.6105426822 -11.1569907273 -0.000705510765775 0.0004064914434 0.000333729217921
Sb -4.029306538 0.2774526972 -12.8122842113 0.000583640465856 -0.000616550589041 -0.000563842969878
Sb -2.2549342428 3.3507554551 -12.8122842113 0.000827381065694 -0.000196946518434 -0.00056564274224
Sb 0.0523244415 -0.0302095444 11.5615172718 -0.000471283248421 0.000271765626612 0.00414230464556
Sb -2.0129656822 -3.7039698649 11.8807799689 -0.000121356079244 7.30193358164e-05 0.00433539450893
Sb 4.2093160951 -0.0194958489 12.7317872335 0.000314445942618 0.000356097817274 0.0038908507356
Sb 2.121541912 -3.6356232844 12.7317872335 -0.000153494871417 -0.000448400428394 0.0038887938529
Sb 2.0684750233 1.2349495842 -1.5416481518 -0.000220343559136 0.00048799542035 -0.00487738310013
Sb -0.0352601597 -2.408823235 -1.5416481518 -0.000529647295006 -5.47645018623e-05 -0.00487943998283
Sb -2.1353127027 1.2328234101 -2.5230920456 0.000219315117787 -0.000124441403293 -0.00633751270612
Sb 4.2398866805 -2.4478962822 -1.7554921525 0.000629148995573 -0.000366639341106 -0.0051275514584
Sb 2.0616777264 1.0791431878 -9.3759075385 0.00164987703498 0.000208773593954 0.00129249366602
Sb 0.0962734277 -2.3250334047 -9.3759075385 0.000643547174466 -0.00153134916944 0.00129249366602
Sb -2.0692428899 1.1946779696 -8.0104466378 -0.00124595669495 0.000719137613656 -0.000592382217327
Sb 4.2642015731 -2.4619344984 -7.9296733949 -0.000788814515087 0.000457399290202 -0.000935624517732
Cr -2.2576284323 -3.5627132673 17.3742866836 -0.000716309399945 0.000411376539811 -0.00126344019789
61
Lattice="8.42843558953 0 0 -4.21421779477 7.29923593142 0 0 0 31.0334408416" Properties=species:S:1:pos:R:3:forces:R:3 energy=-133600.843747 ionic_step=46 pbc="T T T"
Te 2.104217059 0.728632738 2.9960729442 -8.48464113359e-05 0.000313160390931 -0.000997073888366
Te 0.4210939038 -2.1866183354 2.9960729442 -0.000314960163292 -8.150397695e-05 -0.00099964499174
Te -2.2465304075 1.2970350106 3.6166371356 5.99067086099e-05 -3.52241162213e-05 -0.00118656420702
Te 3.6970598595 -2.1344949248 3.0180643758 0.000119556306882 -6.86484600809e-05 -0.000645346946828
Te -0.2428140341 0.1401888133 7.4065941082 -0.000638662078056 0.000373838430553 -0.00543505542191
Te -2.3440795661 -3.5128010838 7.4456177109 -0.000403149009014 0.000229599531282 -0.0053751487133
Te -3.718705338 -0.3533644245 7.0953031016 0.000525019308933 8.99886180836e-05 -0.00520237056658
Te -1.553330275 3.3971753608 7.0953031016 0.000191032980675 -0.000501365157894 -0.0052039132286
Te -0.4451076983 0.2569831692 -0.1541118477 0.0003260159078 -0.000187947656626 0.00255233431919
Te -2.2425815346 -3.5714010262 0.1781899829 0.00017972012583 -0.000102072803941 0.00206382467816
Te -3.8628354731 0.1641261673 -0.2309608036 -0.0001630079539 1.13128548448e-05 0.00250039803104
Te 2.1406626615 -4.03598545 -0.2309608036 -9.30739421321e-05 0.000134982927125 0.00250116936205
Te 0.3529394912 2.0393703547 13.5473563158 0.000161208181538 0.000479253668879 0.00253922169198
Te -1.589676918 -1.3253364251 13.5473563158 -0.000337071652307 -0.000378466416626 0.00254127857468
Te -4.4957043174 2.5955962114 13.9896143207 0.000117499424183 -7.50762185154e-05 0.00166736053792
Te 1.6724476998 -0.9655845701 13.7915208988 0.000458941952226 -0.000257624558056 0.0018797336766
Te 1.736674264 1.2150752241 -13.6415743448 0.000249654137598 0.00235615913177 0.00251839575465
Te -0.1839488217 -2.1115380776 -13.6415743448 -0.00191058691708 -0.00139430935962 0.00251890997533
Te -1.4013660416 0.809078939 -13.7341037081 -0.000268937412901 0.000157351526478 0.00250862556183
Te 4.1461766286 -2.3937927332 -14.4191276052 0.00187022059411 -0.00108243452038 0.00275853680977
Te 2.5959646974 1.0004096321 10.3935239781 0.000643547174466 0.000119556306882 0.000646632498515
Te 0.4316021382 -2.748372928 10.3935239781 0.000216744014413 -0.000616807699379 0.000645861167503
Te -2.4399980155 1.4087336382 10.6306650776 -0.000612179713306 0.000353269603562 0.000932024973008
Te 3.9898287957 -2.3035252278 10.6962672457 -0.000233199076005 0.000134211596113 0.00123361539876
Te 0.5448432144 -0.3145655232 -7.3661300155 -0.000296448219001 0.000172521036383 -0.00157891458186
Te -1.5516207044 -3.9703276302 -7.6047237205 -0.000978304833737 0.000561014756167 -0.00212861648318
Te 3.7829567073 0.2192342072 -7.147485098 -0.000107472121026 -0.000217772455762 -0.00183936735363
Te 1.7016160108 -3.3857500794 -7.147485098 0.000138582471849 0.000200803173495 -0.00183731047093
Te 0.3676546126 2.5401985357 -3.5075154772 0.00021211602834 0.0001079863417 -0.000247597254899
Te -2.0160490797 -1.5884941905 -3.5075154772 1.59408409177e-05 -0.000238855503428 -0.00025042546861
Te -4.6498861984 2.6846132034 -3.3939435509 -0.000339899866019 0.000197974959784 5.14220674763e-07
Te 1.9654491301 -1.1347491053 -3.1981305091 -0.000164293505587 9.38452731443e-05 0.000259681440755
Te -0.4893658492 2.6676550757 -10.1868261287 0.00109991802332 0.000917883904452 0.000498279833846
Te -2.5549398645 -0.9100206231 -10.1868261287 -0.000249911247935 -0.00141076442121 0.000495194509797
Te -3.7375680537 2.1578858314 -10.528312766 -0.00043888734591 0.000252739461646 0.000801155811281
Te 2.7959601714 -1.6142451 -10.7360192708 0.0013611421261 -0.000784186529014 0.00178665973446
Sb 0.0685150643 2.3462969817 9.221342768 -0.000214172911039 0.000119042086208 -0.00320693723816
Sb -1.9976952586 -1.2324808447 9.221342768 -0.000212887359352 0.000125212734305 -0.00320642301749
Sb -4.0566409864 2.3421027609 8.2596104836 0.000339128535006 -0.000199774732146 -0.0046446982448
Sb 2.2794903658 -1.316060983 8.3581464219 9.43594938191e-05 -5.11649571389e-05 -0.00480822041937
Sb -0.1064927773 2.4409653987 2.0093975599 0.000146552892308 -0.00030441863946 0.000806812238704
Sb -2.1671843985 -1.1282537459 2.0093975599 0.000337585872982 2.36541510391e-05 0.00080809779039
Sb -4.1977424923 2.4235677912 1.8538856079 -2.72536957625e-05 1.69692822672e-05 0.00114259833932
Sb 2.0542246723 -1.1860037118 0.880360931 -0.000319073928691 0.000184091001565 0.00152672118337
Sb 0.1450526668 -0.0837462352 -11.5366338347 -0.000758732605613 0.00043991578726 0.00249319894159
Sb -2.1805822423 -3.6071963311 -11.1290407864 -0.000600352637786 0.000344784962429 0.000733021571875
Sb -4.0304797138 0.3381496747 -12.8445665342 0.000363039796383 -0.000335528990283 0.00317068468059
Sb -2.3080859306 3.3214229668 -12.8445665342 0.00047334013112 -0.000144238899271 0.00317325578396
Sb 0.0552008932 -0.0318702654 11.5895838059 6.42775843454e-05 -3.26530128475e-05 0.00199723310078
Sb -1.9928415387 -3.71558855 11.9087299215 0.000306989742834 -0.000182548339541 0.00276213635449
Sb 4.2172986809 -0.0410371992 12.7445795701 -0.000161465291876 0.00071785206197 0.00278939005025
Sb 2.1441885528 -3.6317657346 12.7445795701 -0.000697797455654 -0.000220086448799 0.00278759027789
Sb 2.0629787015 1.2342303524 -1.5399109933 -8.63890733602e-05 0.000180748567179 0.00239781100642
Sb -0.0373854479 -2.4037036626 -1.5399109933 -0.000197203628772 -1.49123995681e-05 0.00240192477182
Sb -2.1382917607 1.2345433708 -2.5478786367 0.000201574504507 -0.000113642769123 0.00134057329911
Sb 4.2235705154 -2.4384761354 -1.7769690528 0.000418575629257 -0.000243997710175 0.00214738553781
Sb 2.053288942 1.0520091454 -9.3712106811 -8.33037493116e-05 0.00153572004518 -0.00033192944556
Sb 0.1155777946 -2.3042014797 -9.3712106811 -0.00137168364993 -0.000697283234979 -0.000332443666234
Sb -2.0620390781 1.190518845 -7.9928653177 0.000295162667314 -0.00016789305031 -0.00190673026202
Sb 4.2838947488 -2.473304364 -7.880890672 0.000880860015869 -0.000512420902402 -0.00231836391217
Cr -2.2820411221 -3.5486185877 17.4015893517 -0.000239883944777 0.000135754258138 0.00338177226758
61
Lattice="8.42843558953 0 0 -4.21421779477 7.29923593142 0 0 0 31.0334408416" Properties=species:S:1:pos:R:3:forces:R:3 energy=-133600.857675 ionic_step=47 pbc="T T T"
Te 2.103982383 0.7308044099 3.0005011039 0.000463827048636 -0.000839979472226 0.0007325073512
Te 0.4190958437 -2.1875009359 3.0005011039 0.000959278668771 1.79977236167e-05 0.000733278682212
Te -2.2450409163 1.2961750521 3.6170890891 -0.00061269393398 0.0003535267139 0.000696254793629
Te 3.6990224955 -2.1356280537 3.0214218808 -0.001227701861 0.000708338979486 0.00100504430882
Te -0.2398862095 0.1384984322 7.4043831004 0.000726850923778 -0.000420632511956 0.000869290050687
Te -2.3482963318 -3.5103665318 7.4466305784 0.00161825246348 -0.000934081855707 0.00107060744486
Te -3.7170423947 -0.354484531 7.0947909654 -0.000824038631308 0.00126061198418 0.000575670045397
Te -1.551528763 3.3962952623 7.0947909654 -0.00150435258402 8.43321906612e-05 0.000574384493711
Te -0.4380037667 0.2528817105 -0.1499277099 0.000412147870823 -0.000238341282753 -0.00356303505543
Te -2.2422350694 -3.5716010581 0.1753841309 0.000434259359838 -0.000250682578947 -0.00301230471276
Te -3.8665599637 0.1614875497 -0.2266376822 -3.93378816194e-05 0.000270222964588 -0.00314034566078
Te 2.1410855249 -4.0314406362 -0.2266376822 -0.000254025013333 -0.000100273031579 -0.00314060277112
Te 0.3535270597 2.0428351584 13.5496577805 -0.00012958361004 -0.00115468252518 0.000379237747638
Te -1.5923837403 -1.3275776765 13.5496577805 0.000934596076382 0.000689569924858 0.00038000907865
Te -4.5031675038 2.599905086 13.9871381975 0.000177406132793 -0.000102072803941 -0.000466655262348
Te 1.6752795269 -0.967219527 13.7892007016 -0.000543531253225 0.000315988604642 0.000740220661322
Te 1.7350330957 1.2159615278 -13.6359065221 -0.00154806134137 -0.0055106458611 -0.00154189069328
Te -0.185536967 -2.1105599353 -13.6359065221 0.00399780863595 0.00409499634348 -0.00154086225193
Te -1.4018903878 0.8093816706 -13.7364685717 0.00221603399789 -0.00128015236982 -0.00166864608961
Te 4.1481270934 -2.3949188351 -14.4072228196 -0.00394330124442 0.00227774047886 -0.00330386783535
Te 2.5974364782 1.0028746622 10.3895249814 0.000128555168691 5.52787225371e-05 0.0018226551817
Te 0.4302032509 -2.7508800433 10.3895249814 1.49123995681e-05 -0.000139096692523 0.001820598299
Te -2.4427395 1.4103164357 10.6274228616 -0.000564100080215 0.000325501687125 0.00229625242316
Te 3.9886947148 -2.3028704655 10.6922716242 -0.000573098942024 0.000332186555897 0.00239549701338
Te 0.5454089062 -0.3148921256 -7.3685843054 -0.000179205905155 0.00010310124529 0.00421918063643
Te -1.5503227426 -3.9710770092 -7.602618077 -0.00168792936491 0.000974705289014 0.00486349914191
Te 3.7882897504 0.2174450883 -7.1479042762 0.000813754217813 -0.002625353655 0.00489306683071
Te 1.7058319541 -3.3894740729 -7.1479042762 0.00268088948788 0.000608065947908 0.00489280972037
Te 0.3638190297 2.5376365303 -3.5092028052 0.000246054592874 0.000318045487341 -0.00219109429517
Te -2.0157481104 -1.5838914741 -3.5092028052 -0.000151952209393 -0.000372552878866 -0.00219058007449
Te -4.6452322136 2.6819262228 -3.3973254506 -0.000758989715951 0.000438630235573 -0.00211473252496
Te 1.9657472912 -1.1349212488 -3.202203574 -0.000100530141916 5.75927155735e-05 -0.00271688493511
Te -0.4897317952 2.6693589866 -10.1875635244 -0.000215715573063 -0.0011328281465 -0.000278964716059
Te -2.556598467 -0.9105556598 -10.1875635244 0.000874432257435 0.000752819067853 -0.000279993157409
Te -3.7419350255 2.1604071049 -10.521594469 0.000434259359838 -0.000250168358272 -0.00161902379449
Te 2.7948036382 -1.613577375 -10.729190578 -0.00195146746073 0.00112588616739 -0.00221937643228
Sb 0.0689359677 2.3447865354 9.224715285 0.000636090974682 1.28555168691e-06 0.00222863240442
Sb -1.9961767225 -1.2320901347 9.224715285 0.000316502825317 -0.000551501673684 0.00222888951476
Sb -4.0572484545 2.3424534829 8.2479538381 -0.000729422027152 0.000421660953306 0.00182419784372
Sb 2.2825877883 -1.3178492816 8.359230198 -0.000902714394547 0.000521162653873 0.00175889181803
Sb -0.1064251601 2.4415351359 2.0072839692 -0.000948222924263 -0.000946166041564 0.000896800856787
Sb -2.1676439966 -1.1285971728 2.0072839692 0.000345556293441 0.0012937792177 0.000896800856787
Sb -4.197553925 2.4234589218 1.8546249981 0.000691112586882 -0.000398521022942 0.000881631346882
Sb 2.0530939247 -1.185350874 0.8885519297 -0.00038592261641 0.00022291466251 -0.0010626370244
Sb 0.1439705874 -0.0831214961 -11.5293007877 0.00134597261619 -0.000779558542941 -0.00442486890634
Sb -2.1828185006 -3.6059052262 -11.1335128514 0.000665144442806 -0.000382065961349 0.00137219787061
Sb -4.0289276306 0.3449026072 -12.8471838724 -0.00129403632804 -0.00105723770731 -0.00279890313274
Sb -2.3131580974 3.3167023564 -12.8471838724 0.000268680302564 0.00164987703498 -0.00279916024307
Sb 0.0531478064 -0.0306849146 11.5936776527 0.000822238858946 -0.000474368572469 0.00226642762402
Sb -1.9964747004 -3.7134909421 11.9027558243 0.0011032604577 -0.000638147857381 0.00204736961657
Sb 4.2178934436 -0.0379543631 12.7420539798 -0.000626835002536 -6.89055704183e-05 0.00166504654488
Sb 2.141816121 -3.6338222325 12.7420539798 -0.000254025013333 0.000574127383373 0.00166453232421
Sb 2.0630262252 1.2357643682 -1.5458908622 -0.000662573339432 -0.000889858877678 -0.00560783356863
Sb -0.038690182 -2.4045118272 -1.5458908622 0.000439658676923 0.00101815693603 -0.00560834778931
Sb -2.1390777716 1.2349971746 -2.5355404357 0.00100530141916 -0.000580040921133 -0.00555898260453
Sb 4.2240191764 -2.4387351701 -1.7822656732 -0.000301847536086 0.000174063698407 -0.00662984715972
Sb 2.0573185198 1.0543859765 -9.3709381086 -0.00188847542807 -0.00246543102515 -0.000812982886801
Sb 0.1155341883 -2.3088796136 -9.3709381086 0.00119067797241 0.00286755159282 -0.00081401132815
Sb -2.060757492 1.1897789205 -7.9984969382 0.000759503936625 -0.000438373125236 0.00433822272264
Sb 4.2876412233 -2.4754673931 -7.887018322 -0.00147504200556 0.000851549437408 0.00550370388199
Cr -2.2787228013 -3.550534422 17.4001815743 -4.21660953306e-05 2.64823647503e-05 -0.00150101014963
61
Lattice="8.42843558953 0 0 -4.21421779477 7.29923593142 0 0 0 31.0334408416" Properties=species:S:1:pos:R:3:forces:R:3 energy=-133600.8672 ionic_step=48 pbc="T T T"
Te 2.1035508325 0.7301945269 2.9984412587 -0.000327301459487 -0.00186225017366 0.00151000901144
Te 0.4194082424 -2.1868222606 2.9984412587 0.00144933097182 0.00121458923379 0.00151026612178
Te -2.2476300867 1.297669911 3.6158898023 0.000655631360323 -0.000378723526963 0.00273411132772
Te 3.6972393075 -2.1345985292 3.0192093872 -0.000828666617381 0.000478482337867 0.00132900333393
Te -0.2371514303 0.136919506 7.4015634668 -0.00169641400604 0.000978561944074 -0.00226642762402
Te -2.349191421 -3.5098497516 7.4485258194 -0.00269451633576 0.00155628887217 -0.00248497141079
Te -3.7166652395 -0.3556456461 7.0949228279 0.00267883260518 -0.00196098054321 -0.0029128030122
Te -1.5503346308 3.3965491937 7.0949228279 0.00303724441549 -0.00133903063708 -0.00291331723287
Te -0.4370890687 0.2523536091 -0.1494756202 -2.2882820027e-05 1.33697375438e-05 -0.00358257544108
Te -2.2453344024 -3.5698116565 0.172854081 -0.000432459587476 0.00024939702726 -0.00422817949824
Te -3.8670623363 0.1607422001 -0.2272092782 -0.000396464140242 0.000323959025101 -0.00357229102758
Te 2.1414798301 -4.0306328938 -0.2272092782 -0.000478739448205 0.000181777008529 -0.00357254813792
Te 0.3546205727 2.0429259075 13.5540732828 -0.00101250050861 -0.000119556306882 0.0045793922191
Te -1.5919155749 -1.3285700615 13.5540732828 -0.000402120567665 0.000937424290093 0.00458016355012
Te -4.5035546626 2.6001286124 13.9888044792 -4.42229780296e-05 2.51968130634e-05 0.00619378802752
Te 1.6775290768 -0.9685183058 13.7900645375 -0.000706796317462 0.000408291215762 0.00498074145576
Te 1.7323871655 1.2174596296 -13.6337049522 0.00188667565571 0.00148918307411 -0.00503242063357
Te -0.1881573257 -2.1090175423 -13.6337049522 -0.00034658473479 -0.00237878484145 -0.0050319064129
Te -1.39966585 0.8080973325 -13.7359262424 -0.00342470969392 0.00197769271514 -0.00586545812669
Te 4.1483090246 -2.3950238732 -14.4040628465 -0.000182034118866 0.000105158127989 -0.00172443903282
Te 2.5987707217 1.0042427543 10.3895818393 -0.00153520582451 0.000186404994602 0.00374146962958
Te 0.4296855707 -2.7527195786 10.3895818393 -0.000929453869635 0.00123567228146 0.00374121251924
Te -2.4436105918 1.410819361 10.6275477716 0.00237544240707 -0.00137142653959 0.00380703276561
Te 3.991174272 -2.3043020392 10.6913762954 0.00139868023536 -0.000807326459378 0.00430788370283
Te 0.5494111484 -0.3172028223 -7.3650203142 -0.000414461863859 0.000238855503428 -0.000462027276275
Te -1.5473130746 -3.9728146426 -7.6033818005 0.00336428876464 -0.00194246859892 -0.000589554003616
Te 3.7924528804 0.2160510172 -7.1481871549 -0.00010310124529 0.00627529200447 0.000654345808636
Te 1.7091208195 -3.3923824153 -7.1481871549 -0.00548622037905 -0.00304830016 0.000655631360323
Te 0.3637590875 2.5363663312 -3.5109834589 -0.000283849812469 -0.00132386112718 0.000313931721943
Te -2.0146780573 -1.583204463 -3.5109834589 0.00100401586748 0.000907856601295 0.000313931721943
Te -4.6455874968 2.6821313457 -3.3989224052 0.00127089639768 -0.00073353579255 -0.000243740599838
Te 1.962208511 -1.1328781321 -3.2051857649 -0.00101018651557 0.000583126245182 0.0004064914434
Te -0.4905421639 2.6702103236 -10.1863623106 0.00162725132529 -5.3221839838e-05 -0.000153494871417
Te -2.5577409305 -0.9102795281 -10.1863623106 0.000859519857867 -0.00138222517376 -0.000153494871417
Te -3.7452253579 2.1623067801 -10.5172251276 -0.00191007269641 0.00110197490602 0.000133183154764
Te 2.7972281203 -1.614977151 -10.7277167791 0.000657688243022 -0.000379237747638 -0.00277190654731
Sb 0.0691972894 2.3424643256 9.2261041147 -0.000457399290202 -0.00027793627471 -0.00179874392032
Sb -1.99403497 -1.2311553411 9.2261041147 1.20841858569e-05 0.000535560832766 -0.00179848680998
Sb -4.0568946436 2.34224921 8.24342725 0.0005970102034 -0.000344527852091 -0.00259398619384
Sb 2.2848995587 -1.3191839834 8.3627280271 -0.000493394737435 0.000284364033144 -0.00347895997511
Sb -0.1077833653 2.4421757943 2.0052891784 -0.00126395441857 4.11376539811e-06 0.000816068210849
Sb -2.1688779253 -1.1277412612 2.0052891784 -0.000635833864345 0.00109297604421 0.000816582431524
Sb -4.1987363165 2.4241415762 1.851247628 0.00160719671897 -0.000928168317948 -0.000589296893279
Sb 2.0515972922 -1.1844867925 0.8860994688 0.00100658697085 -0.000581583583157 -0.000467683703697
Sb 0.1432256719 -0.0826914187 -11.5257900527 -0.000583640465856 0.000337071652307 -0.00430171305473
Sb -2.1855266545 -3.604341672 -11.1310153706 0.000679799732037 -0.000392093264507 -0.00403560385554
Sb -4.0288607764 0.3570271816 -12.8533634132 0.00140613643514 0.00148069843298 -0.0083092918835
Sb -2.3236248548 3.3105821718 -12.8533634132 -0.000578498259109 -0.0019581523295 -0.00830877766282
Sb 0.0522559534 -0.0301700028 11.5980211682 -0.00138402494613 0.000800641590606 0.00390576313516
Sb -1.9962457023 -3.7136231543 11.9042952921 -0.00162082356685 0.000936138738407 0.0051612329126
Sb 4.2193559254 -0.0382534475 12.7424391206 0.00122384520594 -0.000909913483994 0.00525019308933
Sb 2.1428063765 -3.6349392373 12.7424391206 0.00140099422839 -0.000606523285883 0.00524967886866
Sb 2.062218433 1.2368010962 -1.5474419294 0.00101327183962 0.000517048888474 -0.00207333776065
Sb -0.0399919106 -2.4043306224 -1.5474419294 5.96495982725e-05 -0.00113642769123 -0.00207282353997
Sb -2.1398660032 1.2354522606 -2.5340896878 -0.00106006592102 0.000612179713306 -0.00208053685009
Sb 4.2228524945 -2.4380615857 -1.7871739291 0.000577469817759 -0.000333472107584 0.000575670045397
Sb 2.0580064396 1.0526662167 -9.3703145859 0.00139919445603 0.00381500318607 0.00395204299589
Sb 0.1173675032 -2.30861549 -9.3703145859 -0.00260452771768 -0.0031184912821 0.00395230010623
Sb -2.0591496087 1.1888506082 -7.9991030642 -0.00165579057274 0.000955679124048 0.00212064606272
Sb 4.2926630701 -2.4783667591 -7.8848794843 0.00160231162256 -0.000924311662887 -0.000465626820998
Cr -2.2799210525 -3.549842611 17.4019933762 0.000440687118272 -0.00025428212367 -0.00493214760199
61
Lattice="8.42843558953 0 0 -4.21421779477 7.29923593142 0 0 0 31.0334408416" Properties=species:S:1:pos:R:3:forces:R:3 energy=-133600.890152 ionic_step=49 pbc="T T T"
Te 2.1030425295 0.7296697989 2.9994023989 0.000153494871417 -0.000138325361511 0.0067383477221
Te 0.4196085184 -2.186119693 2.9994023989 0.00019643229776 -6.37633636706e-05 0.00673860483244
Te -2.2497450544 1.2988909887 3.6148902842 -0.000469226365721 0.000270737185263 0.00418087119616
Te 3.6949059333 -2.1332513543 3.0196916483 -0.000688284373171 0.000397492581592 0.00703531016177
Te -0.2316728878 0.1337564665 7.3966869605 0.00108063474801 -0.000624006788825 0.00318945373522
Te -2.3532722958 -3.5074936564 7.4506259953 0.00135959946407 -0.000784957860026 0.00366767896275
Te -3.7142514729 -0.3573625309 7.0970150118 -0.00141256419357 0.00108500562375 0.00297065283811
Te -1.5476408822 3.3953172519 7.0970150118 -0.00164602037992 0.000680828173387 0.00297065283811
Te -0.4332947167 0.2501629379 -0.1469135781 -0.000408291215762 0.000236027289716 0.00256081896032
Te -2.24819319 -3.568161134 0.1699531139 2.8282137112e-06 -1.79977236167e-06 0.00399986551865
Te -3.8697397882 0.1586419199 -0.2255502724 0.000741506213009 0.000340928307368 0.00190004539325
Te 2.1419599993 -4.0272640112 -0.2255502724 7.55904391902e-05 -0.000812725776463 0.00189978828291
Te 0.355264975 2.0448132653 13.5592273121 0.000896286636112 -9.79590385424e-05 -0.00340414086693
Te -1.5932278727 -1.3300718095 13.5592273121 0.000532989729392 -0.000727108034115 -0.00340414086693
Te -4.5072317875 2.6022516024 13.9908863586 -0.000819153534898 0.000473083020782 -0.00396952649883
Te 1.6819102138 -0.9710477577 13.7878082328 -7.55904391902e-05 4.37087573549e-05 -0.00321413632761
Te 1.7288642044 1.2190500046 -13.6277189717 -0.00178537418278 -0.000728136475465 0.00102458469447
Te -0.1912961107 -2.1067617546 -13.6277189717 -0.000261995433792 0.00191007269641 0.00102458469447
Te -1.3969342519 0.8065202428 -13.7384122604 0.00325373131956 -0.00187844812491 0.00142361993808
Te 4.1483267593 -2.3950341123 -14.3969574506 0.000909656373656 -0.000525276419271 0.000121098968907
Te 2.6018098405 1.0068700596 10.3867160625 0.000449171759406 -6.96769014304e-05 3.88236609446e-05
Te 0.428929818 -2.7566651866 10.3867160625 0.000284878253819 -0.000354040934575 3.88236609446e-05
Te -2.4457640221 1.4120626452 10.6264122109 -0.000929453869635 0.000536589274115 -0.000682627945748
Te 3.9927102618 -2.3051888438 10.6879359508 -0.000579269590121 0.000334500548933 -0.000735335564911
Te 0.5536645381 -0.3196585192 -7.3620376311 0.000144753119946 -8.3560859649e-05 0.000509849799028
Te -1.5416414181 -3.9760891765 -7.6029158915 -0.00155140377576 0.000895772415438 0.00199749021112
Te 3.8009728433 0.2155082842 -7.1497259975 0.000902200173872 -0.00263666650985 0.00131203405166
Te 1.7138508213 -3.3994895566 -7.1497259975 0.00273436843805 0.00053710349479 0.00131177694132
Te 0.3613944058 2.5333325271 -3.5147211261 0.000287449357193 0.00075513306089 -0.00870009959632
Te -2.013233048 -1.5796396855 -3.5147211261 -0.00051062113004 -0.000626577892199 -0.00870035670666
Te -4.6434803148 2.6809147631 -3.402373527 -0.000845635899648 0.000488252530688 -0.00866410414909
Te 1.9583206214 -1.130633457 -3.2103015422 0.000286935136518 -0.000165579057274 -0.0092068640713
Te -0.4903499129 2.6704464149 -10.1854326854 0.000109271893387 -0.000453542635141 0.00034272807973
Te -2.5578492659 -0.9105640681 -10.1854326854 0.000447629097381 0.000132154713414 0.00034272807973
Te -3.7512127509 2.1657636047 -10.510068004 0.00124210003989 -0.00071682362062 0.00071785206197
Te 2.7992731632 -1.6161578577 -10.7186582535 -0.00074921952313 0.000432459587476 0.000248368585911
Sb 0.0705798531 2.3388121763 9.2308024863 0.000301590425749 0.00123387250909 0.00380163344852
Sb -1.9901808355 -1.2305266024 9.2308024863 -0.000917626794115 -0.000878288912496 0.00380137633819
Sb -4.0555074383 2.3414483063 8.2335570846 -0.000810668893764 0.000467940814035 0.00529390184669
Sb 2.2890461436 -1.3215780165 8.3678122374 -0.000523733757246 0.000302361756761 0.00416364480356
Sb -0.1086260943 2.4431303591 2.0028638543 -0.000466912372685 -0.00117782245555 0.00938941241084
Sb -2.1701259668 -1.1274887186 2.0028638543 0.00078650052205 0.000993217233305 0.00938941241084
Sb -4.2004643372 2.4251392499 1.8480882905 0.000851292327071 -0.000491594965074 0.0104448503458
Sb 2.0495427461 -1.1833005991 0.8861248701 -0.000181519898191 0.000104901017652 0.00802235674698
Sb 0.1415644455 -0.0817323088 -11.5166321978 0.000731478909851 -0.000422175173981 -0.00132514667886
Sb -2.1912924957 -3.6010127605 -11.1264174289 -0.000691626807557 0.000399292353954 -0.00274490996189
Sb -4.0282428714 0.3752799181 -12.8624819614 -0.00101969959806 -0.00343396566607 0.00190853003438
Sb -2.3391232284 3.3009206818 -12.8624819614 0.00246388836313 0.00260015684194 0.00190878714472
Sb 0.0491615747 -0.0283834616 11.6021504077 0.00144316032372 -0.000833037493116 -0.00306115567687
Sb -1.9991304765 -3.7119576284 11.9025525576 0.00150949479077 -0.000871346933386 -0.00228468245797
Sb 4.2208694496 -0.0350165596 12.7410913614 -0.00135060060227 -0.000329615452523 -0.00338485759163
Sb 2.1407599127 -3.6378684322 12.7410913614 -0.000389779271471 0.00133440265101 -0.00338485759163
Sb 2.0612563795 1.2395050517 -1.5529466572 -0.000378980637301 -0.00098190437846 -0.00631591543778
Sb -0.0428146304 -2.4048494369 -1.5529466572 0.000661030677408 0.00081889642456 -0.00631591543778
Sb -2.140788064 1.2359846129 -2.5265578814 0.000640718960755 -0.000369981775492 -0.00950691183502
Sb 4.2227737627 -2.4380161298 -1.7964136193 -0.000321645032064 0.00018563366359 -0.00772359453494
Sb 2.0598300439 1.0529884638 -9.3693578489 -0.00190287360696 -0.00274105330683 -0.00132977466494
Sb 0.1180002312 -2.3103559019 -9.3693578489 0.0014223343864 0.00301847536086 -0.00132977466494
Sb -2.0572050846 1.1877279362 -8.0016324868 2.51968130634e-05 -1.46552892308e-05 0.00120661881333
Sb 4.3003216549 -2.4827884471 -7.887935825 -0.00285058231055 0.00164576326958 0.0014333901309
Cr -2.2781653718 -3.5508562542 17.4019338808 -0.000874689367772 0.000504964702618 0.000398778133279
61
Lattice="8.42843558953 0 0 -4.21421779477 7.29923593142 0 0 0 31.0334408416" Properties=species:S:1:pos:R:3:forces:R:3 energy=-133600.910988 ionic_step=50 pbc="T T T"
Te 2.1022767999 0.7317934832 2.9992071907 -1.64550615924e-05 0.000814525548825 0.000697540345316
Te 0.4173864899 -2.1865183936 2.9992071907 -0.000710138751848 -0.000393121705857 0.00069522635228
Te -2.2556141921 1.3022795385 3.6097429904 -0.0004615130556 0.000269451633576 -0.00116805226272
Te 3.6939983365 -2.1327273528 3.0191727978 0.000139353802861 -7.8161542564e-05 0.000846921451335
Te -0.2261773778 0.1305836309 7.3898528677 0.00176506246612 -0.00101250050861 0.00469612031228
Te -2.3554952736 -3.5062102189 7.4541553407 0.0021232171661 -0.00122255965425 0.00502624998547
Te -3.7124344549 -0.3589752072 7.0986634149 -0.0029238587567 0.0013102342793 0.00535560832766
Te -1.5453357553 3.3945500055 7.0986634149 -0.00260529904869 0.00188256189031 0.00535895076205
Te -0.4300229066 0.2482739566 -0.1463345665 -0.000481567661916 0.000283078481457 0.00465806798234
Te -2.2546691963 -3.5644222083 0.1631867933 0.000186404994602 -0.000108500562375 0.00557235234207
Te -3.8734755681 0.1559815777 -0.2267359006 0.000770302570795 0.00042808871174 0.00400063684966
Te 2.1423960322 -4.0226985583 -0.2267359006 1.72263926046e-05 -0.000882402677894 0.00399549464291
Te 0.3578790305 2.046334879 13.5671809636 0.00149355394985 0.000446086435357 -0.00451614307611
Te -1.5932386005 -1.3330964558 13.5671809636 0.000366382230769 -0.00152363585932 -0.00452385638623
Te -4.5065217197 2.6018416444 13.9937104776 -0.000650746263913 0.000378466416626 -0.00525584951676
Te 1.6867213913 -0.9738254935 13.7893326689 0.00103564043897 -0.000606266175546 -0.00366099409398
Te 1.7241073593 1.2210486838 -13.6227630224 -0.00158842766434 -0.00437936037662 0.00504321926774
Te -0.1954054394 -2.1036415436 -13.6227630224 0.00299173588577 0.00356843437252 0.00503370618526
Te -1.3899762474 0.8025030352 -13.7388508309 0.00285006808988 -0.00164550615924 0.00577932616366
Te 4.1486702746 -2.395232441 -14.3936618027 -0.00267086218472 0.00154214780362 0.00207256642963
Te 2.6044435566 1.0083932636 10.3863731295 0.0015200363146 -0.000277679164372 -0.00313546056437
Te 0.4289275434 -2.7597076547 10.3863731295 0.0010035016468 -0.00117602268318 -0.00313623189538
Te -2.4473471513 1.4129766657 10.627624775 -0.00241606584038 0.00139508069063 -0.00446266412593
Te 3.9972850583 -2.307830105 10.685222068 -0.00148918307411 0.000859005637192 -0.00431096902688
Te 0.5618553015 -0.3243874608 -7.3535332906 0.000773130784507 -0.00045174286278 -0.00170566997819
Te -1.5341277086 -3.9804272207 -7.6045062959 -0.00382734448226 0.00221706243924 0.000188718987638
Te 3.80985899 0.2147214543 -7.150420174 0.000817353762536 -0.006117940478 -5.16791778137e-05
Te 1.718975309 -3.406791774 -7.150420174 0.00571196325527 0.00235487358008 -4.42229780296e-05
Te 0.358951886 2.530009608 -3.5201136953 -4.47371987044e-05 0.00132591800988 -0.00421712375373
Te -2.0115765769 -1.5758629408 -3.5201136953 -0.00116522404901 -0.000628120554223 -0.00422689394655
Te -4.6421720369 2.6801594281 -3.4068451863 -0.000822753079621 0.000476939675843 -0.00326530128475
Te 1.9503094552 -1.1260082059 -3.2193899223 0.00078264386699 -0.000458170621214 -0.00456550826089
Te -0.4908811384 2.670752421 -10.1820021034 -0.000474368572469 0.000381294630337 -0.00113745613258
Te -2.5583798876 -0.9102570161 -10.1820021034 -0.000558186542456 0.000226257096896 -0.00113848457393
Te -3.7575791237 2.1694392334 -10.5018217041 0.00264797936469 -0.00151952209393 -0.00159588386413
Te 2.8045011273 -1.6191762255 -10.7122148401 -0.000452771304129 0.000253253682321 0.000645861167503
Sb 0.0712566001 2.3333673873 9.2337682313 0.000711681413872 0.00216872569581 0.00435004979816
Sb -1.9851271387 -1.2283902882 9.2337682313 -0.00152466430067 -0.00170052777144 0.0043544206739
Sb -4.054171336 2.3406769069 8.2266581375 -0.000865947616301 0.000501365157894 0.00585131705813
Sb 2.2929635789 -1.3238397499 8.3741151581 0.000855663202806 -0.000499051164858 0.00664604511098
Sb -0.1104856083 2.4444728879 1.9982368775 -7.71331012145e-06 -0.000952593799999 0.00357614768264
Sb -2.1722183874 -1.1265495958 1.9982368775 0.000817353762536 0.000479767889554 0.00357897589635
Sb -4.2042248636 2.4273103918 1.839820966 0.000126755396329 -7.01911221052e-05 0.00519028638072
Sb 2.0469492583 -1.1818032476 0.8872961867 -0.000334243438596 0.000195918077085 0.00499796784836
Sb 0.1402508257 -0.0809738897 -11.5081724037 0.000858748526855 -0.000501879378569 0.00187202036648
Sb -2.1975501791 -3.5973998837 -11.1165069636 -0.00213298735892 0.00122847319201 0.000850778106396
Sb -4.0272277428 0.402758985 -12.8759514701 -0.00102355625312 -0.00264900780604 0.00570682104852
Sb -2.3624132231 3.2863020209 -12.8759514701 0.00178614551379 0.00221397711519 0.00570784948987
Sb 0.0464921254 -0.0268422536 11.6095342557 0.00215818417198 -0.00124929912934 -0.00621435685451
Sb -1.9988835252 -3.7121002058 11.9044170916 0.00113231392583 -0.000651260484588 -0.00679876865138
Sb 4.2231107274 -0.034868986 12.7415885252 -0.00247751521101 -0.00020620249058 -0.00626552181165
Sb 2.1417527492 -3.6398832235 12.7415885252 -0.0010626370244 0.00225125811411 -0.00625703717052
Sb 2.0596110016 1.2420584837 -1.5594673282 -0.00044968598008 -0.000952079579324 -0.0016658178759
Sb -0.0458486553 -2.4047012132 -1.5594673282 0.000603180851497 0.000861576740566 -0.00166633209657
Sb -2.1418382808 1.2365909561 -2.5223921338 0.000652803146612 -0.000373838430553 -0.00315577228102
Sb 4.220074715 -2.4364578332 -1.8098165931 -0.000450457311093 0.000256339006369 -0.00349438659535
Sb 2.0597093719 1.0488742423 -9.3674974822 -0.00202422968621 -0.00399318064987 -0.00485964248685
Sb 0.121502914 -2.3081942861 -9.3674974822 0.00245154706693 0.00374635472599 -0.00485398605943
Sb -2.0543072772 1.1860548855 -8.0008470219 0.00112408639503 -0.000644061395141 -0.00204094185814
Sb 4.3095839449 -2.4881360352 -7.8843068968 -0.00329049809781 0.00188127633862 -0.0013040636312
Cr -2.280257475 -3.5496483773 17.4064720037 -0.000840493692901 0.000494423178785 0.00173883721171
61
Lattice="8.42843558953 0 0 -4.21421779477 7.29923593142 0 0 0 31.0334408416" Properties=species:S:1:pos:R:3:forces:R:3 energy=-133600.945934 ionic_step=51 pbc="T T T"
Te 2.1015395095 0.7321570899 3.0023058015 5.70784948987e-05 -0.000522448205559 -0.00158148568523
Te 0.4167029522 -2.1860616844 3.0023058015 0.000481567661916 0.000211344697328 -0.00158148568523
Te -2.2620811193 1.3060132224 3.6052849536 -6.9419791093e-05 3.98521022942e-05 -0.00101198628793
Te 3.6895767691 -2.1301745585 3.0222262404 -0.000535046612091 0.000309560846207 -0.00137656874634
Te -0.2157214091 0.1245468717 7.381480157 -0.000208002262942 0.000120584748232 -0.00733098704976
Te -2.3622680819 -3.5022999344 7.4591585665 -0.000396978360917 0.000228313979595 -0.00719086191589
Te -3.706756266 -0.3621004433 7.1044211635 0.000248111475573 -0.000194632525398 -0.00643264353095
Te -1.5397901282 3.3911951654 7.1044211635 0.00029259156394 -0.000118527865533 -0.00643135797926
Te -0.4252457832 0.2455158819 -0.1440492015 0.000216486904075 -0.000124441403293 -0.0048015355506
Te -2.2618908492 -3.560252783 0.1562429162 -0.000117499424183 6.7362908394e-05 -0.00422175173981
Te -3.8792754368 0.1517206601 -0.2264799458 -0.000305189970472 -0.000134725816788 -0.00490180858218
Te 2.1431861589 -4.0155452635 -0.2264799458 -3.52241162213e-05 0.00033192944556 -0.00490206569252
Te 0.3593425365 2.0490367439 13.5760332721 0.000254539234008 9.82161488798e-05 0.000283335591795
Te -1.59484673 -1.3357148222 13.5760332721 4.2423205668e-05 -0.000269194523239 0.000283078481457
Te -4.5093173215 2.6034556866 13.9986925354 -3.98521022942e-05 2.23685993522e-05 0.000748191081781
Te 1.6949239211 -0.9785612286 13.785674348 2.8282137112e-05 -1.56837305803e-05 0.000657688243022
Te 1.716912081 1.2228679264 -13.6123423079 -0.000402891898677 -0.000226257096896 0.00653317367287
Te -0.2005785882 -2.0983198682 -13.6123423079 -3.59954472334e-06 0.000461255945263 0.00653317367287
Te -1.3800980821 0.7967998712 -13.7438591791 0.0005165346678 -0.000296962439676 0.00651723283195
Te 4.149025847 -2.395437731 -14.3874400851 -9.71877075303e-05 5.47645018623e-05 0.00511006795546
Te 2.6102141105 1.0117289315 10.3824612495 0.000217258235087 0.000215201352388 -0.0072466548591
Te 0.4289240485 -2.7663729372 10.3824612495 -7.68759908771e-05 -0.000296191108664 -0.0072466548591
Te -2.4508465335 1.4149970359 10.6273454003 -0.000347356065803 0.00020131739417 -0.0070224546449
Te 4.001087848 -2.3100256477 10.6805660095 7.17337841295e-05 -4.21660953306e-05 -0.00663730335951
Te 0.5720916068 -0.3302973972 -7.3442246394 -0.000276136502348 0.000159151298839 0.00611639781597
Te -1.5206447928 -3.9882115894 -7.6040979345 -5.09078468016e-05 2.95676887989e-05 0.00687127376652
Te 3.8257218698 0.2151752191 -7.153398565 0.000759246826288 -0.000432202477139 0.00542554233943
Te 1.7265137773 -3.4207563196 -7.153398565 0.000754618840215 -0.000441715559622 0.00542502811875
Te 0.3541453774 2.5243557086 -3.5299778938 -0.000468197924372 -0.000110043224399 -0.00218852319179
Te -2.0090834129 -1.5688734306 -3.5299778938 -0.000137811140837 0.0004615130556 -0.00218878030213
Te -4.6391206422 2.6783977038 -3.4147919496 0.000452771304129 -0.000261481213117 -0.00244177687411
Te 1.9402833507 -1.120219629 -3.2315864493 0.000158637078164 -9.07599490957e-05 -0.00223454594218
Te -0.4903619084 2.6697308041 -10.1781531221 -0.000502650709581 3.49670058839e-05 0.0107261290549
Te -2.5572355269 -0.9101958743 -10.1781531221 -0.000280507378083 0.00041729007757 0.0107263861652
Te -3.7676324684 2.1752435374 -10.4895750458 0.000818382203886 -0.000471540358758 0.0108138036799
Te 2.8092462856 -1.6219158452 -10.6923491649 0.000572327611012 -0.00033192944556 0.0106371688782
Sb 0.0736848353 2.3248464383 9.2419409665 1.13128548448e-05 0.000236541510391 -0.00918578102363
Sb -1.9765336661 -1.2262327281 9.2419409665 -0.000198232070121 -0.000129326499703 -0.00918526680296
Sb -4.0513231329 2.3390324953 8.2121114618 0.000132411823752 -7.53333288528e-05 -0.0083519721995
Sb 2.3000927195 -1.327955763 8.3837917019 7.19908944669e-05 -4.29374263427e-05 -0.00922511890525
Sb -0.1120808643 2.4465441609 1.9944141291 -0.000121870299919 -0.000143724678596 -0.00201831614845
Sb -2.1748097896 -1.1262036995 1.9944141291 6.32491429959e-05 0.000177663243131 -0.00201831614845
Sb -4.2093797108 2.4302865456 1.831523739 0.000229085310607 -0.000132668934089 -0.0021211602834
Sb 2.0435468012 -1.1798388371 0.8888866069 2.23685993522e-05 -1.25984065317e-05 -0.0032285345065
Sb 0.1370840069 -0.0791455251 -11.4908257923 -0.000346327624453 0.000199517621808 0.00868287320372
Sb -2.208635638 -3.590999688 -11.1014470747 -0.000455856628178 0.000263795206154 0.00913333051481
Sb -4.0254371017 0.4441443979 -12.89578944 8.02184252631e-05 -0.000627863443886 0.00801515765753
Sb -2.3973587048 3.264058573 -12.89578944 0.000584668907206 0.00024451193085 0.00801387210585
Sb 0.0412026617 -0.0237883789 11.6147852339 0.000132154713414 -7.55904391902e-05 -0.00411042296372
Sb -2.0024437996 -3.7100446795 11.9037673845 0.000144496009608 -8.40750803238e-05 -0.00337354473678
Sb 4.2256646672 -0.0294980299 12.7404588715 -1.25984065317e-05 5.70784948987e-05 -0.00158585656097
Sb 2.1383783368 -3.6447804793 12.7404588715 -5.45073915249e-05 -1.77406132793e-05 -0.00158662789198
Sb 2.0575444275 1.2472952801 -1.571350972 1.28555168691e-05 -0.000793699611497 -0.0051062113004
Sb -0.0514171389 -2.4055299049 -1.571350972 0.000694455021268 0.000386179726747 -0.00510569707972
Sb -2.142956167 1.2372363683 -2.5131975961 2.54539234008e-05 -1.36268478812e-05 -0.00447989051854
Sb 4.2187104642 -2.4356701823 -1.8311822522 -0.00060780883757 0.000349927169176 -0.0049879405452
Sb 2.0600824429 1.0460188323 -9.3648920419 -8.99886180836e-06 -8.48464113359e-05 0.00926522811788
Sb 0.1241623059 -2.3070896702 -9.3648920419 6.9419791093e-05 4.91080744399e-05 0.00926497100755
Sb -2.0497173815 1.1834049068 -8.0021164717 -0.000351212720863 0.000203631387206 0.00721940116334
Sb 4.3222955184 -2.495475069 -7.8887568201 -0.000649460712226 0.00037409554089 0.00699442961813
Cr -2.2801813553 -3.549692325 17.4099085107 -0.000101044362591 5.68213845613e-05 0.0058703432231
61
Lattice="8.42843558953 0 0 -4.21421779477 7.29923593142 0 0 0 31.0334408416" Properties=species:S:1:pos:R:3:forces:R:3 energy=-133600.976638 ionic_step=52 pbc="T T T"
Te 2.1001271545 0.7371534629 3.0018698315 -0.000155294643779 -0.000186147884264 -0.00193115574407
Te 0.4116697908 -2.187336735 3.0018698315 8.40750803238e-05 0.000227028427908 -0.0019306415234
Te -2.2754615957 1.3137384477 3.5931411671 0.00027690783336 -0.00015812285749 -0.00114619788405
Te 3.6874286335 -2.1289343312 3.0218735982 -3.26530128475e-05 1.72263926046e-05 -0.00259475752486
Te -0.2039765055 0.1177659453 7.3687499186 0.000208516483617 -0.000119299196545 0.0129429343838
Te -2.366533598 -3.4998372364 7.4664326964 0.000712195634547 -0.00041240498116 0.0132064724796
Te -3.7018393015 -0.3652712934 7.1100144652 0.000178177463805 0.000770302570795 0.0113568207125
Te -1.5345856106 3.3885223724 7.1100144652 -0.000577726928097 -0.000539931708501 0.0113570778228
Te -0.4209436514 0.2430320437 -0.1446390515 0.000169692822672 -9.79590385424e-05 -0.00449763113182
Te -2.2757801289 -3.5522337999 0.1424878229 -0.000346070514116 0.000200031842483 -0.00533401105932
Te -3.8875392779 0.1461245565 -0.2305635439 -0.000389265050796 -0.000485167206639 -0.00462567207983
Te 2.143900604 -4.005590512 -0.2305635439 0.000224971545209 0.000579526700458 -0.00462567207983
Te 0.364123146 2.0525512713 13.5910812383 -0.00048413876529 -0.000746905530094 -0.00694994952976
Te -1.5955000939 -1.3416122171 13.5910812383 0.000404177450364 0.000792928280485 -0.00694994952976
Te -4.5054649368 2.6012315102 14.0056659258 -0.000378723526963 0.000218286676437 -0.00746082777014
Te 1.7051540283 -0.9844675865 13.7880114214 -0.000676714407988 0.000390550602483 -0.00678205647945
Te 1.7068472982 1.2258968614 -13.6015827233 -0.00173086679125 -0.00450405889025 -0.0110925112857
Te -0.208234113 -2.0911179741 -13.6015827233 0.00303441620178 0.0037512398224 -0.0110930255063
Te -1.3620099957 0.7863567047 -13.7468007937 0.00202731501025 -0.00117010914542 -0.0112092393788
Te 4.1492312383 -2.3955563137 -14.3856618884 -0.00326350151239 0.00188461877301 -0.0112663178737
Te 2.6152581678 1.0137925541 10.3821956815 -0.00110120357501 0.000454828186828 0.0104901017652
Te 0.4296589284 -2.7717730323 10.3821956815 -0.000944366269203 0.000726336703103 0.0104903588755
Te -2.4531466576 1.4163250138 10.6308786582 0.00132437534785 -0.000765417474385 0.00845893009986
Te 4.0108018808 -2.3156340497 10.6764722478 0.0011492832081 -0.000663087560107 0.00936730092182
Te 0.5898634003 -0.3405579517 -7.3246222095 -0.00101687138434 0.00058724001058 0.00478096672361
Te -1.5023031927 -3.9988011221 -7.6066556662 -0.00024939702726 0.000143724678596 0.00516611800901
Te 3.8438859761 0.214871101 -7.1555050809 0.00062940610591 0.000817096652199 0.00502007933738
Te 1.7358592043 -3.4363348455 -7.1555050809 -0.000392607485182 -0.000953108020674 0.0050195651167
Te 0.347876735 2.5170896372 -3.5425529859 0.00021108758699 0.000407005664075 0.000967763309904
Te -2.0059251346 -1.5598115888 -3.5425529859 -0.000247340144561 -0.000386179726747 0.000968020420242
Te -4.6363941963 2.6768235887 -3.4242931915 -0.000121870299919 7.07053427799e-05 0.000618093251065
Te 1.9227384498 -1.110090071 -3.2507697317 0.000164036395249 -9.46166041564e-05 0.000637890747044
Te -0.4907785805 2.6685718867 -10.1697951049 0.000776473218893 -0.000567442514601 -0.00160822516032
Te -2.5564402114 -0.9092555668 -10.1697951049 0.00087983157452 -0.000389007940458 -0.00160925360167
Te -3.7792812873 2.1819689893 -10.4733902268 -0.00025428212367 0.000146810002645 -0.00214918531017
Te 2.8195360179 -1.6278566277 -10.6720434093 -0.000368696223805 0.000212373138677 -0.00566979715994
Sb 0.0755569674 2.3125806229 9.2472078834 1.82548339541e-05 -0.00124364270191 0.015644649809
Sb -1.9649750974 -1.2217211351 9.2472078834 0.00108551984443 0.000606266175546 0.015644649809
Sb -4.0484825782 2.3373924995 8.2005143924 6.96769014304e-05 -4.08805436437e-05 0.0149226839816
Sb 2.3075581879 -1.3322659552 8.3963583145 -0.000753076178191 0.000435544911524 0.0154111936227
Sb -0.1158550138 2.4494220317 1.9857762745 3.49670058839e-05 0.000327558569824 -0.00446857766369
Sb -2.1791891724 -1.124374124 1.9857762745 -0.000265337868178 -0.000193346973711 -0.00446960610504
Sb -4.2184823649 2.4355419678 1.8133109997 -0.000296448219001 0.000171749705371 -0.00486812712798
Sb 2.0387930315 -1.1770942456 0.8910569631 0.000130354941052 -7.53333288528e-05 -0.00491414987838
Sb 0.133756173 -0.0772241985 -11.4718319139 0.000186662104939 -0.0001079863417 -0.00846690052031
Sb -2.2208345351 -3.5839566482 -11.0778779888 -0.000454828186828 0.000262766764804 -0.00215175641355
Sb -4.0218764427 0.5063673512 -12.9251494375 -0.00072865069614 -0.00168484404086 -0.0115738218372
Sb -2.4494650084 3.2298634738 -12.9251494375 0.00109503292691 0.00147375645387 -0.0115738218372
Sb 0.0364791845 -0.0210612768 11.6276924904 -0.00053813193614 0.000311360618569 0.00312209082683
Sb -2.001818369 -3.7104057722 11.909814893 -0.000733278682212 0.00042320361533 0.000368696223805
Sb 4.2299505729 -0.0288692732 12.7418087841 0.000107215010688 -0.000992188791956 -0.00316991334958
Sb 2.1399767707 -3.6488065626 12.7418087841 0.00091222747703 0.000403406119352 -0.00316965623924
Sb 2.0540826555 1.2527427027 -1.5854059093 0.000262252544129 0.000715280958596 -0.00295162667314
Sb -0.057865629 -2.4052556323 -1.5854059093 -0.000488509641025 -0.000585183127881 -0.00295085534213
Sb -2.1445536636 1.2381586839 -2.5061644194 -0.000369724665155 0.000213401580027 -0.00158662789198
Sb 4.2130554011 -2.4324052285 -1.8610479821 0.000449428869743 -0.000258910109743 -0.0020365709824
Sb 2.0580240054 1.0353708965 -9.3605179628 -0.000934596076382 0.000259424330418 0.00166427521387
Sb 0.1323544658 -2.2999830423 -9.3605179628 -0.000691112586882 0.000679799732037 0.00166453232421
Sb -2.0425046434 1.1792406285 -7.9990476992 0.000651517594925 -0.000375381092577 0.0054281134428
Sb 4.3384864657 -2.5048229212 -7.8842918607 0.00119941972389 -0.000692912359243 0.00497354236631
Cr -2.287176242 -3.5456538235 17.4201621428 -0.000484652985964 0.000279736047071 -0.0105986023275
61
Lattice="8.42843558953 0 0 -4.21421779477 7.29923593142 0 0 0 31.0334408416" Properties=species:S:1:pos:R:3:forces:R:3 energy=-133601.004358 ionic_step=53 pbc="T T T"
Te 2.1003887408 0.7430917253 3.0206088429 -7.71331012145e-05 -0.00072762225479 0.00613825219465
Te 0.4066579002 -2.1905324067 3.0206088429 0.000589296893279 0.000432202477139 0.00613619531195
Te -2.28560119 1.3195925479 3.5819557633 0.000146552892308 -8.43321906612e-05 0.0052774467851
Te 3.6834426148 -2.1266330012 3.0421352827 -0.000682113725073 0.000393121705857 0.00637170838099
Te -0.1841046333 0.1062929091 7.3586519948 -0.000449171759406 0.000257881668394 -0.0131784474528
Te -2.3810508324 -3.4914557033 7.4762198371 -0.000396978360917 0.000231913524318 -0.0134499559691
Te -3.6871462085 -0.3695536488 7.1279126321 0.000535303722429 -0.000150152437031 -0.0118687273942
Te -1.5235304372 3.3779389524 7.1279126321 0.000394921478218 -0.000388493719784 -0.0118697558356
Te -0.4114632202 0.2375585116 -0.1412796874 0.000310075066882 -0.000181519898191 0.00842473442498
Te -2.2859119286 -3.5463841999 0.1293966761 2.08259373279e-05 -7.19908944669e-06 0.00835145797883
Te -3.9044553832 0.1361991237 -0.2289621719 -0.000247340144561 -0.000149638216356 0.00804575378768
Te 2.1440382243 -3.9859780119 -0.2289621719 8.48464113359e-06 0.000287963577867 0.00804575378768
Te 0.364181126 2.0608218954 13.597747786 0.00091222747703 0.000269194523239 -0.00456936491595
Te -1.6026336711 -1.3457977413 13.597747786 0.000218800897112 -0.000923797442212 -0.00457090757797
Te -4.5115776674 2.6047606985 14.0147196247 -0.000622207016464 0.000357640479298 -0.00289454817824
Te 1.718058813 -0.9919181709 13.7714724153 -0.000157608636815 9.10170594331e-05 -0.0040518018068
Te 1.6973687883 1.225971065 -13.5802536775 0.000331672335222 0.00304110107055 0.00424669144253
Te -0.2130376301 -2.0829464417 -13.5802536775 -0.00246800212853 -0.00180491456842 0.00425003387692
Te -1.3391444982 0.7731552974 -13.7631938037 0.000375381092577 -0.000214172911039 0.0043778177146
Te 4.1528374494 -2.3976383617 -14.3858440939 0.00288657775778 -0.0016637609932 0.00411556517047
Te 2.625453285 1.0166768769 10.3718839139 -3.26530128475e-05 0.000586468679567 -0.018673152473
Te 0.4322585913 -2.7820444283 10.3718839139 -0.000523733757246 -0.000267908971552 -0.0186703242593
Te -2.4582173212 1.4192525641 10.6322838305 -0.000501365157894 0.000287963577867 -0.0184098714875
Te 4.0139295029 -2.317439784 10.6672203919 0.000150152437031 -8.53606320107e-05 -0.0178360012145
Te 0.6062428907 -0.3500146593 -7.3063560385 -5.39931708501e-05 2.98247991363e-05 0.00565719875341
Te -1.4769235279 -4.0134540852 -7.6015047822 0.000400577905641 -0.000229599531282 0.0060863159065
Te 3.869947785 0.2198885985 -7.1641602142 0.000713224075897 0.000191032980675 0.00513475054785
Te 1.7445448305 -3.4614137934 -7.1641602142 0.000192832753036 -0.000715280958596 0.00513295077549
Te 0.3338209821 2.5060184048 -3.5676294012 -0.00028282137112 5.06507364642e-05 0.00336840253004
Te -2.0033650471 -1.5421033279 -3.5676294012 -0.000182291229204 0.000219572228124 0.00336506009565
Te -4.6267767668 2.6712709606 -3.4438324889 0.000345556293441 -0.000201574504507 0.00331055270413
Te 1.9070353402 -1.1010238722 -3.2777064801 9.51308248312e-05 -5.47645018623e-05 0.00357897589635
Te -0.488510814 2.6601135467 -10.1595257146 -0.000337842983319 0.00042423205668 0.00726079592766
Te -2.5479811943 -0.9069903411 -10.1595257146 -0.000536075053441 8.45893009986e-05 0.00726208147934
Te -3.7931464453 2.1899740457 -10.4531511632 0.000213144469689 -0.000123412961943 0.00747985393511
Te 2.8248494916 -1.6309243646 -10.6103869016 0.00074433442672 -0.000427317380728 0.00730193358164
Sb 0.0824490568 2.2959977816 9.2636689259 0.000405463002051 4.67940814035e-05 -0.0200576916398
Sb -1.9471678975 -1.2193984417 9.2636689259 0.00015812285749 -0.000375895313252 -0.0200610340742
Sb -4.0436232892 2.3345869864 8.1778295328 0.000114671210472 -6.65915773818e-05 -0.0171749705371
Sb 2.3193559741 -1.3390774134 8.4078155392 5.21933984885e-05 -3.13674611606e-05 -0.0184906041335
Sb -0.1164382677 2.4536020931 1.9817103444 -0.00038592261641 -0.000392350374844 0.0095205386829
Sb -2.183100837 -1.1259590417 1.9817103444 0.000153751981754 0.000527590412307 0.00951899602088
Sb -4.2300243986 2.4422057673 1.79946707 0.000250168358272 -0.000143724678596 0.00985529634218
Sb 2.0351680307 -1.1750013495 0.9111570428 -0.000137811140837 7.79044322266e-05 0.00956219055756
Sb 0.1258835012 -0.0726789072 -11.4364217912 -0.000194375415061 0.00011389987946 0.00569679374536
Sb -2.2378426713 -3.5741369916 -11.0423317399 -9.89874798919e-05 5.47645018623e-05 0.00366279386634
Sb -4.0145187608 0.5866885597 -12.9644183875 -0.000241426606801 0.000125212734305 0.00567133982196
Sb -2.515346342 3.1833309271 -12.9644183875 -0.000222400441835 0.000143724678596 0.00566851160825
Sb 0.0275747951 -0.0159203228 11.6259823651 0.000410862319136 -0.000236027289716 -0.0135432870216
Sb -2.0124987611 -3.704239442 11.904876566 0.000350441389851 -0.000201574504507 -0.0125708957256
Sb 4.2326188039 -0.0157147011 12.7384392765 -0.000247083034224 0.000222400441835 -0.00899114849824
Sb 2.1299186979 -3.6576946055 12.7384392765 -0.000320359480378 0.00010310124529 -0.00899012005689
Sb 2.0503895848 1.263576498 -1.6154936664 5.55358328744e-05 -0.000220343559136 0.00571993367573
Sb -0.069094502 -2.4074742354 -1.6154936664 0.000218286676437 6.45346946828e-05 0.00571864812404
Sb -2.1449145446 1.2383670387 -2.4860566554 -0.000107472121026 6.35062533333e-05 0.00381808851012
Sb 4.2123843587 -2.4320178019 -1.9079277724 -0.00016789305031 9.25597214574e-05 0.00523528068976
Sb 2.0563347992 1.0298309125 -9.3549169415 0.000729679137489 0.000268423192226 0.00674708947357
Sb 0.1363076273 -2.2957501541 -9.3549169415 0.000129326499703 -0.000767474357084 0.00675326012167
Sb -2.0326907697 1.1735745833 -7.9994492331 -0.000858491416517 0.000497765613171 0.00611691203665
Sb 4.352827529 -2.5131027418 -7.9054923171 -0.000461255945263 0.000262766764804 0.00595981762051
Cr -2.2876119507 -3.5454022668 17.4277763624 0.000491594965074 -0.00028873490888 0.00399009532583
61
Lattice="8.42843558953 0 0 -4.21421779477 7.29923593142 0 0 0 31.0334408416" Properties=species:S:1:pos:R:3:forces:R:3 energy=-133601.025 ionic_step=54 pbc="T T T"
Te 2.1020769523 0.7423973349 3.0290143486 0.000664373111794 -0.00178845950683 0.0078436650625
Te 0.4081033654 -2.1916472462 3.0290143486 0.00188050500761 0.000318045487341 0.00784700749689
Te -2.2780390741 1.3152265562 3.5858893169 0.000130097830715 -7.45619978407e-05 0.00763489146855
Te 3.6853700314 -2.1277457962 3.0514881679 -0.00118810686904 0.000685456159459 0.00672369243287
Te -0.1887083691 0.1089508785 7.3664169825 -0.000828409507044 0.000477453896518 0.0014842979777
Te -2.3809449717 -3.4915168221 7.4719375032 -0.000376923754601 0.000220343559136 0.000581069362482
Te -3.6858030164 -0.3666793091 7.1322297586 0.00279813180172 0.000357126258623 -0.00111663019525
Te -1.5253480912 3.3753385435 7.1322297586 0.00108757672712 -0.00260041395228 -0.00111457331255
Te -0.4136987591 0.2388492013 -0.1411620173 -0.00102227070143 0.000588525562267 -0.00425980406974
Te -2.2769342122 -3.5515674893 0.1373375097 -0.000833551713791 0.000482081882591 -0.00350389967784
Te -3.9042489354 0.1379544085 -0.225828826 0.000349412948502 -0.000259167220081 -0.00371935814056
Te 2.1426213277 -3.9870344434 -0.225828826 0.00039672125058 -0.000175092139757 -0.00371935814056
Te 0.3590926033 2.0604134408 13.5838128742 -0.00119273485511 -0.000970077302941 1.54266202429e-05
Te -1.6048242005 -1.341186722 13.5838128742 0.00024451193085 0.00151823654224 1.33697375438e-05
Te -4.514112942 2.6062244406 14.0129643154 0.000598295755087 -0.000342213859055 0.000496222951147
Te 1.7113696403 -0.9880561734 13.7618697929 -0.000926368545586 0.000534532391416 0.000427574491066
Te 1.7046371596 1.2218869574 -13.5837401291 0.000225228655546 0.00110891688513 -0.000160951071201
Te -0.2058665052 -2.087198985 -13.5837401291 -0.000845893009986 -0.000747933971443 -0.000160693960864
Te -1.3453903062 0.776761318 -13.7669404343 -0.000865947616301 0.000500079606207 -0.00126395441857
Te 4.1546162236 -2.3986653379 -14.3969626383 0.000195146746073 -0.00011492832081 0.0003535267139
Te 2.6241850582 1.0135630428 10.369143179 -0.0029809372516 0.000531704177705 -0.000801927142293
Te 0.4343211361 -2.7793891942 10.369143179 -0.00194889635735 0.00231682125015 -0.000801927142293
Te -2.4561401165 1.4180532889 10.6321156904 0.0031246619302 -0.00180182924437 -1.51695099055e-05
Te 4.0067205521 -2.3132776924 10.6684158775 0.00162082356685 -0.000938452731443 0.000245283261862
Te 0.5959314473 -0.3440613419 -7.3148363984 -0.00172880990855 0.00099861655039 -0.00151695099055
Te -1.4849231714 -4.0088354868 -7.5982860496 0.00297322394148 -0.00171929682607 -0.00377643663546
Te 3.8605309696 0.2240145677 -7.165681794 -0.000465883931336 0.00659565148485 -0.00123618650213
Te 1.7362632303 -3.4553215728 -7.165681794 -0.00594104856588 -0.00289660506094 -0.00123644361247
Te 0.3336892971 2.5086110439 -3.5667005286 -0.000329872562861 -0.00101095784658 -0.00224945834175
Te -2.0056761798 -1.5432856049 -3.5667005286 0.000710395862185 0.000790871397786 -0.00224894412108
Te -4.6256658428 2.670629568 -3.441770695 0.000819410645235 -0.000469997696734 -0.00368721934839
Te 1.9171233392 -1.1068481839 -3.2700247413 -0.000466141041673 0.000267908971552 -0.00252713750612
Te -0.4872742912 2.6550904992 -10.1616937745 0.00300356296129 -0.00149149706715 -0.000616807699379
Te -2.5430128481 -0.905549678 -10.1616937745 0.00279633202936 -0.00185556530488 -0.000619121692415
Te -3.7856056269 2.1856203501 -10.4638313887 -0.00390293492145 0.00225408632782 0.00231604991913
Te 2.8195632643 -1.6278723584 -10.6007599562 -0.00053221839838 0.000305447080809 -0.00237364263471
Sb 0.0846517694 2.3017167507 9.2640570735 -0.000372038658191 -0.00443052533376 -0.00180748567179
Sb -1.9510193114 -1.2241655323 9.2640570735 0.00365199523217 0.0025358792576 -0.00180774278213
Sb -4.0436567549 2.3346063078 8.1883584081 0.000400320795303 -0.000230370862294 -0.00181108521652
Sb 2.3150088789 -1.3365676157 8.3988824664 -0.00265852088853 0.00153366316248 -0.00178306018974
Sb -0.1126820103 2.4523360506 1.9884332838 -0.00267574728113 0.000241940827476 0.00598578576458
Sb -2.1801262839 -1.1285790363 1.9884332838 -0.00154883267239 0.0021954651709 0.00598424310256
Sb -4.2272267576 2.4405905477 1.8093981743 0.00191984288923 -0.00111097376783 0.00469843430531
Sb 2.0388764072 -1.1771423826 0.9182656989 0.000979333275087 -0.000563328749203 0.00154677578969
Sb 0.1259137114 -0.072696349 -11.4434457831 -0.000509335578353 0.000292848674278 0.00200726040394
Sb -2.2318748814 -3.5775824983 -11.0469129075 0.00130534918289 -0.000751533516167 0.00289737639195
Sb -4.0151080541 0.5576815133 -12.9536797696 -4.91080744399e-05 -4.9879405452e-05 -0.00180722856146
Sb -2.4905201613 3.1983447935 -12.9536797696 1.87690546289e-05 6.86484600809e-05 -0.00180774278213
Sb 0.0289125968 -0.0166927033 11.6107132382 -0.00157968591287 0.000909913483994 -0.000526561970958
Sb -2.0164917165 -3.7019341071 11.8990513821 -0.000186147884264 0.000109271893387 0.000312646170256
Sb 4.2290506237 -0.0119398984 12.7360944911 0.00172546747417 -0.000130354941052 0.00151617965954
Sb 2.1248655343 -3.6564918708 12.7360944911 0.000971877075303 -0.00142901925517 0.00151412277684
Sb 2.0517072373 1.2623705863 -1.6138412216 0.000381294630337 3.77952195951e-05 -0.00607320327929
Sb -0.067391326 -2.4080124007 -1.6138412216 0.000156580195465 -0.000349927169176 -0.00607423172064
Sb -2.1428750956 1.2371895617 -2.4877094079 -0.000790357177111 0.000456885069527 -0.00436599063908
Sb 4.2173493073 -2.4348843176 -1.8989848307 -0.00085334920977 0.000493651847773 -0.00501802245468
Sb 2.0552066724 1.0360791653 -9.3564504318 0.000320873701052 0.00434799291546 0.000459456172901
Sb 0.1303324208 -2.2978972936 -9.3564504318 -0.00360648670245 -0.0024512899566 0.000455856628178
Sb -2.0362189485 1.1756115792 -7.9977423561 -1.59408409177e-05 1.05415238326e-05 -0.00103975420437
Sb 4.3402433157 -2.5058372394 -7.9165597751 0.00504810436415 -0.00292000210164 -0.00180362901673
Cr -2.2841076057 -3.5474255023 17.4237362277 -0.00118347888297 0.000682370835411 0.00232067790521
61
Lattice="8.42843558953 0 0 -4.21421779477 7.29923593142 0 0 0 31.0334408416" Properties=species:S:1:pos:R:3:forces:R:3 energy=-133601.082647 ionic_step=55 pbc="T T T"
Te 2.1033629082 0.7477865822 3.02216353 -1.02844134953e-06 -0.00134700105754 0.000573870273036
Te 0.4040791205 -2.1954555409 3.02216353 0.00116136739395 0.000658202463697 0.000571556279999
Te -2.2870242801 1.3204141698 3.5714577778 0.00011389987946 -7.68759908771e-05 -0.000745105757732
Te 3.6875806499 -2.129022098 3.048974649 -0.000761817929662 0.000426546049716 -0.000792671170148
Te -0.1957275196 0.1130033888 7.3732489943 0.000959278668771 -0.000547645018623 0.00923925997381
Te -2.3685878025 -3.4986512403 7.4686154282 0.00126138331519 -0.000725822482428 0.00880628616566
Te -3.6854922367 -0.3610038463 7.1434404623 0.000410090988124 0.000185376553252 0.00716437955114
Te -1.530107794 3.3722316688 7.1434404623 3.9080771282e-05 -0.000441715559622 0.00715640913068
Te -0.4324274669 0.2496622308 -0.1561253504 -0.00103178378391 0.000584154686531 0.00217026835784
Te -2.2808898546 -3.5492836971 0.1369342385 -0.00138325361511 0.000806555128366 0.00249474160361
Te -3.9044346058 0.1412814015 -0.2399627728 0.000504450481943 -0.000672086421916 0.00198489180459
Te 2.1396472334 -3.9885371445 -0.2399627728 0.000829695058731 -9.71877075303e-05 0.00200803173495
Te 0.3556916579 2.055255345 13.5731071463 0.000854120540782 -8.53606320107e-05 0.0019285846407
Te -1.6020576333 -1.3356623677 13.5731071463 0.000480282110229 -0.000687513042158 0.00193526950947
Te -4.4918720131 2.5933836284 14.0213597329 -0.0013529145953 0.000762075039999 0.00253973591266
Te 1.7010115665 -0.9820759339 13.762365202 -0.000822495969284 0.000488766751362 0.0022332603905
Te 1.7094865281 1.2168274639 -13.5945714291 0.000352755382888 0.00267343328809 -0.00598424310256
Te -0.1990601731 -2.0888689166 -13.5945714291 -0.00216204082704 -0.00162750843563 -0.00597344446839
Te -1.3298048797 0.7677630636 -13.7666313008 8.45893009986e-05 -6.45346946828e-05 -0.00476554010337
Te 4.157514943 -2.4003389151 -14.4497485019 0.00311489173738 -0.00178126041738 -0.00178768817581
Te 2.619184672 1.0015660746 10.3793140773 -0.00211164720092 0.000741249102671 0.00273385421738
Te 0.4422106174 -2.7690602465 10.3793140773 -0.00171081218494 0.00145987249565 0.00271482805241
Te -2.4451108526 1.4116855374 10.644623212 0.00137708296702 -0.000785986301376 0.00233610452545
Te 4.0143113218 -2.3176602274 10.6828201507 0.000944880489877 -0.000535303722429 0.00246131725975
Te 0.6009284206 -0.3469463472 -7.2963841634 -0.000387722388771 0.000226771317571 -0.00367539227287
Te -1.4864375701 -4.0079611479 -7.6042487773 0.00236798620728 -0.00136756988453 -0.00147067112982
Te 3.8438500984 0.2297419762 -7.1648065336 0.000528875963994 0.000664887332469 -0.00324318979573
Te 1.7229627158 -3.4437392121 -7.1648065336 -0.000308789515195 -0.000784443639351 -0.00324061869236
Te 0.3334247307 2.5101229366 -3.5721076716 -0.00183242537452 -0.00113411369819 -0.00127166772869
Te -2.0071177998 -1.5438124299 -3.5721076716 6.27349223211e-05 0.00213041625554 -0.00126292597722
Te -4.6315128213 2.6740053242 -3.4373978179 0.0019458110333 -0.00111174509884 -0.00127115350801
Te 1.9140792574 -1.1050906816 -3.2663636576 0.000329615452523 -0.000194375415061 -0.000746391309419
Te -0.4893471483 2.6424424657 -10.1507948096 -0.0030889235933 -0.00251890997533 -0.00568676644221
Te -2.5330957635 -0.8974305135 -10.1507948096 0.000627606333549 0.00393584504464 -0.00569473686267
Te -3.7725200497 2.1780653851 -10.4779141861 0.00249088494855 -0.00144470298575 -0.00534943767956
Te 2.8278631445 -1.6326642987 -10.5726769409 -0.00201960170013 0.00117756534521 -0.00749348078299
Sb 0.0892099375 2.3036713404 9.2536673628 0.00139456646996 -0.00205893958175 0.00784649327621
Sb -1.9504329509 -1.2290903183 9.2536673628 0.00247700099033 -0.000187176325614 0.0078518925933
Sb -4.0435883346 2.3345668053 8.2311883399 -0.00160771093965 0.000940252503805 0.00940329636906
Sb 2.3063631349 -1.3315759907 8.3911351207 -0.00241606584038 0.00138402494613 0.00931922128873
Sb -0.1138926697 2.452001149 1.992163702 -0.00125135601204 0.000193604084048 0.000548673459972
Sb -2.1804415804 -1.1273631232 1.992163702 -0.00077570188788 0.000984732592172 0.000562300307854
Sb -4.2343683703 2.4447137617 1.7981325047 0.00144907386148 -0.000824295741646 0.00121407501312
Sb 2.0422948214 -1.179116006 0.9130448189 0.0010922047132 -0.000643032953791 0.00159331276075
Sb 0.1226992232 -0.0708404625 -11.458137971 0.000703968103751 -0.000422175173981 -0.00639227720798
Sb -2.2193581895 -3.5848090171 -11.030998357 -9.64163765181e-05 6.42775843454e-05 -0.0121525772067
Sb -4.0115017017 0.5633156087 -12.9660581052 -0.00042808871174 -0.00083560859649 -0.00697694611519
Sb -2.4935962525 3.1924045516 -12.9660581052 0.000490309413387 0.000774673446531 -0.00696897569473
Sb 0.0371719443 -0.0214612421 11.6004128593 5.39931708501e-06 2.57110337382e-07 -0.000193604084048
Sb -2.0076287807 -3.7070511279 11.9192116805 0.000111071665749 -6.89055704183e-05 0.00035738336896
Sb 4.2279106334 -0.0212654459 12.7413279556 -5.50216121997e-05 8.61319630228e-05 0.00155654598251
Sb 2.1323716964 -3.650841836 12.7413279556 -9.17883904452e-05 -6.42775843454e-06 0.00154986111374
Sb 2.0490439802 1.2590509771 -1.6063759418 0.000387465278434 -0.00234973137333 0.00118913531039
Sb -0.06584809 -2.4040461467 -1.6063759418 0.00221449133587 0.000844093237624 0.00119144930343
Sb -2.1397712754 1.2353975694 -2.5125215692 -0.000262252544129 0.000149638216356 0.00157865747152
Sb 4.2144093497 -2.4331869315 -1.9015891235 -0.00220009315697 0.00127398172173 0.00205276893365
Sb 2.0432986003 1.0203733147 -9.3538966589 -0.000389265050796 -0.00351058454661 -0.00362654130877
Sb 0.137980044 -2.2797316706 -9.3538966589 0.0028454401038 0.00209802035303 -0.00363374039821
Sb -2.0325607269 1.173499503 -7.9739731588 0.000139610913198 -9.20455007826e-05 -0.00295445488685
Sb 4.320441023 -2.4944043751 -7.9109521222 -0.00247185878359 0.00144187477204 -0.00209570636
Cr -2.3079490812 -3.5336606136 17.4401661011 -0.000586982900242 0.000365868010094 -0.00741480501975
61
Lattice="8.42843558953 0 0 -4.21421779477 7.29923593142 0 0 0 31.0334408416" Properties=species:S:1:pos:R:3:forces:R:3 energy=-133601.121171 ionic_step=56 pbc="T T T"
Te 2.1050029042 0.7528947392 3.0303859373 1.00273031579e-05 -0.000795499383859 -0.00384997019195
Te 0.4004753268 -2.1994298982 3.0303859373 0.000681599504399 0.000401863457327 -0.00384868464027
Te -2.2909904869 1.3227040614 3.5640558976 0.000106443679676 -7.19908944669e-05 -0.00243046401927
Te 3.6850156945 -2.1275412196 3.0630193269 -0.00017380658807 0.000111328776086 -0.00465035467222
Te -0.1909011556 0.1102168849 7.3854139786 -0.000274593840324 0.000176120581106 -0.00232839121533
Te -2.3725669834 -3.4963538581 7.4686189365 0.000462284386612 -0.000286420915843 -0.00275647992707
Te -3.6730937855 -0.3604970459 7.1621781966 0.00158945610569 -0.000254025013333 -0.00386025460545
Te -1.5243474702 3.3612408899 7.1621781966 0.0010310124529 -0.00125238445339 -0.00384919886094
Te -0.4420683433 0.255228396 -0.1652527935 0.000474368572469 -0.00028282137112 -0.000208002262942
Te -2.2811721463 -3.5491207158 0.1351556998 -0.000956193344722 0.000556129659756 -0.00126318308756
Te -3.9133306734 0.1377807436 -0.2472409003 -0.00108423429274 -0.00138556760815 -0.000360468693009
Te 2.1382308568 -3.9790825915 -0.2472409003 0.000653317367287 0.00162776554596 -0.000361240024021
Te 0.3471900595 2.0544466339 13.5580895653 0.000792671170148 -0.00104952439719 -0.00664835910401
Te -1.6056080686 -1.3278954085 13.5580895653 0.00131331960335 -0.000161208181538 -0.00663910313187
Te -4.4887470449 2.5915794263 14.0277687759 -0.00110248912669 0.000632491429959 -0.00609994275438
Te 1.6986875584 -0.9807341666 13.7493340859 -0.00221731954958 0.00128735145927 -0.00596058895152
Te 1.7105207194 1.2106896513 -13.586826853 -0.00108937649949 -0.000204659828556 -0.00166453232421
Te -0.1932275783 -2.0866956466 -13.586826853 -0.000382323071686 0.00104515352146 -0.0016637609932
Te -1.3077053648 0.7550038969 -13.7813254039 0.00147812732961 -0.000853092099432 -0.00128400902488
Te 4.1633458607 -2.4037053986 -14.4855311491 0.00142053461403 -0.000812211555789 -0.00308583826925
Te 2.6193537564 0.9943316232 10.3753951474 -0.00201445949339 0.00197615005312 -0.00286163805506
Te 0.4485603753 -2.7655894523 10.3753951474 -0.00268757435665 0.000731221799513 -0.00285135364156
Te -2.4416898062 1.4097103944 10.6439184605 0.00129532187973 -0.000737649557948 -0.00295599754888
Te 4.0137665075 -2.3173456786 10.6969249827 0.00190878714472 -0.00110865977479 -0.00283746968334
Te 0.6056814166 -0.349690492 -7.2865507408 -0.000240655275789 0.000140639354548 0.00524402244124
Te -1.4785487352 -4.0125157709 -7.6010797081 0.00140253689042 -0.0008150397695 0.00676483008685
Te 3.8440975695 0.2365903134 -7.1676524711 0.000983447040485 6.27349223211e-05 0.00581403605921
Te 1.71715562 -3.4473776971 -7.1676524711 0.000446600656032 -0.000869804271362 0.00580452297673
Te 0.3206006123 2.5038342301 -3.5884952082 -0.00127423883206 0.000327044349149 0.00852012236015
Te -2.008083682 -1.5295620591 -3.5884952082 -0.000944109158865 0.000951822468987 0.00852475034623
Te -4.6264446578 2.6710792173 -3.4444358604 0.00146810002645 -0.000860548299216 0.00840519403934
Te 1.9139801629 -1.1050334694 -3.2684882079 0.0011176586366 -0.000619378802752 0.00846047276188
Te -0.4881332711 2.6289698927 -10.1426882291 -0.00206125357479 -0.00227105561009 0.00442024092026
Te -2.5208212399 -0.891745476 -10.1426882291 0.000939224062455 0.00291614544658 0.0044204980306
Te -3.7677375712 2.1753042186 -10.4766127231 0.00147812732961 -0.000853863430444 0.00441381316183
Te 2.824555958 -1.6307548928 -10.4933248295 -0.00144624564777 0.000840236582563 0.00424334900815
Sb 0.0971808646 2.3002251042 9.2575761745 0.00144855964081 -0.00176017736971 -0.00356303505543
Sb -1.9434629607 -1.2342702288 9.2575761745 0.00222349019768 -0.000353012493225 -0.00357537635163
Sb -4.0439736978 2.334789295 8.2434710251 -0.00125906932216 0.000718109172307 -0.00327172904318
Sb 2.3084549914 -1.3327837252 8.3864400305 -0.0018563366359 0.00108166318936 -0.00412533536329
Sb -0.1132288415 2.4537520185 2.0020713165 0.000405205891713 0.00124415692259 -0.00435930577031
Sb -2.181625963 -1.1288134504 2.0020713165 -0.000885488001942 -0.00096622064788 -0.00437061862515
Sb -4.2427363466 2.4495450173 1.7946523164 -0.000221372000486 0.000110300334737 -0.00447166298774
Sb 2.0449761685 -1.1806640832 0.922211505 0.00106443679676 -0.000597267313738 -0.00327609991892
Sb 0.1080200652 -0.0623654428 -11.4453394756 -0.000344270741754 0.000193089863374 0.00121227524075
Sb -2.2126881745 -3.5886599539 -11.0154527822 0.000846921451335 -0.000477711006855 0.00114259833932
Sb -3.9995947803 0.5996778138 -12.9908668284 0.000314703052955 0.0011472263254 -8.04755356005e-05
Sb -2.5191333705 3.1639117478 -12.9908668284 -0.000837408368852 -0.00086311940259 -7.40477771659e-05
Sb 0.0418946186 -0.0241878806 11.5828246138 -0.000456885069527 0.000286935136518 -0.0041790714238
Sb -2.0115339224 -3.7047964922 11.9245875662 0.000518077329824 -0.000314960163292 -0.00455290985435
Sb 4.2265388792 -0.013768565 12.7394988945 0.000507278695654 0.00108320585139 -0.00509412711454
Sb 2.125193333 -3.6534023018 12.7394988945 -0.000680571063049 -0.000988589247232 -0.00509669821792
Sb 2.047127244 1.2618384886 -1.6161625794 0.000738163778623 -0.000398521022942 0.00600146949516
Sb -0.0692205128 -2.4037799594 -1.6161625794 0.000688541483508 -0.000434773580512 0.00599169930234
Sb -2.1366183858 1.2335772469 -2.5130599309 -0.000848207003022 0.000456113738515 0.00710215884949
Sb 4.2167004189 -2.4345096815 -1.9230058904 -0.000743048875033 0.00046048461425 0.0076744864605
Sb 2.0398763212 1.0116776534 -9.3491418694 -7.71331012145e-05 -0.0016637609932 0.0047822522753
Sb 0.1437995645 -2.2724200579 -9.3491418694 0.00138813871152 0.000904257056571 0.00476939675843
Sb -2.0204967683 1.16653437 -7.9613687332 -0.000505221812955 0.00028770646753 0.00586931478175
Sb 4.301710333 -2.4835902012 -7.945167573 -0.00148172687433 0.000857462975168 0.00686227490472
Cr -2.3213442669 -3.5259268959 17.4466064537 0.00202320124486 -0.00116419560766 -0.00239961077878
61
Lattice="8.42843558953 0 0 -4.21421779477 7.29923593142 0 0 0 31.0334408416" Properties=species:S:1:pos:R:3:forces:R:3 energy=-133601.135423 ionic_step=57 pbc="T T T"
Te 2.104344409 0.7522469141 3.0226629614 1.54266202429e-05 0.00223248905948 0.000415490305209
Te 0.400707112 -2.1985357119 3.0226629614 -0.00192524220631 -0.00112845727077 0.000416261636221
Te -2.2945403048 1.3247535506 3.5657426349 -0.000121613189582 7.04482324426e-05 -0.000195660966747
Te 3.6808815507 -2.1251543694 3.058031328 0.00172675302586 -0.000996559667691 0.000223943103859
Te -0.189134517 0.1091969152 7.3922873972 0.000354555155249 -0.000204402718218 0.00236130133851
Te -2.3723947709 -3.4964532851 7.4714764361 0.00100170187444 -0.000577469817759 0.00278656183654
Te -3.6725390613 -0.3625517658 7.1601468237 -0.000729936247826 0.000904514166909 0.0037705230977
Te -1.5222906694 3.3617878444 7.1601468237 -0.0011472263254 0.000178177463805 0.00377026598736
Te -0.4467666501 0.257940966 -0.1700146525 -0.000622721237138 0.00035738336896 0.00675685966639
Te -2.2851367065 -3.5468317748 0.1317739469 0.000153237761079 -8.84459560593e-05 0.00556258214925
Te -3.9119040427 0.1373141438 -0.2536099142 0.00033090100421 0.000398778133279 0.00635396776771
Te 2.1393482593 -3.9800847906 -0.2536099142 -0.000181262787854 -0.000486195647989 0.00635602465041
Te 0.3459471985 2.0492158489 13.5584338909 0.000229856641619 -0.000326787238812 -0.00241658006105
Te -1.6016995084 -1.3242036663 13.5584338909 0.000399549464291 -3.5738336896e-05 -0.00241580873004
Te -4.4879714521 2.5911316374 14.0294829046 -0.000458684841889 0.000264309426828 -0.00222940373544
Te 1.698290767 -0.9805050789 13.7551316998 -0.000610379940944 0.000354040934575 -0.00306012723552
Te 1.7087171724 1.2129680819 -13.5847799946 -0.0018694492631 0.000312389059919 0.00282769949052
Te -0.1961025296 -2.0862729436 -13.5847799946 -0.00120533326165 0.00146244359903 0.00282692815951
Te -1.3003108795 0.7507346867 -13.7812290247 0.00116882359374 -0.00067362908394 0.00291743099827
Te 4.1644765691 -2.4043582137 -14.4909188768 0.00120996124772 -0.000698568786666 0.000871089823049
Te 2.6181222807 0.9938980548 10.3775728675 0.00152877806607 8.09897562752e-05 -0.00452205661387
Te 0.4483201186 -2.7643061784 10.3775728675 0.000693940800593 -0.00136499878116 -0.00452411349657
Te -2.4421788006 1.4099927157 10.6397345857 -0.00182368362305 0.00105338105225 -0.00566491206353
Te 4.0171569991 -2.3193031807 10.7074722704 -0.000665144442806 0.000383351513036 -0.00446857766369
Te 0.610527604 -0.3524884409 -7.2823242536 0.00123053007471 -0.000709881641511 -0.00380523299325
Te -1.4786143845 -4.0124778683 -7.6030266153 0.000239883944777 -0.000138325361511 -0.0081635103222
Te 3.8463614771 0.2343803902 -7.1645426304 0.000518591550499 0.000481053441241 -0.00530444337052
Te 1.7202014226 -3.4482333379 -7.1645426304 -0.000156837305803 -0.000689055704183 -0.00530444337052
Te 0.3200208471 2.5023143807 -3.5908286268 0.000589554003616 0.00145755850262 0.00413356289408
Te -2.0070573371 -1.5283000427 -3.5908286268 -0.000967763309904 -0.00123798627449 0.00413561977678
Te -4.6289740696 2.6725395746 -3.4456083223 -0.000614236596005 0.000354812265587 0.00459944682542
Te 1.9122421266 -1.1040300132 -3.2667151772 0.000690855476544 -0.000398006802267 0.00478713737171
Te -0.4897868675 2.6319157625 -10.1411061687 0.000545073915249 0.00134828660923 -0.00747316906633
Te -2.524199235 -0.8917863537 -10.1411061687 -0.000895001084425 -0.00114568366337 -0.0074749688387
Te -3.7682188193 2.1755820674 -10.4690166487 -0.00236181555919 0.00136397033981 -0.00508718513543
Te 2.8242601182 -1.6305840896 -10.4786481825 0.00188539010402 -0.00108886227881 -0.00359928761301
Sb 0.0969152813 2.300035636 9.2577400056 -4.93651847773e-05 0.000578498259109 -0.00120250504793
Sb -1.9434316681 -1.2339454927 9.2577400056 -0.000525790639945 -0.000247340144561 -0.00120533326165
Sb -4.046603889 2.3363078373 8.2406033643 0.000774930556868 -0.000446343545695 0.00234561760793
Sb 2.3131553646 -1.3354974882 8.3882073635 -0.000505221812955 0.000291820232928 0.00159022743671
Sb -0.1161698157 2.4549037502 2.0050772552 0.00103538332864 -0.000111328776086 0.000322159252739
Sb -2.1840938786 -1.1268423566 2.0050772552 0.000613465264993 -0.000839465251551 0.000320873701052
Sb -4.2440813941 2.4503215812 1.7919849913 -0.000256081896032 0.00014732422332 0.00149972459795
Sb 2.04378514 -1.1799764422 0.9147863279 0.000139096692523 -8.07326459378e-05 0.00279813180172
Sb 0.0996453703 -0.0575303081 -11.4428877992 -0.000617321920053 0.000355583596599 -0.00589682558785
Sb -2.207605949 -3.5915941795 -11.0182727933 0.00156014552723 -0.000899371960161 -0.00138222517376
Sb -3.9948651893 0.6174580942 -13.0019307355 0.000806040907691 0.00223814548691 0.00428397244145
Sb -2.5321667423 3.1509256597 -13.0019307355 -0.00153520582451 -0.00181802719563 0.00428114422774
Sb 0.0473683347 -0.0273481335 11.585708898 -0.000322159252739 0.000186662104939 -0.00462464363848
Sb -2.0077318498 -3.7069916209 11.9313657813 -0.000542759922213 0.000310846397894 -0.00589682558785
Sb 4.2288584058 -0.016691796 12.7415820291 -0.000673114863265 0.000138068251174 -0.0056695400496
Sb 2.1288846875 -3.6539494562 12.7415820291 -0.000452514193792 0.000512678012739 -0.0056695400496
Sb 2.0462837868 1.2613073299 -1.6135052226 0.000746905530094 0.00123567228146 0.00727647965824
Sb -0.0691822447 -2.4027839243 -1.6135052226 -0.000698825897003 -0.00126446863924 0.00727699387891
Sb -2.1375011174 1.2340868925 -2.5187821511 -0.000481824772253 0.000276136502348 0.00711835680075
Sb 4.2146938583 -2.4333511927 -1.9268775949 0.00114876898742 -0.00066180200842 0.00758038407702
Sb 2.0431283635 1.0073220275 -9.3471167647 0.00351392698099 0.00526587681991 -0.0092027503059
Sb 0.1491976665 -2.2730585975 -9.3471167647 -0.0028027597878 -0.00567699624939 -0.00920300741624
Sb -2.0137932209 1.1626640733 -7.9577071474 -0.00436110554267 0.00252045263735 -0.00843193351443
Sb 4.2986395867 -2.4818173041 -7.9510909502 0.0016362501871 -0.000946423151902 -0.00652700302477
Cr -2.3266166073 -3.5228829073 17.4489871478 0.00302798844334 -0.00174757896318 0.00330952426278
61
Lattice="8.42843558953 0 0 -4.21421779477 7.29923593142 0 0 0 31.0334408416" Properties=species:S:1:pos:R:3:forces:R:3 energy=-133601.153544 ionic_step=58 pbc="T T T"
Te 2.1033092179 0.7506439867 3.0149141727 6.65915773818e-05 0.000197460739109 -0.00343910787282
Te 0.4015776916 -2.196837746 3.0149141727 -0.000136782699487 -0.000157608636815 -0.00344476430024
Te -2.2930409052 1.3238878715 3.5751101199 -5.37360605128e-05 3.00819094737e-05 -0.00307632518677
Te 3.6767580863 -2.1227736851 3.0537823164 0.000105672348664 -6.11922602968e-05 -0.00344810673463
Te -0.1877532131 0.1083994187 7.4058160545 0.00037023888583 -0.000210830476653 0.00418704184426
Te -2.374699444 -3.4951226808 7.4735557264 0.000212887359352 -0.000122898741268 0.00415695993479
Te -3.6728560305 -0.3642730515 7.1533845577 -0.000396464140242 -1.87690546289e-05 0.00386719658456
Te -1.5209584775 3.3629229908 7.1533845577 -0.000178177463805 0.000352241162213 0.00386231148815
Te -0.4479208678 0.2586073541 -0.1713945415 -0.000505993143967 0.000295162667314 -0.00511058217613
Te -2.2854184743 -3.5466690961 0.130533449 5.57929432118e-05 -3.52241162213e-05 -0.00505170390887
Te -3.9097217574 0.1366952977 -0.256446272 0.000378466416626 0.000351212720863 -0.00506481653608
Te 2.1409753382 -3.9816652829 -0.256446272 -0.00011389987946 -0.000500593826882 -0.00506095988102
Te 0.3421301282 2.0416940258 13.5545170167 -0.000148609775007 9.7701928205e-06 0.000176891912119
Te -1.5970939567 -1.3171370733 13.5545170167 -8.56177423481e-05 0.000122127410256 0.00017869168448
Te -4.4956548906 2.5955676747 14.0285858299 0.000151695099055 -8.61319630228e-05 0.000222400441835
Te 1.6946839539 -0.9784226833 13.7600050295 0.000202345835519 -0.000117242313846 -5.37360605128e-05
Te 1.7111247005 1.218081344 -13.5798914655 7.66188805397e-05 -0.000191547201349 0.000947194482914
Te -0.1993269784 -2.0909145561 -13.5798914655 0.000202602945857 2.90534681241e-05 0.000946680262239
Te -1.2987819248 0.749851944 -13.7847313764 -1.56837305803e-05 8.22753079621e-06 0.00117448002116
Te 4.1660646121 -2.4052750712 -14.4919762731 -0.000196175187422 0.000115442541484 0.000762589260674
Te 2.6167725117 0.9952176873 10.3775941385 6.53060256949e-05 -0.000387722388771 0.00418549918224
Te 0.4465023993 -2.7637970599 10.3775941385 0.000368439113468 0.000139353802861 0.00418781317527
Te -2.4442870891 1.4112099371 10.6299113424 -1.13128548448e-05 5.6564274224e-06 0.00400063684966
Te 4.0159947366 -2.3186321478 10.7191185099 -0.000303133087773 0.000175092139757 0.00377360842175
Te 0.6098412816 -0.3520921922 -7.2855253342 -8.17610872874e-05 4.60227503913e-05 0.000646375388177
Te -1.4880883652 -4.0070080604 -7.6039532779 -4.93651847773e-05 2.51968130634e-05 0.000306989742834
Te 3.849964184 0.2326702542 -7.1588072695 0.00042320361533 0.000145010230283 0.000196689408097
Te 1.7234837965 -3.450498307 -7.1588072695 9.17883904452e-05 -0.000436059132199 0.000195146746073
Te 0.3204898664 2.5011031115 -3.5910436492 -0.000184091001565 -3.65096679082e-05 -0.00131177694132
Te -2.0057738381 -1.528100591 -3.5910436492 -5.91353775978e-05 0.000173549477733 -0.00131511937571
Te -4.6315182819 2.6740084769 -3.4459830584 0.000279736047071 -0.000161208181538 -0.00150203859098
Te 1.9177151514 -1.107189867 -3.2594326587 8.3560859649e-05 -5.03936261268e-05 -0.00151155167347
Te -0.4905223577 2.6388850087 -10.1427282748 -0.000120584748232 0.000194889635735 0.000753076178191
Te -2.5306025216 -0.8946340233 -10.1427282748 -0.000225485765884 6.68486877192e-06 0.000747933971443
Te -3.7682058333 2.1755745699 -10.4567293341 0.000185890773927 -0.000103358355627 0.000791128508123
Te 2.8210693894 -1.6287419206 -10.458907426 0.000567956735276 -0.000329358342186 0.000754361729878
Sb 0.0970011139 2.3043000381 9.2614401721 8.97315077462e-05 3.5738336896e-05 0.00551501673684
Sb -1.9470818307 -1.236152027 9.2614401721 1.31126272065e-05 -9.84732592172e-05 0.00551424540582
Sb -4.0508167824 2.3387401536 8.2320746023 -9.59021558433e-05 5.09078468016e-05 0.00549599057187
Sb 2.3208500355 -1.3399400106 8.3880085053 -0.000150409547368 9.38452731443e-05 0.00569782218671
Sb -0.1190349349 2.4560487964 2.0104832648 -0.000366125120431 -0.00026122410278 -0.00534172436944
Sb -2.1865180768 -1.1249336126 2.0104832648 4.39658676923e-05 0.000442744000971 -0.00534223859012
Sb -4.2413119013 2.448722613 1.795578703 0.000404434560701 -0.00023371329668 -0.00553147179843
Sb 2.041933919 -1.1789076387 0.908831485 4.67940814035e-05 -2.98247991363e-05 -0.00548159239298
Sb 0.0867820452 -0.0501036605 -11.4401982598 -0.000184348111903 0.000107215010688 0.000784443639351
Sb -2.1987637683 -3.5966992173 -11.0329542274 -0.000347870286477 0.000202345835519 0.00130072119681
Sb -3.988819381 0.6221483129 -13.0114795834 1.9540385641e-05 4.19089849932e-05 0.00119247774478
Sb -2.5332056848 3.1433447244 -13.0114795834 -2.39112613765e-05 -3.5738336896e-05 0.00119427751714
Sb 0.0552354397 -0.0318902108 11.5861764794 4.37087573549e-05 -2.59681440755e-05 0.00210341967012
Sb -2.0052252581 -3.7084388029 11.932881943 -0.000202088725182 0.000114414100135 0.00123155851606
Sb 4.2311682271 -0.0177444842 12.7415517734 -0.000322673473414 -0.000474111462132 0.000448657538731
Sb 2.1309512524 -3.655423477 12.7415517734 0.000247597254899 0.000518334440161 0.000447371987044
Sb 2.0457890948 1.2604853875 -1.6092898968 0.00011878497587 -0.000297990881025 -0.00372218635427
Sb -0.068717768 -2.4019445371 -1.6092898968 0.000317531266666 4.42229780296e-05 -0.00371935814056
Sb -2.1400214675 1.2355420179 -2.5200630499 -3.9080771282e-05 2.67394750877e-05 -0.00193784061285
Sb 4.2154178216 -2.4337691733 -1.9250207028 -0.000408548326099 0.000234484627692 -0.00330721026974
Sb 2.0526736111 1.0107575992 -9.3458659675 0.000120584748232 0.000445572214682 0.000404434560701
Sb 0.1509949994 -2.2830428141 -9.3458659675 -0.000322673473414 -0.000324473245776 0.000401092126315
Sb -2.0079433549 1.1592866501 -7.9554487307 -0.000513449343751 0.000293877115627 0.000197974959784
Sb 4.292398775 -2.4782141681 -7.9677875226 0.000305961301484 -0.000176120581106 0.000443001111309
Cr -2.3231502584 -3.5248842057 17.4447186828 -0.000126498285992 7.53333288528e-05 0.00119042086208
61
Lattice="8.42843558953 0 0 -4.21421779477 7.29923593142 0 0 0 31.0334408416" Properties=species:S:1:pos:R:3:forces:R:3 energy=-133601.164142 ionic_step=59 pbc="T T T"
Te 2.1020182276 0.7517257617 3.0081797727 0.000306218411822 0.00019643229776 -0.0032581021953
Te 0.3999953522 -2.1962606025 3.0081797727 -1.46552892308e-05 -0.000363554017058 -0.00325964485732
Te -2.2945440449 1.32475571 3.5778082434 -0.000215201352388 0.00012572695498 -0.00281278709096
Te 3.6761943788 -2.1224482283 3.0489981456 0.000210830476653 -0.000122898741268 -0.00327352881554
Te -0.1871581172 0.1080558397 7.4108124985 0.00015220931973 -8.71604043724e-05 0.000415747415546
Te -2.373794136 -3.4956453609 7.4742434006 -0.000266880530202 0.000153751981754 0.000885488001942
Te -3.6748490848 -0.3626868927 7.1479548959 -0.000378723526963 -0.000571556279999 0.000684941938785
Te -1.5233286578 3.3638559479 7.1479548959 0.000303904418785 0.000613979485667 0.000686741711146
Te -0.4471227531 0.2581465622 -0.170841451 -0.000421403842968 0.000241940827476 -0.0059019677946
Te -2.2879943222 -3.5451819289 0.1281860627 4.75654124156e-05 -2.75108060998e-05 -0.00571196325527
Te -3.9091821535 0.1365024923 -0.2577315534 0.000153494871417 0.000278450495384 -0.0057073352692
Te 2.1414121143 -3.9820361912 -0.2577315534 -0.000165579057274 -0.000271508516275 -0.00570810660021
Te 0.3409054387 2.0371051526 13.5543921373 -0.000283078481457 0.000538389046477 0.0019306415234
Te -1.5937322225 -1.313782024 13.5543921373 -0.000608323058245 -2.18543786774e-05 0.00193038441306
Te -4.4967308883 2.5961889026 14.0305369802 0.000661544898083 -0.000383608623373 0.0022759407065
Te 1.6908900985 -0.9762322989 13.7640395651 0.00083072350008 -0.000477711006855 0.00256210451201
Te 1.7146543824 1.2232859106 -13.5775802005 0.00107215010688 -0.00239241168934 0.0060292374116
Te -0.2020694222 -2.0965736351 -13.5775802005 0.00260889859341 0.00026713764054 0.00602949452194
Te -1.2976887847 0.7492208189 -13.7894984848 -0.000862862292253 0.000500079606207 0.00534326703147
Te 4.1667880382 -2.4056927416 -14.4994468438 -0.00297990881025 0.00171981104675 0.00351264142931
Te 2.6176820675 0.9961475885 10.3804897141 0.000313417501268 -0.000154266202429 0.00163599307676
Te 0.4461518595 -2.7650497092 10.3804897141 0.000290020460566 -0.000194118304723 0.00163470752507
Te -2.443947285 1.4110137511 10.6287746318 -0.000266366309527 0.000154266202429 0.00194863924702
Te 4.0166443297 -2.3190071908 10.7215538029 1.54266202429e-06 -1.54266202429e-06 0.0015475471207
Te 0.6106465581 -0.3525571191 -7.2824069398 -0.000328587011174 0.000187176325614 -0.00156271663061
Te -1.4971136613 -4.0017973008 -7.6067997443 0.000121356079244 -6.96769014304e-05 -0.00197203628772
Te 3.852841747 0.2350286702 -7.1538044185 -0.000303904418785 0.000925340104236 -0.00154240491395
Te 1.7228801309 -3.4541695588 -7.1538044185 -0.000953622241348 -0.000199517621808 -0.00154214780362
Te 0.3234912765 2.500737354 -3.5914348684 0.000291820232928 6.47918050202e-05 -0.0026844890326
Te -2.0039563778 -1.5305170109 -3.5914348684 8.99886180836e-05 -0.000285392474494 -0.00268551747395
Te -4.6355963249 2.6763629372 -3.4448862833 -9.74448178676e-05 5.73356052361e-05 -0.00273102600367
Te 1.9193245148 -1.1081190339 -3.2570055684 -3.65096679082e-05 1.97974959784e-05 -0.00296731040372
Te -0.4894392036 2.6425629255 -10.1409487086 0.000559986314817 -0.000155551754116 0.00332160844863
Te -2.5332461124 -0.8974110211 -10.1409487086 0.000414976084534 -0.0004064914434 0.00332237977965
Te -3.7673863203 2.1751014237 -10.4487392588 -0.00110480311973 0.000637376526369 0.00339694177749
Te 2.8247044049 -1.6308405987 -10.4513788639 -0.000317274156329 0.000182548339541 0.00334577682035
Sb 0.0977770826 2.3074405487 9.263881263 0.000217515345425 0.00102381336345 0.00192189977193
Sb -1.949413607 -1.2383942912 9.263881263 -0.000778015880917 -0.00070011144869 0.00192164266159
Sb -4.0515017264 2.3391356064 8.2340423685 -0.000347870286477 0.000202602945857 0.00137091231892
Sb 2.3244543907 -1.342020987 8.3893211406 0.000670543759891 -0.000388750830121 0.00180774278213
Sb -0.1218131281 2.4567490634 2.0093281312 -1.15699651822e-05 0.000395178588556 -0.00485989959719
Sb -2.1885136222 -1.1228777591 2.0093281312 -0.000348127396815 -0.000187176325614 -0.00486247070056
Sb -4.2397641787 2.4478290345 1.7924582249 2.23685993522e-05 -1.33697375438e-05 -0.00525713506844
Sb 2.0392443706 -1.1773548265 0.9051908668 0.000358668920647 -0.000207745152604 -0.00542554233943
Sb 0.0809727452 -0.046749658 -11.4393995618 0.000337328762645 -0.000194118304723 0.00551218852312
Sb -2.1946048814 -3.5991003529 -11.0367465595 0.00117422291082 -0.000678257070013 0.00717492107497
Sb -3.9868336758 0.6241087073 -13.0221851054 -0.000399806574628 0.000568213845613 0.00580863674213
Sb -2.5339105828 3.1406448552 -13.0221851054 -0.00069034125587 6.32491429959e-05 0.00580889385246
Sb 0.0592133087 -0.0341868356 11.5874714555 0.000108500562375 -6.22207016464e-05 0.0013102342793
Sb -2.0011688278 -3.7107807852 11.936026081 -0.000413176312172 0.000235770179379 0.00103692599066
Sb 4.2328243512 -0.0204426089 12.742312844 -4.91080744399e-05 -0.000474625682806 0.00164036395249
Sb 2.1341159579 -3.6555086609 12.742312844 0.000389007940458 0.000279736047071 0.00164139239384
Sb 2.0439337845 1.2604104519 -1.6067031634 0.000337071652307 0.000417032967233 -0.00475371302785
Sb -0.069580527 -2.4003003227 -1.6067031634 -0.000192061422024 -0.000500336716545 -0.00475422724852
Sb -2.1430831433 1.2373096781 -2.5225657107 -0.000326787238812 0.000187176325614 -0.00355197931093
Sb 4.215337314 -2.4337226922 -1.9248393599 0.00018949031865 -0.000108243452038 -0.00413690532847
Sb 2.0565498903 1.0130540052 -9.3452147749 0.000306732632496 0.00134828660923 0.00122641630931
Sb 0.150944394 -2.287547975 -9.3452147749 -0.00101404317063 -0.000938195621106 0.00122718764032
Sb -2.0075398493 1.1590536859 -7.9483468261 4.85938537651e-05 -2.80250267746e-05 -0.0010076154122
Sb 4.2909538233 -2.4773799245 -7.9710710277 0.000936395848744 -0.000539931708501 -0.000958507337759
Cr -2.3201210045 -3.5266331471 17.4438855253 0.000256596116707 -0.000148866885344 0.00619687335157
61
Lattice="8.42843558953 0 0 -4.21421779477 7.29923593142 0 0 0 31.0334408416" Properties=species:S:1:pos:R:3:forces:R:3 energy=-133601.173494 ionic_step=60 pbc="T T T"
Te 2.1003895766 0.7540399084 3.0012493485 0.000325758797463 0.000224457324534 -0.00125958354283
Te 0.3971769179 -2.1960072221 3.0012493485 -3.13674611606e-05 -0.000394407257543 -0.00125958354283
Te -2.2966230529 1.3259560264 3.5791590336 -0.000205945380243 0.000119042086208 -0.00101815693603
Te 3.6761472512 -2.1224210191 3.0442733893 0.000252225240971 -0.000145524450958 -0.00137168364993
Te -0.1871090343 0.1080275017 7.4154645331 0.00032113081139 -0.000185376553252 0.00306989742834
Te -2.371972901 -3.4966968519 7.4729492168 0.000250682578947 -0.000144753119946 0.00367924892793
Te -3.6761374361 -0.3588866638 7.143411367 -0.000271251405938 -0.00017869168448 0.00324036158202
Te -1.5272639266 3.3630715788 7.143411367 1.92832753036e-05 0.000324216135438 0.00324036158202
Te -0.4471783195 0.2581786435 -0.170208642 7.12195634547e-05 -4.11376539811e-05 -0.00318045487341
Te -2.2902912692 -3.5438557853 0.1269438632 0.000143467568259 -8.30466389743e-05 -0.00317994065274
Te -3.908971623 0.1364290362 -0.2589696896 -0.000168150160648 0.0001354971478 -0.00279813180172
Te 2.1415809945 -3.982181788 -0.2589696896 -0.00020131739417 7.79044322266e-05 -0.00279787469139
Te 0.3389574037 2.0327975451 13.5530859615 -5.06507364642e-05 0.000739706440647 -0.00136397033981
Te -1.5909757443 -1.3099411717 13.5530859615 -0.000665915773818 -0.0003260159078 -0.00136397033981
Te -4.4938283986 2.5945131486 14.0344484833 -5.6564274224e-05 3.26530128475e-05 -0.00112408639503
Te 1.6867873384 -0.9738635681 13.7677091673 0.000536846384453 -0.000310075066882 -0.00126472574958
Te 1.7194990691 1.2272495189 -13.5756509771 0.000880602905532 0.000383351513036 0.00147684177792
Te -0.2030796628 -2.102751063 -13.5756509771 0.000108500562375 -0.000954393572361 0.00147684177792
Te -1.2951297552 0.7477433618 -13.7993474903 -0.000420632511956 0.000242712158488 0.000807069349041
Te 4.1684630911 -2.4066598343 -14.5147611421 -9.0245728421e-05 5.21933984885e-05 0.000339385645344
Te 2.6205581878 0.9968445377 10.3847231582 0.000180491456842 6.22207016464e-05 0.00124312848124
Te 0.4469863442 -2.7678889782 10.3847231582 3.62525575708e-05 -0.000187433435951 0.00124338559158
Te -2.4421124934 1.4099544331 10.6305285344 -0.000296705329338 0.000171492595034 0.00113848457393
Te 4.0161952132 -2.3187478931 10.7218546659 0.000106700790013 -6.14493706342e-05 0.000950279806963
Te 0.6107144732 -0.3525963299 -7.278278948 0.000339385645344 -0.000195918077085 -0.000320873701052
Te -1.5073174822 -3.9959061194 -7.6100045698 0.000129069389366 -7.43048875033e-05 -0.000783672308339
Te 3.8545676666 0.2419878611 -7.1476753202 -0.000922769000863 0.000540960149851 -0.00051550622645
Te 1.7177162573 -3.4591438452 -7.1476753202 -0.000929968090309 0.000528618853657 -0.00051550622645
Te 0.3269161177 2.5001991275 -3.5918895545 0.000548673459972 0.000250682578947 -0.00145832983363
Te -2.0017778396 -1.5332138984 -3.5918895545 5.73356052361e-05 -0.000600609748123 -0.00145832983363
Te -4.6408847992 2.6794162407 -3.4420519642 -0.000459456172901 0.00026508075784 -0.00154214780362
Te 1.9211234947 -1.1091576758 -3.2541629674 -0.000147838443994 8.53606320107e-05 -0.00165373369004
Te -0.485477874 2.6435461404 -10.1376752841 0.00098190437846 0.000240398165452 0.00196689408097
Te -2.5321169362 -0.9013332423 -10.1376752841 0.00028282137112 -0.000970591523616 0.00196715119131
Te -3.7631027559 2.1726283055 -10.4444119512 -0.00183396803654 0.00105903747967 0.00203014322397
Te 2.8283706938 -1.6329573326 -10.4426491369 -0.000428345822078 0.000247340144561 0.00219058007449
Sb 0.0988505604 2.3116519169 9.2665135077 0.000376152423589 0.000725051151416 0.00341725349414
Sb -1.9525240182 -1.2414296348 9.2665135077 -0.00043991578726 -0.000688284373171 0.00341725349414
Sb -4.0501564767 2.3383589257 8.2432179025 -0.000503679150931 0.000290791791579 0.00396746961614
Sb 2.3261323158 -1.342989738 8.3907333805 0.000211601807665 -0.000122384520594 0.00417675743076
Sb -0.1245501939 2.457179003 2.0068885173 0.000133697375438 0.000495451620134 -0.00254359256772
Sb -2.1902544935 -1.1207223593 2.0068885173 -0.000362268465371 -0.000363554017058 -0.00254359256772
Sb -4.2383055817 2.4469869128 1.787177858 -0.000137039809824 7.91899839135e-05 -0.00295085534213
Sb 2.0363610104 -1.175690117 0.9010610127 0.000272794067962 -0.000157351526478 -0.00309972222747
Sb 0.0761079924 -0.0439409903 -11.4370676054 0.000483881654952 -0.000279221826396 0.00231682125015
Sb -2.1906560152 -3.6013802329 -11.0356116304 0.00120970413738 -0.000698311676329 0.00259655729722
Sb -3.9850721416 0.622727137 -13.0342127627 -0.000503422040593 0.000676457297651 0.00143827522731
Sb -2.5318333413 3.1398101063 -13.0342127627 -0.000837408368852 9.79590385424e-05 0.00143827522731
Sb 0.062077386 -0.0358404122 11.584783132 5.75927155735e-05 -3.34243438596e-05 -0.000720423165343
Sb -1.9963196765 -3.7135804453 11.939988407 -0.00034169963838 0.000197460739109 -0.00106803634148
Sb 4.2331304186 -0.0220081155 12.7434000452 8.58748526855e-05 -0.000515763336788 -0.00154317624496
Sb 2.1356247594 -3.6549909699 12.7434000452 0.000489538082375 0.00018357678089 -0.00154317624496
Sb 2.0414174713 1.260725676 -1.6040362421 0.000140125133873 0.000534018170742 -0.00234690315962
Sb -0.0711116755 -2.3982787426 -1.6040362421 -0.000392350374844 -0.000388236609446 -0.00234690315962
Sb -2.1464180228 1.2392350726 -2.5268465019 -0.000152980650742 8.81888457219e-05 -0.00203014322397
Sb 4.2163868253 -2.4343286281 -1.924233489 0.00045071442143 -0.00026019566143 -0.00210547655282
Sb 2.0576149252 1.0156449778 -9.3443327705 0.000546873687611 0.00115005453911 0.0016107962637
Sb 0.1492330644 -2.289765809 -9.3443327705 -0.000722480048042 -0.00104875306618 0.00161105337403
Sb -2.0089140414 1.1598470764 -7.9366093544 2.26257096896e-05 -1.31126272065e-05 0.000457142179865
Sb 4.2872801134 -2.4752589061 -7.9735900953 0.000629148995573 -0.000363039796383 0.000407005664075
Cr -2.3180822459 -3.5278102255 17.4411327395 0.000428602932415 -0.000247340144561 0.00202191569317
61
Lattice="8.42843558953 0 0 -4.21421779477 7.29923593142 0 0 0 31.0334408416" Properties=species:S:1:pos:R:3:forces:R:3 energy=-133601.180264 ionic_step=61 pbc="T T T"
Te 2.0989614396 0.7581134866 2.9973269556 -0.000731993130525 -0.000751019295492 -0.000771331012145
Te 0.3929350289 -2.1968072077 2.9973269556 0.000284364033144 0.00100941518456 -0.000771331012145
Te -2.2995045182 1.3276196419 3.5786796493 0.000507792916329 -0.000293105784615 -0.000915055690741
Te 3.6769118286 -2.1228624483 3.0422067399 -0.000706796317462 0.000408034105425 -0.000413690532847
Te -0.187374736 0.1081809047 7.4194487007 -0.000742020433683 0.000428345822078 -0.0009230261112
Te -2.369728937 -3.4979924057 7.4720901294 -0.00119016375174 0.000686998821484 -0.00138119673241
Te -3.6764984 -0.3550486125 7.1399453213 0.000234227517355 -0.00015812285749 -0.00109966091298
Te -1.530768257 3.3614651573 7.1399453213 0.000254025013333 -0.000123670072281 -0.00109940380264
Te -0.4476419667 0.2584463304 -0.1704553456 -0.000867747388663 0.000501108047557 0.000426031829041
Te -2.2927771736 -3.5424205471 0.1247574945 -0.000655888470661 0.000378466416626 0.000167635939973
Te -3.9092951281 0.1357108507 -0.2610665397 0.000860548299216 -4.03663229689e-05 -0.000624006788825
Te 2.1420412085 -3.9815425314 -0.2610665397 0.000465369710661 -0.000725051151416 -0.000624006788825
Te 0.3376903157 2.0293827078 13.5517395154 0.00108372007206 -0.00081889642456 -0.000204402718218
Te -1.5886519538 -1.3071364221 13.5517395154 0.00125135601204 -0.000529133074331 -0.000204402718218
Te -4.4877393062 2.5909976078 14.0383582478 -0.000671057980566 0.000387465278434 -0.00013061205139
Te 1.6842376713 -0.9723915165 13.7718064778 -0.00117139469711 0.000676200187314 -0.000516791778137
Te 1.7228690424 1.2285896966 -13.5749157138 -0.000832009051767 0.00324396112674 0.00246568813549
Te -0.2025553035 -2.1063396357 -13.5749157138 -0.00322519207212 -0.00090142884286 0.00246543102515
Te -1.2906164553 0.7451376057 -13.8095988543 6.9419791093e-05 -4.01092126315e-05 0.00437036151481
Te 4.1725486804 -2.4090186515 -14.5322541837 0.00381423185506 -0.00220215003967 0.00466552418213
Te 2.6242656333 0.9971639279 10.3895370107 -0.00052039132286 -0.000247854365236 0.00179822969965
Te 0.4485634672 -2.7712594168 10.3895370107 -4.52514193792e-05 0.000574641604048 0.00179822969965
Te -2.4399581317 1.4087106112 10.6339870104 0.00107343565857 -0.00061963591309 0.000409576767449
Te 4.0158782642 -2.3185649024 10.7212413955 0.000184862332577 -0.000106700790013 -0.000283849812469
Te 0.611769859 -0.3532056575 -7.2738925384 -0.000847692782347 0.000489538082375 -0.00151566543886
Te -1.5154617322 -3.9912040323 -7.6130730086 0.000364839568745 -0.000210830476653 -0.0011582820699
Te 3.8543132625 0.2499887868 -7.1410746405 0.0029148598949 0.000701397000377 -0.00155911708588
Te 1.7106600536 -3.4629239875 -7.1410746405 0.000850263885721 -0.0028750077926 -0.00155937419622
Te 0.3295124395 2.4996562403 -3.5933150295 -0.0017002706611 -0.000210830476653 0.00088574511228
Te -2.0000095248 -1.5351909365 -3.5933150295 -0.000667458435843 0.00157788614051 0.00088574511228
Te -4.6460733997 2.682411882 -3.4402317084 0.00185325131185 -0.00106983611384 0.000281021598758
Te 1.9210807276 -1.1091329843 -3.2540494151 0.000830980610417 -0.000479767889554 0.00131743336874
Te -0.4815591946 2.6426594286 -10.1331222838 -0.0015984549675 -0.000637376526369 -0.00175966314904
Te -2.529389682 -0.9042835639 -10.1331222838 -0.000247340144561 0.00170309887482 -0.00175992025938
Te -3.7567051002 2.1689346155 -10.44427293 0.00316631380485 -0.00182805449878 0.000114156989797
Te 2.8301842836 -1.6340044096 -10.438924972 0.00198617735627 -0.00114671210472 -0.00123952893652
Sb 0.098528144 2.3151462567 9.2683134623 -0.00108037763768 -0.00177946064502 0.000108757672712
Sb -1.955711412 -1.2428975837 9.2683134623 0.00100093054343 0.00182548339541 0.000108757672712
Sb -4.0482232659 2.3372427854 8.2537178889 0.00105903747967 -0.000611151271956 -0.00214609998612
Sb 2.3267801398 -1.3433637595 8.3916664678 0.000360725803346 -0.000208259373279 -0.0011053173404
Sb -0.1270096028 2.4577177523 2.0034341524 -0.000177920353468 -0.00156837305803 -0.000398778133279
Sb -2.1919507683 -1.1188618224 2.0034341524 0.00126909662532 0.000938195621106 -0.000398778133279
Sb -4.2377572814 2.4466703513 1.7804837172 0.000803726914655 -0.000464084158974 0.00107369276891
Sb 2.0339846348 -1.1743181152 0.9001752515 0.000204916938893 -0.000118270755196 -0.00023859839309
Sb 0.073230563 -0.042279705 -11.4338221073 -0.00131589070672 0.0007600181573 0.00134057329911
Sb -2.1876453795 -3.6031184251 -11.0297725924 -0.00327481436723 0.00189053231077 -0.00384457087487
Sb -3.9831282532 0.622517144 -13.0447188948 0.000156837305803 -0.000261481213117 0.00474677104874
Sb -2.5306795379 3.1382316453 -13.0447188948 0.000305189970472 -4.88509641025e-06 0.00474702815908
Sb 0.0634366326 -0.036625174 11.5804866182 -0.000562814528528 0.00032498746645 0.00150306703233
Sb -1.9912976765 -3.7164798997 11.9437351432 -0.000617579030391 0.000356354927611 0.000108757672712
Sb 4.2323672168 -0.0237635602 12.7460423024 1.97974959784e-05 0.00162468022191 -0.000211858918002
Sb 2.1367634176 -3.6534522951 12.7460423024 -0.00139713757333 -0.000829695058731 -0.000211858918002
Sb 2.0390327285 1.2611685444 -1.6032442603 0.000977533502725 -0.00130869161727 0.000724279820404
Sb -0.072687582 -2.396434928 -1.6032442603 0.00162236622888 -0.000192061422024 0.000724279820404
Sb -2.1491363005 1.2408044717 -2.5328979536 0.000404177450364 -0.000233199076005 0.00255953340863
Sb 4.2171498891 -2.4347691834 -1.9254306425 -0.00164524904891 0.000949765586288 0.00151232300448
Sb 2.0563847881 1.0161292317 -9.342902686 -0.000436059132199 0.000279478936734 -0.00324576089911
Sb 0.1481986199 -2.2889426055 -9.342902686 -0.000459713283238 0.000237827062078 -0.00324601800944
Sb -2.0100693254 1.1605140803 -7.9245178455 -0.00115751073889 0.000668486877192 -0.00409062546774
Sb 4.2826126598 -2.4725641492 -7.9711084082 0.00124852779833 -0.000720937386018 -0.00299276432712
Cr -2.318469648 -3.5275865587 17.4387526705 -0.00125187023271 0.000722480048042 0.00224688723838
61
Lattice="8.42843558953 0 0 -4.21421779477 7.29923593142 0 0 0 31.0334408416" Properties=species:S:1:pos:R:3:forces:R:3 energy=-133601.18611 ionic_step=62 pbc="T T T"
Te 2.0978192068 0.7625024651 2.9960836708 -0.000410348098461 -0.000774930556868 -0.00165321946936
Te 0.3885629473 -2.1980124938 2.9960836708 0.000465883931336 0.00074330598537 -0.00165296235903
Te -2.3015212635 1.3287840109 3.5789045212 0.000370753106504 -0.000214172911039 -0.000856434533818
Te 3.677010171 -2.1229192263 3.0425139216 -0.000734564233899 0.00042423205668 -0.00115365408383
Te -0.1871253927 0.1080369463 7.4249787431 -0.000650232043238 0.000375381092577 -0.000206459600917
Te -2.3685612073 -3.4986665951 7.4717134075 -0.00124004315719 0.000715538068933 -0.00091814101479
Te -3.6754736467 -0.3521805084 7.1376753987 0.000304675749797 -0.000149123995681 -0.000500079606207
Te -1.5327397302 3.3591436424 7.1376753987 0.00028179292977 -0.000189233208313 -0.00049982249587
Te -0.4483761162 0.2588701921 -0.1708094437 -0.000827638176031 0.000477968117192 -0.003937644817
Te -2.2939934334 -3.5417183388 0.1231310014 -0.000469740586396 0.000271251405938 -0.00464958334121
Te -3.9096784008 0.1342750498 -0.2629918268 0.000789071625424 0.000133183154764 -0.00438784501775
Te 2.1430930117 -3.9804927069 -0.2629918268 0.000279221826396 -0.000749990854142 -0.00438784501775
Te 0.3359606145 2.0265933869 13.5491743416 0.00107009322418 -0.000970077302941 0.000468712145047
Te -1.5871011827 -1.3042437959 13.5491743416 0.00137502608432 -0.000441201338947 0.000468969255384
Te -4.4820419375 2.5877082289 14.0419326272 -0.000403149009014 0.000232427744993 0.00124878490866
Te 1.6830898172 -0.9717288023 13.7747179099 -0.00102792712885 0.000593924879352 0.000553044335708
Te 1.724833785 1.2274501006 -13.5735055776 -0.000328072790499 0.00221140601182 0.00426057540075
Te -0.2005860136 -2.1074713555 -13.5735055776 -0.00207873707773 -0.000821724638272 0.00426134673176
Te -1.2853668326 0.7421067332 -13.8203879571 -0.0011410556773 0.000659488015384 0.00591739441484
Te 4.1793451785 -2.4129426133 -14.5490131347 0.00188847542807 -0.00109040494084 0.0058682863404
Te 2.6283696867 0.997726606 10.3932857566 -0.000987560805883 -0.000219829338461 -0.000370753106504
Te 0.4501282005 -2.775094972 10.3932857566 -0.000303133087773 0.000964677985856 -0.000370753106504
Te -2.4380222497 1.4075929287 10.6367201542 0.00137399764297 -0.000793185390822 -0.00182908294013
Te 4.0144781263 -2.317756532 10.720894155 0.000221629110823 -0.000128298058353 -0.00242069382645
Te 0.6126282033 -0.353701223 -7.2723237646 -0.000499308275195 0.000287449357193 -0.00011389987946
Te -1.5229085916 -3.986904584 -7.6149124859 0.000535560832766 -0.000308789515195 -0.00101738560502
Te 3.8527416188 0.2580526602 -7.1340549807 0.00214789975849 0.00109451870623 -7.97042045883e-05
Te 1.7028907158 -3.4655948403 -7.1340549807 0.000125469844642 -0.00240603853722 -7.94470942509e-05
Te 0.330618214 2.4986465179 -3.5951612922 -0.00139508069063 -0.000144753119946 0.00325553109193
Te -1.9985821927 -1.5356437045 -3.5951612922 -0.000572070500674 0.0012806665905 0.00325527398159
Te -4.6505305797 2.6849852373 -3.4394459942 0.00155268932745 -0.000896286636112 0.00241375184734
Te 1.9211421788 -1.1091684631 -3.2544479299 0.000735335564911 -0.000424489167017 0.00306218411822
Te -0.4785522196 2.6405990656 -10.128671119 -0.000430402704777 -0.00028770646753 -0.00277833430575
Te -2.5261018686 -0.9058575002 -10.128671119 3.47098955465e-05 0.000516020447125 -0.00277704875406
Te -3.7484686677 2.1641793068 -10.4473039979 0.00168561537187 -0.000973162626989 -0.000853606320107
Te 2.8283891686 -1.632967999 -10.4361117046 0.00189181786245 -0.0010922047132 -0.00180594300977
Sb 0.0972730255 2.3185756952 9.2702167184 -0.000753333288528 -0.00170952663325 -0.00132386112718
Sb -1.9593089508 -1.243525338 9.2702167184 0.00110403178872 0.00150769501841 -0.00132360401684
Sb -4.0463711254 2.3361734511 8.2613337965 0.00103821154235 -0.000599324196437 -0.0021934082882
Sb 2.3278554434 -1.3439845866 8.3917941325 -0.000128555168691 7.40477771659e-05 -0.00180002947201
Sb -0.1292597938 2.4585435371 2.0002211832 -0.000921226338838 -0.0015007530393 -0.00366587919039
Sb -2.1937910141 -1.1173259913 2.0002211832 0.000839208141214 0.00154831845171 -0.00366562208005
Sb -4.2371068955 2.4462948506 1.7749333665 0.00123515806078 -0.000713224075897 -0.0032876698841
Sb 2.0321230065 -1.1732433031 0.9011839527 0.000103615465965 -5.96495982725e-05 -0.00519825680118
Sb 0.0703198524 -0.0405992046 -11.4290519649 -0.00151309433549 0.000873660926423 0.00155551754116
Sb -2.1850434968 -3.6046206234 -11.0244374734 -0.00224483035568 0.00129635032108 -0.00128246636286
Sb -3.9800290749 0.6217860967 -13.0531601524 0.000600866858461 -0.000156323085128 0.00509232734218
Sb -2.5284968435 3.1359132005 -13.0531601524 0.000436059132199 -0.000442229780296 0.00509258445252
Sb 0.0638970074 -0.0368909716 11.5742303625 -0.000106186569339 6.17064809716e-05 -0.000266366309527
Sb -1.9879324695 -3.7184228038 11.9458038008 0.000138325361511 -7.99613149257e-05 -0.000601123968798
Sb 4.2306549543 -0.0243598416 12.7495558393 -1.02844134953e-06 0.00129969275546 -1.79977236167e-06
Sb 2.1364236809 -3.6516712909 12.7495558393 -0.00112562905706 -0.000649203601889 -2.31399303643e-06
Sb 2.037093728 1.2617568965 -1.6038073129 0.000529390184669 -0.000925597214574 -0.000267394750877
Sb -0.07416661 -2.3950498796 -1.6038073129 0.00106623656912 4.37087573549e-06 -0.000267651861214
Sb -2.1514128975 1.2421188662 -2.5381460104 0.000188718987638 -0.00010901478305 0.00270557208027
Sb 4.218856609 -2.4357545591 -1.9272308283 -0.00124518536394 0.000718880503319 0.00063429120232
Sb 2.0555564041 1.0163145498 -9.340993788 -0.000377437975276 0.0013254037892 -0.00328227056701
Sb 0.1476239378 -2.2883178625 -9.340993788 -0.00133671664405 -0.00033578610062 -0.00328201345668
Sb -2.01000672 1.160477935 -7.9145452965 -0.00162082356685 0.000935367407394 -0.00245694638402
Sb 4.2756334367 -2.468534691 -7.9677098695 0.00179411593425 -0.0010351262183 -0.00217026835784
Cr -2.3189368061 -3.5273168446 17.4346067246 -0.00164396349722 0.000948737144938 0.00510698263141
61
Lattice="8.42843558953 0 0 -4.21421779477 7.29923593142 0 0 0 31.0334408416" Properties=species:S:1:pos:R:3:forces:R:3 energy=-133601.191488 ionic_step=63 pbc="T T T"
Te 2.0969224588 0.7668508858 2.9963802896 -0.00016892149166 -0.000648175160539 -0.00346507601689
Te 0.3843487323 -2.1994100973 2.9963802896 0.000476682565506 0.000470254807071 -0.00346507601689
Te -2.3030641748 1.3296748116 3.5795979276 7.45619978407e-05 -4.29374263427e-05 -0.00336274610261
Te 3.6760515925 -2.1223657905 3.0438889927 -0.000742534654358 0.000428860042753 -0.00318893951454
Te -0.185628118 0.1071724939 7.4315734565 -0.000437858904561 0.000252739461646 -0.00100478719849
Te -2.3684383028 -3.4987375541 7.4725149798 -0.00077184523282 0.000445572214682 -0.00165913300712
Te -3.673640133 -0.3508906036 7.1364425984 2.62252544129e-05 0.000299019322375 -0.00180105791336
Te -1.5329400632 3.3569108198 7.1364425984 -0.000245797482537 -0.000172263926046 -0.00180105791336
Te -0.449030301 0.259247886 -0.1710347404 -0.000502650709581 0.000290277570904 -0.000398263912604
Te -2.2945262596 -3.5414107113 0.1217476768 -0.000189747428988 0.000109529003725 -0.00207745152604
Te -3.9101872086 0.1321436078 -0.2646891141 0.000660773567071 0.000140896464885 -0.000457913510877
Te 2.1446844897 -3.9789863452 -0.2646891141 0.000208259373279 -0.000642518733117 -0.000457913510877
Te 0.3341373206 2.0242808711 13.5464288051 0.00113128548448 -0.00127989525949 -0.00123927182618
Te -1.5860101333 -1.3015085184 13.5464288051 0.00167404540669 -0.000339899866019 -0.00123927182618
Te -4.4779226911 2.5853299798 14.045639274 -0.000543531253225 0.000313674611606 -0.00175117850791
Te 1.6829042397 -0.971621659 13.7763717683 -0.00140048000772 0.000808612011065 -0.00173549477733
Te 1.7254577497 1.2247831989 -13.5707128584 -0.0007049965451 0.00180105791336 0.00188898964874
Te -0.1979644277 -2.1066782741 -13.5707128584 -0.00191238668944 -0.000290020460566 0.00188898964874
Te -1.279599797 0.7387771321 -13.8298932112 -0.000957478896409 0.000552787225371 0.00242815002623
Te 4.188572934 -2.4182702629 -14.563902576 0.00115262564248 -0.000665401553144 0.00139045270456
Te 2.6323430311 0.9986310675 10.3958759107 -0.00116419560766 1.28555168691e-05 0.00241812272307
Te 0.4513315864 -2.7789882216 10.3958759107 -0.000593410658677 0.00100170187444 0.00241837983341
Te -2.4364436576 1.4066815277 10.6386669654 0.00138839582186 -0.000801670031956 0.000849749665046
Te 4.0127878041 -2.3167806236 10.7208602778 0.000312903280593 -0.000180748567179 0.000351984051875
Te 0.6140253554 -0.3545078695 -7.272878245 0.000492366296086 -0.000284364033144 0.000317017045992
Te -1.5305157833 -3.9825125677 -7.6157623071 0.000940252503805 -0.000542759922213 -0.000665915773818
Te 3.8506578095 0.2650902633 -7.1268228283 0.000629148995573 0.00128889412129 0.000373838430553
Te 1.6957540709 -3.4673090091 -7.1268228283 -0.000801670031956 -0.00118939242073 0.00037409554089
Te 0.3303999297 2.4969178297 -3.5973224239 -0.000482081882591 0.000237312841403 0.00287269379956
Te -1.9971942477 -1.5345903207 -3.5973224239 -0.000446600656032 0.000298762212037 0.00287269379956
Te -4.654357512 2.6871947187 -3.439850906 0.000635833864345 -0.000367153561781 0.002117046518
Te 1.9208586865 -1.1090047887 -3.2554495689 0.000383351513036 -0.000221372000486 0.00243792021905
Te -0.4776759227 2.6383253061 -10.1243984093 0.000991417460944 -0.000114671210472 0.000203117166531
Te -2.5236945875 -0.9054795163 -10.1243984093 0.000594953320701 -0.000801155811281 0.000203117166531
Te -3.7394984296 2.159000335 -10.4520470165 -0.000299790653387 0.000173035257058 0.00264129449592
Te 2.8245814613 -1.6307696171 -10.4344960646 0.00146861424712 -0.000847692782347 0.00193989749554
Sb 0.0955215528 2.3216667708 9.2722436374 -0.000654088698299 -0.0017738042176 0.000800384480269
Sb -1.9628616359 -1.2435540552 9.2722436374 0.00120918991671 0.00145344473722 0.000800384480269
Sb -4.0449230755 2.3353374187 8.264267033 0.00112537194672 -0.000649717822563 -0.00116959492475
Sb 2.3301021238 -1.3452817088 8.3917105772 -0.000480796330904 0.000277422054035 -0.00125058468102
Sb -0.1318314743 2.4599184444 1.9965574763 -0.000604209292847 -0.00120456193063 -0.00333883484124
Sb -2.1962675584 -1.1157863032 1.9965574763 0.000740991992334 0.00112562905706 -0.00333883484124
Sb -4.2362557329 2.4458034315 1.7699982 0.000722222937705 -0.000417032967233 -0.00254976321581
Sb 2.0303323596 -1.1722094722 0.9030698751 -0.000140639354548 8.12468666126e-05 -0.00247751521101
Sb 0.0667541385 -0.0385405378 -11.4238293514 -0.00163882129047 0.000946166041564 0.00262715342737
Sb -2.1832563847 -3.6056524135 -11.0216566898 -0.000727108034115 0.000419861180944 0.00312363348885
Sb -3.9758721759 0.621983064 -13.0609098129 0.000780072763616 -6.68486877192e-06 0.00328381322904
Sb -2.5265889726 3.132214735 -13.0609098129 0.00039569280923 -0.000672343532253 0.00328381322904
Sb 0.0638628181 -0.0368712324 11.5681409635 4.49943090418e-05 -2.59681440755e-05 0.00200366085922
Sb -1.9864578229 -3.7192741918 11.9467260392 0.000888316215654 -0.000512935123076 0.0016809873858
Sb 4.2287442446 -0.0245341207 12.7540663735 -0.00019540385641 0.00152080764561 0.000616293478704
Sb 2.1356192561 -3.6499294274 12.7540663735 -0.00141487818661 -0.00059109666564 0.000616293478704
Sb 2.0354222922 1.2623928121 -1.605471398 6.4020474008e-05 0.000242455048151 0.00283978367638
Sb -0.0755530467 -2.3939203308 -1.605471398 -0.000178177463805 -0.000176634801781 0.00283978367638
Sb -2.1536050697 1.243384518 -2.5418863879 0.000132926044426 -7.66188805397e-05 0.00369287577581
Sb 4.2212253487 -2.4371221522 -1.9301416747 -2.18543786774e-05 1.25984065317e-05 0.00331646624189
Sb 2.056527617 1.0163031059 -9.3386040938 0.000146552892308 0.00254539234008 0.000528875963994
Sb 0.1481194549 -2.2891532361 -9.3386040938 -0.00213118758656 -0.00139970867671 0.000528875963994
Sb -2.0085441798 1.1596335366 -7.9072092911 -0.002053797375 0.001185792876 -9.0245728421e-05
Sb 4.267343801 -2.4637486654 -7.9616497733 0.00162442311158 -0.000937938510768 0.000143981788934
Cr -2.3182276737 -3.5277262626 17.4300339324 -0.00136602722251 0.000788814515087 0.00386591103287
61
Lattice="8.42843558953 0 0 -4.21421779477 7.29923593142 0 0 0 31.0334408416" Properties=species:S:1:pos:R:3:forces:R:3 energy=-133601.196769 ionic_step=64 pbc="T T T"
Te 2.0961487047 0.7702441598 2.9962044864 0.000136268478812 0.000139610913198 0.00227645492718
Te 0.3810231951 -2.2004366432 2.9962044864 -5.27076191632e-05 -0.000187947656626 0.00227671203751
Te -2.3038367067 1.3301208333 3.5808010323 -6.76200187314e-05 3.9080771282e-05 0.00101018651557
Te 3.6733969317 -2.1208331207 3.0442882969 0.000266366309527 -0.000153751981754 0.00214378599309
Te -0.1825389863 0.105388982 7.4388778055 -0.000380780409662 0.000219829338461 -0.00398880977414
Te -2.3693674439 -3.4982011139 7.4736961575 -0.000340414086693 0.000196689408097 -0.00347227510634
Te -3.6712144227 -0.3512476534 7.1365473551 2.39112613765e-05 -0.000164807726262 -0.00340105554288
Te -1.531417994 3.354988617 7.1365473551 0.000154780423104 6.17064809716e-05 -0.00340105554288
Te -0.4499905059 0.2598022608 -0.1708984242 6.68486877192e-05 -3.85665506072e-05 0.00657559687854
Te -2.2939705421 -3.5417315551 0.1219260726 -1.51695099055e-05 8.74175147098e-06 0.00639973340777
Te -3.9106560516 0.1297586207 -0.26574888 -0.000167121719298 -7.17337841295e-05 0.00634985400231
Te 2.1465155267 -3.9773878216 -0.26574888 -2.13401580027e-05 0.000180491456842 0.00634985400231
Te 0.3319230465 2.0225259231 13.5436799214 -0.000202602945857 0.000691112586882 -0.000155551754116
Te -1.5855974414 -1.2987134258 13.5436799214 -0.000699854338353 -0.000170207043347 -0.000155551754116
Te -4.4763895884 2.5844448422 14.0501194342 0.000174577919082 -0.000100787252254 -0.000856948754493
Te 1.6829564816 -0.9716518209 13.7761646401 0.000606780396221 -0.000350184279514 -0.000263023875141
Te 1.7255974489 1.2210970744 -13.5657903784 0.000503936261268 9.10170594331e-05 -0.00228519667865
Te -0.1947023021 -2.1049561949 -13.5657903784 0.000173035257058 -0.000482081882591 -0.00228519667865
Te -1.2739684197 0.7355258534 -13.8375348711 -0.000121356079244 6.99340117678e-05 -0.00242943557792
Te 4.1990468411 -2.4243173788 -14.5767645433 -0.000108757672712 6.27349223211e-05 -0.00224971545209
Te 2.6357501795 0.9998502162 10.3969705125 0.000899629070498 4.06234333063e-05 -0.00040263478834
Te 0.4519793474 -2.7825484744 10.3969705125 0.000414461863859 -0.000799356038919 -0.00040263478834
Te -2.4351263389 1.405920973 10.6396322798 -0.000570270728312 0.000329358342186 2.72536957625e-05
Te 4.0106519614 -2.3155474937 10.7213303281 1.69692822672e-05 -9.7701928205e-06 1.18270755196e-05
Te 0.6154184807 -0.3553121912 -7.2758012512 -0.000373067099541 0.000215201352388 -0.000942309386504
Te -1.5392402485 -3.9774754931 -7.6153972814 -0.00052141976421 0.000301076205074 -0.00035944025166
Te 3.8486194385 0.2711561456 -7.1198848787 6.81342394061e-05 -0.00039080771282 -0.00102741290818
Te 1.6894816797 -3.4685766683 -7.1198848787 0.000372552878866 0.00013652558915 -0.00102741290818
Te 0.3287474465 2.4940373608 -3.5988297797 0.000243740599838 0.000287449357193 -0.000574384493711
Te -1.9955259312 -1.5317189931 -3.5988297797 -0.000127012506667 -0.000355069375924 -0.000574384493711
Te -4.6573978008 2.6889500311 -3.4402825303 -0.000180491456842 0.000104386796977 -3.21387921727e-05
Te 1.9210079337 -1.1090909566 -3.2552653445 1.43981788934e-05 -8.22753079621e-06 -0.000129840720378
Te -0.4786648776 2.636335068 -10.1210447971 -0.000166093277949 0.000261481213117 0.000484395875627
Te -2.5224654691 -0.9036279368 -10.1210447971 -0.00030930373587 1.31126272065e-05 0.000484395875627
Te -3.7303436576 2.1537148224 -10.4580816623 0.000256596116707 -0.000148095554332 -0.000243740599838
Te 2.8200264308 -1.6281397679 -10.4320062271 0.000190775870337 -0.000110300334737 -0.000109786114062
Sb 0.0942324509 2.3246465987 9.2743919112 -0.000212887359352 0.000897057967125 -0.0020172877071
Sb -1.9660867923 -1.2439275737 9.2743919112 -0.000883431119243 -0.000264309426828 -0.0020172877071
Sb -4.0437314977 2.3346494606 8.2627089305 0.000142953347584 -8.25324182995e-05 -0.00292694408075
Sb 2.3332892467 -1.3471217959 8.391871051 0.00076490325371 -0.000441715559622 -0.00280147423611
Sb -0.1348722147 2.4617824507 1.9924910071 0.000179205905155 0.000460741724588 0.00540625906412
Sb -2.1994022047 -1.1140849467 1.9924910071 -0.00030930373587 -0.000385408395735 0.00540600195379
Sb -4.234803623 2.444965055 1.7660093663 -0.000234741738029 0.0001354971478 0.00569525108334
Sb 2.0283778801 -1.1710810524 0.9032121804 0.00020131739417 -0.000116213872496 0.00667047059303
Sb 0.0618094866 -0.0356857403 -11.418854299 0.000229085310607 -0.000132411823752 -0.000531704177705
Sb -2.182483069 -3.6060988878 -11.0240080279 -0.000290534681241 0.00016789305031 -0.00076104659865
Sb -3.9708528009 0.6215900755 -13.0683652937 -0.000419604070607 -0.000139096692523 -0.00201240261069
Sb -2.5237389472 3.128064321 -13.0683652937 -8.92172870714e-05 0.000432716697813 -0.00201240261069
Sb 0.0636974749 -0.0367757714 11.5629596087 -0.000235770179379 0.000136268478812 0.000680056842374
Sb -1.9874650122 -3.7186926904 11.9470268181 -0.000286163805506 0.000165064836599 0.000621178575114
Sb 4.2269469051 -0.0237241999 12.7588654451 0.00023371329668 -0.000178434574143 0.000195146746073
Sb 2.1340191747 -3.6487778454 12.7588654451 0.000271508516275 -0.000112871438111 0.000195146746073
Sb 2.0339711347 1.2628792044 -1.6070091171 0.000284364033144 0.000620921464777 0.00369853220323
Sb -0.0766998533 -2.3929067871 -1.6070091171 -0.00039569280923 -0.000556900990769 0.00369853220323
Sb -2.1558947325 1.244706456 -2.5429123433 -0.000295933998326 0.000170721264021 0.00133414554067
Sb 4.224708825 -2.4391333391 -1.9330341819 0.000464598379649 -0.000268166081889 0.00322467785144
Sb 2.0602347288 1.0171752274 -9.336056055 -0.000256081896032 -0.000312646170256 0.000284364033144
Sb 0.1492177318 -2.2927997513 -9.336056055 0.000142696237247 0.000378209306288 0.000284621143481
Sb -2.006144128 1.1582478654 -7.9024463497 0.000521162653873 -0.000300819094737 -0.000410348098461
Sb 4.2575408241 -2.4580889114 -7.9538739382 0.000105929459001 -6.11922602968e-05 -0.000592382217327
Cr -2.3149296283 -3.529630391 17.4249427949 -6.17064809716e-06 3.59954472334e-06 -0.00199414777673
61
Lattice="8.42843558953 0 0 -4.21421779477 7.29923593142 0 0 0 31.0334408416" Properties=species:S:1:pos:R:3:forces:R:3 energy=-133601.202063 ionic_step=65 pbc="T T T"
Te 2.095476894 0.7728588395 2.9955753366 4.96222951147e-05 6.17064809716e-05 0.0023880408136
Te 0.3784229118 -2.2011621777 2.9955753366 -2.90534681241e-05 -7.37906668285e-05 0.00238881214461
Te -2.3041884251 1.3303238981 3.5817146054 1.87690546289e-05 -9.51308248312e-06 0.00147812732961
Te 3.669291335 -2.1184627522 3.0439723356 0.000242455048151 -0.000141667795897 0.00225974275525
Te -0.1778503584 0.1026820002 7.4464805287 -0.000461770165937 0.000267394750877 -0.00163984973182
Te -2.3709799494 -3.497270133 7.4751902512 -0.000572841831686 0.000329615452523 -0.00115648229754
Te -3.6682298745 -0.3530651529 7.1382071899 0.000102587024615 -0.000429374263427 -0.00133851641641
Te -1.5283517199 3.353312671 7.1382071899 0.000423717836005 0.000125469844642 -0.00133800219573
Te -0.4512452823 0.2605267067 -0.1706316863 9.84732592172e-05 -5.57929432118e-05 0.00538800423017
Te -2.2926821052 -3.5424754348 0.1234243719 -6.55631360323e-05 3.65096679082e-05 0.00531035690828
Te -3.9115758242 0.1272530781 -0.2664490123 -0.000241683717139 -9.48737144938e-05 0.00505401790191
Te 2.148225503 -3.9753385034 -0.2664490123 -3.80523299325e-05 0.000257367447719 0.00505376079157
Te 0.3294723231 2.0210150228 13.540981246 -0.000453028414466 0.000714252517246 0.00212450271778
Te -1.5855143257 -1.295835586 13.540981246 -0.000844350347961 3.34243438596e-05 0.00212553115913
Te -4.4776316076 2.5851619226 14.0556003247 0.000397492581592 -0.000228313979595 0.000800127369932
Te 1.682174792 -0.971200512 13.7737878 0.000781101204965 -0.000452771304129 0.00188590432469
Te 1.7263389897 1.2167449516 -13.5590036835 0.00138016829106 -0.00215895550299 -0.00644884148221
Te -0.1905624846 -2.103422327 -13.5590036835 0.00256210451201 -0.000116985203509 -0.00644858437187
Te -1.2685365792 0.7323897774 -13.8424993744 -0.000979333275087 0.000568470955951 -0.00635833864345
Te 4.2105224564 -2.4309428315 -14.5893449529 -0.00257624558056 0.00148661197074 -0.00591688019416
Te 2.6386245193 1.0009758382 10.3967829964 0.00066180200842 -0.000139610913198 0.00439658676923
Te 0.4524417005 -2.7856005378 10.3967829964 0.000452257083454 -0.000503422040593 0.00439812943125
Te -2.4343404868 1.405467261 10.640064238 -0.000169178601997 9.79590385424e-05 0.00505427501225
Te 4.0083089734 -2.3141947683 10.7224342743 0.000199003401133 -0.000113642769123 0.00505221812955
Te 0.6169733566 -0.3562098996 -7.2799045014 -0.00078650052205 0.000454828186828 -0.0016493628143
Te -1.5495658837 -3.971513982 -7.614009018 -0.000399806574628 0.000232941965668 -0.00136499878116
Te 3.847002395 0.2768421682 -7.1135131284 0.000647918050202 -0.000444029552658 -0.00173523766699
Te 1.6837489202 -3.4700192783 -7.1135131284 0.000707824758812 -0.000338357203994 -0.00173729454969
Te 0.3258853873 2.4899121289 -3.6001787387 -8.48464113359e-06 0.000162750843563 0.000152466430067
Te -1.9933844068 -1.52717776 -3.6001787387 -0.000144753119946 -7.55904391902e-05 0.000150152437031
Te -4.6598190341 2.6903479314 -3.4408577215 0.00012958361004 -7.37906668285e-05 0.000764389033036
Te 1.921511009 -1.1093814075 -3.2541083828 9.35881628069e-05 -5.42502811875e-05 0.000684170607773
Te -0.4810378103 2.6353284173 -10.1184633829 -0.00127578149409 0.000156837305803 -0.00356303505543
Te -2.5227801508 -0.9010695904 -10.1184633829 -0.000773645005181 0.00102458469447 -0.00356174950375
Te -3.7219625589 2.1488759906 -10.4649360023 0.00095645045506 -0.000547130797948 -0.00535355144496
Te 2.816800495 -1.6262772721 -10.427923525 0.000114671210472 -6.91626807557e-05 -0.00518334440161
Sb 0.0940495412 2.3271607307 9.2770824156 -0.000210059145641 0.00102715579784 0.00144701697878
Sb -1.9683555483 -1.2450262352 9.2770824156 -0.000995017005667 -0.000332443666234 0.00144855964081
Sb -4.0427291544 2.3340707572 8.2578930778 8.45893009986e-05 -4.88509641025e-05 -0.00045662795919
Sb 2.3370215679 -1.3492766535 8.3924772716 0.000878546022833 -0.000507278695654 1.9540385641e-05
Sb -0.1383110683 2.4641733999 1.9881691241 0.000213915800702 0.000438373125236 0.00459070507395
Sb -2.2031922533 -1.1123022854 1.9881691241 -0.000272794067962 -0.000404948781376 0.00459044796361
Sb -4.2329053756 2.4438691009 1.7626684189 -0.000220857779811 0.000126498285992 0.00464624090682
Sb 2.0260384574 -1.1697303854 0.9021162479 0.000200546063158 -0.000115185431147 0.0053201271011
Sb 0.0556246744 -0.0321149357 -11.4146844523 0.000458427731551 -0.000263280985479 -0.00489872325813
Sb -2.1831414114 -3.6057187934 -11.0307305513 -3.34243438596e-05 1.97974959784e-05 -0.00398186779503
Sb -3.9655373799 0.6207324674 -13.0766357645 -0.000638404967719 -0.000101301472928 -0.00643135797926
Sb -2.5203385267 3.1238898333 -13.0766357645 -0.000230113751957 0.000603952182509 -0.0064295582069
Sb 0.0636330841 -0.0367385953 11.5586569622 -0.000366639341106 0.000212887359352 0.00583074823114
Sb -1.990560399 -3.7169055672 11.9471312317 -0.000727879365127 0.000421146732631 0.00557903721084
Sb 4.2255507337 -0.0219859488 12.763639219 0.000282050040108 -0.000578498259109 0.00452694171028
Sb 2.1318157201 -3.6484378505 12.763639219 0.000640461850418 4.55085297165e-05 0.00452745593095
Sb 2.0325717927 1.2631241212 -1.6085978568 0.000370753106504 0.00030930373587 0.00328869832545
Sb -0.0776116284 -2.3918173793 -1.6085978568 -8.17610872874e-05 -0.000476168344831 0.00328664144275
Sb -2.158365106 1.2461327275 -2.5416819882 -0.000424489167017 0.000245540372199 0.00154111936227
Sb 4.2289710132 -2.4415941158 -1.93661898 0.000135240037463 -7.84186529014e-05 0.00304264373257
Sb 2.0664892134 1.0194232482 -9.3337786296 -9.0245728421e-05 -0.000881631346882 -0.00308532404858
Sb 0.1503981319 -2.2993403068 -9.3337786296 0.000718366282644 0.00051550622645 -0.00308583826925
Sb -2.003526101 1.1567363462 -7.8989553371 0.000590068224291 -0.000340414086693 -0.00188821831773
Sb 4.2465348332 -2.4517345966 -7.9440985751 -0.000150923768043 8.87030663967e-05 -0.00213504424162
Cr -2.3082901988 -3.5334636691 17.4209868861 -6.22207016464e-05 3.23959025101e-05 -0.00621281419249
61
Lattice="8.42843558953 0 0 -4.21421779477 7.29923593142 0 0 0 31.0334408416" Properties=species:S:1:pos:R:3:forces:R:3 energy=-133601.206831 ionic_step=66 pbc="T T T"
Te 2.0946738897 0.7733543197 2.9912863459 7.99613149257e-05 -0.000169949933009 0.00411119429473
Te 0.3775923114 -2.2007144954 2.9912863459 0.000186919215276 1.64550615924e-05 0.00411119429473
Te -2.3045975598 1.3305601122 3.5819624334 4.34516470175e-05 -2.46825923886e-05 0.0030593559045
Te 3.6636621493 -2.1152127388 3.0399379071 5.57929432118e-05 -3.26530128475e-05 0.00387593833603
Te -0.1726228622 0.0996639024 7.4527204992 -0.000455342407503 0.000263795206154 -0.000823010189959
Te -2.3721992691 -3.4965661581 7.475832046 -0.000495708730472 0.000285135364156 -0.00032010237004
Te -3.665542809 -0.3558533623 7.1405951525 0.000202860056194 -0.000335014769608 -0.000604980623859
Te -1.5245935281 3.3523797076 7.1405951525 0.000392607485182 -8.22753079621e-06 -0.000605237734196
Te -0.4539863795 0.2621092806 -0.1708433808 -0.00015118087838 8.6903294035e-05 0.00530264359816
Te -2.2913356968 -3.5432527845 0.1267789275 -0.000209802035303 0.000121098968907 0.00525919195114
Te -3.9119406951 0.1257391548 -0.2674100422 -9.74448178676e-05 -0.000165064836599 0.00489460949273
Te 2.1493541629 -3.9742655542 -0.2674100422 9.35881628069e-05 0.000167635939973 0.00489383816172
Te 0.3272672166 2.0197617164 13.5399368799 -0.000361754244696 0.000754361729878 0.00202654367924
Te -1.5855314843 -1.2932992536 13.5399368799 -0.000835094375816 -6.37633636706e-05 0.0020262865689
Te -4.4805663362 2.5868562898 14.0618210943 0.000199260511471 -0.000115185431147 0.000621178575114
Te 1.6806396509 -0.9703141975 13.770786388 0.000724794041079 -0.000418832739595 0.00165116258666
Te 1.7279876577 1.2128865798 -13.5519615181 0.00135240037463 -0.00139559491131 -0.00751662071335
Te -0.1863967041 -2.1029209301 -13.5519615181 0.00188461877301 -0.000473597241457 -0.00751790626504
Te -1.2642490933 0.7299143951 -13.8437524258 -0.00120507615131 0.000695997683292 -0.00740529193727
Te 4.2199488217 -2.4363851486 -14.6000644225 -0.00199594754909 0.00115185431147 -0.00633494160275
Te 2.6404612427 1.0019610167 10.3962463132 0.000481824772253 3.54812265587e-05 0.00414410441792
Te 0.452506873 -2.7876837769 10.3962463132 0.000210059145641 -0.000435802021862 0.00414436152825
Te -2.4340663541 1.4053089903 10.6401731873 -9.35881628069e-05 5.29647295006e-05 0.00468017947136
Te 4.0066338594 -2.3132276403 10.7246866043 0.000311617728907 -0.00017972012583 0.00484575852863
Te 0.6185421812 -0.3571156613 -7.2837887194 -0.000437087573549 0.00025042546861 -0.00143570412394
Te -1.5591037257 -3.9660073038 -7.6119150147 -0.00026508075784 0.000154523312766 -0.00149895326693
Te 3.8462566668 0.2819927954 -7.1088742539 0.000674143304615 -0.000295933998326 -0.00169564267503
Te 1.6789154842 -3.471948772 -7.1088742539 0.00059109666564 -0.000434773580512 -0.00169641400604
Te 0.3229991153 2.4850695113 -3.6000074542 -2.64823647503e-05 0.000290791791579 -0.000102587024615
Te -1.9906337149 -1.5222568652 -3.6000074542 -0.000264566537166 -0.000122898741268 -0.000102844134953
Te -4.662033104 2.6916262259 -3.4399425926 0.000119556306882 -6.81342394061e-05 0.00028873490888
Te 1.9222282565 -1.1097955107 -3.2506078856 0.000240141055114 -0.000139610913198 0.000263538095816
Te -0.4828655928 2.6363655903 -10.1173890251 -0.00115468252518 0.00067851418035 -0.00472388822871
Te -2.5245922597 -0.9000052701 -10.1173890251 -0.00116522404901 0.000660516456733 -0.00472260267703
Te -3.7163286836 2.1456232696 -10.4715018553 0.000756932833252 -0.000436830463211 -0.00630177436922
Te 2.8166165435 -1.6261710676 -10.4236225604 0.000507535805991 -0.000293105784615 -0.00613053888453
Sb 0.0952950631 2.3284971725 9.2794429111 -0.000110043224399 0.000838179699864 0.00142799081382
Sb -1.9688901794 -1.2467731102 9.2794429111 -0.00078161542564 -0.000322930583751 0.00142799081382
Sb -4.0418126084 2.3335415889 8.2521600718 6.55631360323e-05 -3.93378816194e-05 -7.32764461538e-05
Sb 2.339904067 -1.3509408659 8.3944694368 0.000690855476544 -0.000398006802267 0.000222657552172
Sb -0.1418084806 2.4665150184 1.9844316911 -5.6564274224e-05 0.000378723526963 0.00594979031735
Sb -2.2069688595 -1.1104442453 1.9844316911 -0.000356354927611 -0.000140125133873 0.00595030453802
Sb -4.2308443987 2.4426791948 1.7599893703 4.11376539811e-05 -2.33970407017e-05 0.00594541944161
Sb 2.0233330733 -1.1681684305 0.8959906713 0.000367924892793 -0.000212373138677 0.00625498028782
Sb 0.0495770902 -0.0286233597 -11.4113265862 0.000309560846207 -0.000178177463805 -0.00606934662423
Sb -2.1851431466 -3.6045630906 -11.0403258902 -0.000194375415061 0.000111842996761 -0.00532526930785
Sb -3.9613450605 0.619268597 -13.0845297684 -0.000423717836005 -0.000173549477733 -0.00739680729613
Sb -2.5169746186 3.1209911117 -13.0845297684 -6.09351499594e-05 0.000453542635141 -0.00739732151681
Sb 0.064103608 -0.0370102526 11.5566410016 -0.000337328762645 0.000195146746073 0.00555306906677
Sb -1.9943595353 -3.7147121338 11.9489999878 -0.000653574477624 0.000377437975276 0.00537232049959
Sb 4.2250562619 -0.0195776588 12.7673162876 0.000264823647503 -0.000616036368366 0.00442564023735
Sb 2.1294828448 -3.6492137701 12.7673162876 0.000665915773818 7.91899839135e-05 0.00442589734769
Sb 2.0313747836 1.2628164188 -1.6079896043 0.000419604070607 0.000386951057759 0.00254333545738
Sb -0.077943655 -2.3906268872 -1.6079896043 -0.000124441403293 -0.000557415211443 0.00254359256772
Sb -2.1608049629 1.2475413803 -2.539133764 -0.000422432284318 0.000243997710175 0.000952079579324
Sb 4.2331463203 -2.4440047315 -1.9390038857 0.000151695099055 -8.81888457219e-05 0.00232787699465
Sb 2.0735801211 1.0229240378 -9.3327164753 0.000337328762645 -0.000591353775978 -0.00371524437516
Sb 0.1509118144 -2.3072316106 -9.3327164753 0.000680313952712 3.59954472334e-06 -0.0037134446028
Sb -2.0015433557 1.1555916071 -7.8965449387 5.11649571389e-05 -3.00819094737e-05 -0.00198206359087
Sb 4.2364810558 -2.4459300429 -7.9341085382 -0.000141924906235 8.30466389743e-05 -0.00237518529673
Cr -2.300089767 -3.5381981929 17.4180263936 -0.000368439113468 0.000213401580027 -0.00724896885214
61
Lattice="8.42843558953 0 0 -4.21421779477 7.29923593142 0 0 0 31.0334408416" Properties=species:S:1:pos:R:3:forces:R:3 energy=-133601.211215 ionic_step=67 pbc="T T T"
Te 2.0938079724 0.7739037591 2.9865731177 -0.000121356079244 -0.000245540372199 0.00221757665992
Te 0.3766835245 -2.2002393083 2.9865731177 0.000151952209393 0.00022779975892 0.00221757665992
Te -2.3050417471 1.330816564 3.5807122529 0.000193346973711 -0.000111585886424 0.00180979966483
Te 3.6588202247 -2.112417251 3.0357507949 -1.02844134953e-05 5.91353775978e-06 0.00181468476124
Te -0.1678576215 0.0969126882 7.4574031303 -1.02844134953e-05 5.91353775978e-06 0.000867233167988
Te -2.3729769813 -3.4961171456 7.475911353 0.000150923768043 -8.71604043724e-05 0.00104001131471
Te -3.6628882077 -0.3589353098 7.1431391119 0.000222400441835 -2.8282137112e-06 0.00079241405981
Te -1.5205971839 3.3516217281 7.1431391119 0.000113642769123 -0.000191032980675 0.00079241405981
Te -0.4568332264 0.2637529092 -0.1716518366 -1.10557445074e-05 6.42775843454e-06 0.00365713743892
Te -2.2901483178 -3.5439383183 0.1300791879 -0.000364582458407 0.000210573366316 0.0033935993431
Te -3.9131511301 0.1246029246 -0.2686792249 -0.000241940827476 -0.000475911234493 0.00327609991892
Te 2.1497329492 -3.9726491711 -0.2686792249 0.000291306012253 0.000447629097381 0.00327609991892
Te 0.3257957366 2.0192461955 13.5398904982 -0.000292848674278 0.000519877102186 0.00126086909452
Te -1.5858207703 -1.2917671536 13.5398904982 -0.000596753093063 -6.17064809716e-06 0.00126086909452
Te -4.4847986892 2.589299841 14.0672169105 0.00013652558915 -7.89328735762e-05 0.000227285538245
Te 1.6783962493 -0.9690189684 13.7676513976 0.000584154686531 -0.000337328762645 0.000959535779108
Te 1.7311181014 1.2092796814 -13.5456409711 0.000608323058245 -0.00117293735913 -0.00522139673155
Te -0.1817078181 -2.103828526 -13.5456409711 0.00132000447212 5.96495982725e-05 -0.00522113962121
Te -1.2605796974 0.7277958674 -13.8419907296 -0.000872632485073 0.000503679150931 -0.00514426363033
Te 4.2280987 -2.4410904852 -14.6090913907 -0.0016197951255 0.000935110297057 -0.00407828417155
Te 2.6415333242 1.0024190315 10.3955054302 0.00015220931973 0.000159922629851 0.00259398619384
Te 0.4526462616 -2.7888412346 10.3955054302 -6.22207016464e-05 -0.000211858918002 0.00259398619384
Te -2.4347935802 1.4057288547 10.6401491324 -0.000152466430067 8.79317353845e-05 0.00290534681241
Te 4.0053386053 -2.3124798247 10.7276291409 9.230261112e-05 -5.3221839838e-05 0.00339282801209
Te 0.6198662126 -0.3578800916 -7.2869003196 0.000161465291876 -9.33310524695e-05 -0.00145190207519
Te -1.5668778933 -3.961518884 -7.6088650756 -0.00040160634699 0.000231913524318 -0.00203399987903
Te 3.8459398538 0.2875875361 -7.1060138158 0.000445057994008 -0.000661287787746 -0.00171981104675
Te 1.6739118924 -3.4744717741 -7.1060138158 0.000795242273521 -5.47645018623e-05 -0.00171981104675
Te 0.3197533721 2.4797896808 -3.5996599236 -0.000191290091012 0.000357897589635 0.00123952893652
Te -1.9876841213 -1.5168060526 -3.5996599236 -0.000405720112388 -1.31126272065e-05 0.00123952893652
Te -4.6633247663 2.6923719678 -3.4389199877 0.000228313979595 -0.000131897603077 0.00145241629587
Te 1.9231114786 -1.1103054394 -3.247193325 0.000463312827962 -0.000267394750877 0.00158508522996
Te -0.4829860909 2.6395036731 -10.1172502389 -0.00060292374116 0.00134057329911 -0.00487738310013
Te -2.5273701669 -0.9014699571 -10.1172502389 -0.00146244359903 -0.000148095554332 -0.00487712598979
Te -3.7136097998 2.1440535206 -10.4773858923 0.000519619991848 -0.000300047763724 -0.00562146041651
Te 2.819142567 -1.6276294686 -10.4192498771 0.000936910069419 -0.000540960149851 -0.00540163107805
Sb 0.097442252 2.3282062026 9.2818982034 0.000232427744993 -6.76200187314e-05 0.00151849365258
Sb -1.9675645977 -1.2484871463 9.2818982034 0.000174577919082 -0.000167378829635 0.00151849365258
Sb -4.0411460961 2.3331567776 8.2463904646 -0.000285906695168 0.000165064836599 0.00125264156372
Sb 2.3414267729 -1.351820001 8.3968533605 -0.000256081896032 0.000147838443994 0.00120893280637
Sb -0.1445482971 2.468693849 1.9816292464 5.91353775978e-05 0.000348641617489 0.00297270972081
Sb -2.2102256896 -1.1091609088 1.9816292464 -0.000272536957625 -0.000225485765884 0.00297270972081
Sb -4.2292086303 2.4417347829 1.7578603359 -4.80796330904e-05 2.75108060998e-05 0.00299507832016
Sb 2.0205589603 -1.1665667948 0.8904980858 0.000354812265587 -0.000204659828556 0.00343190878337
Sb 0.0447830733 -0.0258555314 -11.4073108135 0.000144496009608 -8.33037493116e-05 -0.00521136942839
Sb -2.1877937215 -3.6030327797 -11.0488298878 -0.000729422027152 0.000420889622294 -0.00442075514094
Sb -3.9582782874 0.6177539581 -13.0914806601 -4.85938537651e-05 -0.000718880503319 -0.00529158785365
Sb -2.514129517 3.1190925265 -13.0914806601 0.000598295755087 0.00040160634699 -0.00529158785365
Sb 0.0649251366 -0.0374845626 11.5557523087 -3.34243438596e-05 1.92832753036e-05 0.0030400726292
Sb -1.9980882638 -3.7125593504 11.9513605232 -0.000307246853171 0.000177406132793 0.00295471199719
Sb 4.2251097523 -0.0166512135 12.769598507 6.32491429959e-05 -0.000483624544615 0.00258293044934
Sb 2.1269752152 -3.6507233168 12.769598507 0.000450457311093 0.000187176325614 0.00258293044934
Sb 2.030498456 1.2621373769 -1.6072823396 0.000308275294521 -1.05415238326e-05 0.00274105330683
Sb -0.0777937516 -2.389528444 -1.6072823396 0.000163265064237 -0.000261481213117 0.00274105330683
Sb -2.1629458854 1.248777443 -2.5352788171 -0.000347356065803 0.000200546063158 0.0020028895282
Sb 4.2365350573 -2.4459612207 -1.9419236162 -0.000192318532361 0.000111071665749 0.00273282577603
Sb 2.0799081 1.0274747949 -9.333093906 0.000522705315897 -0.000463569938299 -0.0041453899696
Sb 0.1501347344 -2.3149871822 -9.333093906 0.00066283044977 -0.000220857779811 -0.0041453899696
Sb -2.0006074872 1.1550512829 -7.894585721 -0.00023371329668 0.000134982927125 -0.00234201806321
Sb 4.2274277341 -2.4407031027 -7.9252117055 -0.000425260498029 0.000245540372199 -0.00304444350494
Cr -2.29122653 -3.5433153875 17.416152986 -0.000872632485073 0.000503679150931 -0.00506970163249
61
Lattice="8.42843558953 0 0 -4.21421779477 7.29923593142 0 0 0 31.0334408416" Properties=species:S:1:pos:R:3:forces:R:3 energy=-133601.215237 ionic_step=68 pbc="T T T"
Te 2.0927625425 0.7740847753 2.9809828597 -0.000153237761079 -0.000486709868663 -0.00168407270985
Te 0.376004045 -2.1994244472 2.9809828597 0.000344784962429 0.000376152423589 -0.00168407270985
Te -2.3057886488 1.3312477881 3.5790987952 0.000219829338461 -0.000127012506667 -0.00105698059698
Te 3.6538253187 -2.1095334394 3.0314738497 -0.000224457324534 0.00012958361004 -0.00193244129576
Te -0.164066005 0.0947235963 7.4618017083 3.93378816194e-05 -2.26257096896e-05 -0.000374866871902
Te -2.3728991146 -3.496162102 7.4759216042 8.97315077462e-05 -5.16791778137e-05 -0.000389522161133
Te -3.6602811294 -0.3621368358 7.1451320742 0.000196946518434 8.58748526855e-05 -0.000399549464291
Te -1.5165210431 3.3509646941 7.1451320742 2.41683717139e-05 -0.000213401580027 -0.000399549464291
Te -0.4609837114 0.2661491939 -0.1736037931 -3.85665506072e-06 2.31399303643e-06 -0.00517203154677
Te -2.2895105996 -3.5443065053 0.1331391955 -0.000335528990283 0.000193861194386 -0.00485398605943
Te -3.9141230611 0.1240504234 -0.2712442999 -0.000209030704291 -0.000311617728907 -0.00542502811875
Te 2.1497254636 -3.9715312031 -0.2712442999 0.000165321946936 0.00033681454197 -0.00542502811875
Te 0.32466901 2.0181926178 13.5404666688 0.000110300334737 0.000223943103859 0.00600506903989
Te -1.5854717089 -1.2902645904 13.5404666688 -0.000138839582186 -0.000207488042267 0.00600506903989
Te -4.4889892889 2.591719286 14.0721756543 -0.000105929459001 6.11922602968e-05 0.00571504857932
Te 1.6757364951 -0.9674833579 13.7653106229 0.000261738323454 -0.00015118087838 0.00573253208226
Te 1.7352319655 1.205647305 -13.5410807081 0.000689569924858 0.00141770640032 0.00122255965425
Te -0.1765051573 -2.1055750503 -13.5410807081 -0.000882916898569 -0.00130586340356 0.00122255965425
Te -1.2569734405 0.725713793 -13.8381330131 -0.000404948781376 0.00023371329668 0.00140330822143
Te 4.236303598 -2.4458275875 -14.6183168394 0.000836379927502 -0.000482853213603 0.00329769718726
Te 2.6427270122 1.0027132733 10.3955719974 5.06507364642e-05 -0.00011389987946 0.00213247313824
Te 0.4529882848 -2.7900221201 10.3955719974 0.000123927182618 1.31126272065e-05 0.00213247313824
Te -2.4364427176 1.406680985 10.6401536309 -0.000140639354548 8.12468666126e-05 0.00261558346218
Te 4.0045130538 -2.3120031921 10.7320577574 -0.000223943103859 0.000129326499703 0.00311874839244
Te 0.6211107558 -0.3585986293 -7.2894626564 2.90534681241e-05 -1.67121719298e-05 0.000783158087664
Te -1.5728810224 -3.9580529741 -7.6049289098 -0.000514734895438 0.000297219550013 0.000574898714385
Te 3.845206677 0.2945584102 -7.1041910407 9.5645045506e-05 -0.000683913497435 0.000344784962429
Te 1.6675083527 -3.4773222612 -7.1041910407 0.00064020474008 0.000259167220081 0.000344784962429
Te 0.3176251002 2.4746639919 -3.5995011823 -0.0001079863417 0.000110814555411 -0.003196909935
Te -1.9843092825 -1.5124000697 -3.5995011823 -0.000149895326693 3.80523299325e-05 -0.003196909935
Te -4.665508248 2.6936326022 -3.437765684 0.000213144469689 -0.000122898741268 -0.00333960617225
Te 1.9240506885 -1.1108476927 -3.2436427048 0.000255567675357 -0.000147581333657 -0.00339308512243
Te -0.4811129824 2.6444419075 -10.1175132716 7.99613149257e-05 0.00120816147536 0.000637376526369
Te -2.5307102472 -0.9055612346 -10.1175132716 -0.00100632986051 -0.000673371973602 0.000637376526369
Te -3.7124142309 2.1433632583 -10.4835580533 4.08805436437e-05 -2.36541510391e-05 2.69965854251e-05
Te 2.8229677693 -1.6298379512 -10.4169200016 0.00100992940524 -0.000583126245182 0.000496737171821
Sb 0.0997565268 2.3267353184 9.2848576769 9.25597214574e-05 -0.000377437975276 0.000523219536572
Sb -1.9651336378 -1.2497559258 9.2848576769 0.000373067099541 0.000108500562375 0.000523219536572
Sb -4.0404748529 2.332769235 8.2415072717 -0.000106443679676 6.14493706342e-05 0.000128812279028
Sb 2.3419236898 -1.3521068962 8.3997819319 -0.000468455034709 0.000270480074925 9.92445902293e-05
Sb -0.1466725025 2.4707384388 1.9803967315 -4.7822522753e-05 0.000213144469689 -0.00306629788361
Sb -2.2130584581 -1.108343587 1.9803967315 -0.000208516483617 -6.50489153576e-05 -0.00306629788361
Sb -4.2279265243 2.4409945584 1.7561075918 9.10170594331e-05 -5.24505088259e-05 -0.00347536043039
Sb 2.0176055521 -1.164861643 0.8843698532 0.000237827062078 -0.000137296920162 -0.0041006527709
Sb 0.0415997794 -0.024017655 -11.4017767518 5.8621156923e-05 -3.39385645344e-05 0.000525276419271
Sb -2.1901950898 -3.6016463484 -11.0540948109 -0.000829952169068 0.000479253668879 -0.00102381336345
Sb -3.9563223353 0.6156426905 -13.0974321239 -0.000329872562861 -0.00032498746645 0.000933567635033
Sb -2.5113231304 3.1184542553 -13.0974321239 0.000116470982834 0.000447886207719 0.000933567635033
Sb 0.0662022816 -0.0382219229 11.5542209943 0.000160436850526 -9.25597214574e-05 0.00392581774148
Sb -2.0006369259 -3.711087879 11.954955763 -6.83913497435e-05 3.93378816194e-05 0.00478456626833
Sb 4.2254229765 -0.0136319323 12.7713710526 -0.000120841858569 -0.000162493733225 0.00553892799821
Sb 2.1245170543 -3.6525042176 12.7713710526 8.02184252631e-05 0.000185890773927 0.00553892799821
Sb 2.0297868976 1.2611923298 -1.6056957075 0.000214172911039 -0.000448914649068 -0.00544431139406
Sb -0.0773310963 -2.3884396925 -1.6056957075 0.000495708730472 3.88236609446e-05 -0.00544431139406
Sb -2.164977802 1.2499505711 -2.5332759879 -0.000264309426828 0.000152466430067 -0.00459199062564
Sb 4.2392575854 -2.4475330738 -1.9449261125 -0.000468197924372 0.000270222964588 -0.00514734895438
Sb 2.0842628683 1.0326300786 -9.3349133191 0.000158894188502 -9.35881628069e-05 0.000720680275681
Sb 0.147847514 -2.3213361658 -9.3349133191 0.000160436850526 -9.10170594331e-05 0.000720680275681
Sb -2.0005940805 1.1550435425 -7.8922546488 0.000198489180459 -0.000114671210472 0.000832780382779
Sb 4.2188392627 -2.4357445441 -7.9167498681 -0.000288992019217 0.000166864608961 0.000110300334737
Cr -2.2830223402 -3.5480520809 17.4141672349 -0.000526819081295 0.000304161529122 0.00137194076027
61
Lattice="8.42843558953 0 0 -4.21421779477 7.29923593142 0 0 0 31.0334408416" Properties=species:S:1:pos:R:3:forces:R:3 energy=-133601.218605 ionic_step=69 pbc="T T T"
Te 2.0915620132 0.7763104586 2.9771109031 0.000165579057274 -0.000100787252254 -2.31399303643e-05
Te 0.373476283 -2.1994975995 2.9771109031 0.000169949933009 -9.30739421321e-05 -2.31399303643e-05
Te -2.3071564933 1.3320375138 3.5764268966 -8.99886180836e-05 5.19362881511e-05 7.12195634547e-05
Te 3.6503158726 -2.1075072588 3.0297607381 -7.71331012145e-07 5.14220674763e-07 -0.000185890773927
Te -0.1616018503 0.0933009153 7.4665173557 0.000136268478812 -7.86757632388e-05 -0.000328844121511
Te -2.3721593864 -3.4965891844 7.4764588202 0.000161208181538 -9.30739421321e-05 -0.000518334440161
Te -3.6573808614 -0.3647257208 7.1469255843 -7.45619978407e-06 0.000182548339541 -0.000223685993522
Te -1.51282887 3.3497474296 7.1469255843 -0.000161722402213 -8.48464113359e-05 -0.000223685993522
Te -0.4652617679 0.2686191322 -0.1763410521 0.000235513069042 -0.000136011368475 0.00154471890699
Te -2.2898377938 -3.5441175995 0.1338821104 0.000130097830715 -7.50762185154e-05 0.00110274623703
Te -3.9161403418 0.1230835736 -0.2748984965 -0.00034761317614 6.22207016464e-05 0.00166838897927
Te 2.1495541393 -3.9693007612 -0.2748984965 -0.000227542648583 0.000269708743913 0.00166838897927
Te 0.3235448196 2.0167143858 13.5406029543 0.000292848674278 0.000148352664669 0.000507278695654
Te -1.5847536183 -1.2885518964 13.5406029543 1.79977236167e-05 -0.000327815680162 0.000507278695654
Te -4.4923592634 2.5936649426 14.0763289433 -8.92172870714e-05 5.14220674763e-05 0.00167018875163
Te 1.6729614948 -0.9658812099 13.763712667 9.17883904452e-05 -5.29647295006e-05 0.000591353775978
Te 1.7397872602 1.2016756571 -13.5379156748 0.00130894872761 0.00335014769608 0.00291408856388
Te -0.1707879635 -2.1075342291 -13.5379156748 -0.00224688723838 -0.00280893043589 0.00291408856388
Te -1.2518099401 0.7227326433 -13.8344649732 -0.000530161515681 0.000306218411822 0.00258113067697
Te 4.2466454772 -2.451798477 -14.6306226253 0.00241606584038 -0.00139508069063 0.00408471192998
Te 2.6445779454 1.0025805675 10.3965907701 4.70511917408e-05 -0.0001354971478 -0.00279967446375
Te 0.4540286779 -2.7915587231 10.3965907701 0.000140896464885 2.69965854251e-05 -0.00279967446375
Te -2.4384214701 1.4078234188 10.6406923658 -0.000245797482537 0.000141924906235 -0.00280430244982
Te 4.0042761991 -2.3118664439 10.7373804486 -0.000317274156329 0.000183319670553 -0.00276856411293
Te 0.6227265362 -0.3595315009 -7.2911212701 -0.000378980637301 0.000218800897112 -0.00255696230526
Te -1.5776476882 -3.9553009371 -7.6005988348 -0.000588011341592 0.000339642755681 -0.00408779725403
Te 3.8436928026 0.3035840849 -7.1023613195 0.000270222964588 4.80796330904e-05 -0.00291665966726
Te 1.6589349556 -3.4805240442 -7.1023613195 9.35881628069e-05 -0.000257881668394 -0.00291665966726
Te 0.3159893872 2.469595626 -3.6013457128 0.000189747428988 0.000311360618569 0.0011328281465
Te -1.9807378074 -1.5084493171 -3.6013457128 -0.00017483502942 -0.000319845259703 0.0011328281465
Te -4.6683642451 2.6952815136 -3.4377172165 -4.26803160054e-05 2.46825923886e-05 0.00156734461668
Te 1.9247777737 -1.1112674758 -3.2421548754 0.000114414100135 -6.60773567071e-05 0.00170309887482
Te -0.4780963673 2.6493060324 -10.1165497551 0.000907085270282 0.000868261609338 -0.0014375038963
Te -2.5334143933 -0.9106057636 -10.1165497551 -0.0002985051017 -0.00121973144054 -0.0014375038963
Te -3.7112636559 2.1426989732 -10.4897906874 -0.00130869161727 0.000755647281565 -0.00126035487384
Te 2.8266653378 -1.6319727444 -10.4133180138 0.000879060243508 -0.000507535805991 -0.000855663202806
Sb 0.1020232164 2.3246230415 9.2887079841 -5.03936261268e-05 -0.000312131949581 -0.0018776767939
Sb -1.9621710084 -1.250662799 9.2887079841 0.000245026151525 0.000199774732146 -0.0018776767939
Sb -4.0396480102 2.3322918569 8.238830306 4.62798607287e-05 -2.67394750877e-05 -0.000782900977327
Sb 2.3422336177 -1.3522858333 8.4022448159 -0.000297219550013 0.000171492595034 -0.000982418599135
Sb -0.1481565986 2.4728515401 1.9799303311 8.76746250471e-05 0.000268937412901 3.75381092577e-05
Sb -2.2156305048 -1.1081148721 1.9799303311 -0.000189233208313 -0.000210316255978 3.75381092577e-05
Sb -4.2276823582 2.440853589 1.7534014482 -5.57929432118e-05 3.21387921727e-05 -9.89874798919e-05
Sb 2.0144921133 -1.1630640974 0.8819837944 0.000224200214197 -0.000129326499703 0.000512163792064
Sb 0.0398335702 -0.0229979332 -11.3935257328 -8.20181976247e-05 4.73083020782e-05 0.000874175147098
Sb -2.1913922884 -3.6009551452 -11.0539191471 0.000560500535492 -0.000323701914763 -0.00130072119681
Sb -3.9539458362 0.614880846 -13.1040601829 -0.000519877102186 0.00132848911325 0.00283309880761
Sb -2.5094751044 3.1167770681 -13.1040601829 -0.00141050731088 -0.000213915800702 0.00283309880761
Sb 0.0675223476 -0.0389840637 11.5509133397 0.000141924906235 -8.20181976247e-05 -0.00280173134645
Sb -2.0017084837 -3.7104692145 11.9588149471 0.000266623419865 -0.000154009092092 -0.00210059145641
Sb 4.2254731841 -0.0109903331 12.7731035057 -0.000100530141916 0.000310589287557 -0.00125007046035
Sb 2.1222544672 -3.6538684984 12.7731035057 -0.000319331039028 -6.81342394061e-05 -0.00125007046035
Sb 2.0288055343 1.2605225027 -1.6053217829 0.000317274156329 0.00011878497587 0.00243354934332
Sb -0.077241691 -2.3872548931 -1.6053217829 5.57929432118e-05 -0.000334243438596 0.00243354934332
Sb -2.1670299168 1.2511353607 -2.5328874779 -0.000297476660351 0.000171749705371 0.00216049816502
Sb 4.2414152623 -2.4487788097 -1.9502462031 -8.74175147098e-06 5.14220674763e-06 0.00247005901123
Sb 2.086045292 1.0371419516 -9.3374053092 0.000582097803832 0.00165990433814 -0.00300741961635
Sb 0.1448313311 -2.3251357272 -9.3374053092 -0.00114645499438 -0.00133414554067 -0.00300741961635
Sb -2.0008712809 1.1552035843 -7.8883857006 -0.000107215010688 6.1963591309e-05 -0.00342008170785
Sb 4.2097048568 -2.4304707899 -7.9093658878 0.00103255511492 -0.000596238872388 -0.00351572675336
Cr -2.2763572037 -3.5519002011 17.4121315432 0.00077570188788 -0.000447886207719 0.00390679157651
61
Lattice="8.42843558953 0 0 -4.21421779477 7.29923593142 0 0 0 31.0334408416" Properties=species:S:1:pos:R:3:forces:R:3 energy=-133601.220974 ionic_step=70 pbc="T T T"
Te 2.090553018 0.7778018485 2.9742044773 -0.000447114876707 0.000115442541484 0.00161645269112
Te 0.3716802044 -2.1993694785 2.9742044773 -0.000323444804426 0.000329358342186 0.00161593847044
Te -2.3079130887 1.3324743346 3.5751823106 0.000371524437516 -0.000214172911039 0.00121998855088
Te 3.6482016255 -2.106286597 3.0287533178 0.000241683717139 -0.000140125133873 0.00183653913992
Te -0.1616781913 0.0933449908 7.4693121714 -0.000556129659756 0.00032113081139 -0.00519697124949
Te -2.3709621057 -3.4972804351 7.4774044628 -0.000651260484588 0.000376152423589 -0.00530110093613
Te -3.6561117034 -0.3665684651 7.1470736103 0.000607037506558 -0.00049879405452 -0.00518720105667
Te -1.5105984284 3.3495696781 7.1470736103 0.000735335564911 -0.000276393612685 -0.00518720105667
Te -0.468916139 0.2707289853 -0.1786705664 -3.85665506072e-05 2.21114890148e-05 0.00130894872761
Te -2.2905552151 -3.543703396 0.1333920504 -0.000314960163292 0.000182034118866 0.0017442365288
Te -3.9168475428 0.1228088281 -0.2781008611 0.000111071665749 -0.000260966992442 0.000344784962429
Te 2.1494384753 -3.9685509341 -0.2781008611 0.000281278709096 3.41956748718e-05 0.000345299183104
Te 0.3229315669 2.0150382334 13.5412093915 1.15699651822e-05 0.000200031842483 0.00209570636
Te -1.5836086547 -1.2871827276 13.5412093915 -0.000167121719298 -0.000110043224399 0.00209622058067
Te -4.4942012399 2.5947284087 14.0780661533 -0.000226771317571 0.000130869161727 0.000644318505478
Te 1.6718071521 -0.9652147495 13.7643522993 -0.000159408409177 9.17883904452e-05 0.00206870977457
Te 1.7423259561 1.1989612676 -13.5377542812 -0.000611408382294 -0.0015853423403 -0.00332160844863
Te -0.1671678864 -2.1083756106 -13.5377542812 0.00106752212081 0.00132206135482 -0.00332186555897
Te -1.2485296512 0.7208387667 -13.8296662807 -0.000883431119243 0.000510106909365 -0.00316991334958
Te 4.2544763897 -2.4563196586 -14.6375565036 -0.00156991572005 0.00090631393927 -0.00255259142952
Te 2.645960457 1.0027503965 10.3980930438 -0.000739963550984 0.000385665506072 -0.000429631373765
Te 0.4545728576 -2.7928409284 10.3980930438 -0.000703710993414 0.000448143318056 -0.000429631373765
Te -2.4402452054 1.4088763534 10.6407907895 0.00083175194143 -0.000480024999892 0.000161208181538
Te 4.0046983766 -2.3121101883 10.7419800056 0.000746391309419 -0.000430916925452 0.00044582932502
Te 0.6232739929 -0.3598475754 -7.2934618369 0.000486195647989 -0.000280764488421 0.00347253221668
Te -1.5794076639 -3.9542848142 -7.5971014283 0.00186019329096 -0.00107394987924 0.00508641380442
Te 3.8415225314 0.3099873762 -7.1020228171 -0.000128298058353 0.000178434574143 0.00415798837614
Te 1.6523044097 -3.481846179 -7.1020228171 -0.000218543786774 2.18543786774e-05 0.00415798837614
Te 0.3165108646 2.466822293 -3.6025451182 -0.000836122817165 6.78771290688e-05 0.000458941952226
Te -1.9780752931 -1.5075142634 -3.6025451182 -0.000476939675843 0.00069034125587 0.000458941952226
Te -4.6714968881 2.6970901467 -3.4374274288 0.00100093054343 -0.000577984038434 -6.96769014304e-05
Te 1.9254835514 -1.1116749569 -3.2414843248 0.000667458435843 -0.000385408395735 4.60227503913e-05
Te -0.4757435711 2.6528841416 -10.1162281558 -0.00115751073889 -0.00109734691994 0.000676200187314
Te -2.5353367273 -0.9144324004 -10.1162281558 0.000371524437516 0.00155088955509 0.000676200187314
Te -3.7105804413 2.1423045188 -10.4946319008 0.00157608636815 -0.000909913483994 0.00148275531568
Te 2.8277117599 -1.6325768967 -10.4151077829 -0.000779558542941 0.000450200200755 -0.000106957900351
Sb 0.1029102982 2.3230545003 9.2914032962 4.08805436437e-05 9.38452731443e-05 -0.00474085751098
Sb -1.9603690716 -1.2506467642 9.2914032962 -6.09351499594e-05 -8.27895286369e-05 -0.00474111462132
Sb -4.0388192022 2.3318133442 8.2375838811 -0.000122898741268 7.07053427799e-05 -0.00592047973889
Sb 2.3422254367 -1.35228111 8.4040643943 0.000212630249015 -0.000122898741268 -0.00624135343994
Sb -0.1484599227 2.4740780826 1.9808232288 0.000169692822672 -0.00062554945085 0.00239344013069
Sb -2.2168443833 -1.1084654569 1.9808232288 0.000627092112874 0.000165836167611 0.00239292591001
Sb -4.2278350099 2.4409417225 1.7519109492 -0.000120841858569 7.01911221052e-05 0.00285623873797
Sb 2.0123786917 -1.1618439123 0.8801432126 -6.55631360323e-05 3.77952195951e-05 0.00190698737236
Sb 0.0407429227 -0.0235229483 -11.3870612137 2.87963577867e-05 -1.64550615924e-05 1.28555168691e-06
Sb -2.190834659 -3.6012770928 -11.0516548134 -0.00119376329646 0.000689569924858 -0.000390293492145
Sb -3.9527040708 0.6121178766 -13.1058149725 0.000640718960755 -0.00232299189824 -0.00341776771481
Sb -2.5064614212 3.1170831518 -13.1058149725 0.00233224787039 0.000606780396221 -0.00341776771481
Sb 0.0682472308 -0.0394025754 11.5483355968 -0.00059109666564 0.000341442528043 0.00290894635714
Sb -2.0011512057 -3.7107909593 11.9616316745 -0.000482596103265 0.000278450495384 0.00293568583222
Sb 4.2253856143 -0.0097613706 12.7742258822 0.000431688256464 -0.00065100337425 0.0036563661079
Sb 2.12114637 -3.6544071419 12.7742258822 0.000779558542941 -4.83367434277e-05 0.00365662321824
Sb 2.0282686057 1.2599670481 -1.6040146899 0.000272279847287 -0.000651260484588 -0.000116728093171
Sb -0.0770291177 -2.3865121717 -1.6040146899 0.000699854338353 8.99886180836e-05 -0.000116470982834
Sb -2.1683525335 1.2518989742 -2.5348799641 -0.000125469844642 7.22480048042e-05 2.4939702726e-05
Sb 4.2425137003 -2.4494129934 -1.9530311342 -0.0010035016468 0.000579783810796 8.25324182995e-05
Sb 2.0848399556 1.0398700386 -9.3401344123 -0.00072659381344 -0.00256416139471 0.00324756067147
Sb 0.1418660713 -2.3254559183 -9.3401344123 0.00185710796691 0.0019113582481 0.00324756067147
Sb -2.0017383235 1.1557041718 -7.8867376606 -0.00015812285749 9.15312801079e-05 0.00438321703168
Sb 4.2044007681 -2.4274084715 -7.9037399703 -0.00175709204567 0.00101430028097 0.00419964025079
Cr -2.272986591 -3.5538462261 17.409722736 -0.00309252313803 0.00178537418278 -0.0034679042306
61
Lattice="8.42843558953 0 0 -4.21421779477 7.29923593142 0 0 0 31.0334408416" Properties=species:S:1:pos:R:3:forces:R:3 energy=-133601.222959 ionic_step=71 pbc="T T T"
Te 2.0896085514 0.7812952528 2.9737141985 -1.02844134953e-06 0.000225228655546 0.00134622972653
Te 0.3681825956 -2.2002982483 2.9737141985 -0.00019540385641 -0.000111585886424 0.00134622972653
Te -2.3089988459 1.3331011971 3.5730591544 -5.34789501754e-05 3.08532404858e-05 0.00119761995152
Te 3.6475649406 -2.1059190067 3.0303038796 0.000118013644858 -6.81342394061e-05 0.00125829799115
Te -0.1621314093 0.0936066565 7.4717745889 0.000213658690364 -0.000123412961943 0.00183499647789
Te -2.3702588152 -3.4976864803 7.4794295507 0.000187176325614 -0.0001079863417 0.00176017736971
Te -3.6545859803 -0.3679518573 7.1483309133 -0.000175349250094 9.28168317948e-05 0.00184785199476
Te -1.5086375146 3.3489400586 7.1483309133 -0.000168150160648 0.000105415238326 0.00184785199476
Te -0.4713518849 0.2721352645 -0.1802988698 0.00025428212367 -0.000146810002645 0.00344579274159
Te -2.2920972219 -3.5428131175 0.1303587549 0.000150409547368 -8.6903294035e-05 0.00330772449041
Te -3.9191834087 0.1215788592 -0.2807393303 -0.000207745152604 -6.22207016464e-05 0.0035229258428
Te 2.1493357261 -3.9659130295 -0.2807393303 -5.01365157894e-05 0.00021108758699 0.0035229258428
Te 0.3217673848 2.0136441809 13.5411198642 -0.000111328776086 -4.9879405452e-05 -0.000223428883185
Te -1.5829834615 -1.2854774896 13.5411198642 -1.23412961943e-05 0.000121356079244 -0.000223428883185
Te -4.496038147 2.595788948 14.0794643226 0.000290277570904 -0.000167635939973 -8.150397695e-05
Te 1.6713892158 -0.9649734538 13.7643297724 0.000307761073846 -0.000177663243131 -0.000139868023536
Te 1.7441143681 1.1965728145 -13.5368087526 0.000308789515195 -0.000809897562752 -0.00148404086737
Te -0.1642052203 -2.108730195 -13.5368087526 0.000855920313143 0.000137554030499 -0.00148404086737
Te -1.2435301464 0.7179523 -13.826083639 0.000162493733225 -9.38452731443e-05 -0.00147375645387
Te 4.2636379698 -2.4616091018 -14.646017724 -0.000784700749689 0.000453028414466 -0.000918655235465
Te 2.6476858053 1.002775777 10.3992688149 0.00021211602834 -0.000230885082969 0.000311360618569
Te 0.4554135515 -2.7943478147 10.3992688149 0.000305961301484 -6.81342394061e-05 0.000311360618569
Te -2.4414694039 1.4095831451 10.6411836093 -0.000269194523239 0.000155551754116 0.00020620249058
Te 4.0056348948 -2.3126508876 10.7459322906 -0.000353783824237 0.000204402718218 0.000212630249015
Te 0.624130402 -0.3603420236 -7.2953632258 -0.000132154713414 7.63617702023e-05 -0.00292771541176
Te -1.580714091 -3.9535305478 -7.5937825897 -0.000792928280485 0.000457656400539 -0.00314960163292
Te 3.8396737197 0.3163579318 -7.1022562051 -0.000102844134953 -0.000694712131605 -0.0027629076855
Te 1.6458629434 -3.4834303381 -7.1022562051 0.000550216121997 0.000436316242537 -0.0027629076855
Te 0.3165831636 2.4638154025 -3.6061450052 0.000276393612685 4.55085297165e-05 0.000908113711632
Te -1.9754351012 -1.506073431 -3.6061450052 9.87303695545e-05 -0.000261995433792 0.000908113711632
Te -4.6742744933 2.6986937986 -3.4384262373 -0.00036432534807 0.000210316255978 0.00139919445603
Te 1.9258645184 -1.1118949084 -3.2433754048 -0.000187690546289 0.000108243452038 0.00131717625841
Te -0.4747438408 2.6540323785 -10.1144035304 0.000203631387206 0.000315988604642 -0.00377078020804
Te -2.535831264 -0.9158723111 -10.1144035304 -0.000172006815708 -0.000334243438596 -0.00377078020804
Te -3.709436653 2.141644152 -10.4978556183 -0.000173549477733 0.000100273031579 -0.00446189279492
Te 2.8274916394 -1.63244981 -10.4104750116 -7.22480048042e-05 4.19089849932e-05 -0.00392556063114
Sb 0.1042425526 2.3215434677 9.2947736765 -2.00546063158e-05 -4.52514193792e-05 0.00127012506667
Sb -1.9583943524 -1.2510450146 9.2947736765 2.93105784615e-05 3.98521022942e-05 0.00127012506667
Sb -4.0375630556 2.3310881073 8.2373553999 -3.77952195951e-05 2.18543786774e-05 0.00194863924702
Sb 2.3434142427 -1.3529674678 8.4053521251 -0.000109529003725 6.32491429959e-05 0.00192781330969
Sb -0.1485178645 2.4755003958 1.9813767243 0.00047822522753 0.000231913524318 0.00194246859892
Sb -2.2181051129 -1.1091264344 1.9813767243 3.83094402699e-05 -0.000529904405344 0.00194246859892
Sb -4.2291472016 2.4416993171 1.7489714856 -0.000513449343751 0.000296448219001 0.00214944242051
Sb 2.0102352842 -1.1606064149 0.8822634615 -4.37087573549e-05 2.51968130634e-05 0.00278090540912
Sb 0.041631689 -0.024036078 -11.3790835367 0.000501622268232 -0.000289763350229 -0.00336891675071
Sb -2.1890578338 -3.6023029438 -11.0469849613 7.2762225479e-05 -4.19089849932e-05 -0.00296833884507
Sb -3.9498719555 0.6127803964 -13.1096965535 -0.000462798607287 0.000235770179379 -0.00215304196523
Sb -2.5056191223 3.114299207 -13.1096965535 -0.000435544911524 0.00028282137112 -0.00215304196523
Sb 0.0684177142 -0.0395010041 11.5452756414 0.000182034118866 -0.000105158127989 -0.000386436837085
Sb -2.0005382222 -3.7111448656 11.9634208902 7.19908944669e-05 -4.16518746558e-05 -0.000595724651713
Sb 4.2251006177 -0.0086822625 12.775122416 -0.00023962683444 -8.07326459378e-05 -0.000503164930256
Sb 2.1200693371 -3.6546998816 12.775122416 -4.9879405452e-05 0.000247854365236 -0.000503164930256
Sb 2.0271209408 1.2601960957 -1.6048666129 -3.5738336896e-05 0.000338357203994 0.00319948103838
Sb -0.0778013111 -2.385632788 -1.6048666129 -0.000310846397894 -0.000138325361511 0.00319948103838
Sb -2.1697817774 1.2527241489 -2.5359777662 4.88509641025e-05 -2.8282137112e-05 0.00224020236961
Sb 4.2437379031 -2.4501197876 -1.9588778204 0.000321902142402 -0.000185890773927 0.00298556523768
Sb 2.0824707829 1.0412046963 -9.3423529199 -0.000324216135438 -0.000308532404858 -0.00420401112653
Sb 0.1395256381 -2.3240714825 -9.3423529199 0.000105158127989 0.00043503069085 -0.00420401112653
Sb -2.0019069487 1.1558015277 -7.8849042775 0.00055484410807 -0.000320359480378 -0.00330643893873
Sb 4.1994346996 -2.4245413092 -7.9005529243 0.000108500562375 -6.27349223211e-05 -0.00351212720863
Cr -2.2703134255 -3.5553895796 17.4079577235 0.000447114876707 -0.000258138778731 -0.00101584294299
61
Lattice="8.42843558953 0 0 -4.21421779477 7.29923593142 0 0 0 31.0334408416" Properties=species:S:1:pos:R:3:forces:R:3 energy=-133601.224757 ionic_step=72 pbc="T T T"
Te 2.0885822911 0.7829992646 2.9710051483 -3.08532404858e-06 6.71057980566e-05 -0.000321902142402
Te 0.3661937486 -2.2002614862 2.9710051483 -5.96495982725e-05 -3.08532404858e-05 -0.000321902142402
Te -2.3096279694 1.3334644219 3.5725821544 -8.6903294035e-05 5.01365157894e-05 -0.000556386770094
Te 3.6455396199 -2.1047496867 3.0292594116 0.000115442541484 -6.65915773818e-05 -0.000303647308448
Te -0.1633500557 0.0943102426 7.4736309622 0.000303647308448 -0.000175349250094 0.00125495555676
Te -2.369236219 -3.4982768767 7.482208173 0.000176634801781 -0.000102072803941 0.00139173825625
Te -3.6544039244 -0.3699716694 7.148801803 -0.000430659815114 -7.58475495276e-05 0.00102535602548
Te -1.5067972789 3.3497922996 7.148801803 -0.000149638216356 0.000411119429473 0.00102535602548
Te -0.4744901727 0.2739471567 -0.1813343581 0.000676971518326 -0.00039080771282 0.00355069375924
Te -2.2937370165 -3.5418663812 0.1277821922 0.000178948794818 -0.000103358355627 0.00337663006083
Te -3.9197074768 0.1209909989 -0.2830735986 -0.000484910096302 -0.000167378829635 0.00364788146677
Te 2.1495827938 -3.9651652428 -0.2830735986 -9.7701928205e-05 0.000503679150931 0.00364788146677
Te 0.3203844481 2.0111944287 13.54188538 0.000245283261862 -0.00037512398224 -0.00586108725095
Te -1.5815533832 -1.2830549547 13.54188538 0.000447629097381 -2.4939702726e-05 -0.00586108725095
Te -4.4976875745 2.5967412459 14.0809797967 -0.000165836167611 9.5645045506e-05 -0.00583331933451
Te 1.6717842783 -0.9652015433 13.7656874774 -0.000437344683886 0.000252482351309 -0.00566825449792
Te 1.7449976971 1.194764331 -13.536343902 -0.000565385631902 -0.000916084132091 0.000670029539217
Te -0.1621973639 -2.1085909389 -13.536343902 0.00051062113004 0.000947708703589 0.000670029539217
Te -1.2400637222 0.715950958 -13.8198995281 0.000893972643076 -0.000516020447125 -3.34243438596e-06
Te 4.27243368 -2.4666873098 -14.6517909614 -0.000409319657112 0.000236284400054 -0.00206742422289
Te 2.6491393122 1.0035943664 10.4007558772 -9.79590385424e-05 2.77679164372e-05 -0.000105929459001
Te 0.4554313861 -2.796015884 10.4007558772 -7.30193358164e-05 7.12195634547e-05 -0.000105929459001
Te -2.4423309409 1.4100805539 10.6411060776 -0.000100787252254 5.81069362482e-05 -0.000663858891119
Te 4.0068934302 -2.3133775036 10.7499527952 3.21387921727e-05 -1.85119442915e-05 -0.001460900937
Te 0.6240415188 -0.3602907068 -7.2994194437 -0.000600095527449 0.00034658473479 -0.000722480048042
Te -1.5830167264 -3.95220112 -7.5910891499 7.68759908771e-05 -4.4480088367e-05 -0.000770302570795
Te 3.8372778836 0.3208948944 -7.1032353641 0.000469740586396 0.000359697361997 -0.000760275267637
Te 1.6407359023 -3.4836239635 -7.1032353641 -7.66188805397e-05 -0.000586725789905 -0.000760275267637
Te 0.3184961846 2.4614776218 -3.6082563561 -2.8282137112e-06 0.000230370862294 0.000411376539811
Te -1.9724540141 -1.5065612663 -3.6082563561 -0.000200803173495 -0.000112614327773 0.000411376539811
Te -4.6785464 2.7011601862 -3.4379131981 -9.0245728421e-05 5.19362881511e-05 0.000606266175546
Te 1.9264452365 -1.1122301864 -3.2439055401 2.51968130634e-05 -1.43981788934e-05 0.00102047092907
Te -0.4756494977 2.6547976065 -10.1135175408 5.81069362482e-05 -0.000926882766261 0.00240783830958
Te -2.5369467991 -0.9154706028 -10.1135175408 0.00083175194143 0.000412919201835 0.00240783830958
Te -3.7076368508 2.1406050353 -10.5015130797 -0.000319845259703 0.00018460522224 0.00284569721414
Te 2.8255768519 -1.6313443065 -10.4110268392 -0.000470769027746 0.000271765626612 0.00222734685274
Sb 0.1049328372 2.3211441462 9.297481901 0.000281535819433 0.000417804298245 0.00201368816237
Sb -1.9577033877 -1.2514431581 9.297481901 -0.000221114890148 -0.000452771304129 0.00201368816237
Sb -4.0357881397 2.3300633586 8.2366722781 -0.000317017045992 0.000183062560216 0.00205688269905
Sb 2.3451862234 -1.3539905218 8.407489404 0.000243997710175 -0.000140896464885 0.00237955617247
Sb -0.1488706885 2.4768250549 1.9819241455 0.000471540358758 0.00022291466251 0.00131511937571
Sb -2.2194287129 -1.1094832093 1.9819241455 4.26803160054e-05 -0.000519877102186 0.00131537648604
Sb -4.2298419217 2.4421004141 1.7463824146 -0.000462284386612 0.000266880530202 0.00159125587805
Sb 2.0079759206 -1.1593019701 0.880153791 -0.000139353802861 8.04755356005e-05 0.00255207720885
Sb 0.0431306281 -0.0249014913 -11.3737222607 -4.03663229689e-05 2.33970407017e-05 0.0020702524366
Sb -2.1866693874 -3.6036819146 -11.0455549088 0.000823781520971 -0.000475654124156 0.00324936044383
Sb -3.9476014393 0.609559775 -13.1110695572 -0.000162236622888 0.000589296893279 0.0014966392739
Sb -2.5016947254 3.1139431921 -13.1110695572 -0.000591610886315 -0.000154009092092 0.0014966392739
Sb 0.0682537483 -0.0394063383 11.5437179421 0.000214172911039 -0.000123670072281 -0.00284595432448
Sb -1.9994753329 -3.7117585254 11.9653085743 0.000174577919082 -0.000100787252254 -0.00414410441792
Sb 4.2249101584 -0.0083370154 12.7765554583 -0.000210830476653 0.000166350388286 -0.00541808613964
Sb 2.1196751148 -3.6547075624 12.7765554583 -0.00024939702726 9.95017005667e-05 -0.00541808613964
Sb 2.0258799964 1.260080866 -1.6032929773 -8.97315077462e-05 2.4939702726e-05 0.00325887352631
Sb -0.0783219914 -2.3845004833 -1.6032929773 -6.63344670445e-05 6.53060256949e-05 0.00325887352631
Sb -2.1714469863 1.2536855582 -2.5390496524 0.000106186569339 -6.11922602968e-05 0.00161002493268
Sb 4.2453538874 -2.451052777 -1.9619319521 0.000116213872496 -6.71057980566e-05 0.00261661190353
Sb 2.0800977056 1.0426022115 -9.3446325849 -4.80796330904e-05 0.000648689381214 0.000898086408474
Sb 0.1371288163 -2.3227150938 -9.3446325849 -0.000585954458893 -0.00028282137112 0.000898086408474
Sb -2.0024454792 1.1561124486 -7.8848997732 -6.71057980566e-05 3.88236609446e-05 -0.000512163792064
Sb 4.1961868166 -2.4226661422 -7.8944657239 0.000449943090418 -0.000259681440755 0.000101815693603
Cr -2.2667088317 -3.5574706938 17.4058757002 0.000748705302455 -0.000432202477139 0.00144418876507
61
Lattice="8.42843558953 0 0 -4.21421779477 7.29923593142 0 0 0 31.0334408416" Properties=species:S:1:pos:R:3:forces:R:3 energy=-133601.226561 ionic_step=73 pbc="T T T"
Te 2.0874818169 0.7852501015 2.967716634 -7.99613149257e-05 1.13128548448e-05 0.000564357190553
Te 0.3636942306 -2.2004338656 2.967716634 -4.9879405452e-05 6.35062533333e-05 0.000563842969878
Te -2.3106883562 1.3340766368 3.5711225218 8.22753079621e-05 -4.75654124156e-05 0.000373324209878
Te 3.6429306229 -2.1032433809 3.027529205 0 -2.57110337382e-07 0.000517305998812
Te -0.1637632134 0.0945487794 7.4749661374 -2.57110337382e-07 2.57110337382e-07 0.000830980610417
Te -2.368869459 -3.4984886258 7.485804828 0.000144753119946 -8.38179699864e-05 0.000808612011065
Te -3.6537597341 -0.3725807379 7.1512162348 9.51308248312e-05 0.000144496009608 0.000672343532253
Te -1.5042156651 3.3505389485 7.1512162348 -7.71331012145e-05 -0.000154523312766 0.000672343532253
Te -0.4774460503 0.2756537341 -0.181464727 -0.000183833891228 0.000105929459001 0.000895001084425
Te -2.2959559274 -3.5405852918 0.1243104112 -7.40477771659e-05 4.29374263427e-05 0.000695740572955
Te -3.9214148769 0.1196402383 -0.2846864673 0.000186147884264 9.7701928205e-06 0.000815811100512
Te 2.1498988862 -3.96301121 -0.2846864673 8.43321906612e-05 -0.000166350388286 0.000816068210849
Te 0.3180919021 2.0090791531 13.5428535418 -0.000114156989797 7.45619978407e-05 -0.000529133074331
Te -1.5808677747 -1.2800119129 13.5428535418 -0.000121870299919 6.17064809716e-05 -0.000528618853657
Te -4.5003242246 2.5982635172 14.0836083384 5.39931708501e-05 -3.13674611606e-05 -0.000658459574034
Te 1.6729135333 -0.9658535193 13.7658583205 4.65369710661e-05 -2.69965854251e-05 -0.000552015894358
Te 1.7460304458 1.1930747541 -13.53315677 -2.62252544129e-05 -0.000131897603077 -0.000755647281565
Te -0.1602177737 -2.1086405375 -13.53315677 0.000101815693603 8.84459560593e-05 -0.000755390171227
Te -1.2352083954 0.7131477325 -13.8137017873 -0.000161465291876 9.35881628069e-05 -0.000814782659162
Te 4.2821686408 -2.4723077946 -14.6586781349 -0.000207488042267 0.000119556306882 -0.000766445915735
Te 2.6506659784 1.0046911056 10.4014481137 -4.13947643184e-05 0.0001079863417 0.000641490291767
Te 0.4552449156 -2.7978863859 10.4014481137 -0.000113642769123 -1.85119442915e-05 0.00064123318143
Te -2.4425001119 1.4101782249 10.6409878949 5.91353775978e-05 -3.41956748718e-05 0.000607294616895
Te 4.0083953155 -2.314244618 10.7536549651 7.22480048042e-05 -4.13947643184e-05 0.000719908944669
Te 0.6239247748 -0.3602233046 -7.3037048716 0.000208516483617 -0.000120327637895 -0.000859262747529
Te -1.5858771971 -3.9505496257 -7.5883843094 4.9879405452e-05 -2.85392474494e-05 -0.00103872576302
Te 3.8359822923 0.3252331991 -7.1054474163 -0.00012958361004 -2.8282137112e-05 -0.000817610872874
Te 1.6363310264 -3.4846711004 -7.1054474163 -3.98521022942e-05 0.000126498285992 -0.000817610872874
Te 0.3193283926 2.4576660264 -3.6116035924 -4.4480088367e-05 -2.8282137112e-06 0.000616036368366
Te -1.9687369733 -1.5053761821 -3.6116035924 -2.00546063158e-05 4.01092126315e-05 0.000616293478704
Te -4.6825564511 2.7034753914 -3.4372286577 4.65369710661e-05 -2.72536957625e-05 0.000589039782941
Te 1.9267461415 -1.112403914 -3.2450487946 1.28555168691e-06 -0 0.000566928293926
Te -0.4779296249 2.6541879303 -10.112027282 3.72809989203e-05 0.000159408409177 -0.00150666657706
Te -2.5375588678 -0.9131911157 -10.112027282 -0.00011981341722 -0.000112100107098 -0.00150615235638
Te -3.7059314099 2.1396203981 -10.5039362647 -1.79977236167e-05 1.02844134953e-05 -0.00130894872761
Te 2.8235335652 -1.6301646138 -10.4039643681 5.39931708501e-05 -3.08532404858e-05 -0.00130843450694
Sb 0.1067423611 2.320628952 9.300775645 -2.57110337382e-07 -0.000231656413981 0.000839722361888
Sb -1.9563524547 -1.2527526554 9.300775645 0.00020028895282 0.000116470982834 0.000839722361888
Sb -4.0332296823 2.3285862319 8.2356015736 -2.64823647503e-05 1.51695099055e-05 0.00093382474537
Sb 2.3481475994 -1.3557002738 8.4106216315 -0.00022291466251 0.000128812279028 0.000801670031956
Sb -0.1497964834 2.4786635913 1.9815579257 -0.000159665519514 -0.000186919215276 0.000581583583157
Sb -2.2214838288 -1.1096007152 1.9815579257 8.20181976247e-05 0.000231656413981 0.000581069362482
Sb -4.2311310854 2.4428447134 1.7421172751 0.000160436850526 -9.25597214574e-05 0.000699083007341
Sb 2.0051339588 -1.1576611619 0.877478898 -3.13674611606e-05 1.77406132793e-05 0.000709881641511
Sb 0.0434170489 -0.0250668565 -11.3672769316 -2.77679164372e-05 1.64550615924e-05 -0.001037183101
Sb -2.1843381919 -3.6050278316 -11.0454021482 -8.48464113359e-05 4.85938537651e-05 -0.000893715532739
Sb -3.9439280794 0.6092837096 -13.1153400691 0.000138582471849 -0.00012469851363 -0.000778015880917
Sb -2.499618966 3.1109000003 -13.1153400691 0.000177406132793 -5.75927155735e-05 -0.000778272991254
Sb 0.0677179229 -0.0390969792 11.5432206519 -9.0245728421e-05 5.27076191632e-05 0.000194632525398
Sb -1.9993452421 -3.7118336333 11.967117407 -2.31399303643e-06 7.71331012145e-07 4.80796330904e-05
Sb 4.2248908959 -0.0071299176 12.7777035357 9.07599490957e-05 -5.03936261268e-05 -0.000199260511471
Sb 2.1186201068 -3.6552944295 12.7777035357 8.92172870714e-05 -5.34789501754e-05 -0.000198746290796
Sb 2.0238352798 1.2602836309 -1.602484811 -2.77679164372e-05 5.34789501754e-05 0.000892429981052
Sb -0.0795199492 -2.3828310884 -1.602484811 -6.09351499594e-05 -2.57110337382e-06 0.000892687091389
Sb -2.1735754668 1.2549144375 -2.5400019376 9.7701928205e-06 -5.91353775978e-06 0.000961592661807
Sb 4.2478495886 -2.4524936714 -1.9674876667 3.72809989203e-05 -2.13401580027e-05 0.000977276392388
Sb 2.0784865389 1.0442450883 -9.3464215105 0.000103358355627 -5.03936261268e-05 -0.00135857102272
Sb 0.1349004606 -2.3221412203 -9.3464215105 9.51308248312e-05 -6.4020474008e-05 -0.00135831391239
Sb -2.0021844354 1.1559617348 -7.8853403336 -0.000112871438111 6.50489153576e-05 -0.00111585886424
Sb 4.1931262711 -2.4208991346 -7.8898521356 -8.04755356005e-05 4.67940814035e-05 -0.0011919635241
Cr -2.2610868554 -3.5607165449 17.4045140249 -0.00022779975892 0.000130869161727 -0.000737649557948
61
Lattice="8.42843558953 0 0 -4.21421779477 7.29923593142 0 0 0 31.0334408416" Properties=species:S:1:pos:R:3:forces:R:3 energy=-133601.228008 ionic_step=74 pbc="T T T"
Te 2.0866495535 0.7856167186 2.9628582508 -4.83367434277e-05 0.000174063698407 -0.00133517398202
Te 0.3629605993 -2.1998964125 2.9628582508 -0.00017483502942 -4.52514193792e-05 -0.00133517398202
Te -2.3115318576 1.3345636328 3.570338971 5.19362881511e-05 -3.05961301484e-05 -0.00162905109765
Te 3.6397835619 -2.1014264235 3.0233111472 0.000237827062078 -0.000137039809824 -0.00136139923644
Te -0.1643017722 0.0948597167 7.4747576676 -0.000192575642699 0.000111328776086 -0.00319613860399
Te -2.3682749421 -3.4988318705 7.4889075106 -0.000210830476653 0.000121613189582 -0.00307426830407
Te -3.6541266227 -0.3752922955 7.1529074552 5.83640465856e-05 -0.000150152437031 -0.00277782008507
Te -1.5020508328 3.3522124623 7.1529074552 0.000159408409177 2.44254820513e-05 -0.0027773058644
Te -0.4801152027 0.2771947707 -0.1808627835 -0.000254796344345 0.000147067112982 0.00289917616432
Te -2.2978230361 -3.5395073156 0.1221473791 -3.39385645344e-05 1.9540385641e-05 0.00219263695719
Te -3.9217336424 0.1188644614 -0.2854015923 0.00018460522224 7.63617702023e-05 0.00296088264529
Te 2.1504113456 -3.9623472624 -0.2854015923 2.62252544129e-05 -0.000197974959784 0.00296088264529
Te 0.3163000591 2.0073540111 13.5447906433 2.87963577867e-05 0.000530418626018 0.000350441389851
Te -1.58026968 -1.2775975596 13.5447906433 -0.000445057994008 -0.000290020460566 0.000350441389851
Te -4.5022337815 2.5993660009 14.0858631107 -0.000214687131714 0.000124184292955 0.00051550622645
Te 1.6746064386 -0.9668309191 13.7670299474 0.000334757659271 -0.000193604084048 0.000258910109743
Te 1.7470264105 1.1921916514 -13.5299728785 0.000725308261754 0.0019072444827 -0.00199157667336
Te -0.1589550023 -2.1090615173 -13.5299728785 -0.00128915123163 -0.00158174279557 -0.00199157667336
Te -1.2329418029 0.7118391141 -13.8072122205 -9.7701928205e-05 5.6564274224e-05 -0.0019368121715
Te 4.288204999 -2.4757928893 -14.6609729822 0.0015771148095 -0.000910170594331 -0.000641747402105
Te 2.6512505724 1.0061722971 10.4019556435 0.000375638202915 5.37360605128e-05 -0.00189207497279
Te 0.4542544637 -2.7991332551 10.4019556435 0.000141153575223 -0.000352755382888 -0.00189207497279
Te -2.4421515539 1.4099769847 10.6405714756 -0.000115699651822 6.71057980566e-05 -0.0015262069627
Te 4.0095858422 -2.3149319692 10.7559952272 0.000114671210472 -6.63344670445e-05 -0.00127963814915
Te 0.6227386542 -0.3595384973 -7.3078422977 -0.000118013644858 6.86484600809e-05 0.00186970637344
Te -1.5883254303 -3.9491361369 -7.5870708463 -6.58202463697e-05 3.77952195951e-05 0.0017483502942
Te 3.8352644804 0.3266404035 -7.1085082533 0.000210059145641 0.000123670072281 0.00165681901409
Te 1.6347534462 -3.4847530589 -7.1085082533 -1.79977236167e-06 -0.000243997710175 0.00165656190375
Te 0.3203363335 2.4545871043 -3.6127486419 -9.43594938191e-05 -4.13947643184e-05 0.00333163575179
Te -1.9655665793 -1.5047096239 -3.6127486419 -1.10557445074e-05 0.000102329914278 0.00333163575179
Te -4.685965809 2.705443786 -3.435039039 0.000189747428988 -0.000109786114062 0.00352961071158
Te 1.9267244049 -1.1123913643 -3.2448919144 -3.93378816194e-05 2.2882820027e-05 0.0033599178889
Te -0.4805111071 2.6541930049 -10.1118724995 -2.10830476653e-05 0.000562814528528 0.00021700112475
Te -2.5388540037 -0.9109580229 -10.1118724995 -0.000497765613171 -0.000263280985479 0.000216744014413
Te -3.7050740102 2.1391253779 -10.5053162333 -6.65915773818e-05 3.85665506072e-05 -0.000424489167017
Te 2.8218209701 -1.6291758461 -10.4006693883 0.000543274142887 -0.000313417501268 -0.000241940827476
Sb 0.1077818029 2.3206229191 9.3023492554 -0.000116470982834 0.000377437975276 -0.00289094863352
Sb -1.9558275091 -1.2536498224 9.3023492554 -0.000385151285398 -8.79317353845e-05 -0.00289094863352
Sb -4.0308580775 2.3272169846 8.2343678183 0.000115956762159 -6.68486877192e-05 -0.00324061869236
Sb 2.3503133921 -1.3569506954 8.4142780384 0.000354812265587 -0.000204916938893 -0.0032856130014
Sb -0.151055435 2.4800771784 1.9807264548 -3.62525575708e-05 7.89328735762e-05 -0.000440944228609
Sb -2.2233375064 -1.1092172242 1.9807264548 -8.6903294035e-05 -7.71331012145e-06 -0.000440430007935
Sb -4.2316626894 2.4431516353 1.7386335361 3.75381092577e-05 -2.15972683401e-05 -0.000193604084048
Sb 2.0028345667 -1.1563336066 0.8717329182 5.78498259109e-05 -3.31672335222e-05 0.00109169049252
Sb 0.0436672374 -0.025211303 -11.3645587112 1.67121719298e-05 -9.7701928205e-06 -0.000925340104236
Sb -2.182837262 -3.6058943943 -11.0485275996 -0.000288477798542 0.000166607498623 -0.00229265287843
Sb -3.9418124385 0.6073188107 -13.1170666975 -0.000479253668879 0.000223943103859 -0.00175992025938
Sb -2.4968594939 3.1100502502 -13.1170666975 -0.0004340022495 0.000302875977436 -0.00175966314904
Sb 0.0672681472 -0.038837301 11.54543542 -0.000251968130634 0.000145524450958 -0.00042911715309
Sb -1.9991578656 -3.7119418153 11.9688476063 -0.000313160390931 0.000180748567179 -1.97974959784e-05
Sb 4.2251968598 -0.006339529 12.7785878317 0.000209802035303 -0.000213915800702 0.000182548339541
Sb 2.1180885924 -3.6559545964 12.7785878317 0.000289506239892 -7.45619978407e-05 0.000182805449878
Sb 2.0220836757 1.2597874887 -1.6002181827 7.63617702023e-05 0.000373581320216 0.00424566300118
Sb -0.0799660797 -2.381066083 -1.6002181827 -0.000285392474494 -0.000253253682321 0.00424592011152
Sb -2.1753236328 1.2559237421 -2.5409636339 -0.000158379967827 9.15312801079e-05 0.00415490305209
Sb 4.2499104692 -2.453683522 -1.9702039015 0.000288992019217 -0.000166864608961 0.00457579267438
Sb 2.07809009 1.0464176919 -9.3475846493 0.00014038224421 0.000160951071201 0.0010248418048
Sb 0.1328207071 -2.3228841871 -9.3475846493 -6.9419791093e-05 -0.000201574504507 0.0010248418048
Sb -2.0021624334 1.1559490319 -7.8873069818 -5.27076191632e-05 3.0339019811e-05 0.00174500785981
Sb 4.192802004 -2.4207119188 -7.8853485543 0.000157608636815 -9.10170594331e-05 0.00131203405166
Cr -2.2550448815 -3.5642048817 17.4042134745 0.000139353802861 -8.02184252631e-05 -0.00178743106548
61
Lattice="8.42843558953 0 0 -4.21421779477 7.29923593142 0 0 0 31.0334408416" Properties=species:S:1:pos:R:3:forces:R:3 energy=-133601.229149 ionic_step=75 pbc="T T T"
Te 2.0862042093 0.785907636 2.9587879944 -4.47371987044e-05 0.000104643907314 -0.000284106922807
Te 0.3624859854 -2.1996561917 2.9587879944 -0.000112871438111 -1.36268478812e-05 -0.000284106922807
Te -2.3127124657 1.3352452575 3.569072012 5.50216121997e-05 -3.16245714979e-05 -0.000560500535492
Te 3.637181423 -2.0999240772 3.0194534284 0.000121098968907 -6.99340117678e-05 -0.000297476660351
Te -0.164658773 0.0950658313 7.4741038256 -7.50762185154e-05 4.34516470175e-05 -0.000675685966639
Te -2.3675202402 -3.499267598 7.491269999 -3.88236609446e-05 2.23685993522e-05 -0.000631977209284
Te -3.6543285893 -0.3774178491 7.1545399429 5.91353775978e-06 1.69692822672e-05 -0.000649203601889
Te -1.5003110335 3.3534501473 7.1545399429 -1.18270755196e-05 -1.36268478812e-05 -0.000649203601889
Te -0.4821761419 0.2783846551 -0.1800439591 -0.000225999986558 0.00013061205139 0.0011348850292
Te -2.2994278469 -3.5385807773 0.1203960469 -6.78771290688e-05 3.93378816194e-05 0.000887544884641
Te -3.922039295 0.1179347245 -0.2857087854 0.000245283261862 9.51308248312e-06 0.00114979742877
Te 2.1510636948 -3.9616176909 -0.2857087854 0.000114414100135 -0.000217258235087 0.00114979742877
Te 0.3148773627 2.0064618624 13.5465137141 -9.33310524695e-05 6.99340117678e-05 0.000594439100026
Te -1.5802084052 -1.2759193934 13.5465137141 -0.000107215010688 4.57656400539e-05 0.000594439100026
Te -4.5030820199 2.5998557319 14.0876730046 0.000134982927125 -7.79044322266e-05 0.000441458449284
Te 1.6762701298 -0.9677914521 13.7681794174 0.000149895326693 -8.63890733602e-05 0.000613979485667
Te 1.748489237 1.1913454016 -13.5265865273 -0.00014732422332 -0.000242197937813 0.00051550622645
Te -0.1574907156 -2.1099052378 -13.5265865273 0.000136011368475 0.000248625696248 0.00051550622645
Te -1.2316040173 0.7110667429 -13.8034915067 8.99886180836e-06 -5.14220674763e-06 0.000583126245182
Te 4.2918793066 -2.4779142528 -14.6620391943 -0.000233970407017 0.000135240037463 0.000419089849932
Te 2.6514993587 1.0074514544 10.4023531479 0.000177663243131 8.74175147098e-06 0.000242197937813
Te 0.4532710747 -2.7999882892 10.4023531479 8.12468666126e-05 -0.000158379967827 0.000242197937813
Te -2.4413833718 1.4095334744 10.6403916278 -0.000106957900351 6.17064809716e-05 0.000297219550013
Te 4.0102268775 -2.3153020712 10.7570416797 -4.34516470175e-05 2.51968130634e-05 0.000374352651228
Te 0.6212241859 -0.3586641182 -7.3101666612 -0.000113385658785 6.53060256949e-05 -0.00117010914542
Te -1.5896274528 -3.9483844135 -7.5867919826 -0.000106700790013 6.17064809716e-05 -0.00120301926861
Te 3.835173449 0.3268425739 -7.111509223 6.96769014304e-05 1.7483502942e-05 -0.00107729231363
Te 1.6345328458 -3.4847753086 -7.111509223 1.9540385641e-05 -6.89055704183e-05 -0.00107729231363
Te 0.320332909 2.4518288731 -3.6135520787 -6.37633636706e-05 -1.18270755196e-05 0.000296191108664
Te -1.9631795944 -1.5033275427 -3.6135520787 -2.18543786774e-05 6.11922602968e-05 0.000296191108664
Te -4.6881349131 2.7066961194 -3.4328208247 -2.77679164372e-05 1.59408409177e-05 0.000374609761565
Te 1.926142931 -1.1120556501 -3.2450044732 -4.03663229689e-05 2.33970407017e-05 0.000312131949581
Te -0.4820668197 2.6546870176 -10.1117411326 7.09624531173e-05 -2.77679164372e-05 -0.000699597228015
Te -2.5400596872 -0.9098577419 -10.1117411326 5.96495982725e-05 -4.75654124156e-05 -0.000699597228015
Te -3.7048995757 2.139024668 -10.5055369487 0.000138839582186 -8.02184252631e-05 -0.000474111462132
Te 2.8210191411 -1.6287129097 -10.3964420927 0.000103615465965 -5.99067086099e-05 -0.00055972920448
Sb 0.1083304046 2.3204858171 9.303028784 -7.97042045883e-05 5.55358328744e-05 -7.73902115519e-05
Sb -1.9554344745 -1.2540563746 9.303028784 -8.79317353845e-05 4.13947643184e-05 -7.73902115519e-05
Sb -4.0289931085 2.3261402437 8.234060922 4.85938537651e-05 -2.80250267746e-05 -0.00030441863946
Sb 2.3514604893 -1.3576129726 8.4175837595 7.45619978407e-05 -4.29374263427e-05 -0.000351726941538
Sb -0.1524515061 2.4812540573 1.9795364029 -7.04482324426e-05 -6.14493706342e-05 0.000132926044426
Sb -2.2250547485 -1.10859663 1.9795364029 1.79977236167e-05 9.17883904452e-05 0.000133183154764
Sb -4.2320560772 2.443378758 1.7353568259 8.150397695e-05 -4.70511917408e-05 0.00031521727363
Sb 2.0011583233 -1.1553658266 0.8669863713 -5.14220674763e-07 2.57110337382e-07 0.000731736020188
Sb 0.0434988468 -0.0251140826 -11.3630290858 -0.000145781561295 8.40750803238e-05 -5.68213845613e-05
Sb -2.1821349777 -3.6062998585 -11.0513425917 -0.000173549477733 0.000100273031579 3.9080771282e-05
Sb -3.9404443887 0.6068227484 -13.1184729693 0.000134725816788 -0.000134982927125 0.000421403842968
Sb -2.4957458667 3.1091135149 -13.1184729693 0.000184348111903 -4.91080744399e-05 0.000421403842968
Sb 0.0672246065 -0.0388121627 11.548304887 -1.31126272065e-05 7.45619978407e-06 0.000386436837085
Sb -1.9989343165 -3.7120708814 11.9704084946 1.85119442915e-05 -1.05415238326e-05 0.000410862319136
Sb 4.2255591506 -0.0055929416 12.7790802311 8.74175147098e-06 -2.18543786774e-05 0.000506764474979
Sb 2.1176231745 -3.6566416433 12.7790802311 2.31399303643e-05 3.34243438596e-06 0.000506764474979
Sb 2.0205067574 1.2589443932 -1.5987093395 -8.02184252631e-05 0.000237569951741 0.00120044816523
Sb -0.0800243972 -2.3792788833 -1.5987093395 -0.000245797482537 -4.93651847773e-05 0.00120044816523
Sb -2.1765727504 1.2566449208 -2.5413192497 0.00011389987946 -6.58202463697e-05 0.00094565182089
Sb 4.2513279195 -2.4545018876 -1.9728333723 0.000221629110823 -0.000128040948016 0.00119787706186
Sb 2.0784528563 1.0488235215 -9.347928852 -0.000141924906235 5.99067086099e-05 -0.000961849772145
Sb 0.1309185816 -2.3244012669 -9.347928852 -0.000122641630931 9.28168317948e-05 -0.000961849772145
Sb -2.0019273936 1.1558133315 -7.8889206071 7.43048875033e-05 -4.29374263427e-05 -0.00121844588885
Sb 4.1933913464 -2.4210521759 -7.8836919669 0.000100273031579 -5.78498259109e-05 -0.00127706704577
Cr -2.2498239084 -3.5672192134 17.4051780357 -0.000203631387206 0.000117499424183 0.000485424316977
61
Lattice="8.42843558953 0 0 -4.21421779477 7.29923593142 0 0 0 31.0334408416" Properties=species:S:1:pos:R:3:forces:R:3 energy=-133601.230363 ionic_step=76 pbc="T T T"
Te 2.0859134412 0.786488183 2.9544326656 -6.9419791093e-06 -0.000254796344345 -0.00072273715838
Te 0.3618378331 -2.1996946526 2.9544326656 0.00021700112475 0.000133440265101 -0.00072273715838
Te -2.3147529394 1.3364233261 3.5671917045 7.07053427799e-05 -4.08805436437e-05 -0.000684170607773
Te 3.6341964208 -2.0982006846 3.0153613315 -0.00014629578197 8.45893009986e-05 -0.000767474357084
Te -0.1654954381 0.0955488803 7.4735467766 -0.000149638216356 8.63890733602e-05 -0.00130997716896
Te -2.3657933709 -3.5002646069 7.4939512539 0 0 -0.00120996124772
Te -3.6545589557 -0.3797043632 7.1559426768 0.000148609775007 7.19908944669e-05 -0.00116908070407
Te -1.4984460383 3.3547929077 7.1559426768 1.20841858569e-05 -0.000164807726262 -0.00116908070407
Te -0.485006621 0.2800188337 -0.1794405585 -5.21933984885e-05 3.00819094737e-05 -0.00122307387492
Te -2.3014139476 -3.5374341009 0.1182010024 2.85392474494e-05 -1.64550615924e-05 -0.00149021151546
Te -3.922023864 0.1166603626 -0.2866473185 -5.81069362482e-05 0.00011389987946 -0.00130586340356
Te 2.1521750395 -3.9609938736 -0.2866473185 -0.000127783837679 -6.42775843454e-06 -0.00130586340356
Te 0.3135248024 2.0054192408 13.5484803991 -0.000226771317571 0.000113642769123 0.000123155851606
Te -1.579981749 -1.2742267305 13.5484803991 -0.000211858918002 0.000139610913198 0.000123155851606
Te -4.5027377568 2.5996569713 14.0894197563 6.32491429959e-05 -3.65096679082e-05 0.000482596103265
Te 1.6781336831 -0.9688673756 13.7704448489 -2.4939702726e-05 1.4141068556e-05 0.000247340144561
Te 1.750695501 1.1896807048 -13.5231497514 0.000875717809122 0.00123232984707 0.000158379967827
Te -0.1549459146 -2.110983571 -13.5231497514 -0.00062940610591 -0.00137451186364 0.000158379967827
Te -1.2304420859 0.7103959012 -13.8006192646 -0.000296191108664 0.000170978374359 -0.000347870286477
Te 4.2961129905 -2.4803585724 -14.6631346945 0.000768759908771 -0.000443772442321 0.000196175187422
Te 2.651811949 1.0088890177 10.4034925985 0.000177406132793 5.93924879352e-05 -0.000893972643076
Te 0.4521824041 -2.800977782 10.4034925985 3.72809989203e-05 -0.000183319670553 -0.000893972643076
Te -2.4403589412 1.4089420189 10.6405235794 0.000114414100135 -6.60773567071e-05 -0.000477453896518
Te 4.0107335883 -2.315594621 10.758050823 0.000145010230283 -8.38179699864e-05 -0.000471540358758
Te 0.6190827396 -0.357427753 -7.3119729437 -0.000121356079244 7.01911221052e-05 0.0023350760841
Te -1.5902442493 -3.9480283058 -7.5870468925 0.000205945380243 -0.000119299196545 0.00203142877565
Te 3.8347409789 0.3267600602 -7.1147451382 0.00016789305031 0.000621692795789 0.00185093731881
Te 1.6343880698 -3.4843595215 -7.1147451382 -0.000454571076491 -0.000456370848852 0.00185093731881
Te 0.3201350135 2.448787954 -3.6144601667 0.000209030704291 0.000104643907314 -0.000578755369446
Te -1.9606450302 -1.5016357005 -3.6144601667 1.4141068556e-05 -0.000233456186343 -0.000578755369446
Te -4.6907594153 2.7082113772 -3.4301331182 1.36268478812e-05 -7.97042045883e-06 -0.000695483462617
Te 1.9248236969 -1.1112939896 -3.2456875079 -2.72536957625e-05 1.56837305803e-05 -0.000680571063049
Te -0.4828460857 2.6563653894 -10.1114528605 0.000249911247935 0.000527847522644 0.0030187324712
Te -2.5419028322 -0.9100220634 -10.1114528605 -0.000332186555897 -0.000480024999892 0.00301847536086
Te -3.7047640191 2.1389464044 -10.5059709878 -0.000721194496355 0.000416261636221 0.00255876207762
Te 2.8202735128 -1.6282824208 -10.3934284963 0.00044480088367 -0.000256853227044 0.00255850496728
Sb 0.1080956209 2.3201396447 9.3033923457 -0.000105672348664 9.5645045506e-05 -0.00121510345447
Sb -1.9552520724 -1.2536799596 9.3033923457 -0.0001354971478 4.37087573549e-05 -0.00121510345447
Sb -4.0270972212 2.3250456522 8.2348131836 3.08532404858e-05 -1.77406132793e-05 -0.0013907098149
Sb 2.3518307923 -1.3578267672 8.4214110661 5.83640465856e-05 -3.3681454197e-05 -0.00136577011217
Sb -0.1542332034 2.4826785176 1.978083503 -0.000233199076005 -2.93105784615e-05 -0.000839722361888
Sb -2.2271792154 -1.1077658644 1.978083503 -9.10170594331e-05 0.000216486904075 -0.000839722361888
Sb -4.2324106719 2.4435834834 1.7313358451 0.000211344697328 -0.000122127410256 -0.0010544094936
Sb 1.9994297273 -1.1543678208 0.8620432781 8.92172870714e-05 -5.16791778137e-05 -0.000921226338838
Sb 0.0436118209 -0.0251793082 -11.3616306164 8.40750803238e-05 -4.85938537651e-05 0.0017298383499
Sb -2.181654136 -3.6065774727 -11.0532986387 0.000369724665155 -0.000213401580027 0.00152646407303
Sb -3.9394613264 0.6061182091 -13.1190726843 -0.000448143318056 0.000629148995573 0.000517820219487
Sb -2.4946441869 3.1086144272 -13.1190726843 -0.000769017019108 7.32764461538e-05 0.000517820219487
Sb 0.0677426866 -0.0391112766 11.5517291908 -0.000410862319136 0.000237055731066 4.06234333063e-05
Sb -1.9979596128 -3.7126336272 11.972700971 -0.000252739461646 0.000146038671633 0.000167121719298
Sb 4.2259313021 -0.0051535122 12.7798960849 0.000408034105425 -7.71331012145e-06 0.000250168358272
Sb 2.1174286934 -3.6571836508 12.7798960849 0.000210573366316 -0.000349412948502 0.000249911247935
Sb 2.0186822978 1.2573674841 -1.597160642 0.000230627972631 0.000190775870337 -0.00138196806343
Sb -0.0795709842 -2.3769103996 -1.597160642 -4.9879405452e-05 -0.000294905556977 -0.00138196806343
Sb -2.177808415 1.2573583325 -2.5430383392 -0.000303647308448 0.000175349250094 -0.00114774054607
Sb 4.2523985852 -2.4551200371 -1.9761084305 0.000111328776086 -6.42775843454e-05 -0.00112717171908
Sb 2.0787872438 1.0520358906 -9.3480936564 0.000606523285883 0.00097213418564 0.00305652769079
Sb 0.1283037834 -2.3262970396 -9.3480936564 -0.000538646156815 -0.00101121495692 0.00305652769079
Sb -2.0017425435 1.1557066082 -7.8903052506 -0.000408291215762 0.000235770179379 0.00257161759449
Sb 4.1943383819 -2.4215989474 -7.8826278 0.000465883931336 -0.000269194523239 0.00238366993787
Cr -2.2443920505 -3.5703552994 17.4070912566 0.000419346960269 -0.000242197937813 0.000419604070607
61
Lattice="8.42843558953 0 0 -4.21421779477 7.29923593142 0 0 0 31.0334408416" Properties=species:S:1:pos:R:3:forces:R:3 energy=-133601.231792 ionic_step=77 pbc="T T T"
Te 2.0857746102 0.7882095129 2.9500573646 -8.74175147098e-06 -0.000282050040108 -0.00173498055665
Te 0.3602777029 -2.2004350863 2.9500573646 0.000240141055114 0.000148352664669 -0.00173498055665
Te -2.3182716959 1.338454882 3.5640285592 8.99886180836e-05 -5.16791778137e-05 -0.00170746975055
Te 3.630872428 -2.0962815755 3.0115901288 -0.000154009092092 8.87030663967e-05 -0.00184168134666
Te -0.1670166762 0.0964271679 7.4732885495 -0.000136782699487 7.91899839135e-05 -0.000757447053926
Te -2.3626578959 -3.5020748751 7.4973969904 0.000193861194386 -0.000112100107098 -0.000707053427799
Te -3.6547486192 -0.3822405805 7.1574005461 8.87030663967e-05 0.000386436837085 -0.000832266162104
Te -1.4963444425 3.3562252698 7.1574005461 -0.000290277570904 -0.000270222964588 -0.000832266162104
Te -0.4890080633 0.2823290686 -0.1792169956 -0.000139353802861 8.04755356005e-05 -0.00295419777651
Te -2.304197619 -3.5358269467 0.1147246356 -4.67940814035e-05 2.69965854251e-05 -0.003175569777
Te -3.9220789502 0.1146210165 -0.2886956297 3.75381092577e-05 8.97315077462e-05 -0.00305087126337
Te 2.1539136211 -3.9599264944 -0.2886956297 -5.91353775978e-05 -7.76473218893e-05 -0.00305061415303
Te 0.3120957499 2.0041511195 13.55068966 -0.000504450481943 -0.000138325361511 0.00103281222526
Te -1.5795980505 -1.2723550735 13.55068966 -0.000132411823752 0.000505993143967 0.00103281222526
Te -4.5008916097 2.5985910973 14.0912483185 0.000521676874547 -0.000301076205074 0.00071785206197
Te 1.6802602561 -0.9700951537 13.7741072312 2.95676887989e-05 -1.72263926046e-05 0.00105878036934
Te 1.753683966 1.1866591089 -13.5194349302 0.000615265037354 -0.000421403842968 0.0010523526109
Te -0.1508349044 -2.1120608609 -13.5194349302 0.000672343532253 -0.000322159252739 0.00105260972124
Te -1.2286283234 0.7093487244 -13.7989290937 -0.000508050026666 0.000293362894952 0.000329872562861
Te 4.3025093695 -2.4840515253 -14.6652511624 -0.000865947616301 0.00049982249587 1.79977236167e-05
Te 2.6523355898 1.0104434543 10.4057083073 0.000443772442321 -5.27076191632e-05 0.00139045270456
Te 0.4510980436 -2.8022084867 10.4057083073 0.000267651861214 -0.000357897589635 0.00139045270456
Te -2.4389228002 1.4081128621 10.6412573506 -0.000109786114062 6.35062533333e-05 0.00178074619671
Te 4.0113400483 -2.315944761 10.7593176511 -0.000153494871417 8.84459560593e-05 0.00180645723044
Te 0.6162970337 -0.3558194242 -7.3133584588 -0.00012572695498 7.25051151416e-05 0.00194503970229
Te -1.5899129055 -3.9482196073 -7.5875919461 0.000107215010688 -6.1963591309e-05 0.00163187931136
Te 3.8338195138 0.3267583174 -7.1181881905 8.63890733602e-05 0.000659745125721 0.00133131732696
Te 1.6339288466 -3.4835606376 -7.1181881905 -0.000528361743319 -0.000404691671039 0.0013315744373
Te 0.3195545045 2.4449919688 -3.6162788027 0.000258652999406 0.000188976097975 -0.00272665512793
Te -1.9576478666 -1.4992349721 -3.6162788027 -3.44527852091e-05 -0.000318559708016 -0.00272639801759
Te -4.6942201981 2.710209462 -3.4271169132 -0.000107472121026 6.1963591309e-05 -0.00295522621786
Te 1.9224282503 -1.1099109772 -3.2479295172 -5.6564274224e-06 3.34243438596e-06 -0.00290483259174
Te -0.4828689044 2.6591578981 -10.110502087 0.000386436837085 0.000589811113953 0.00472825910445
Te -2.5443326239 -0.9113985561 -10.110502087 -0.000317788377004 -0.000629663216248 0.00472825910445
Te -3.7043800917 2.1387247437 -10.5067690304 -0.000699854338353 0.000403920340027 0.00429708506866
Te 2.8190994518 -1.627604576 -10.3905079475 0.000580812252145 -0.000335014769608 0.00424412033916
Sb 0.1071018443 2.3193831669 9.3037973065 -0.000308018184183 -9.20455007826e-05 0.00081015467309
Sb -1.9550938321 -1.2524410846 9.3037973065 -7.43048875033e-05 0.000312903280593 0.00081015467309
Sb -4.0249562796 2.3238095783 8.2372384636 0.000174063698407 -0.000100273031579 0.000134982927125
Sb 2.3514600399 -1.3576127131 8.4258893986 -8.48464113359e-05 4.88509641025e-05 0.000231913524318
Sb -0.1564530604 2.4846891327 1.9761892496 -0.000357126258623 -6.58202463697e-05 -0.00203579965139
Sb -2.2300303868 -1.1068487184 1.9761892496 -0.000121356079244 0.000342213859055 -0.00203579965139
Sb -4.2330895454 2.4439754314 1.7256286425 0.000323444804426 -0.000186662104939 -0.00227234116178
Sb 1.9973755576 -1.1531818448 0.8576456727 0.000100787252254 -5.83640465856e-05 -0.00236541510391
Sb 0.0440427032 -0.0254280784 -11.3593516947 -2.51968130634e-05 1.43981788934e-05 0.00318148331476
Sb -2.1812668055 -3.6068010982 -11.0531249401 0.00036921044448 -0.000213144469689 0.00468532167811
Sb -3.9382870066 0.6056470828 -13.119172381 -0.000116213872496 0.000421146732631 0.00144907386148
Sb -2.4936490199 3.1078329991 -13.119172381 -0.000422946504993 -0.000110043224399 0.00144907386148
Sb 0.0690254314 -0.0398518699 11.555549512 -0.000317017045992 0.000183062560216 0.0020406847478
Sb -1.9960729696 -3.7137228816 11.9760872078 3.54812265587e-05 -2.05688269905e-05 0.00193115574407
Sb 4.2262582349 -0.0051836254 12.7811846464 0.000363811127395 0.00017972012583 0.00165270524869
Sb 2.1176182385 -3.6574517265 12.7811846464 2.62252544129e-05 -0.000404691671039 0.00165270524869
Sb 2.0162938164 1.2549683914 -1.5960298574 0.000153237761079 0.00016789305031 -0.0035627779451
Sb -0.0786875506 -2.3736423667 -1.5960298574 -6.89055704183e-05 -0.000216486904075 -0.0035627779451
Sb -2.1792181884 1.2581722659 -2.5464317354 -0.000232941965668 0.000134468706451 -0.00337765850218
Sb 4.2531556082 -2.4555571047 -1.9814841002 0.000156065974791 -8.99886180836e-05 -0.00346739000993
Sb 2.0786197317 1.0559651393 -9.3481545178 0.000604723513522 0.00130586340356 0.00430376993743
Sb 0.1248171998 -2.3281165943 -9.3481545178 -0.000828666617381 -0.0011767940142 0.00430376993743
Sb -2.0015290196 1.1555833301 -7.8911879926 -0.000417804298245 0.000241426606801 0.00259167220081
Sb 4.1953380325 -2.4221760962 -7.8826377318 0.000638404967719 -0.000368439113468 0.00238135594483
Cr -2.2386818135 -3.5736521079 17.4099980188 0.000241683717139 -0.000139610913198 0.00131666203773
61
Lattice="8.42843558953 0 0 -4.21421779477 7.29923593142 0 0 0 31.0334408416" Properties=species:S:1:pos:R:3:forces:R:3 energy=-133601.233195 ionic_step=78 pbc="T T T"
Te 2.0858809891 0.7906285783 2.9465998462 -9.61592661807e-05 -0.000509849799028 -0.000510106909365
Te 0.3582359213 -2.2017367458 2.9465998462 0.000393378816194 0.000338100093657 -0.000510106909365
Te -2.3228485526 1.3410973327 3.5602044688 0.000155294643779 -8.97315077462e-05 -0.000876746250471
Te 3.627756303 -2.0944824791 3.0091405738 -0.000252996571984 0.000146038671633 -0.000770559681133
Te -0.1689389352 0.0975369852 7.4733123358 0.000116985203509 -6.76200187314e-05 0.000188976097975
Te -2.3584518271 -3.5045032512 7.5010715896 0.000250168358272 -0.000144496009608 0.000196175187422
Te -3.6551752254 -0.3845087439 7.1585464445 -0.000177149022456 0.000406234333063 -5.16791778137e-05
Te -1.4945934594 3.3577288035 7.1585464445 -0.000440172897597 -4.96222951147e-05 -5.16791778137e-05
Te -0.4936380044 0.2850021676 -0.1795898327 -4.88509641025e-05 2.8282137112e-05 -0.000124955623967
Te -2.3073456735 -3.5340094158 0.1106489525 -0.000303904418785 0.000175349250094 -0.000380266188987
Te -3.9220318326 0.1123030509 -0.2917464169 4.11376539811e-06 -0.000286678026181 -0.000256853227044
Te 2.155944596 -3.9588083168 -0.2917464169 0.00025042546861 0.000139868023536 -0.000256853227044
Te 0.3110375329 2.0028344442 13.552835889 -0.000463055717624 -0.000122898741268 -0.000471026138083
Te -1.5789868852 -1.2707802926 13.552835889 -0.000124955623967 0.00046254149695 -0.000471026138083
Te -4.4976906321 2.5967430112 14.0928539963 0.000574898714385 -0.00033192944556 -0.000908113711632
Te 1.6820722325 -0.9711412992 13.7786048948 0.000347870286477 -0.000200803173495 -0.000706796317462
Te 1.7563859442 1.1828506136 -13.5165810398 0.00016892149166 -0.000496222951147 -0.00012469851363
Te -0.1461856633 -2.1124965961 -13.5165810398 0.000514220674763 0.000101815693603 -0.00012469851363
Te -1.2265663836 0.7081582624 -13.7987033881 -0.000381551740674 0.000220343559136 -0.000548159239298
Te 4.3101238012 -2.4884477215 -14.66746163 -0.000897572187799 0.000518077329824 -0.00094950847595
Te 2.6528495743 1.0117173333 10.408738665 0.000340414086693 -0.000303647308448 0.00156168818926
Te 0.4502518248 -2.8032905501 10.408738665 0.000433230918488 -0.000142953347584 0.00156168818926
Te -2.43735211 1.4072060232 10.6426585071 -0.000218800897112 0.000126241175654 0.00161233892572
Te 4.012156507 -2.3164161439 10.7606813972 -0.000452257083454 0.000260966992442 0.00164396349722
Te 0.6134955387 -0.3542019795 -7.3142836562 -0.000193089863374 0.000111585886424 0.000545845246261
Te -1.5883506504 -3.9491215761 -7.5880373277 -0.000211858918002 0.000122384520594 0.000530161515681
Te 3.8326536321 0.3264282916 -7.120977969 -4.08805436437e-05 0.00027202273695 0.000102072803941
Te 1.6336317162 -3.482385941 -7.120977969 -0.000256081896032 -0.000100530141916 0.000102072803941
Te 0.3190106703 2.4413607004 -3.6187156065 0.000122384520594 0.000102844134953 -0.00239344013069
Te -1.9547750145 -1.4969483634 -3.6187156065 -2.77679164372e-05 -0.000157351526478 -0.00239344013069
Te -4.6981055604 2.712452678 -3.424430154 -0.000171749705371 9.89874798919e-05 -0.00249139916923
Te 1.919246199 -1.1080738182 -3.2517209321 -2.00546063158e-05 1.15699651822e-05 -0.00227671203751
Te -0.482388087 2.6623353083 -10.1091325847 0.000338871424669 0.000457656400539 0.00327481436723
Te -2.5468439319 -0.9134036615 -10.1091325847 -0.000227028427908 -0.000522191095222 0.00327455725689
Te -3.7037676712 2.1383711624 -10.5077707065 -0.000171235484696 9.89874798919e-05 0.00298762212037
Te 2.8173071174 -1.6265697708 -10.3892393066 0.000661030677408 -0.000381551740674 0.0029513695628
Sb 0.105582415 2.3183179026 9.3042591409 -0.000296705329338 -0.000247340144561 0.00176789067984
Sb -1.9549310012 -1.2505925875 9.3042591409 6.58202463697e-05 0.000380523299325 0.00176789067984
Sb -4.0229646127 2.3226596884 8.2410385295 0.000215715573063 -0.00012469851363 0.00130174963816
Sb 2.3503355995 -1.3569635168 8.4300562175 -0.000195918077085 0.000113128548448 0.00141102153155
Sb -0.1585131848 2.4869898763 1.9743502274 -0.000313160390931 5.37360605128e-05 1.54266202429e-05
Sb -2.2330529505 -1.1062149694 1.9743502274 -0.000203117166531 0.00024451193085 1.54266202429e-05
Sb -4.2340419303 2.4445252913 1.7192208019 0.00027793627471 -0.000160436850526 7.30193358164e-05
Sb 1.9953600458 -1.1520181879 0.854514858 0.000164550615924 -9.51308248312e-05 0.000319073928691
Sb 0.044698486 -0.0258066949 -11.3568549552 -0.000244769041187 0.00014141068556 0.00208439350515
Sb -2.1812280768 -3.6068234582 -11.0503671786 -0.000217515345425 0.00012572695498 0.00327841391195
Sb -3.9371307749 0.6050576013 -13.1181385597 0.000164550615924 -0.000111585886424 0.000242969268826
Sb -2.4925603982 3.1071264133 -13.1181385597 0.000178948794818 -8.66461836976e-05 0.000242969268826
Sb 0.0709929186 -0.0409877997 11.5589750387 9.05028387583e-05 -5.21933984885e-05 0.000931510752334
Sb -1.9937211762 -3.7150806908 11.9801574349 0.000161465291876 -9.33310524695e-05 0.00057052783865
Sb 4.2265255889 -0.0060594451 12.7827127123 -5.14220674763e-05 6.68486877192e-06 0.000134982927125
Sb 2.1185103973 -3.6572453521 12.7827127123 -3.13674611606e-05 4.13947643184e-05 0.000134982927125
Sb 2.0138175076 1.2522088504 -1.5954640453 -6.7362908394e-05 -5.34789501754e-05 -0.00138351072545
Sb -0.0775358736 -2.3701180489 -1.5954640453 1.25984065317e-05 8.51035216733e-05 -0.00138351072545
Sb -2.1805549529 1.2589440476 -2.5512625434 2.80250267746e-05 -1.6197951255e-05 -0.00193244129576
Sb 4.2533208914 -2.4556525311 -1.988063845 3.00819094737e-05 -1.7483502942e-05 -0.00154394757598
Sb 2.0776173694 1.0593525773 -9.3482414492 7.19908944669e-05 0.000841265023913 0.00306681210429
Sb 0.1213824127 -2.3289422416 -9.3482414492 -0.000692655248906 -0.000482853213603 0.00306681210429
Sb -2.0014907455 1.1555612325 -7.8915529823 9.51308248312e-06 -5.6564274224e-06 0.00115236853214
Sb 4.196568846 -2.4228867071 -7.8838707701 0.000572327611012 -0.000330386783535 0.000875974919459
Cr -2.2341730948 -3.576255219 17.4132275437 -0.00020131739417 0.000116213872496 0.000260452771768
61
Lattice="8.42843558953 0 0 -4.21421779477 7.29923593142 0 0 0 31.0334408416" Properties=species:S:1:pos:R:3:forces:R:3 energy=-133601.234462 ionic_step=79 pbc="T T T"
Te 2.0861325606 0.7935103539 2.9443840021 -4.31945366801e-05 -0.000470254807071 0.000984989702509
Te 0.3558660173 -2.203395501 2.9443840021 0.000385665506072 0.000272536957625 0.000984989702509
Te -2.3278325093 1.3439748228 3.5561597648 9.92445902293e-05 -5.73356052361e-05 0.000968277530579
Te 3.625263728 -2.0930433896 3.0083509638 -0.000265852088853 0.000153494871417 0.000820696196922
Te -0.1704542741 0.0984118669 7.4736317697 7.71331012145e-06 -4.37087573549e-06 -0.00148044132264
Te -2.354030846 -3.507055707 7.5045017507 -4.83367434277e-05 2.77679164372e-05 -0.00150769501841
Te -3.6558930873 -0.3862419897 7.1594204586 3.18816818353e-05 1.54266202429e-06 -0.00122075988189
Te -1.4934513562 3.3592171133 7.1594204586 1.46552892308e-05 -2.85392474494e-05 -0.00122075988189
Te -0.4979964532 0.2875185203 -0.1804534033 5.52787225371e-05 -3.18816818353e-05 0.0011767940142
Te -2.3104350997 -3.5322257339 0.1066709601 -0.000228056869258 0.000131640492739 0.00100170187444
Te -3.9222773905 0.1100414639 -0.2952866874 -0.000190004539325 -0.000277422054035 0.00116830937306
Te 2.157780408 -3.9574648638 -0.2952866874 0.000145267340621 0.00030339019811 0.00116830937306
Te 0.3105563408 2.0017816524 13.5547170286 -0.000100530141916 6.68486877192e-06 0.0015922843194
Te -1.5783157373 -1.2698371719 13.5547170286 -5.60500535492e-05 8.38179699864e-05 0.0015922843194
Te -4.4941591049 2.594704082 14.0944276878 0.000157865747152 -9.10170594331e-05 0.001883847442
Te 1.6830027624 -0.9716785412 13.7828995346 0.000233456186343 -0.000134725816788 0.00154009092092
Te 1.7582202986 1.1790570189 -13.5145937951 0.000138839582186 0.000690084145532 0.000212630249015
Te -0.1419831382 -2.112188397 -13.5145937951 -0.000528104632982 -0.000465369710661 0.000212630249015
Te -1.2242587972 0.7068259761 -13.799654742 -0.000229599531282 0.000132668934089 0.00049493739946
Te 4.3181795666 -2.493098722 -14.669506736 0.000435287801187 -0.000251196799622 0.00137528319465
Te 2.6531776305 1.0124143612 10.4119217565 -1.25984065317e-05 -0.000160951071201 -0.00195840943984
Te 0.4498122092 -2.8039231692 10.4119217565 0.000132926044426 9.12741697705e-05 -0.00195840943984
Te -2.4359339178 1.4063872292 10.6446453844 -1.79977236167e-05 1.02844134953e-05 -0.00170721264021
Te 4.0131810816 -2.3170076826 10.7619812227 -0.000197974959784 0.000114156989797 -0.00147247090218
Te 0.6113857967 -0.3529839189 -7.315056067 -0.000143724678596 8.30466389743e-05 -0.00076104659865
Te -1.5864371514 -3.9502263358 -7.5877372241 -0.000213915800702 0.000123670072281 -0.000893715532739
Te 3.8317726851 0.3258490697 -7.1223903522 0.000125469844642 -0.000230627972631 -0.000708596089824
Te 1.6336928635 -3.4813334072 -7.1223903522 0.000262509654467 6.68486877192e-06 -0.000708596089824
Te 0.3185033296 2.4381559765 -3.6214718927 -8.87030663967e-05 -6.01638189473e-05 0.000851035216733
Te -1.9522533138 -1.4949066314 -3.6214718927 7.71331012145e-06 0.000106957900351 0.000851292327071
Te -4.7018124674 2.7145928628 -3.4225633114 4.16518746558e-05 -2.39112613765e-05 0.0009780477234
Te 1.9158764962 -1.1061283184 -3.2566616574 3.31672335222e-05 -1.90261649662e-05 0.00104772462483
Te -0.4819895709 2.6649934902 -10.1076137736 -5.75927155735e-05 0.000115956762159 -0.00172212503978
Te -2.5489467258 -0.9150778777 -10.1076137736 -0.000129326499703 -7.97042045883e-06 -0.00172212503978
Te -3.7029026788 2.1378717586 -10.5086296865 0.000245283261862 -0.000141667795897 -0.001693328682
Te 2.8151602237 -1.6253302606 -10.3890937936 0.000282564260782 -0.000163265064237 -0.00158071435422
Sb 0.10432829 2.3171488541 9.3049993568 -5.39931708501e-06 -0.00012958361004 -0.00248368585911
Sb -1.9545456385 -1.2489219586 9.3049993568 0.000109529003725 6.9419791093e-05 -0.00248368585911
Sb -4.021253011 2.3216714942 8.2451681355 3.16245714979e-05 -1.82548339541e-05 -0.0021679543648
Sb 2.3489455816 -1.3561609893 8.4332871638 -9.59021558433e-05 5.52787225371e-05 -0.00229496687147
Sb -0.1600901648 2.4894035758 1.9726333898 -0.000150666657706 9.51308248312e-05 0.00116316716631
Sb -2.2359317646 -1.1060561137 1.9726333898 -0.000157608636815 8.27895286369e-05 0.00116316716631
Sb -4.2351707607 2.4451770222 1.7126925793 0.000205431159568 -0.000118527865533 0.00113951301528
Sb 1.9934036592 -1.1508886671 0.8530230169 0.000235255958704 -0.000135754258138 0.0012022479376
Sb 0.0448163082 -0.0258747196 -11.3544221079 -0.00017277814672 9.97588109041e-05 -0.000952593799999
Sb -2.1816896848 -3.6065569486 -11.0461483562 -0.000308018184183 0.000177920353468 -0.0018949031865
Sb -3.93570227 0.604340101 -13.1167110735 8.3560859649e-05 -8.48464113359e-05 -0.00014629578197
Sb -2.4912247726 3.1062480414 -13.1167110735 0.000115442541484 -2.98247991363e-05 -0.00014629578197
Sb 0.0733498958 -0.0423486018 11.5615671838 7.89328735762e-05 -4.55085297165e-05 -0.000713995406909
Sb -1.991814819 -3.7161813272 11.9843748794 -5.16791778137e-05 2.98247991363e-05 -0.000278193385047
Sb 4.226770023 -0.0076489911 12.7842003151 -0.000103615465965 -0.000137811140837 0.000798070487233
Sb 2.120009201 -3.6566622653 12.7842003151 6.76200187314e-05 0.000158637078164 0.00079832759757
Sb 2.0115531497 1.2496973352 -1.5956473886 4.70511917408e-05 -0.000230113751957 0.00116805226272
Sb -0.0764930175 -2.3669012989 -1.5956473886 0.000222657552172 7.43048875033e-05 0.00116805226272
Sb -2.1818857084 1.25971236 -2.5560143733 5.29647295006e-05 -3.05961301484e-05 0.00122744475066
Sb 4.2530839756 -2.4555157476 -1.9953170621 -0.000230627972631 0.000133183154764 0.00139919445603
Sb 2.0761828639 1.0613841809 -9.3484304571 -0.000140639354548 -0.00014038224421 -0.00165630479341
Sb 0.1189057404 -2.3287157247 -9.3484304571 5.11649571389e-05 0.000192061422024 -0.00165630479341
Sb -2.0016915253 1.1556771529 -7.891364824 0.000199003401133 -0.00011492832081 -0.00123901471584
Sb 4.1976663254 -2.4235203374 -7.8858186408 0 -0 -0.00127706704577
Cr -2.2309045493 -3.5781423156 17.4160466533 -0.000250168358272 0.000144496009608 0.00032010237004
61
Lattice="8.42843558953 0 0 -4.21421779477 7.29923593142 0 0 0 31.0334408416" Properties=species:S:1:pos:R:3:forces:R:3 energy=-133601.235835 ionic_step=80 pbc="T T T"
Te 2.0863940787 0.7965381575 2.9416841858 -2.03117166531e-05 -8.74175147098e-05 0.000673886194277
Te 0.3533746227 -2.2051358843 2.9416841858 6.53060256949e-05 6.14493706342e-05 0.000673886194277
Te -2.3337739576 1.3474051212 3.5515915626 4.70511917408e-05 -2.69965854251e-05 0.000524762198596
Te 3.6222137747 -2.0912824974 3.0077539745 -7.43048875033e-05 4.29374263427e-05 0.000609094389257
Te -0.1711776121 0.0988294865 7.4742430098 -0.000103872576302 5.99067086099e-05 -0.000120584748232
Te -2.3491443594 -3.5098769227 7.5081718825 -1.02844134953e-06 5.14220674763e-07 -2.54539234008e-05
Te -3.6570794767 -0.3879989548 7.1604839287 0.000148095554332 2.21114890148e-05 -0.000142953347584
Te -1.4925229752 3.3611230396 7.1604839287 5.47645018623e-05 -0.000139353802861 -0.000142953347584
Te -0.5028992622 0.2903491597 -0.1817807032 -9.41023834817e-05 5.42502811875e-05 0.00150743790807
Te -2.3139365029 -3.5302041969 0.1028227454 -7.55904391902e-05 4.37087573549e-05 0.00124929912934
Te -3.9227583693 0.1077790856 -0.2996332732 3.59954472334e-06 -4.85938537651e-05 0.00137862562904
Te 2.1594991948 -3.9559171345 -0.2996332732 4.39658676923e-05 2.13401580027e-05 0.00137862562904
Te 0.3103920769 2.000709888 13.5569908543 9.69305971929e-05 0.000169178601997 -0.000855663202806
Te -1.5774696944 -1.269159033 13.5569908543 -9.79590385424e-05 -0.000168407270985 -0.000855663202806
Te -4.4905238467 2.5926052638 14.0969685357 -0.000164293505587 9.48737144938e-05 -0.000774159225856
Te 1.6831278014 -0.9717507325 13.7871930247 4.29374263427e-05 -2.4939702726e-05 -0.0008150397695
Te 1.7595337472 1.1751863578 -13.5125377072 8.150397695e-05 0.000624006788825 -0.000481824772253
Te -0.1379743246 -2.1113905468 -13.5125377072 -0.000499565385533 -0.000382580182024 -0.000481824772253
Te -1.2214847745 0.7052243926 -13.801038888 -2.05688269905e-05 1.18270755196e-05 -0.000513192233414
Te 4.3275538793 -2.4985109865 -14.6716531083 0.000495965840809 -0.000286420915843 -0.000406234333063
Te 2.6533525265 1.0127918726 10.4154618708 -0.000115185431147 0.000268166081889 -0.000604723513522
Te 0.449572723 -2.8042633893 10.4154618708 -0.000289763350229 -3.44527852091e-05 -0.000604723513522
Te -2.4344776006 1.4055464237 10.6474238605 8.56177423481e-05 -4.93651847773e-05 -0.000725051151416
Te 4.0146670056 -2.3178655816 10.7636263437 0.000281021598758 -0.000162236622888 -0.000614750816679
Te 0.6098442649 -0.3520939147 -7.3163909007 1.18270755196e-05 -6.9419791093e-06 -0.000507535805991
Te -1.584716043 -3.9512200186 -7.5862696142 0.000219572228124 -0.000126755396329 -0.000686741711146
Te 3.831426279 0.3249351408 -7.122713111 -1.85119442915e-05 0.000307503963508 -0.000477711006855
Te 1.6343111456 -3.4805764461 -7.122713111 -0.000275622281673 -0.000137811140837 -0.000477711006855
Te 0.3181741291 2.4345916731 -3.6245259036 -3.41956748718e-05 -1.43981788934e-05 0.00108886227881
Te -1.9493311382 -1.4928393835 -3.6245259036 -4.62798607287e-06 3.67667782456e-05 0.00108886227881
Te -4.706155567 2.7171003537 -3.4207765948 0.000149381106019 -8.61319630228e-05 0.00116111028362
Te 1.9121191913 -1.1039590364 -3.2625370566 3.75381092577e-05 -2.15972683401e-05 0.00120970413738
Te -0.4821819864 2.667228477 -10.1061189589 4.49943090418e-05 -0.000110300334737 -0.00090142884286
Te -2.5509784881 -0.9160287343 -10.1061189589 0.000118013644858 1.6197951255e-05 -0.00090142884286
Te -3.7017832118 2.1372254337 -10.5093500021 -0.000203888497544 0.000117756534521 -0.000568728066288
Te 2.8126743166 -1.6238950208 -10.3893747719 -6.9419791093e-05 4.01092126315e-05 -0.000802441362968
Sb 0.1038262333 2.3158626912 9.3062527735 9.0245728421e-05 -1.69692822672e-05 -0.000465369710661
Sb -1.9536828176 -1.2478440831 9.3062527735 5.99067086099e-05 -6.96769014304e-05 -0.000465369710661
Sb -4.0192245044 2.3205003349 8.2494877866 -2.31399303643e-05 1.33697375438e-05 -0.000351726941538
Sb 2.3475377345 -1.355348168 8.436554534 -4.52514193792e-05 2.62252544129e-05 -0.000446857766369
Sb -0.1616382577 2.4923452304 1.9707260648 -0.000100787252254 -1.20841858569e-05 0.000930225200647
Sb -2.2392533575 -1.1061862525 1.9707260648 -3.98521022942e-05 9.30739421321e-05 0.000930225200647
Sb -4.2365010147 2.445945045 1.7049139758 7.91899839135e-05 -4.57656400539e-05 0.000992960122968
Sb 1.9908604615 -1.1494203506 0.8508943748 5.06507364642e-05 -2.93105784615e-05 0.00117345157981
Sb 0.0437358396 -0.0252509105 -11.3518799525 -6.29920326585e-05 3.62525575708e-05 -0.000419346960269
Sb -2.1828206417 -3.60590399 -11.0417197051 0.000172521036383 -9.95017005667e-05 -0.000868261609338
Sb -3.9336440136 0.6030329571 -13.1153851795 1.15699651822e-05 7.68759908771e-05 -0.000354555155249
Sb -2.4890636251 3.1051191102 -13.1153851795 -6.06780396221e-05 -4.85938537651e-05 -0.000354555155249
Sb 0.0762712425 -0.0440352429 11.564047577 -3.93378816194e-05 2.26257096896e-05 -0.000779815653278
Sb -1.9905987945 -3.7168833996 11.9897171503 -3.29101231848e-05 1.90261649662e-05 -0.000832523272442
Sb 4.2271705408 -0.0098506376 12.7858377673 3.05961301484e-05 -5.37360605128e-05 -0.000766445915735
Sb 2.1221161407 -3.6559083008 12.7858377673 6.1963591309e-05 2.57110337382e-07 -0.000766445915735
Sb 2.0090754667 1.2472232873 -1.595860875 0.000107472121026 -1.079863417e-05 0.00158765633333
Sb -0.0755892717 -2.3635185376 -1.595860875 6.29920326585e-05 -8.76746250471e-05 0.00158765633333
Sb -2.1837311696 1.260777838 -2.5607651534 -0.000155808864453 8.99886180836e-05 0.00155448909981
Sb 4.2528745123 -2.4553948138 -2.0039415422 -7.86757632388e-05 4.52514193792e-05 0.00173472344631
Sb 2.0746906506 1.0625295779 -9.3488490304 0.000158637078164 0.000266880530202 -0.000818125093548
Sb 0.1171676913 -2.3279961279 -9.3488490304 -0.000151695099055 -0.000270737185263 -0.000818125093548
Sb -2.0021809377 1.1559597154 -7.8908859699 -0.000169178601997 9.7701928205e-05 -0.000717594951632
Sb 4.1987555145 -2.4241491813 -7.8880038122 0.000123412961943 -7.12195634547e-05 -0.000581069362482
Cr -2.2271974829 -3.5802825923 17.4185790642 -1.079863417e-05 6.17064809716e-06 -0.000409319657112
61
Lattice="8.42843558953 0 0 -4.21421779477 7.29923593142 0 0 0 31.0334408416" Properties=species:S:1:pos:R:3:forces:R:3 energy=-133601.237227 ionic_step=81 pbc="T T T"
Te 2.086494837 0.7999221313 2.9384679895 0.000167121719298 0.000286163805506 0.000115185431147
Te 0.350494396 -2.2069151304 2.9384679895 -0.000164293505587 -0.000287963577867 0.000115185431147
Te -2.3400490878 1.351028071 3.5465005394 -0.00013652558915 7.89328735762e-05 0.000573356052361
Te 3.6189246013 -2.0893834914 3.0070254468 0.000331158114548 -0.000191290091012 0.000355840706936
Te -0.1709861138 0.0987189249 7.4750007932 0.000384122844048 -0.000221629110823 0.000952850910336
Te -2.3445096559 -3.5125527712 7.5120256469 -7.99613149257e-05 4.60227503913e-05 0.000968020420242
Te -3.6583796045 -0.3898871495 7.1619422736 -0.000549701901322 -0.000378466416626 0.0013611421261
Te -1.4915378153 3.3631930813 7.1619422736 5.29647295006e-05 0.000665401553144 0.0013611421261
Te -0.5075732 0.2930476602 -0.1831927699 4.29374263427e-05 -2.46825923886e-05 -0.000943080717516
Te -2.3177160753 -3.5280220587 0.098933652 0.00026610919919 -0.000153751981754 -0.000499565385533
Te -3.9239843586 0.1054372416 -0.3041294569 0.000220857779811 0.000339128535006 -0.000302618867098
Te 2.1609142956 -3.9536844742 -0.3041294569 -0.000183319670553 -0.000360725803346 -0.000302618867098
Te 0.3103716466 1.9997461581 13.559609682 -6.04209292847e-05 -0.00017483502942 -0.00296499641068
Te -1.5766452954 -1.2686594748 13.559609682 0.000121098968907 0.000139610913198 -0.00296499641068
Te -4.4875800995 2.5909056898 14.1003650267 0.000374352651228 -0.000216229793738 -0.00239806811676
Te 1.682696538 -0.9715017424 13.7910999419 7.53333288528e-05 -4.34516470175e-05 -0.00253433659557
Te 1.7609500207 1.171585763 -13.5097813279 -5.01365157894e-05 -0.00251659598229 0.00125804088081
Te -0.1341479828 -2.1108167788 -13.5097813279 0.00215432751692 0.00130174963816 0.00125804088081
Te -1.2182408298 0.7033514994 -13.8019820211 0.000158894188502 -9.17883904452e-05 0.00119453462748
Te 4.33780775 -2.5044310643 -14.674329169 -0.00194092593689 0.00112074396065 -0.000469740586396
Te 2.6534953488 1.0129435381 10.4188812407 0.000247854365236 -0.000329872562861 -0.00246157437009
Te 0.449512788 -2.8044629099 10.4188812407 0.000409833877786 -4.9879405452e-05 -0.00246157437009
Te -2.4331248252 1.4047653981 10.6506355491 -0.000475397013819 0.000274336729986 -0.00254564945042
Te 4.0164063446 -2.3188697899 10.7654739322 -0.000351469831201 0.000202860056194 -0.00318456863881
Te 0.6088977966 -0.3515474707 -7.3183776223 -0.000299019322375 0.000172521036383 0.000740991992334
Te -1.5841012821 -3.9515749512 -7.5838374926 -0.000538903267152 0.000311103508232 0.000948994255276
Te 3.8315656836 0.3242118827 -7.122257536 0.00042320361533 -0.00101327183962 0.00101018651557
Te 1.6350072075 -3.480335545 -7.122257536 0.00108911938915 0.000140125133873 0.00101018651557
Te 0.317682335 2.4304144379 -3.6277846696 -0.000177406132793 -2.26257096896e-05 0.00212655960048
Te -1.9459594452 -1.4903248595 -3.6277846696 -6.91626807557e-05 0.000165064836599 0.00212655960048
Te -4.7106729708 2.7197084792 -3.4191245217 -6.78771290688e-05 3.9080771282e-05 0.00208825016021
Te 1.9083863029 -1.1018038513 -3.2688208724 -0.000263023875141 0.000151952209393 0.00175323539061
Te -0.4831630306 2.6689089947 -10.1047355004 -0.000598809975762 -0.000293362894952 0.000121870299919
Te -2.5529243804 -0.9160193835 -10.1047355004 -4.55085297165e-05 0.000665144442806 0.000121870299919
Te -3.7006280631 2.136558508 -10.509803117 0.00064714671919 -0.000373581320216 -0.000581840693495
Te 2.8104811278 -1.622628782 -10.388935162 -0.000459970393576 0.000265594978515 2.18543786774e-05
Sb 0.1042943914 2.314609633 9.3079519056 0.000195918077085 0.00076593169506 -0.000834837265478
Sb -1.9523635588 -1.2476229909 9.3079519056 -0.000565385631902 -0.000552530115033 -0.000834837265478
Sb -4.0167600399 2.319077475 8.2532564297 -0.000284878253819 0.000164550615924 0.000295676887989
Sb 2.3465492509 -1.3547774665 8.4399441011 0.000562557418191 -0.000324730356113 0.00041240498116
Sb -0.163296763 2.4956470921 1.9684282417 0.000138582471849 8.58748526855e-05 -0.0007049965451
Sb -2.2429421049 -1.106400875 1.9684282417 -5.14220674763e-06 -0.000162750843563 -0.0007049965451
Sb -4.2379882695 2.4468037124 1.6960093379 -0.000117756534521 6.81342394061e-05 -0.000796013604534
Sb 1.9876869833 -1.1475881412 0.8485704473 -0.0001630079539 9.41023834817e-05 -0.000871604043724
Sb 0.0414301357 -0.0239197111 -11.3491379025 0.000524762198596 -0.000302875977436 0.000354298044912
Sb -2.1842567653 -3.6050748433 -11.0384103626 0.000212630249015 -0.000122898741268 0.00149432528086
Sb -3.9309044512 0.601443505 -13.1150978559 -0.000206716711255 0.00039672125058 0.00114439811169
Sb -2.4863173387 3.1035413045 -13.1150978559 -0.000446857766369 -1.92832753036e-05 0.00114439811169
Sb 0.0791628357 -0.0457047058 11.5666235187 0.000252482351309 -0.000145781561295 -0.00320539457614
Sb -1.9901738307 -3.7171287527 11.9955173636 0.000134982927125 -7.79044322266e-05 -0.00370418863066
Sb 4.2276513247 -0.0120880636 12.7875834877 -0.000145267340621 0.000220086448799 -0.00358128988939
Sb 2.1242941995 -3.6552059591 12.7875834877 -0.000263280985479 1.56837305803e-05 -0.00358128988939
Sb 2.0063860491 1.244996341 -1.5962611189 -0.000377180864939 0.00022291466251 0.000571813390337
Sb -0.0750053893 -2.3600759594 -1.5962611189 -0.000381551740674 0.000215201352388 0.000571813390337
Sb -2.1861479737 1.2621731812 -2.5644375666 0.000464341269311 -0.000268166081889 0.00113462791887
Sb 4.2529844164 -2.455458267 -2.0137289123 0.000498022723508 -0.000287449357193 0.000508821357678
Sb 2.0737246428 1.0633236758 -9.3493656687 -0.000518591550499 -0.00125906932216 -0.000853863430444
Sb 0.1159969787 -2.3275565892 -9.3493656687 0.000831237720755 0.00107857786532 -0.000853863430444
Sb -2.0028301519 1.1563345395 -7.8901561238 0.000536589274115 -0.000309817956545 0.000488252530688
Sb 4.1994373196 -2.4245428218 -7.8893131273 -0.000641490291767 0.00037023888583 0.000316759935654
Cr -2.2219590889 -3.5833069819 17.4209500837 0.000664630222132 -0.000383608623373 0.00104361085943
61
Lattice="8.42843558953 0 0 -4.21421779477 7.29923593142 0 0 0 31.0334408416" Properties=species:S:1:pos:R:3:forces:R:3 energy=-133601.238998 ionic_step=82 pbc="T T T"
Te 2.0864361695 0.8047008287 2.932790377 -6.01638189473e-05 -0.000134982927125 0.00184759488442
Te 0.3463265908 -2.2092536716 2.932790377 8.63890733602e-05 0.000120070527557 0.00184733777409
Te -2.3491726988 1.3562955927 3.5388780578 0.000114156989797 -6.63344670445e-05 0.00159948340885
Te 3.6135017276 -2.0862525923 3.0051789418 -0.000129069389366 7.45619978407e-05 0.00176480535579
Te -0.1699420041 0.0981161075 7.4762149607 -1.77406132793e-05 1.00273031579e-05 0.000921740559513
Te -2.3383298383 -3.5161206923 7.5178309407 0.000197974959784 -0.000114414100135 0.000917883904452
Te -3.6601030521 -0.3929667884 7.1645773976 0.000156837305803 0.000215201352388 0.000831494831092
Te -1.4897324948 3.3662254508 7.1645773976 -0.000108243452038 -0.000243226379163 0.00083175194143
Te -0.5142041718 0.2968760554 -0.1852177808 -9.43594938191e-05 5.42502811875e-05 0.00255156298818
Te -2.3234798828 -3.5246943213 0.0933028964 -6.11922602968e-05 3.5738336896e-05 0.00227156983077
Te -3.9262838095 0.1020492998 -0.3105998866 3.72809989203e-05 -2.4939702726e-05 0.00238984058596
Te 2.1626986125 -3.9499991194 -0.3105998866 4.01092126315e-05 -1.97974959784e-05 0.00238984058596
Te 0.3102415079 1.998291835 13.5638441111 6.24778119837e-05 3.31672335222e-05 -0.000478482337867
Te -1.5754508846 -1.2678196098 13.5638441111 2.57110337382e-06 -7.07053427799e-05 -0.000478996558542
Te -4.4841580781 2.5889299839 14.1060710666 -0.000109271893387 6.29920326585e-05 -0.000422946504993
Te 1.6820104395 -0.971105623 13.7964311426 -3.05961301484e-05 1.77406132793e-05 -0.000479767889554
Te 1.7635125509 1.1666535604 -13.5049046537 2.62252544129e-05 0.000441972669959 -0.00146398626105
Te -0.1285953069 -2.1105698948 -13.5049046537 -0.00036921044448 -0.000243740599838 -0.00146372915071
Te -1.2133958556 0.7005542509 -13.8023721436 1.77406132793e-05 -9.51308248312e-06 -0.0013467439472
Te 4.3531569143 -2.5132929126 -14.6785016254 0.000365610899757 -0.000211601807665 -0.000715538068933
Te 2.6538646529 1.0131895146 10.4236044707 -0.000131640492739 0.000251711020297 -0.000336300321295
Te 0.4494844183 -2.804905725 10.4236044707 -0.000283592702132 -1.15699651822e-05 -0.00033578610062
Te -2.4313315353 1.4037300412 10.6553783541 6.45346946828e-05 -3.72809989203e-05 -0.000452257083454
Te 4.0190336606 -2.3203866722 10.7685078258 0.000153237761079 -8.87030663967e-05 -0.000286420915843
Te 0.6078767415 -0.350957964 -7.3220119547 0.000169435712334 -9.7701928205e-05 -0.00177354710726
Te -1.5841938227 -3.9515215228 -7.5796295079 0.000203117166531 -0.000117499424183 -0.00213504424162
Te 3.8320625865 0.3234081855 -7.1213627153 -9.230261112e-05 0.000153237761079 -0.00159588386413
Te 1.6359516809 -3.4803640272 -7.1213627153 -0.00017869168448 3.34243438596e-06 -0.00159562675379
Te 0.3168429074 2.4237250871 -3.6325212523 -8.25324182995e-05 -2.21114890148e-05 0.00155294643779
Te -1.9405860139 -1.4862532182 -3.6325212523 -2.18543786774e-05 8.20181976247e-05 0.00155346065846
Te -4.7174537028 2.7236233384 -3.416618694 0.000184091001565 -0.000105929459001 0.00165887589679
Te 1.903085889 -1.0987436545 -3.2776912464 3.72809989203e-05 -2.15972683401e-05 0.00175632071465
Te -0.4852900682 2.6709764476 -10.1031188645 6.37633636706e-05 -4.19089849932e-05 -0.00371241616145
Te -2.5557783651 -0.9152110405 -10.1031188645 6.81342394061e-05 -3.41956748718e-05 -0.00371215905112
Te -3.6992646191 2.1357713228 -10.5102177927 -0.000243226379163 0.000140125133873 -0.00332263688998
Te 2.8077697264 -1.6210633529 -10.3875059794 -0.000212630249015 0.000122898741268 -0.00347278932701
Sb 0.1058093163 2.3128783503 9.3106933049 7.94470942509e-05 -0.00033090100421 3.85665506072e-06
Sb -1.9501067623 -1.2480693136 9.3106933049 0.0003260159078 9.64163765181e-05 3.59954472334e-06
Sb -4.0126039073 2.3166779296 8.25781762 -2.33970407017e-05 1.36268478812e-05 0.000478739448205
Sb 2.3456619829 -1.3542652018 8.4453536997 -0.000297990881025 0.000172006815708 0.000239369724102
Sb -0.1659868757 2.5006405784 1.9649940109 -0.000212630249015 -0.000169178601997 0.0020365709824
Sb -2.2486116452 -1.1065679111 1.9649940109 4.03663229689e-05 0.000268423192226 0.00203682809274
Sb -4.2402340989 2.4481003432 1.6821941994 0.00016789305031 -9.61592661807e-05 0.00215946972367
Sb 1.9825073629 -1.1445976846 0.8442071581 -1.51695099055e-05 8.22753079621e-06 0.00215535595827
Sb 0.0371207441 -0.0214316815 -11.3449735827 9.0245728421e-05 -5.21933984885e-05 -0.00274131041716
Sb -2.1863383643 -3.603873031 -11.0354475758 0.000158637078164 -9.17883904452e-05 -0.00323624781662
Sb -3.9265703259 0.5988298077 -13.1156328296 -1.4141068556e-05 5.19362881511e-05 -0.0017105550746
Sb -2.4818867488 3.1010946888 -13.1156328296 -5.21933984885e-05 -1.38839582186e-05 -0.00171029796426
Sb 0.0829659249 -0.0479004214 11.5705705732 -2.18543786774e-05 1.23412961943e-05 -0.000511135350715
Sb -1.9901437006 -3.7171461483 12.0042954862 0.00013061205139 -7.55904391902e-05 -0.000468197924372
Sb 4.2283717167 -0.0149095137 12.7902749552 1.87690546289e-05 0.000114414100135 -0.000391579043832
Sb 2.1270978418 -3.6544191121 12.7902749552 -8.94743974088e-05 -7.37906668285e-05 -0.00039183615417
Sb 2.0022724214 1.2419888149 -1.5966501232 8.12468666126e-05 -8.8960176734e-05 0.00242352204016
Sb -0.0744576104 -2.3550096886 -1.5966501232 0.000117756534521 -2.62252544129e-05 0.00242352204016
Sb -2.1901726018 1.2644968023 -2.5688258093 -0.000132411823752 7.66188805397e-05 0.00229059599573
Sb 4.2536127443 -2.4558210325 -2.0286443762 -0.000133954485776 7.73902115519e-05 0.00251556754094
Sb 2.0730409105 1.0647226768 -9.3501455355 0.000144496009608 1.46552892308e-05 -0.00337251629543
Sb 0.1144435427 -2.3276639598 -9.3501455355 5.91353775978e-05 -0.000132154713414 -0.00337251629543
Sb -2.0037939312 1.156890978 -7.8891915176 -0.000162750843563 9.35881628069e-05 -0.00229573820248
Sb 4.2000763961 -2.424911793 -7.890122846 -2.67394750877e-05 1.56837305803e-05 -0.00221474844621
Cr -2.2123671983 -3.5888448651 17.4243024158 -3.80523299325e-05 2.15972683401e-05 -0.00136217056745
61
Lattice="8.42843558953 0 0 -4.21421779477 7.29923593142 0 0 0 31.0334408416" Properties=species:S:1:pos:R:3:forces:R:3 energy=-133601.240673 ionic_step=83 pbc="T T T"
Te 2.0861900501 0.8118361679 2.9245191043 1.51695099055e-05 -0.000117756534521 0.0025338223749
Te 0.340024149 -2.2126081955 2.9245191043 0.000109529003725 4.57656400539e-05 0.0025338223749
Te -2.3617975723 1.3635845703 3.5274714167 7.6104659865e-05 -4.39658676923e-05 0.00220292137069
Te 3.606246249 -2.0820636379 3.0022950065 -0.00020723093193 0.00011981341722 0.0024471761912
Te -0.1679563407 0.0969696837 7.4774829743 -7.25051151416e-05 4.19089849932e-05 0.00207796574672
Te -2.3305053248 -3.5206381793 7.5259523658 0.000376666644264 -0.000217515345425 0.00202680078958
Te -3.6622658278 -0.3973056737 7.1685171145 0.000212630249015 0.000388493719784 0.00186276439433
Te -1.4870562995 3.370267913 7.1685171145 -0.000230370862294 -0.000378209306288 0.00186276439433
Te -0.5222549659 0.3015241857 -0.1879451771 -0.000223171772847 0.000128812279028 0.00348333085085
Te -2.3320256378 -3.5197604251 0.0847319839 -6.17064809716e-06 3.59954472334e-06 0.00312646170256
Te -3.930583621 0.0971416766 -0.3193237409 -5.91353775978e-06 3.62525575708e-05 0.00329126942882
Te 2.164798831 -3.9438215602 -0.3193237409 -3.44527852091e-05 -1.31126272065e-05 0.00329126942882
Te 0.3103661303 1.9968195129 13.5704273326 8.51035216733e-05 -0.000121356079244 -0.000348127396815
Te -1.5741135056 -1.267191375 13.5704273326 0.000147838443994 -1.28555168691e-05 -0.000347870286477
Te -4.4799996201 2.5865290959 14.1140479866 -0.000143981788934 8.30466389743e-05 -0.00051550622645
Te 1.6814807714 -0.9707998189 13.8041640982 -0.000237055731066 0.000136782699487 -0.000367153561781
Te 1.7679615408 1.1602058961 -13.4972684813 -0.000115185431147 0.000127783837679 -0.00235127403536
Te -0.1207869735 -2.1111990028 -13.4972684813 -0.000168150160648 3.5738336896e-05 -0.00235127403536
Te -1.2067961444 0.6967439041 -13.8020671369 0.000105929459001 -6.11922602968e-05 -0.0022078064671
Te 4.3741918702 -2.5254374557 -14.6829746282 0.000144496009608 -8.3560859649e-05 -0.00144907386148
Te 2.6543749999 1.0134289175 10.4298386869 -0.000175606360432 0.000425260498029 0.000521162653873
Te 0.4495322628 -2.8054674001 10.4298386869 -0.000455856628178 -6.04209292847e-05 0.000521162653873
Te -2.4290590163 1.4024180011 10.6620284061 0.000168407270985 -9.71877075303e-05 0.000299276432712
Te 4.0227101163 -2.3225092759 10.7726759692 0.00026019566143 -0.000150152437031 0.000499051164858
Te 0.6066541551 -0.350252103 -7.3275329606 0.000282307150445 -0.0001630079539 -0.00322519207212
Te -1.584633004 -3.9512679612 -7.5732736964 0.000329101231848 -0.000190004539325 -0.00389650716302
Te 3.8329712856 0.3220330492 -7.1199224388 -9.95017005667e-05 0.000353783824237 -0.00296473930035
Te 1.6375969329 -3.4804634159 -7.1199224388 -0.000356097817274 -9.07599490957e-05 -0.00296473930035
Te 0.3148592622 2.4138754368 -3.6389960559 -9.28168317948e-05 -5.68213845613e-05 0.00204428429252
Te -1.9330477931 -1.4796105051 -3.6389960559 3.08532404858e-06 0.000108757672712 0.00204428429252
Te -4.7262259499 2.728688 -3.4132600495 0.000204402718218 -0.000118013644858 0.00225151522445
Te 1.8955403619 -1.0943872403 -3.2904597112 9.230261112e-05 -5.3221839838e-05 0.00242197937813
Te -0.4887514086 2.6734345694 -10.1016360249 0.000173292367395 -6.06780396221e-05 -0.00612179713306
Te -2.5596378303 -0.9134424913 -10.1016360249 0.000139096692523 -0.000119556306882 -0.00612179713306
Te -3.6983473478 2.1352417357 -10.5097090536 -0.000431431146126 0.000249139916923 -0.00535432277597
Te 2.8046397444 -1.6192562562 -10.3852776263 -0.000325758797463 0.000188204766963 -0.00572173344809
Sb 0.1085047209 2.3105673681 9.3141873183 3.59954472334e-05 -0.000544559694574 0.00104078264572
Sb -1.9467576916 -1.2492481125 9.3141873183 0.000489538082375 0.000241169496464 0.00104078264572
Sb -4.0062174472 2.3129907034 8.2632028115 -3.80523299325e-05 2.21114890148e-05 0.00152929228675
Sb 2.3447198564 -1.3537212646 8.4531275461 -0.000440687118272 0.00025428212367 0.00124184292955
Sb -0.1699554244 2.5075800823 1.9600924832 -0.000283078481457 -0.000234227517355 0.00273668243109
Sb -2.2566057035 -1.1066007975 1.9600924832 6.14493706342e-05 0.000362268465371 0.00273668243109
Sb -4.2436937307 2.4500977635 1.6615913327 0.000293362894952 -0.000169435712334 0.00294339914234
Sb 1.9749399152 -1.1402286145 0.8388029961 0.000108243452038 -6.24778119837e-05 0.00284826831751
Sb 0.0302613256 -0.0174713926 -11.3392259953 0.000155294643779 -8.97315077462e-05 -0.00449711691114
Sb -2.1888170185 -3.6024419787 -11.033373564 0.000336043210958 -0.000194118304723 -0.00453388368939
Sb -3.9203424859 0.5951200993 -13.1165477658 4.7822522753e-05 4.88509641025e-05 -0.0026631488746
Sb -2.4755601286 3.0975560728 -13.1165477658 -1.82548339541e-05 -6.58202463697e-05 -0.0026631488746
Sb 0.0874614954 -0.0504959415 11.5769157225 -0.000131640492739 7.6104659865e-05 -1.20841858569e-05
Sb -1.9905274423 -3.7169245948 12.0164263278 0.000216486904075 -0.000125212734305 -4.93651847773e-05
Sb 4.229263891 -0.0184097057 12.7940609218 5.45073915249e-05 0.00027202273695 -9.07599490957e-05
Sb 2.1305751828 -3.6534416621 12.7940609218 -0.000208516483617 -0.000183319670553 -9.07599490957e-05
Sb 1.9964516897 1.2380352135 -1.5976048016 0.000254796344345 -0.000143467568259 0.00346173358251
Sb -0.0739440586 -2.3479919841 -1.5976048016 0.000251453909959 -0.000148866885344 0.00346173358251
Sb -2.1961597235 1.2679534703 -2.5730993515 -0.000131897603077 7.6104659865e-05 0.0033426914963
Sb 4.254563707 -2.4563700713 -2.0504501739 -0.000292334453603 0.00016892149166 0.00364505325306
Sb 2.0729147118 1.0668815079 -9.3509604245 0.000315474383967 0.000210316255978 -0.00574384493711
Sb 0.1125108417 -2.328634084 -9.3509604245 -2.44254820513e-05 -0.000378466416626 -0.00574384493711
Sb -2.0051452893 1.1576711854 -7.888266503 -0.000367153561781 0.000211858918002 -0.00416544457592
Sb 4.2010622141 -2.4254809555 -7.8906667675 4.67940814035e-05 -2.69965854251e-05 -0.00394124436172
Cr -2.1969802312 -3.5977285388 17.4291474351 3.34243438596e-06 -2.05688269905e-06 -0.00217926721965
61
Lattice="8.42843558953 0 0 -4.21421779477 7.29923593142 0 0 0 31.0334408416" Properties=species:S:1:pos:R:3:forces:R:3 energy=-133601.241633 ionic_step=84 pbc="T T T"
Te 2.0861666941 0.8126225339 2.9210607154 8.61319630228e-05 -6.11922602968e-05 0.00140125133873
Te 0.3393314584 -2.2129811515 2.9210607154 9.66734868555e-05 -4.37087573549e-05 0.00140253689042
Te -2.3651407824 1.3655147744 3.5241324788 -3.85665506072e-06 2.05688269905e-06 0.00170618419886
Te 3.604470044 -2.0810381449 3.0002126917 9.35881628069e-05 -5.45073915249e-05 0.00150949479077
Te -0.1667920285 0.0962974675 7.4766490541 0.00011981341722 -6.9419791093e-05 -0.000447629097381
Te -2.3290913445 -3.5214545416 7.5271761351 -6.81342394061e-05 3.93378816194e-05 -0.00045662795919
Te -3.6631379958 -0.3977626786 7.1694500372 -0.000175349250094 -2.62252544129e-05 4.34516470175e-05
Te -1.4870966059 3.3712517355 7.1694500372 -6.53060256949e-05 0.000165064836599 4.31945366801e-05
Te -0.523383854 0.3021759499 -0.1889212404 -1.46552892308e-05 8.48464113359e-06 0.000825324182995
Te -2.3349446788 -3.5180751152 0.0827280125 3.5738336896e-05 -2.08259373279e-05 0.000939224062455
Te -3.9317364603 0.0964902404 -0.3214455651 0.000175606360432 0.000125212734305 0.00125212734305
Te 2.1647865714 -3.9424974534 -0.3214455651 -2.03117166531e-05 -0.000214687131714 0.00125264156372
Te 0.3111994726 1.9973418771 13.5732965609 0.000237312841403 0.000153237761079 -0.00348050263714
Te -1.5741492149 -1.268174253 13.5732965609 -1.4141068556e-05 -0.00028179292977 -0.00348101685781
Te -4.4782260561 2.5855051277 14.1161778485 1.82548339541e-05 -1.05415238326e-05 -0.00254924899514
Te 1.6819212469 -0.9710541276 13.8068313641 0.00031033217722 -0.000179205905155 -0.00321670743098
Te 1.7691056037 1.159800991 -13.4956007106 0.000550216121997 0.000324730356113 0.000676714407988
Te -0.119864284 -2.1119873382 -13.4956007106 -5.6564274224e-06 -0.000638919188393 0.000676457297651
Te -1.2062387099 0.696422069 -13.8024270465 -4.47371987044e-05 2.64823647503e-05 0.000656145580998
Te 4.3759031906 -2.5264254874 -14.680360606 0.000343242300404 -0.000198232070121 0.000205174049231
Te 2.6540549179 1.0131843319 10.4313417923 0.000231913524318 -7.53333288528e-05 -0.00440378585867
Te 0.4495840391 -2.8050679081 10.4313417923 0.000181262787854 -0.000163265064237 -0.00440378585867
Te -2.4282852154 1.4019712467 10.6641679536 -0.000528361743319 0.000305189970472 -0.00470666183611
Te 4.0241125261 -2.3233189579 10.7732973742 -0.000295933998326 0.000170978374359 -0.00478816581306
Te 0.6068612036 -0.3503716426 -7.3281634234 -9.48737144938e-05 5.50216121997e-05 0.00100067343309
Te -1.5831440633 -3.9521276019 -7.5715495817 -5.01365157894e-05 2.85392474494e-05 0.000841007913575
Te 3.833869756 0.3197714501 -7.1191499983 0.000208002262942 -0.000312389059919 0.0012469851363
Te 1.6400047694 -3.480110715 -7.1191499983 0.000374866871902 -2.39112613765e-05 0.00124672802596
Te 0.3140195544 2.4119068616 -3.6395165362 -0.000348384507152 -5.78498259109e-05 0.00376666644264
Te -1.9317628117 -1.4778990089 -3.6395165362 -0.00012469851363 0.00033090100421 0.00376666644264
Te -4.7275011306 2.7294242263 -3.4121582362 0.000175606360432 -0.000101558583266 0.00371010216842
Te 1.8928893859 -1.0928566979 -3.2935149214 -7.22480048042e-05 4.19089849932e-05 0.00357434791028
Te -0.4898512345 2.6730158542 -10.1026244773 -0.000238084172415 -0.00014732422332 -0.000942309386504
Te -2.5598251254 -0.9122806561 -10.1026244773 8.48464113359e-06 0.000279478936734 -0.000942052276166
Te -3.6997772388 2.136067284 -10.5073302437 -7.94470942509e-05 4.57656400539e-05 -0.00129043678332
Te 2.8047500759 -1.6193199561 -10.385957941 -0.000422432284318 0.000243740599838 -0.00085334920977
Sb 0.1097578479 2.3101785313 9.3137174831 5.96495982725e-05 0.000258652999406 -0.00321825009301
Sb -1.9457943858 -1.2501389344 9.3137174831 -0.000194118304723 -0.000180491456842 -0.00321850720334
Sb -4.0041716108 2.3118095386 8.2645524342 5.55358328744e-05 -3.21387921727e-05 -0.00166273255185
Sb 2.3441755973 -1.3534070363 8.4551112176 0.000223171772847 -0.000128812279028 -0.00191495779282
Sb -0.171041249 2.5088442775 1.959270538 -0.000161465291876 1.9540385641e-05 0.000864919174952
Sb -2.2582434404 -1.106292543 1.959270538 -9.7701928205e-05 0.000130097830715 0.000864919174952
Sb -4.2450443634 2.450877552 1.6550436046 0.00017869168448 -0.000103358355627 0.000743820206045
Sb 1.9732113573 -1.1392306308 0.8360160163 -3.59954472334e-05 2.10830476653e-05 0.000655374249986
Sb 0.0275353541 -0.0158975514 -11.3392870214 0.000405720112388 -0.000233456186343 -0.000139096692523
Sb -2.1891136697 -3.6022707069 -11.0345352016 0.000378980637301 -0.000219315117787 -0.00112151529166
Sb -3.9194299702 0.5945974618 -13.1156473931 -0.000425260498029 0.00055381566672 0.000547645018623
Sb -2.4746512536 3.0970271293 -13.1156473931 -0.000692141028231 9.10170594331e-05 0.000547645018623
Sb 0.0879242963 -0.0507631398 11.5798735521 0.000352755382888 -0.000203374276869 -0.00493831825009
Sb -1.9909588946 -3.7166754956 12.0203272027 0.000329872562861 -0.000190775870337 -0.0048881817343
Sb 4.2295758919 -0.0194739145 12.7947621583 -0.000281021598758 0.000274850950661 -0.00446780633268
Sb 2.1316528146 -3.6531797585 12.7947621583 -0.000378723526963 0.000106443679676 -0.00446754922234
Sb 1.9952169777 1.2374134237 -1.5973485087 -0.000296705329338 5.6564274224e-06 0.00245257550828
Sb -0.0740229291 -2.3466117966 -1.5973485087 -0.000153237761079 0.000254025013333 0.00245283261862
Sb -2.1976901362 1.2688370549 -2.5728140472 0.000330129673198 -0.00019051876 0.00308815226229
Sb 4.2542339107 -2.4561796632 -2.0554999699 0.000163779284912 -9.43594938191e-05 0.00258293044934
Sb 2.0733425633 1.0663769106 -9.3505791899 -8.87030663967e-05 -0.000620664354439 -0.00118553576567
Sb 0.1131617613 -2.3287523159 -9.3505791899 0.000493394737435 0.000386693947422 -0.00118527865533
Sb -2.0055019879 1.1578771255 -7.8886962521 0.00018949031865 -0.000109271893387 0.000593924879352
Sb 4.2029160214 -2.4265512522 -7.8921149822 -0.000354555155249 0.000204659828556 0.000481824772253
Cr -2.1933044726 -3.5998507401 17.4303084019 0.00043503069085 -0.000251968130634 0.000594439100026
61
Lattice="8.42843558953 0 0 -4.21421779477 7.29923593142 0 0 0 31.0334408416" Properties=species:S:1:pos:R:3:forces:R:3 energy=-133601.24273 ionic_step=85 pbc="T T T"
Te 2.0860694722 0.8132163096 2.9174731123 5.91353775978e-05 -9.95017005667e-05 -0.000203888497544
Te 0.3387686228 -2.2131938427 2.9174731123 0.000115956762159 -1.54266202429e-06 -0.000204145607881
Te -2.3681453427 1.3672494589 3.5208147955 2.15972683401e-05 -1.25984065317e-05 -0.000293105784615
Te 3.6026776594 -2.0800033107 2.9980303418 6.04209292847e-05 -3.47098955465e-05 -0.000214687131714
Te -0.1655346422 0.0955715148 7.4763369727 2.85392474494e-05 -1.64550615924e-05 -0.000705767876113
Te -2.3282834336 -3.5219209894 7.5280735768 -9.43594938191e-05 5.47645018623e-05 -0.000582869134844
Te -3.66336203 -0.3979194011 7.1705043064 -0.000140639354548 1.28555168691e-05 -0.000666687104831
Te -1.4870728973 3.3715241161 7.1705043064 -8.150397695e-05 0.000115185431147 -0.000666687104831
Te -0.5241505508 0.3026186027 -0.1901591804 7.07053427799e-05 -4.08805436437e-05 0.00126858240464
Te -2.3384109007 -3.5160738901 0.080214174 1.69692822672e-05 -9.51308248312e-06 0.00116111028362
Te -3.9329493185 0.0959376011 -0.3235890482 3.05961301484e-05 -3.83094402699e-05 0.00153237761079
Te 2.1646587418 -3.9411707673 -0.3235890482 4.83367434277e-05 -7.45619978407e-06 0.00153212050046
Te 0.3119171781 1.9977427114 13.5761095635 -6.65915773818e-05 0.00028770646753 -0.00351726941538
Te -1.5741374947 -1.2689962216 13.5761095635 -0.000282307150445 -8.61319630228e-05 -0.00351752652572
Te -4.4763915152 2.5844459546 14.1183769633 0.00017483502942 -0.000101044362591 -0.00332315111066
Te 1.6826525648 -0.9714763544 13.8093672718 0.000506250254304 -0.000292334453603 -0.0034568484861
Te 1.7708682397 1.159576449 -13.4941758806 0.000629148995573 -0.00024451193085 0.000531447067368
Te -0.1187885071 -2.1134015555 -13.4941758806 0.00052630486062 -0.000422689394655 0.000531447067368
Te -1.2057977286 0.6961674682 -13.8028479601 -0.000278964716059 0.000161465291876 3.59954472334e-06
Te 4.3767891946 -2.5269370223 -14.6781078071 -0.000496994282159 0.000287449357193 -0.00140356533177
Te 2.6542720089 1.0129111931 10.4329420392 0.000276393612685 -0.00018949031865 -0.000768759908771
Te 0.4499291296 -2.8051193451 10.4329420392 0.000301847536086 -0.000144496009608 -0.000768759908771
Te -2.4275387294 1.4015402626 10.6663651982 -0.000288220688205 0.000166093277949 -0.000986532364533
Te 4.0256239898 -2.3241916024 10.7742815448 -0.000183062560216 0.000105929459001 -0.000999130771065
Te 0.6074243791 -0.3506967923 -7.3281972787 -0.000452771304129 0.000261738323454 0.000620150133764
Te -1.5815836881 -3.9530284854 -7.570033301 -3.52241162213e-05 2.00546063158e-05 0.000620921464777
Te 3.8341381865 0.318004185 -7.1179558539 0.000290534681241 0.00033681454197 0.000511392461052
Te 1.6416694804 -3.4794595501 -7.1179558539 -0.00014629578197 -0.000420118291282 0.000511392461052
Te 0.313191189 2.4102023606 -3.6401991777 -9.28168317948e-05 0.000116213872496 0.00112897149144
Te -1.9307008539 -1.4763293725 -3.6401991777 -0.000147067112982 2.26257096896e-05 0.00112922860178
Te -4.7287915745 2.7301692648 -3.4115646362 -5.75927155735e-05 3.31672335222e-05 0.00117833667622
Te 1.890045129 -1.0912145647 -3.2960781977 -7.43048875033e-05 4.31945366801e-05 0.00119504884815
Te -0.4908214821 2.6722060674 -10.1038570178 -9.69305971929e-05 -0.000136782699487 0.0024726301146
Te -2.5596089536 -0.9110355032 -10.1038570178 6.96769014304e-05 0.000152466430067 0.0024726301146
Te -3.7016127946 2.1371270432 -10.5046789364 -0.000172263926046 9.92445902293e-05 0.00212013184205
Te 2.8055519023 -1.619782891 -10.3867722149 -4.88509641025e-06 2.8282137112e-06 0.00215689862029
Sb 0.1111263184 2.3100528316 9.3130453507 -8.51035216733e-05 0.000304161529122 -0.000270222964588
Sb -1.9450012914 -1.2512612153 9.3130453507 -0.000306218411822 -7.8161542564e-05 -0.000270480074925
Sb -4.0019858284 2.310547576 8.2657988184 9.30739421321e-05 -5.39931708501e-05 -0.000330129673198
Sb 2.3440674411 -1.3533445922 8.4569352385 0.000251968130634 -0.000145267340621 -0.000185890773927
Sb -0.1723950627 2.5097678671 1.9590085218 7.25051151416e-05 0.00022882820027 0.000435544911524
Sb -2.2597201989 -1.1055819002 1.9590085218 -0.00016197951255 -0.000177406132793 0.000435287801187
Sb -4.2466626045 2.4518118444 1.6478792854 -9.0245728421e-05 5.21933984885e-05 0.000569756507638
Sb 1.9715978785 -1.1382990879 0.8334424144 6.9419791093e-05 -4.01092126315e-05 0.001164452718
Sb 0.0250206677 -0.0144456959 -11.3391785891 7.53333288528e-05 -4.31945366801e-05 0.00230833660901
Sb -2.1883447732 -3.6027146297 -11.0359232023 0.000437344683886 -0.000252482351309 0.00255644808459
Sb -3.9186865827 0.5942012995 -13.115040776 -0.000317017045992 0.000392607485182 0.00104515352146
Sb -2.4739364734 3.0965814177 -13.115040776 -0.000498536944183 7.79044322266e-05 0.00104515352146
Sb 0.0875542684 -0.050549504 11.5821355494 0.000152466430067 -8.81888457219e-05 -0.0019836062529
Sb -1.9910436021 -3.7166265897 12.0243109835 -6.7362908394e-05 3.88236609446e-05 -0.00245591794267
Sb 4.2296737735 -0.0201749795 12.7959075588 -0.000145781561295 -0.000155551754116 -0.00307658229711
Sb 2.1323088953 -3.652913994 12.7959075588 6.17064809716e-05 0.000204145607881 -0.00307632518677
Sb 1.994003164 1.2372955097 -1.5971051997 -0.000160693960864 0.000363039796383 0.00185453686353
Sb -0.0745277195 -2.3455016457 -1.5971051997 -0.000394921478218 -4.21660953306e-05 0.00185453686353
Sb -2.1992869594 1.2697589817 -2.5724679859 0.000196946518434 -0.00011389987946 0.00137014098791
Sb 4.253902015 -2.4559880431 -2.060466852 0.000426288939379 -0.000245797482537 0.00173086679125
Sb 2.0740050303 1.0659346184 -9.3499438001 0.000118270755196 0.000412919201835 0.00168895780626
Sb 0.1138760309 -2.3291048832 -9.3499438001 -0.000298247991363 -0.000309046625533 0.00168895780626
Sb -2.0056425434 1.1579582753 -7.8888165381 5.24505088259e-05 -3.0339019811e-05 0.000898600629149
Sb 4.2039885591 -2.4271704824 -7.8930431512 0.000364068237732 -0.000210316255978 0.000955164903373
Cr -2.1896373269 -3.6019679686 17.4309737452 0.000208259373279 -0.000120070527557 0.000574641604048
61
Lattice="8.42843558953 0 0 -4.21421779477 7.29923593142 0 0 0 31.0334408416" Properties=species:S:1:pos:R:3:forces:R:3 energy=-133601.243912 ionic_step=86 pbc="T T T"
Te 2.0858961162 0.8147617662 2.9129301836 0.000109529003725 -8.63890733602e-05 0.00130509207255
Te 0.3373435407 -2.2138164402 2.9129301836 0.00012958361004 -5.21933984885e-05 0.00130483496221
Te -2.372599446 1.3698210379 3.515802873 1.79977236167e-05 -1.05415238326e-05 0.00127063928734
Te 3.6000982463 -2.0785140852 2.9955443073 -3.80523299325e-05 2.26257096896e-05 0.00120841858569
Te -0.1641326487 0.0947620731 7.4768519309 -3.62525575708e-05 2.08259373279e-05 -0.00180645723044
Te -2.3270634531 -3.5226253458 7.5294676644 -8.22753079621e-06 4.88509641025e-06 -0.00182856871946
Te -3.662840731 -0.3982634485 7.1721404291 0.00020028895282 -2.67394750877e-05 -0.00140973597986
Te -1.4865142942 3.3712446814 7.1721404291 0.000123155851606 -0.000159922629851 -0.0014099930902
Te -0.525548387 0.3034256441 -0.1921373294 -0.000346841845128 0.000199260511471 -0.000460227503913
Te -2.3439016816 -3.5129037848 0.0755303052 -9.64163765181e-05 5.60500535492e-05 -0.00038489417506
Te -3.9347462811 0.0946695816 -0.3269820539 0.000188718987638 0.000121356079244 -0.000437087573549
Te 2.1648583971 -3.9389805416 -0.3269820539 -1.15699651822e-05 -0.000223428883185 -0.000437087573549
Te 0.3125129646 1.9977473363 13.5797488374 -3.3681454197e-05 0.000311874839244 0.00091119903568
Te -1.5738436067 -1.2695145006 13.5797488374 -0.000287449357193 -0.000126755396329 0.000911456146018
Te -4.4737038806 2.5828942473 14.1214555328 -4.57656400539e-05 2.64823647503e-05 0.0017339521153
Te 1.6837785053 -0.9721264167 13.8130229608 0.000224200214197 -0.000129326499703 0.00129223655568
Te 1.7738824655 1.1583283545 -13.4921829803 0.000487224089338 0.000774416336193 0.00104412508011
Te -0.1162005132 -2.1153879055 -13.4921829803 -0.000426546049716 -0.000809640452415 0.00104412508011
Te -1.2045095569 0.6954237416 -13.8034045735 -0.00027690783336 0.000160179740189 0.00118553576567
Te 4.3796084238 -2.5285647058 -14.6766030651 0.000554329887395 -0.000318816818353 0.00192344243395
Te 2.6552735848 1.0126304304 10.4355907359 -3.49670058839e-05 0.000127783837679 -0.00400475061506
Te 0.4506730651 -2.8058463543 10.4355907359 -0.000127526727341 -3.39385645344e-05 -0.00400423639438
Te -2.4264975566 1.4009391409 10.6693778933 2.54539234008e-05 -1.43981788934e-05 -0.00363245484653
Te 4.027769532 -2.3254303323 10.7764167382 0.000128812279028 -7.45619978407e-05 -0.00324704645079
Te 0.6080963749 -0.3510847694 -7.3280566626 -0.000301590425749 0.000173035257058 0.00109169049252
Te -1.5796482863 -3.9541458907 -7.5682757307 -0.000237055731066 0.000138068251174 0.00101224339827
Te 3.8336059649 0.3166795657 -7.1160083067 0.000359183141322 -0.000118527865533 0.000992960122968
Te 1.6425505231 -3.4783363228 -7.1160083067 0.000281535819433 -0.000250939689284 0.000991931681618
Te 0.3118868628 2.4075397306 -3.6421032299 -2.90534681241e-05 -2.33970407017e-05 0.00046048461425
Te -1.9290471128 -1.4738684774 -3.6421032299 4.88509641025e-06 3.65096679082e-05 0.000460741724588
Te -4.7311582477 2.7315356649 -3.4113283291 0.000120841858569 -6.99340117678e-05 0.000424489167017
Te 1.88569745 -1.0887044298 -3.2998313141 -5.27076191632e-05 3.11103508232e-05 0.000202345835519
Te -0.4918105552 2.6714637453 -10.1052180936 -0.000139096692523 0.000295676887989 0.000359954472334
Te -2.5594606206 -0.9098077794 -10.1052180936 -0.000325244576788 -2.77679164372e-05 0.000359954472334
Te -3.7038626561 2.138426002 -10.5016843109 0.000173549477733 -0.000100015921241 -7.53333288528e-05
Te 2.8065933905 -1.6203841948 -10.3877559108 0.000385151285398 -0.000222657552172 0.000130869161727
Sb 0.1126939067 2.3098888575 9.3125926888 0.000135754258138 -5.73356052361e-05 -0.00401066415282
Sb -1.9440754915 -1.2525368002 9.3125926888 0.000117242313846 -8.87030663967e-05 -0.00401143548383
Sb -3.9989858703 2.3088155485 8.2678260078 -9.0245728421e-05 5.16791778137e-05 -0.00305858457349
Sb 2.344348962 -1.3535071285 8.4595957038 -0.000165064836599 9.53879351686e-05 -0.00336583142666
Sb -0.1746195471 2.5111363469 1.958820065 -0.00026122410278 6.71057980566e-05 0.000736621116598
Sb -2.2620175789 -1.1043396791 1.958820065 -0.000188976097975 0.000192575642699 0.000735849785586
Sb -4.2491802578 2.4532654128 1.637160541 0.000251453909959 -0.000144753119946 0.000492366296086
Sb 1.9692720783 -1.1369562859 0.8308250954 0.000253510792658 -0.000146038671633 0.000217258235087
Sb 0.0223741225 -0.0129177116 -11.3380336728 -1.05415238326e-05 5.6564274224e-06 0.000386179726747
Sb -2.1865400411 -3.6037565928 -11.036945994 -0.00021700112475 0.000125469844642 -0.000543274142887
Sb -3.9172610544 0.5934634129 -13.1144795463 -0.000164550615924 9.71877075303e-05 0.000827638176031
Sb -2.4725846811 3.0957158168 -13.1144795463 -0.000167121719298 9.41023834817e-05 0.000827638176031
Sb 0.0866635443 -0.0500352439 11.5844907676 -0.000173549477733 0.000100530141916 -0.00228108291325
Sb -1.9904099635 -3.7169924212 12.029862674 -0.000268680302564 0.000154780423104 -0.00148481219838
Sb 4.2295879053 -0.0208507618 12.7982246256 0.000182291229204 -0.000230370862294 -0.000217258235087
Sb 2.1328512055 -3.6525017388 12.7982246256 0.000290791791579 -4.31945366801e-05 -0.000218286676437
Sb 1.9920503113 1.2372824242 -1.5972055362 0.00014141068556 0.000209802035303 -0.000716052289608
Sb -0.0754928134 -2.3438038821 -1.5972055362 -0.000111585886424 -0.000227028427908 -0.000715538068933
Sb -2.2016275961 1.2711103495 -2.5727709672 -0.000154009092092 8.87030663967e-05 -0.000239369724102
Sb 4.2534593308 -2.4557324591 -2.0683735206 9.59021558433e-05 -5.45073915249e-05 -0.000364582458407
Sb 2.0748511265 1.0658195253 -9.3490526876 -3.05961301484e-05 -4.85938537651e-05 0.000268423192226
Sb 0.1143987526 -2.3297800778 -9.3490526876 2.67394750877e-05 5.03936261268e-05 0.000268937412901
Sb -2.0056559597 1.1579660212 -7.8884054352 0.000117756534521 -6.83913497435e-05 0.000839979472226
Sb 4.2041606743 -2.4272698532 -7.8935474616 8.53606320107e-05 -4.93651847773e-05 0.000530418626018
Cr -2.1844792514 -3.6049459863 17.4315414603 -8.27895286369e-05 4.83367434277e-05 0.000959535779108
61
Lattice="8.42843558953 0 0 -4.21421779477 7.29923593142 0 0 0 31.0334408416" Properties=species:S:1:pos:R:3:forces:R:3 energy=-133601.245024 ionic_step=87 pbc="T T T"
Te 2.085785625 0.8172991842 2.9082941114 0.000318559708016 -4.91080744399e-05 0.000603952182509
Te 0.3350908277 -2.2149894611 2.9082941114 0.000201831614845 -0.000251711020297 0.000603952182509
Te -2.3784470188 1.3731971372 3.5093249447 -9.07599490957e-05 5.27076191632e-05 0.000266623419865
Te 3.5971987505 -2.0768400597 2.9933195307 5.27076191632e-05 -3.05961301484e-05 0.000300047763724
Te -0.1628198566 0.0940041319 7.4782069733 -0.000164036395249 9.46166041564e-05 -0.00156554484432
Te -2.3253399588 -3.5236204062 7.5309507421 0.000225742876221 -0.000129840720378 -0.00121818877851
Te -3.6614337485 -0.3986957769 7.1741697941 0.000213144469689 0.000291306012253 -0.00132154713414
Te -1.4854363957 3.3702423625 7.1741697941 -0.000146038671633 -0.000330129673198 -0.00132154713414
Te -0.5274759812 0.3045385417 -0.1947106664 -0.000446857766369 0.000258138778731 -0.00080321269398
Te -2.3511416724 -3.5087237722 0.0688265292 -0.000136782699487 7.86757632388e-05 -0.000761817929662
Te -3.9368444402 0.092629621 -0.3313262604 0.000280250267746 0.000101815693603 -0.000637633636706
Te 2.1655759744 -3.9361435013 -0.3313262604 5.21933984885e-05 -0.00029362000529 -0.000637633636706
Te 0.3129609249 1.9973208562 13.5838123166 -0.000347870286477 0.000556386770094 0.00256544694639
Te -1.5732502842 -1.2696892057 13.5838123166 -0.000655374249986 2.23685993522e-05 0.00256544694639
Te -4.4701950422 2.5808684176 14.1250570878 0.000373581320216 -0.000214944242051 0.00267189062607
Te 1.6850483158 -0.9728595425 13.8174365515 0.000664630222132 -0.000385151285398 0.00278501917452
Te 1.7776506694 1.1557896562 -13.4900014497 0.000954136462023 0.000225742876221 0.00110711711277
Te -0.1121178351 -2.1173819182 -13.4900014497 0.000281535819433 -0.000939224062455 0.00110660289209
Te -1.2023660119 0.6941861647 -13.8042700547 -0.00086414784394 0.000499051164858 0.00112100107098
Te 4.3840564681 -2.5311327866 -14.6756799512 -0.000360982913684 0.000208516483617 0.0014436745444
Te 2.6569011981 1.0122894687 10.4391149169 0.000550987453009 0.000210830476653 -9.87303695545e-05
Te 0.451782153 -2.8070854286 10.4391149169 9.25597214574e-05 -0.000582097803832 -9.82161488798e-05
Te -2.4251123192 1.4001393734 10.6728910477 -0.000399035243616 0.000230370862294 0.00050470759228
Te 4.0303581542 -2.3269248747 10.7795721596 2.13401580027e-05 -1.25984065317e-05 0.00105698059698
Te 0.6085685347 -0.3513573711 -7.3273889521 -0.000660259346396 0.00038103752 -0.000501108047557
Te -1.5773342776 -3.9554818849 -7.5668421053 -0.000203374276869 0.000117499424183 -0.000834837265478
Te 3.8322496697 0.3158213591 -7.1134219585 0.000600866858461 0.000494166068447 -0.000953879351686
Te 1.6426156038 -3.4767326329 -7.1134219585 -0.000127269617004 -0.000767474357084 -0.000953879351686
Te 0.310017532 2.4042806928 -3.6452621803 0.000185119442915 0.000133954485776 -0.00181108521652
Te -1.9271593701 -1.4706200697 -3.6452621803 -2.33970407017e-05 -0.000227285538245 -0.00181108521652
Te -4.7342399378 2.7333148803 -3.4117477216 -0.00015118087838 8.71604043724e-05 -0.00183602491924
Te 1.8798716862 -1.085340922 -3.3045077904 -0.000166607498623 9.64163765181e-05 -0.00198000670818
Te -0.4924188932 2.6709635468 -10.1065793295 -0.000245283261862 0.000317788377004 0.000389779271471
Te -2.5593316052 -0.9090308437 -10.1065793295 -0.000397749691929 5.34789501754e-05 0.000389522161133
Te -3.7061408889 2.1397413409 -10.4987116334 6.42775843454e-06 -3.34243438596e-06 -0.000264823647503
Te 2.8075849914 -1.6209566961 -10.3890118369 0.000630691657597 -0.00036432534807 -5.34789501754e-05
Sb 0.1140792556 2.3096339496 9.3124888377 7.55904391902e-05 0.000203374276869 -0.000965192206531
Sb -1.9431620605 -1.2536090941 9.3124888377 -0.000138068251174 -0.000167378829635 -0.000965192206531
Sb -3.9958267623 2.3069916359 8.270763958 -0.000107215010688 6.1963591309e-05 -0.00115545385619
Sb 2.3449978246 -1.3538817496 8.4627412811 -5.24505088259e-05 3.00819094737e-05 -0.0011492832081
Sb -0.177488743 2.5127807485 1.9586488336 -0.000316245714979 0.000322159252739 0.000524505088259
Sb -2.2648762697 -1.1026770823 1.9586488336 -0.000437087573549 0.000112871438111 0.000524505088259
Sb -4.2524732795 2.4551666407 1.6238790315 0.000240655275789 -0.000138839582186 0.000399549464291
Sb 1.9666896738 -1.1354653333 0.828796104 0.000430145594439 -0.000248368585911 0.000379751968313
Sb 0.0204360642 -0.0117987726 -11.336173766 -0.000228571089932 0.000131897603077 0.000480024999892
Sb -2.1839769596 -3.6052363893 -11.0369687866 0.000251453909959 -0.000145010230283 0.00048799542035
Sb -3.9151888348 0.5923277065 -13.1135538125 -7.94470942509e-05 0.000523733757246 0.00103229800459
Sb -2.4705650211 3.0944890743 -13.1135538125 -0.000493394737435 -0.000193089863374 0.00103229800459
Sb 0.0853946755 -0.0493026619 11.5867898178 -0.000272794067962 0.000156837305803 0.00155423198947
Sb -1.9888472331 -3.7178946645 12.0362896079 -0.000327301459487 0.000190004539325 0.0018653354977
Sb 4.2293698766 -0.0215103948 12.8016383689 0.000248625696248 -0.000286420915843 0.00248342874877
Sb 2.1333134499 -3.6519831038 12.8016383689 0.000371781547854 -7.17337841295e-05 0.00248342874877
Sb 1.9895491532 1.2374625369 -1.597905072 0.000136782699487 0.000688798593845 -0.00181597031293
Sb -0.0768993746 -2.3417278709 -1.597905072 -0.000528104632982 -0.000462798607287 -0.00181597031293
Sb -2.204321148 1.2726654731 -2.5738854953 -0.000140125133873 8.09897562752e-05 -0.00209107837392
Sb 4.2526107318 -2.45524252 -2.0786643036 0.000572584721349 -0.000330386783535 -0.00160745382931
Sb 2.0756818793 1.0658074366 -9.347926372 0.00041831851892 0.000888573325991 -8.3560859649e-05
Sb 0.114824598 -2.3304934869 -9.347926372 -0.000560243425155 -0.000806812238704 -8.33037493116e-05
Sb -2.0055643891 1.1579131529 -7.8874013135 -0.000112357217436 6.50489153576e-05 -0.000613465264993
Sb 4.2033949319 -2.4268277514 -7.8937743596 0.000729679137489 -0.000421403842968 -0.000784700749689
Cr -2.1790458745 -3.6080829493 17.431760321 0.000124955623967 -7.19908944669e-05 0.00131383382402
61
Lattice="8.42843558953 0 0 -4.21421779477 7.29923593142 0 0 0 31.0334408416" Properties=species:S:1:pos:R:3:forces:R:3 energy=-133601.246089 ionic_step=88 pbc="T T T"
Te 2.0858418377 0.8199569461 2.9045423818 7.63617702023e-05 4.31945366801e-05 7.6104659865e-05
Te 0.3328172458 -2.2163670237 2.9045423818 7.71331012145e-07 -8.76746250471e-05 7.58475495276e-05
Te -2.384581061 1.3767386297 3.5030222469 -5.8621156923e-05 3.39385645344e-05 0.000299276432712
Te 3.5945897636 -2.0753337597 2.9917042149 3.62525575708e-05 -2.08259373279e-05 1.4141068556e-05
Te -0.1617351653 0.0933778848 7.4801353803 5.81069362482e-05 -3.3681454197e-05 0.00216306926839
Te -2.323435464 -3.5247199673 7.5318812983 0.000153751981754 -8.87030663967e-05 0.00212296005576
Te -3.6594556351 -0.3990966478 7.1760980362 -2.05688269905e-05 0.000105415238326 0.00202448679654
Te -1.4841001748 3.3687297007 7.1760980362 -0.000101815693603 -3.49670058839e-05 0.00202474390688
Te -0.5296301648 0.3057822608 -0.1972224393 -0.000110557445074 6.35062533333e-05 0.000807583569716
Te -2.3584657174 -3.5044952309 0.0619607175 -8.17610872874e-05 4.73083020782e-05 0.000579783810796
Te -3.938471059 0.0903568057 -0.335490006 1.54266202429e-05 1.69692822672e-05 0.000947194482914
Te 2.1667309798 -3.9335983998 -0.335490006 -6.9419791093e-06 -2.18543786774e-05 0.000946937372577
Te 0.3131065783 1.9964473947 13.5872877302 -1.85119442915e-05 0.000251968130634 -0.00139970867671
Te -1.572421018 -1.2693786146 13.5872877302 -0.000227542648583 -0.000110043224399 -0.00139970867671
Te -4.4668110411 2.5789146627 14.128651937 -0.000202088725182 0.000116728093171 -0.00146732869544
Te 1.6858674769 -0.9733324856 13.8211508905 0.000120327637895 -6.9419791093e-05 -0.00170309887482
Te 1.7809734231 1.1525730095 -13.4882315804 0.000295162667314 0.00118862108972 -0.00447037743605
Te -0.1076707617 -2.1186511853 -13.4882315804 -0.000882145567556 -0.000850006775384 -0.00447063454639
Te -1.1998090411 0.6927098963 -13.8052298111 -0.000128298058353 7.40477771659e-05 -0.00434645025344
Te 4.3886159034 -2.533765179 -14.6754753524 0.00102509891514 -0.000591867996653 -0.00294468469403
Te 2.6586494619 1.0119651782 10.4426419274 -4.80796330904e-05 0.000110557445074 0.000796013604534
Te 0.4529371286 -2.8084373249 10.4426419274 -0.000119556306882 -1.36268478812e-05 0.000795756494196
Te -2.4235857549 1.3992580107 10.6760238773 6.81342394061e-05 -3.93378816194e-05 0.000646375388177
Te 4.0327943955 -2.3283314399 10.7830569721 0.000155037533441 -8.94743974088e-05 0.000731736020188
Te 0.6085682811 -0.3513572247 -7.3260516081 0.000229085310607 -0.000132154713414 0.00139122403557
Te -1.5754196025 -3.9565873236 -7.5663462113 -8.40750803238e-05 4.85938537651e-05 0.00123978604685
Te 3.8305809381 0.3156132763 -7.1108908608 2.10830476653e-05 -0.000394921478218 0.00135008638159
Te 1.641961443 -3.4751834269 -7.1108908608 0.00035249827255 0.000178948794818 0.00134982927125
Te 0.3081053549 2.4013363234 -3.648915431 -0.000161208181538 -5.39931708501e-05 0.0027608508028
Te -1.9255655611 -1.4674918904 -3.648915431 -3.3681454197e-05 0.000166864608961 0.0027608508028
Te -4.7373036791 2.7350837329 -3.4128087371 0.000266880530202 -0.000154009092092 0.00282924215255
Te 1.8737658298 -1.0818157025 -3.3085878745 4.16518746558e-05 -2.39112613765e-05 0.0026927165634
Te -0.4922929883 2.6707890331 -10.1076200098 -0.000133697375438 0.000475911234493 -0.00228365401662
Te -2.5591175196 -0.9090526237 -10.1076200098 -0.000478739448205 -0.000122127410256 -0.00228391112696
Te -3.7075799646 2.140572192 -10.4965611838 9.51308248312e-06 -5.39931708501e-06 -0.00294622735606
Te 2.8082765942 -1.6213559934 -10.3900160542 0.000252482351309 -0.000145781561295 -0.00252405218208
Sb 0.114998193 2.3093239733 9.3129928676 7.22480048042e-05 -4.34516470175e-05 0.00158354256793
Sb -1.9424341446 -1.2542499295 9.3129928676 7.37906668285e-05 -4.08805436437e-05 0.00158354256793
Sb -3.9936095052 2.3057115013 8.2739725619 -2.39112613765e-05 1.36268478812e-05 0.00190801581371
Sb 2.346052935 -1.3544909182 8.4656543446 -7.32764461538e-05 4.21660953306e-05 0.00187330591816
Sb -0.180298769 2.5142755102 1.9584169956 -0.000105929459001 6.50489153576e-05 -0.000409319657112
Sb -2.2675757837 -1.1009909081 1.9584169956 -0.000109271893387 5.91353775978e-05 -0.000409576767449
Sb -4.2557415686 2.4570535892 1.6114994042 0.000116213872496 -6.71057980566e-05 -0.000351984051875
Sb 1.9646025919 -1.1342603554 0.8272379653 8.43321906612e-05 -4.88509641025e-05 -0.000146810002645
Sb 0.0200496062 -0.0115756509 -11.3343089193 9.38452731443e-05 -5.42502811875e-05 -0.00342805212831
Sb -2.1814801415 -3.6066779285 -11.0359063286 -0.000231913524318 0.000133954485776 -0.00430891214418
Sb -3.9128552898 0.5909946317 -13.1124906902 -0.000114156989797 -1.69692822672e-05 -0.00435519200491
Sb -2.4682437725 3.0931347015 -13.1124906902 -4.2423205668e-05 0.000107215010688 -0.00435493489457
Sb 0.084256084 -0.0486452954 11.5885527727 -0.000129069389366 7.45619978407e-05 3.23959025101e-05
Sb -1.9866912871 -3.7191394011 12.0420074997 -0.000111585886424 6.45346946828e-05 -0.000284364033144
Sb 4.2292440121 -0.0220431601 12.8053769998 7.19908944669e-05 -0.000117499424183 -0.000741249102671
Sb 2.1337119057 -3.6516077192 12.8053769998 0.000137554030499 -3.34243438596e-06 -0.000741249102671
Sb 1.9871117243 1.2379852047 -1.5989017899 6.29920326585e-05 -7.58475495276e-05 0.00210161989776
Sb -0.0785707324 -2.3398783286 -1.5989017899 9.71877075303e-05 -1.64550615924e-05 0.00210187700809
Sb -2.206625088 1.2739956541 -2.5756833076 -0.000129069389366 7.43048875033e-05 0.00267574728113
Sb 4.2513673895 -2.4545246757 -2.0886940501 -9.15312801079e-05 5.27076191632e-05 0.00256339006369
Sb 2.0762308991 1.0656269706 -9.3468564101 0.000103358355627 -0.000454828186828 -0.000955936234385
Sb 0.1152553961 -2.3308787192 -9.3468564101 0.000445572214682 0.000138068251174 -0.000955936234385
Sb -2.0054811129 1.1578650733 -7.8859686614 -1.23412961943e-05 7.19908944669e-06 0.000968277530579
Sb 4.2019395802 -2.4259875033 -7.8936257821 -0.000322159252739 0.000185890773927 0.00062349256815
Cr -2.1751266782 -3.6103456994 17.4313023567 -3.49670058839e-05 2.03117166531e-05 -0.00428114422774
61
Lattice="8.42843558953 0 0 -4.21421779477 7.29923593142 0 0 0 31.0334408416" Properties=species:S:1:pos:R:3:forces:R:3 energy=-133601.247563 ionic_step=89 pbc="T T T"
Te 2.0862461327 0.8233692609 2.9018380494 -1.64550615924e-05 -5.60500535492e-05 -0.00013652558915
Te 0.3300642434 -2.2184233109 2.9018380494 3.95949919568e-05 4.13947643184e-05 -0.000136782699487
Te -2.3922485842 1.3811654784 3.4955787707 3.05961301484e-05 -1.7483502942e-05 -2.05688269905e-06
Te 3.5926910705 -2.0742375482 2.9910878869 -2.8282137112e-05 1.6197951255e-05 -0.000113642769123
Te -0.1604191527 0.0926180842 7.4828264136 1.54266202429e-06 -1.28555168691e-06 0.000220343559136
Te -2.3213826174 -3.5259051793 7.5318554846 -0.000169949933009 9.84732592172e-05 0.000102844134953
Te -3.6564464022 -0.3992024583 7.1781022292 1.23412961943e-05 -0.000137811140837 0.00015812285749
Te -1.4825039238 3.3661765325 7.1781022292 0.000125984065317 5.88782672604e-05 0.000158894188502
Te -0.5313899765 0.306798289 -0.1999333889 8.22753079621e-06 -5.39931708501e-06 0.000195146746073
Te -2.3673116523 -3.4993880257 0.0535681901 -0.000109529003725 6.4020474008e-05 0.000108243452038
Te -3.9402152898 0.0874043047 -0.3396864344 -2.10830476653e-05 -7.12195634547e-05 0.000256853227044
Te 2.1684158041 -3.9306116004 -0.3396864344 5.06507364642e-05 5.42502811875e-05 0.000257110337382
Te 0.3133113297 1.9953547742 13.5907007034 -5.14220674763e-07 -0.000121870299919 0.000407005664075
Te -1.5713724056 -1.2690096243 13.5907007034 0.000104386796977 6.1963591309e-05 0.00040751988475
Te -4.4633637793 2.5769243842 14.1327143671 -4.93651847773e-05 2.80250267746e-05 0.000498536944183
Te 1.6860751554 -0.9734523889 13.8242865177 -0.000111585886424 6.50489153576e-05 0.000421660953306
Te 1.7843360245 1.1484297763 -13.4867988572 -0.000129840720378 -0.0003535267139 5.37360605128e-05
Te -0.1024013174 -2.1194916683 -13.4867988572 0.000240912386127 0.000288992019217 5.37360605128e-05
Te -1.1966949902 0.6909119973 -13.8064029152 0.0001354971478 -7.8161542564e-05 8.02184252631e-05
Te 4.392521696 -2.5360201905 -14.6743742226 -0.000233456186343 0.000134982927125 0.00013652558915
Te 2.6605338936 1.0113640992 10.4464633045 -0.000252996571984 -0.000141667795897 6.89055704183e-05
Te 0.454399894 -2.8097687518 10.4464633045 -3.85665506072e-06 0.000290277570904 6.86484600809e-05
Te -2.4216627065 1.3981477377 10.6792483826 0.000273051178299 -0.00015812285749 6.4020474008e-05
Te 4.0353466086 -2.3298049615 10.7871345413 5.60500535492e-05 -3.18816818353e-05 5.70784948987e-05
Te 0.6078136564 -0.3509215417 -7.3233716362 5.19362881511e-05 -3.00819094737e-05 -0.00101275761895
Te -1.5737696007 -3.957539953 -7.5669767844 -0.000148352664669 8.56177423481e-05 -0.00105158127989
Te 3.8285224385 0.3155884883 -7.1078870132 1.00273031579e-05 -0.000352241162213 -0.000784957860026
Te 1.6409536601 -3.4733883191 -7.1078870132 0.000309817956545 0.000167378829635 -0.000784957860026
Te 0.3054241223 2.3985700459 -3.6536781282 -0.000179977236167 -9.46166041564e-05 0.00106777923115
Te -1.9245105119 -1.463786735 -3.6536781282 -8.48464113359e-06 0.000203374276869 0.00106803634148
Te -4.7400120216 2.736647396 -3.415368464 0.000168150160648 -9.69305971929e-05 0.00114002723595
Te 1.8659773077 -1.0773189951 -3.3127984354 2.13401580027e-05 -1.20841858569e-05 0.00113719902224
Te -0.4911435272 2.6705477086 -10.1089470301 -4.88509641025e-05 -8.48464113359e-06 -0.00145575873025
Te -2.558333796 -0.9099274245 -10.1089470301 -1.72263926046e-05 4.65369710661e-05 -0.00145550161992
Te -3.7084581815 2.141079231 -10.4942670055 0.000151437988718 -8.74175147098e-05 -0.00135779969171
Te 2.8089653998 -1.6217536756 -10.3911448574 -0.000106186569339 6.11922602968e-05 -0.00131049138963
Sb 0.1157188523 2.3089509303 9.3142079223 -1.79977236167e-05 -1.92832753036e-05 -3.34243438596e-05
Sb -1.9417507504 -1.2546875176 9.3142079223 7.71331012145e-06 2.51968130634e-05 -3.3681454197e-05
Sb -3.9924919344 2.3050662712 8.2777459166 4.34516470175e-05 -2.4939702726e-05 -0.000132926044426
Sb 2.3479396116 -1.3555801919 8.4683679651 1.23412961943e-05 -7.19908944669e-06 -5.29647295006e-05
Sb -0.1833041803 2.5156266661 1.9579864495 -9.25597214574e-05 -6.83913497435e-05 -0.000305447080809
Sb -2.2702486241 -1.0990637223 1.9579864495 1.33697375438e-05 0.00011389987946 -0.000305961301484
Sb -4.259747525 2.4593664303 1.5980683311 0.000164036395249 -9.35881628069e-05 -0.000175606360432
Sb 1.9630532802 -1.1333658595 0.8270520072 1.23412961943e-05 -7.71331012145e-06 -0.000302361756761
Sb 0.021708124 -0.012533197 -11.3328802909 0.0001354971478 -7.8161542564e-05 -0.00072273715838
Sb -2.1785379153 -3.6083766244 -11.0339362974 -0.000123155851606 7.09624531173e-05 -0.000863633623265
Sb -3.9097495329 0.5888308976 -13.1104196035 1.02844134953e-06 -0.000175606360432 -0.000108243452038
Sb -2.4648170463 3.091526903 -13.1104196035 0.000152723540405 8.6903294035e-05 -0.000107729231363
Sb 0.0829197928 -0.047873787 11.590338723 -7.19908944669e-06 4.62798607287e-06 0.000276650723023
Sb -1.983637234 -3.7209026603 12.0472293802 -0.000166350388286 9.53879351686e-05 0.000296448219001
Sb 4.2292949366 -0.0225611938 12.8100073906 -3.54812265587e-05 -0.000168664381322 0.000424489167017
Sb 2.1341859981 -3.6513928043 12.8100073906 0.000129069389366 0.00011492832081 0.00042423205668
Sb 1.9845224033 1.2394505924 -1.6009173729 -5.39931708501e-05 -0.00025428212367 0.000910427704668
Sb -0.0811344553 -2.3383686036 -1.6009173729 0.000192832753036 0.00017380658807 0.00091119903568
Sb -2.2087142511 1.2752018336 -2.577557812 5.93924879352e-05 -3.47098955465e-05 0.00119993394456
Sb 4.2489059087 -2.4531035384 -2.1002696848 -0.000167635939973 9.71877075303e-05 0.00113925590494
Sb 2.076664897 1.0646708114 -9.3454956951 -0.000188976097975 -0.000434516470175 -0.00173626610834
Sb 0.1163004528 -2.330776493 -9.3454956951 0.000282564260782 0.000381551740674 -0.00173626610834
Sb -2.0056517039 1.1579635641 -7.884082044 0.0001354971478 -7.79044322266e-05 -0.00126138331519
Sb 4.199851054 -2.4247816916 -7.8932879988 -0.000241426606801 0.000139096692523 -0.00131871892043
Cr -2.172420453 -3.61190814 17.4298455704 -8.6903294035e-05 4.96222951147e-05 -5.78498259109e-05
61
Lattice="8.42843558953 0 0 -4.21421779477 7.29923593142 0 0 0 31.0334408416" Properties=species:S:1:pos:R:3:forces:R:3 energy=-133601.249142 ionic_step=90 pbc="T T T"
Te 2.0867853131 0.8269177107 2.8976895059 5.6564274224e-06 7.63617702023e-05 -0.00243072112961
Te 0.3272607873 -2.2206644799 2.8976895059 -6.37633636706e-05 -4.26803160054e-05 -0.00242943557792
Te -2.4021179712 1.3868635743 3.4872443067 1.28555168691e-06 -5.14220674763e-07 -0.00184733777409
Te 3.5896970342 -2.0725089398 2.9894987572 9.20455007826e-05 -5.21933984885e-05 -0.0023942114617
Te -0.1585285643 0.0915265519 7.4858023089 1.10557445074e-05 -6.9419791093e-06 -0.000128298058353
Te -2.3183094656 -3.5276794652 7.5325065012 -7.19908944669e-06 4.37087573549e-06 -0.000297733770688
Te -3.653759744 -0.4000125564 7.1804816666 4.80796330904e-05 -1.00273031579e-05 -0.000112871438111
Te -1.4804590295 3.3642548663 7.1804816666 3.26530128475e-05 -3.65096679082e-05 -0.000112357217436
Te -0.534504752 0.3085966063 -0.2026582066 -0.000131897603077 7.63617702023e-05 -0.00158688500232
Te -2.3771599943 -3.4937020801 0.0449070916 -0.000156580195465 9.0245728421e-05 -0.00189567451751
Te -3.9418003284 0.084034751 -0.3445818276 -2.44254820513e-05 -3.05961301484e-05 -0.00143107613787
Te 2.1705414026 -3.9275541392 -0.3445818276 1.38839582186e-05 3.67667782456e-05 -0.00143107613787
Te 0.3133610065 1.9936837381 13.594833531 4.62798607287e-05 5.55358328744e-05 -0.000879060243508
Te -1.5699004081 -1.2682171277 13.594833531 -2.46825923886e-05 -6.76200187314e-05 -0.000877517581484
Te -4.4600557206 2.5750144748 14.1385322279 -0.00012958361004 7.53333288528e-05 -0.000616807699379
Te 1.6857265592 -0.9732511267 13.8273064006 -8.74175147098e-06 5.39931708501e-06 -0.000826095514007
Te 1.7876322593 1.1437712473 -13.4845331694 3.39385645344e-05 0.000458941952226 -3.65096679082e-05
Te -0.0967187975 -2.1200170282 -13.4845331694 -0.000379751968313 -0.000259424330418 -3.77952195951e-05
Te -1.1926501762 0.6885767217 -13.806840967 0.000158894188502 -9.17883904452e-05 -0.000177920353468
Te 4.3977154109 -2.5390187846 -14.6736119147 0.000466912372685 -0.000269194523239 -1.54266202429e-05
Te 2.6622503941 1.0109914419 10.4508933172 -9.7701928205e-05 2.36541510391e-05 -0.00140767909716
Te 0.4555808747 -2.811068957 10.4508933172 -6.91626807557e-05 7.22480048042e-05 -0.00140845042818
Te -2.4193589971 1.3968176898 10.6829448973 0.000112871438111 -6.45346946828e-05 -0.00150306703233
Te 4.0382553302 -2.3314843135 10.7917639621 8.87030663967e-05 -5.19362881511e-05 -0.00138376783579
Te 0.6064048389 -0.3501081602 -7.3208327216 0.00020620249058 -0.000119042086208 0.00232093501554
Te -1.573018891 -3.9579733757 -7.5675724471 -1.69692822672e-05 9.7701928205e-06 0.00234561760793
Te 3.827061422 0.3155186366 -7.1054570651 -8.09897562752e-05 -0.000262252544129 0.00235821601446
Te 1.6402836452 -3.4720881152 -7.1054570651 0.000186662104939 0.00020131739417 0.00235770179379
Te 0.3029131789 2.3948843735 -3.6591594694 -0.000248368585911 -4.47371987044e-05 0.00245231839795
Te -1.9225740992 -1.459769357 -3.6591594694 -8.56177423481e-05 0.000238341282753 0.00245231839795
Te -4.7438737095 2.7388769435 -3.4176431608 0.000365353789419 -0.000211344697328 0.00238495548955
Te 1.8569392119 -1.0721008456 -3.3174235089 0.000139096692523 -7.91899839135e-05 0.00225485765884
Te -0.4898589541 2.6707451156 -10.1099870221 6.45346946828e-05 0.000214172911039 0.00169101468896
Te -2.5578624688 -0.9111386015 -10.1099870221 -0.000153494871417 -0.0001630079539 0.0016912717993
Te -3.7082956467 2.1409853915 -10.4923554704 -3.54812265587e-05 2.05688269905e-05 0.00153546293484
Te 2.8093087946 -1.6219519348 -10.3913685514 0.000119042086208 -6.86484600809e-05 0.00164164950418
Sb 0.1167989291 2.3081263323 9.3164911237 -1.51695099055e-05 -0.000115185431147 -0.0010117291776
Sb -1.9404965895 -1.2552105929 9.3164911237 9.25597214574e-05 7.01911221052e-05 -0.00101224339827
Sb -3.9914562961 2.3044683448 8.2819258785 3.16245714979e-05 -1.7483502942e-05 -0.000609094389257
Sb 2.3503532782 -1.3569737237 8.4723236504 -8.6903294035e-05 4.9879405452e-05 -0.000754875950552
Sb -0.1867276334 2.5177487385 1.95654762 -6.83913497435e-05 3.95949919568e-05 -0.00325270287821
Sb -2.2737981184 -1.0971599598 1.95654762 -6.9419791093e-05 3.98521022942e-05 -0.00325244576788
Sb -4.2640657241 2.4618595448 1.5832594076 0.000161722402213 -9.48737144938e-05 -0.00326787238812
Sb 1.9608771951 -1.1321094956 0.8246138863 0.000125469844642 -7.17337841295e-05 -0.00300947649905
Sb 0.0238125217 -0.0137481722 -11.3311899742 7.68759908771e-05 -4.42229780296e-05 0.00098190437846
Sb -2.1763467787 -3.6096416783 -11.0318011866 -0.000189747428988 0.000109529003725 0.000642775843454
Sb -3.9056566263 0.5862233091 -13.1086413587 -0.000101301472928 -0.000132411823752 0.000121870299919
Sb -2.4605123561 3.0892861345 -13.1086413587 6.32491429959e-05 0.000154266202429 0.000121356079244
Sb 0.0827620423 -0.0477827096 11.5931840177 -3.9080771282e-05 2.26257096896e-05 -0.00138325361511
Sb -1.9804417205 -3.7227475917 12.0535732459 -5.50216121997e-05 3.16245714979e-05 -0.00129326499703
Sb 4.2299459236 -0.0235297578 12.8151199921 2.72536957625e-05 -5.75927155735e-05 -0.00113668480156
Sb 2.1353502923 -3.6514722939 12.8151199921 6.37633636706e-05 4.37087573549e-06 -0.0011369419119
Sb 1.9812925252 1.240889313 -1.6025658265 8.63890733602e-05 -0.000214687131714 0.000728393585802
Sb -0.0839953623 -2.3362908061 -1.6025658265 0.000229085310607 3.21387921727e-05 0.00072865069614
Sb -2.2112435246 1.276662111 -2.5804382608 -0.000109786114062 6.22207016464e-05 0.00190904425506
Sb 4.2460591885 -2.451459983 -2.1139501505 -0.000223943103859 0.000129840720378 0.00152415008
Sb 2.07675715 1.0635593819 -9.3444005535 -3.0339019811e-05 -0.000262252544129 0.00196740830164
Sb 0.117309105 -2.3303006717 -9.3444005535 0.000211858918002 0.00015709441614 0.00196766541198
Sb -2.006278557 1.1583254781 -7.8822550255 -1.9540385641e-05 1.10557445074e-05 0.00231964946386
Sb 4.1982934804 -2.4238824256 -7.8923908924 -0.000250682578947 0.000144496009608 0.00215047086186
Cr -2.1686843839 -3.6140651615 17.4287334102 -3.47098955465e-05 2.03117166531e-05 -0.000180748567179
61
Lattice="8.42843558953 0 0 -4.21421779477 7.29923593142 0 0 0 31.0334408416" Properties=species:S:1:pos:R:3:forces:R:3 energy=-133601.251537 ionic_step=91 pbc="T T T"
Te 2.0877090714 0.8331519957 2.8919682058 0.000644061395141 -0.000134725816788 0.00306244122855
Te 0.3223236199 -2.224581621 2.8919682058 0.00043888734591 -0.000490823634062 0.00306295544923
Te -2.4175857389 1.3957938983 3.4741700249 -0.000343242300404 0.000198746290796 0.00286960847552
Te 3.5865029797 -2.0706648507 2.9875881756 -0.000140125133873 8.07326459378e-05 0.00271868470747
Te -0.1552935061 0.0896587894 7.4897731322 -0.000132926044426 7.79044322266e-05 -0.00130586340356
Te -2.3138666616 -3.5302445205 7.5334876198 0.000332700776572 -0.000192575642699 -0.000899629070498
Te -3.6503449835 -0.4010575312 7.1837348356 -4.62798607287e-06 0.000212887359352 -0.000590325334628
Te -1.4778466749 3.361820083 7.1837348356 -0.000186404994602 -0.000102844134953 -0.000589811113953
Te -0.5380214079 0.3106269495 -0.2062574491 -0.000273822509311 0.000158894188502 -0.000353783824237
Te -2.3916486337 -3.4853370563 0.0320279037 -6.89055704183e-05 3.9080771282e-05 0.000211601807665
Te -3.9450760777 0.0787723922 -0.3513451571 -1.82548339541e-05 -2.39112613765e-05 -0.000169692822672
Te 2.1734608622 -3.9220860764 -0.3513451571 1.20841858569e-05 2.8282137112e-05 -0.000169692822672
Te 0.3139737036 1.9919045224 13.6011199211 -0.000584668907206 0.000760275267637 0.00382631604091
Te -1.5680532144 -1.2678581313 13.6011199211 -0.000949765586288 0.00012572695498 0.00382580182024
Te -4.4557661965 2.5725379157 14.1472642935 0.000969048861591 -0.000558957873468 0.00357023414488
Te 1.6848738615 -0.9727588212 13.8316596061 0.00118759264837 -0.000686741711146 0.0042932284136
Te 1.7927115003 1.1374519721 -13.4806981011 0.00104026842505 -0.00176377691444 -1.9540385641e-05
Te -0.0887065267 -2.1212561444 -13.4806981011 0.00204736961657 -1.82548339541e-05 -1.87690546289e-05
Te -1.1865564219 0.6850584894 -13.8071994341 -0.00136808410521 0.000789071625424 0.000573613162698
Te 4.4042981699 -2.542819344 -14.6709770455 -0.00232427744993 0.00134160174046 0.00105672348664
Te 2.6641099767 1.0102105112 10.4571521983 0.00113257103617 0.000267908971552 -0.00120584748232
Te 0.4571869715 -2.8122889381 10.4571521983 0.000334757659271 -0.00111457331255 -0.00120481904097
Te -2.4159947076 1.3948753155 10.688505144 -0.000954136462023 0.000551244563346 -0.000355583596599
Te 4.0422693949 -2.3338018359 10.7979424294 -0.000273565398974 0.00015812285749 0
Te 0.6038155101 -0.3486132098 -7.3172532194 -0.000455085297165 0.000263023875141 -0.000347870286477
Te -1.572929812 -3.9580248054 -7.5684018467 -0.000551758784021 0.000318302597678 -0.000138068251174
Te 3.8256512955 0.3149692498 -7.1020473765 0.000524762198596 -0.000441715559622 -0.000729164916814
Te 1.6400543646 -3.4705922159 -7.1020473765 0.000645089836491 -0.00023371329668 -0.000729422027152
Te 0.2985096265 2.3891252528 -3.6670853868 0.000335014769608 0.000214944242051 -0.00283207036626
Te -1.9197883329 -1.4530762066 -3.6670853868 -1.85119442915e-05 -0.000397749691929 -0.00283155614558
Te -4.7485417968 2.7415720663 -3.421176716 -0.000404434560701 0.000232941965668 -0.00279376092599
Te 1.8433083266 -1.0642310467 -3.324984933 -0.000131383382402 7.53333288528e-05 -0.00322622051346
Te -0.4877866607 2.6708275285 -10.1116344476 -0.00108834805814 0.000637633636706 -0.0020468553959
Te -2.5568976937 -0.9129744674 -10.1116344476 -0.00109451870623 0.000624006788825 -0.00204762672691
Te -3.7075372372 2.1405475233 -10.488989168 0.00118656420702 -0.00068442771811 -0.00351958340842
Te 2.8098686519 -1.6222751688 -10.391027509 0.000812468666126 -0.000469483476059 -0.00279993157409
Sb 0.1187092765 2.3068432043 9.3199145751 2.8282137112e-06 0.000490823634062 -0.00209802035303
Sb -1.9384301949 -1.2562234391 9.3199145751 -0.00042423205668 -0.000248111475573 -0.00209724902202
Sb -3.9902286017 2.3037595348 8.2878928813 -0.000208259373279 0.000120070527557 -0.00137579741533
Sb 2.3540392623 -1.3591018285 8.4779609029 0.000241683717139 -0.000139353802861 -0.00167841628243
Sb -0.1915599693 2.5210320171 1.953361677 -3.9080771282e-05 0.000817867983211 0.00287115113754
Sb -2.2790576877 -1.0946166715 1.953361677 -0.000728136475465 -0.000374609761565 0.00287166535822
Sb -4.270676446 2.4656762487 1.5610984926 -9.51308248312e-05 5.47645018623e-05 0.00268526036361
Sb 1.9576448462 -1.1302432972 0.8224037751 0.000648432270876 -0.000374352651228 0.002201635819
Sb 0.0269178066 -0.0155410101 -11.3291507088 -0.00012572695498 7.22480048042e-05 -0.002117046518
Sb -2.173387194 -3.6113503961 -11.029572712 -0.000465626820998 0.000268680302564 -0.0012593264325
Sb -3.8989658594 0.5819694382 -13.105708263 0.000182034118866 7.71331012145e-07 -0.000594696210364
Sb -2.4534830141 3.0856186931 -13.105708263 9.05028387583e-05 -0.000157608636815 -0.000594439100026
Sb 0.0831669665 -0.0480164929 11.5985490425 -0.000258652999406 0.000148095554332 0.00104361085943
Sb -1.9761226651 -3.7252412007 12.0622856205 5.91353775978e-06 -2.8282137112e-06 0.00174912162521
Sb 4.2311775704 -0.0253113766 12.8223399689 0.000293105784615 3.88236609446e-05 0.00311900550278
Sb 2.137509042 -3.6516481223 12.8223399689 0.000112357217436 -0.000273308288637 0.00311900550278
Sb 1.9765692859 1.2432414754 -1.6056434884 0.000226257096896 0.000779301432604 -0.00275802258909
Sb -0.0883940134 -2.3333764401 -1.6056434884 -0.000560757645829 -0.000585697348555 -0.00275827969943
Sb -2.2149664112 1.2788115216 -2.5832280877 -0.000170207043347 9.87303695545e-05 -0.0034465640726
Sb 4.2412127154 -2.4486618691 -2.1351671121 0.000530161515681 -0.000306475522159 -0.00284518299347
Sb 2.0769524038 1.0614287711 -9.3426618705 3.77952195951e-05 -0.000386179726747 -0.0016025687329
Sb 0.1192518941 -2.3294044612 -9.3426618705 0.000353783824237 0.000159408409177 -0.0016025687329
Sb -2.0077404831 1.1591695219 -7.8799329317 0.000258395889069 -0.000148866885344 -0.000925597214574
Sb 4.1967396999 -2.4229853497 -7.8911221819 4.11376539811e-05 -2.44254820513e-05 -0.00116342427665
Cr -2.162446126 -3.6176668231 17.4275458687 -0.000156323085128 9.0245728421e-05 4.4480088367e-05
61
Lattice="8.42843558953 0 0 -4.21421779477 7.29923593142 0 0 0 31.0334408416" Properties=species:S:1:pos:R:3:forces:R:3 energy=-133601.254574 ionic_step=92 pbc="T T T"
Te 2.0888089316 0.8419472869 2.8812332343 -0.000286420915843 -0.00013652558915 -0.000640461850418
Te 0.3152566079 -2.2299317739 2.8812332343 -2.4939702726e-05 0.000316245714979 -0.000640461850418
Te -2.4407673924 1.4091778384 3.4551244588 0.000272794067962 -0.000157351526478 -0.000628377664561
Te 3.5801948262 -2.0670228349 2.9830568369 -0.000181005677517 0.000103872576302 -0.000611922602968
Te -0.1502621483 0.0867539322 7.4953940099 -3.18816818353e-05 1.85119442915e-05 0.00189207497279
Te -2.3068775116 -3.53427971 7.5365311359 -2.57110337382e-05 1.49123995681e-05 0.00170772686089
Te -3.6464095943 -0.4033742769 7.188837122 8.81888457219e-05 0.000155037533441 0.00127603860443
Te -1.4738726207 3.3595703072 7.188837122 -9.0245728421e-05 -0.000154009092092 0.00127603860443
Te -0.5446468282 0.3144521394 -0.2115742772 6.9419791093e-06 -4.11376539811e-06 -0.000650746263913
Te -2.4125999387 -3.4732408091 0.0140127487 -0.000233199076005 0.000134725816788 -0.000877517581484
Te -3.9499114862 0.0712450624 -0.3620805154 4.31945366801e-05 -0.000153237761079 -0.00101044362591
Te 2.1775620137 -3.914134823 -0.3620805154 0.000154009092092 3.95949919568e-05 -0.00101018651557
Te 0.3146945559 1.9890162012 13.6110430105 7.35335564911e-05 -0.000576184266072 0.00118013644858
Te -1.5651914298 -1.2670382474 13.6110430105 0.000535817943103 0.000224457324534 0.00117987933824
Te -4.4494408618 2.5688859803 14.1610285356 -0.000124441403293 7.17337841295e-05 0.000535817943103
Te 1.684095901 -0.9723096653 13.8389223201 -0.000486966979001 0.000281021598758 0.00100375875714
Te 1.8005292083 1.1286063818 -13.4740342185 -0.000705767876113 -0.0012937792177 0.000613465264993
Te -0.0771371703 -2.1236036862 -13.4740342185 0.000767474357084 0.00125778377047 0.00061372237533
Te -1.1772261481 0.6796716508 -13.8070171694 0.000617836140728 -0.000356869148286 0.000438116014898
Te 4.4157607011 -2.5494372426 -14.6683503601 -0.000921483449176 0.000531704177705 -0.000207488042267
Te 2.6668167475 1.0094792658 10.466689956 -0.000491594965074 -0.000108243452038 0.00381011808966
Te 0.4591736337 -2.8142674488 10.466689956 -0.000152466430067 0.000480024999892 0.00380986097932
Te -2.4112247916 1.3921214019 10.6970135287 0.000505478923292 -0.000292077343266 0.00351289853965
Te 4.0483496715 -2.3373122869 10.8072119272 0.000102844134953 -5.91353775978e-05 0.00356303505543
Te 0.6003600523 -0.3466181994 -7.3135533876 0.000221629110823 -0.000128298058353 -0.00315397250866
Te -1.5731191135 -3.9579155121 -7.5684322381 0.000335528990283 -0.000193604084048 -0.00329795429759
Te 3.824208354 0.3141518217 -7.0976753501 -0.000275622281673 0.000261481213117 -0.00282769949052
Te 1.6400408071 -3.4689338773 -7.0976753501 -0.000364068237732 0.0001079863417 -0.00282769949052
Te 0.2927564703 2.3795837423 -3.6782978156 -0.000123927182618 -0.000136011368475 -0.000886259332954
Te -1.9144017244 -1.4433230696 -3.6782978156 5.60500535492e-05 0.000175349250094 -0.000886259332954
Te -4.7566626911 2.7462606689 -3.4247443935 0.000240655275789 -0.000138582471849 -0.000983961261159
Te 1.823864516 -1.0530051521 -3.3364593094 5.47645018623e-05 -3.21387921727e-05 -0.000698825897003
Te -0.485597918 2.6712807396 -10.1136204394 0.000263795206154 -0.000476425455168 -0.00172289637079
Te -2.5561958146 -0.9150965807 -10.1136204394 0.000545073915249 9.25597214574e-06 -0.00172315348113
Te -3.7063182166 2.1398437211 -10.4844485561 -0.000313417501268 0.000181519898191 -0.000694969241943
Te 2.8105313325 -1.6226577677 -10.3896934644 -0.000635833864345 0.000366382230769 -0.0013233469065
Sb 0.1220238203 2.3047427729 9.3249734366 -6.7362908394e-05 -0.000475654124156 0.00345350605171
Sb -1.9349538968 -1.2580437039 9.3249734366 0.000378466416626 0.000295933998326 0.00345376316205
Sb -3.9871181114 2.3019636916 8.2965115506 0.000155551754116 -8.94743974088e-05 0.00249037072788
Sb 2.3591326903 -1.362042522 8.4874512578 -0.00027202273695 0.000156837305803 0.00272794067962
Sb -0.1989837154 2.5265881507 1.9482469917 -0.000191547201349 -0.000473597241457 -0.000755647281565
Sb -2.2875813114 -1.0909655826 1.9482469917 0.000315474383967 0.000402377678002 -0.00075513306089
Sb -4.2801890001 2.4711683269 1.5277002562 0.00018563366359 -0.000106700790013 -0.000545073915249
Sb 1.9517705779 -1.1268517852 0.816322077 -0.000268680302564 0.000154523312766 -0.00102304203244
Sb 0.0296573491 -0.0171226864 -11.3251896457 0.000227028427908 -0.000131640492739 -0.000334500548933
Sb -2.1696099044 -3.6135312163 -11.027208289 0.000360468693009 -0.000208002262942 0.000509335578353
Sb -3.8890341829 0.5761016335 -13.1025652856 0.000165836167611 -0.000311360618569 0.000516791778137
Sb -2.4434355103 3.0799515073 -13.1025652856 0.000352241162213 1.23412961943e-05 0.000517048888474
Sb 0.0846834288 -0.0488920232 11.607032933 9.33310524695e-05 -5.45073915249e-05 0.00319999525905
Sb -1.9704362257 -3.7285242695 12.0766389005 6.45346946828e-05 -3.72809989203e-05 0.00273411132772
Sb 4.2331452722 -0.0281642578 12.8326505131 -0.000177149022456 -3.85665506072e-05 0.00218852319179
Sb 2.1409635594 -3.6519257623 12.8326505131 -5.50216121997e-05 0.000172521036383 0.00218878030213
Sb 1.9692375529 1.2458406984 -1.6089424943 -0.000116728093171 -0.000492109185748 -0.000602409520485
Sb -0.094310872 -2.3283265817 -1.6089424943 0.000367924892793 0.000347098955465 -0.000602409520485
Sb -2.221071989 1.2823365802 -2.5880526345 -1.49123995681e-05 8.48464113359e-06 -0.00034658473479
Sb 4.2349865444 -2.445067186 -2.1670761526 -0.000391064823157 0.000225999986558 -0.000465626820998
Sb 2.0771832809 1.0590805314 -9.3404569124 -2.00546063158e-05 -1.38839582186e-05 -0.00245488950132
Sb 0.121400967 -2.3284302868 -9.3404569124 2.05688269905e-06 2.41683717139e-05 -0.00245514661166
Sb -2.0099245976 1.1604305216 -7.8769546744 -0.000187176325614 0.000108243452038 -0.00306886898699
Sb 4.1951912947 -2.4220913771 -7.8889680756 -0.000130354941052 7.48191081781e-05 -0.00281612952534
Cr -2.1510502456 -3.6242462408 17.4270161248 -0.000138068251174 7.97042045883e-05 0.00036329690672
61
Lattice="8.42843558953 0 0 -4.21421779477 7.29923593142 0 0 0 31.0334408416" Properties=species:S:1:pos:R:3:forces:R:3 energy=-133601.257497 ionic_step=93 pbc="T T T"
Te 2.0901819529 0.855455622 2.8638908146 -0.000278193385047 0.000258652999406 -0.000886773553629
Te 0.3042445627 -2.2378750133 2.8638908146 -0.000362268465371 0.000109529003725 -0.000888830436328
Te -2.4749015849 1.4288852328 3.4267009147 0.000139868023536 -7.84186529014e-05 -0.0015578315342
Te 3.5708629212 -2.0616350545 2.9750876519 0.000125469844642 -7.37906668285e-05 -0.000730707578839
Te -0.1429234261 0.082516917 7.5032801067 -5.39931708501e-06 1.28555168691e-06 -0.0031714560116
Te -2.2965164996 -3.5402616459 7.5416740812 -0.000241426606801 0.000143467568259 -0.00318096909409
Te -3.6414573908 -0.4068597031 7.1962341684 -0.000126498285992 -0.000182805449878 -0.00332957886909
Te -1.4683780527 3.3570242843 7.1962341684 9.0245728421e-05 0.000202602945857 -0.00333497818618
Te -0.5546752767 0.3202420696 -0.2192975079 0.000270480074925 -0.00015709441614 0.00441946958925
Te -2.4434616155 -3.4554228034 -0.012260839 0.000195146746073 -0.000112871438111 0.00412662091498
Te -3.9574171194 0.0602261892 -0.3781089337 0.000129069389366 2.69965854251e-05 0.00434593603276
Te 2.1833518168 -3.9021253143 -0.3781089337 4.01092126315e-05 -0.000124441403293 0.00434799291546
Te 0.3158505185 1.9849989661 13.6261606098 0.000580812252145 -0.000594953320701 -0.00283284169727
Te -1.5611344225 -1.2660307233 13.6261606098 0.000806812238704 -0.00020620249058 -0.00283489857997
Te -4.4398769909 2.5633642743 14.1813907379 -0.000463312827962 0.000270737185263 -0.00247108745257
Te 1.6835374832 -0.9719872625 13.8507078405 -0.000586982900242 0.000334243438596 -0.00298170858261
Te 1.8124941059 1.1162718734 -13.4636037755 -0.000418061408583 0.00133208865797 0.00307195431104
Te -0.0604727289 -2.1277983421 -13.4636037755 -0.00135754258138 -0.000308532404858 0.00307246853171
Te -1.1631803382 0.6715622949 -13.8064720545 0.00101764271536 -0.000585440238218 0.00260041395228
Te 4.4331763395 -2.5594921708 -14.665027236 0.00174526497015 -0.00101095784658 0.0012428713709
Te 2.6705992485 1.0085242545 10.480980228 -0.000239369724102 -4.80796330904e-05 -0.00174089409441
Te 0.4618919479 -2.8170656867 10.480980228 -8.09897562752e-05 0.000233970407017 -0.00174166542542
Te -2.4042006169 1.3880659908 10.7097510602 1.77406132793e-05 -1.38839582186e-05 -0.00213247313824
Te 4.0574281688 -2.3425537622 10.8207574133 -2.15972683401e-05 1.67121719298e-05 -0.00252276663039
Te 0.5955627736 -0.3438484879 -7.3089840804 -0.000118270755196 6.45346946828e-05 -0.00134442995417
Te -1.5737528929 -3.9575495993 -7.5680770931 0.000660259346396 -0.000376923754601 -0.00128863701096
Te 3.8223306649 0.3130810139 -7.0913226354 -0.000210830476653 0.000892944201726 -0.00117576557285
Te 1.6400293088 -3.4667723461 -7.0913226354 -0.000880345795195 -0.000262509654467 -0.0011767940142
Te 0.2843980828 2.3649225301 -3.6940933933 -6.32491429959e-05 -0.000327558569824 0.000658459574034
Te -1.9058839418 -1.4287538842 -3.6940933933 0.000252225240971 0.000217772455762 0.000659745125721
Te -4.7687795919 2.7532563682 -3.4288228733 -4.31945366801e-05 2.62252544129e-05 0.000958507337759
Te 1.7957498398 -1.0367731287 -3.3535789912 -0.000445572214682 0.000254796344345 0.00107600676194
Te -0.4827378944 2.6719484523 -10.1162169879 0.000529133074331 -0.00122410231627 0.00315345828799
Te -2.5553440587 -0.9179072913 -10.1162169879 0.00132977466494 0.000152980650742 0.0031562865017
Te -3.7044707809 2.1387771031 -10.4777913381 -0.000893458422401 0.000520134212523 0.00418498496156
Te 2.8116427433 -1.6232994414 -10.3871872969 -0.00105672348664 0.000606780396221 0.00364659591508
Sb 0.1271640073 2.3017190194 9.3318828307 0.000127526727341 0.000132154713414 -0.00208387928448
Sb -1.9297651572 -1.2609833617 9.3318828307 -5.34789501754e-05 -0.000176634801781 -0.00208233662245
Sb -3.9817159776 2.2988447667 8.3095102292 3.11103508232e-05 -1.67121719298e-05 -0.00281638663568
Sb 2.3663388212 -1.3662029855 8.5018261535 0.00020723093193 -0.000121356079244 -0.00255079165716
Sb -0.2101750795 2.5349858205 1.9400524446 0.000251968130634 -0.000325244576788 0.00139456646996
Sb -2.3004495854 -1.0854724074 1.9400524446 0.000405720112388 -5.63071638866e-05 0.00139405224928
Sb -4.2942562684 2.4792900718 1.4775269536 -0.000246311703212 0.000143210457922 0.0025592762983
Sb 1.9424936505 -1.1214957462 0.8065172252 -0.000544816804912 0.000312646170256 0.00313546056437
Sb 0.0326772049 -0.0188662018 -11.3187028434 2.75108060998e-05 -1.56837305803e-05 0.00392196108642
Sb -2.1639210234 -3.6168156948 -11.0246652734 0.00113797035325 -0.000656145580998 0.00299944919589
Sb -3.8742103545 0.5676502566 -13.0985611653 -8.58748526855e-05 0.000909913483994 0.00366305097668
Sb -2.4287044924 3.0713393778 -13.0985611653 -0.000829695058731 -0.000377437975276 0.00366305097668
Sb 0.0873095491 -0.0504082152 11.6203311138 0.000452257083454 -0.000267394750877 -0.00237801351044
Sb -1.962275756 -3.7332357211 12.0984785013 0.000434259359838 -0.00024451193085 -0.00279838891206
Sb 4.2360250476 -0.0326206313 12.8475204132 -0.00048799542035 0.000405205891713 -0.00312980413695
Sb 2.1462627779 -3.6521915354 12.8475204132 -0.000599838417111 0.000222657552172 -0.00312620459222
Sb 1.9583172677 1.2492292704 -1.6131238375 -0.00038489417506 0.000137039809824 0.00406337177198
Sb -0.1027056027 -2.3205636189 -1.6131238375 -0.000313674611606 0.000266623419865 0.00406080066861
Sb -2.2303818142 1.2877116128 -2.5947409137 0.000297733770688 -0.000172521036383 0.00256004762931
Sb 4.2262264416 -2.4400095359 -2.2141929203 0.000336300321295 -0.000192061422024 0.00348153107848
Sb 2.077592308 1.0559542734 -9.3372457715 2.93105784615e-05 0.000689055704183 0.00166607498623
Sb 0.1243128981 -2.3272213858 -9.3372457715 -0.000581069362482 -0.00037023888583 0.00166633209657
Sb -2.0131404807 1.1622872134 -7.8727356629 -0.000247854365236 0.000145010230283 -0.000501108047557
Sb 4.1932393698 -2.4209644322 -7.8854084267 0.00021700112475 -0.000125984065317 0.000158637078164
Cr -2.1332073014 -3.6345478742 17.4267637891 0.000927654097273 -0.000535560832766 0.00279093271228
61
Lattice="8.42843558953 0 0 -4.21421779477 7.29923593142 0 0 0 31.0334408416" Properties=species:S:1:pos:R:3:forces:R:3 energy=-133601.260501 ionic_step=94 pbc="T T T"
Te 2.0914618165 0.8605864758 2.8572163397 -0.000303133087773 5.39931708501e-06 -0.000318559708016
Te 0.3004410468 -2.2415488351 2.8572163397 -0.00015709441614 0.000259938551093 -0.000317274156329
Te -2.4896538865 1.4374024821 3.4156361888 0.000246054592874 -0.000142696237247 -0.000324473245776
Te 3.5690756702 -2.0606031842 2.9720751082 -2.77679164372e-05 1.7483502942e-05 -0.000316759935654
Te -0.1378015365 0.0795597913 7.5081268598 -3.29101231848e-05 1.9540385641e-05 -0.000181519898191
Te -2.2953775578 -3.5409192145 7.5417454933 0.000103615465965 -6.04209292847e-05 -0.000402377678002
Te -3.6387844774 -0.4071704262 7.1984853189 0.000112100107098 0.000254025013333 -0.000263280985479
Te -1.466772502 3.3548648338 7.1984853189 -0.000164036395249 -0.000222657552172 -0.000260966992442
Te -0.5564642117 0.3212749122 -0.221689114 -2.4939702726e-05 1.43981788934e-05 0.00105723770731
Te -2.4568882502 -3.4476709286 -0.0218403352 -0.000204402718218 0.000118527865533 0.000670029539217
Te -3.9606634691 0.0559495089 -0.3827588448 8.40750803238e-05 -0.000114671210472 0.000689569924858
Te 2.1854323541 -3.8971755515 -0.3827588448 0.000140896464885 -1.49123995681e-05 0.00069034125587
Te 0.3167354492 1.9832125141 13.6314670171 5.39931708501e-05 -0.000262766764804 -0.00127989525949
Te -1.5591448451 -1.2659038702 13.6314670171 0.000256339006369 8.38179699864e-05 -0.00128015236982
Te -4.4387493986 2.5627132583 14.1908886991 -0.000152466430067 8.8960176734e-05 -0.00110403178872
Te 1.6826773581 -0.9714906688 13.8525029682 -0.000308018184183 0.000176377691444 -0.00132154713414
Te 1.8172272253 1.1139860158 -13.4600491084 -0.000257624558056 0.000852577878757 0.000351212720863
Te -0.0561265594 -2.1307544168 -13.4600491084 -0.000867233167988 -0.000203374276869 0.000351984051875
Te -1.1576889231 0.6683918235 -13.8048451239 0.000296705329338 -0.000172263926046 0.000192575642699
Te 4.4326193111 -2.5591705701 -14.6594162014 0.000934596076382 -0.00053813193614 0.000302104646423
Te 2.6718053147 1.007903163 10.4855885697 -8.27895286369e-05 1.02844134953e-05 -0.00131846181009
Te 0.4630328618 -2.8177996253 10.4855885697 -4.85938537651e-05 6.55631360323e-05 -0.00131563359638
Te -2.4020414604 1.3868194006 10.7133953238 9.84732592172e-05 -5.60500535492e-05 -0.00152543563169
Te 4.06013279 -2.3441152767 10.8267290288 -5.83640465856e-05 3.39385645344e-05 -0.00146732869544
Te 0.5926253662 -0.3421525742 -7.3059511114 0.000286420915843 -0.000164807726262 2.18543786774e-05
Te -1.5772065907 -3.955555605 -7.5704036059 0.000130097830715 -7.53333288528e-05 -9.12741697705e-05
Te 3.8228532019 0.3130972216 -7.0886393895 -9.10170594331e-05 4.75654124156e-05 4.88509641025e-05
Te 1.6402765411 -3.4672329805 -7.0886393895 -8.63890733602e-05 5.52787225371e-05 4.96222951147e-05
Te 0.280724305 2.3606797244 -3.6997979302 -0.000106700790013 5.19362881511e-05 0.00104721040416
Te -1.9040464549 -1.423450895 -3.6997979302 -9.84732592172e-05 6.68486877192e-05 0.00104772462483
Te -4.7711401754 2.7546192523 -3.4329323205 0.000280507378083 -0.000162750843563 0.00103589754931
Te 1.783021616 -1.0294244818 -3.3572281836 0.000183833891228 -0.000106186569339 0.00118733553803
Te -0.4794337275 2.6709247352 -10.1184291283 0.000257624558056 0.000101301472928 0.000802441362968
Te -2.5528054106 -0.9202569265 -10.1184291283 4.08805436437e-05 -0.000274079619649 0.000802441362968
Te -3.7019508077 2.1373221953 -10.4745829241 -0.000270222964588 0.000156323085128 0.0012958361004
Te 2.8133868847 -1.6243064223 -10.3847580927 8.07326459378e-05 -4.65369710661e-05 0.00118759264837
Sb 0.130022056 2.3009517597 9.3357978656 -0.000168407270985 -0.000475911234493 -0.000810926004102
Sb -1.9276716668 -1.2630748758 9.3357978656 0.000327044349149 0.000383865733711 -0.000811697335114
Sb -3.982049243 2.2990371777 8.3127528436 0.000207745152604 -0.000121098968907 -0.000384637064723
Sb 2.3723611876 -1.369680002 8.5064840529 -0.000290020460566 0.000167121719298 -0.000653060256949
Sb -0.2146233686 2.5370568526 1.9361997481 -7.48191081781e-05 -0.000401092126315 -0.00022779975892
Sb -2.3044672956 -1.0826555902 1.9361997481 0.00030930373587 0.000265337868178 -0.000228313979595
Sb -4.3010895182 2.4832352523 1.4591411242 0.000137554030499 -8.02184252631e-05 0.000130869161727
Sb 1.9401934909 -1.1201677478 0.803058822 -0.000205174049231 0.000120070527557 4.83367434277e-05
Sb 0.037431525 -0.021611111 -11.3177288815 -9.64163765181e-05 5.55358328744e-05 0.000849749665046
Sb -2.1604604109 -3.6188136813 -11.0270650789 3.85665506072e-06 -1.54266202429e-06 0.000451999973117
Sb -3.8670224918 0.5628689451 -13.095885889 0.000106957900351 2.36541510391e-05 0.000643547174466
Sb -2.4209698258 3.0675051589 -13.095885889 3.16245714979e-05 -0.000104643907314 0.000643290064129
Sb 0.0887347763 -0.0512310709 11.625420276 -4.85938537651e-05 2.87963577867e-05 -0.00167070297231
Sb -1.9587111253 -3.7352937625 12.1042379691 0.000245283261862 -0.00014038224421 -0.00156091685824
Sb 4.2380228904 -0.0336717383 12.8537691265 5.47645018623e-05 0.000283335591795 -0.00163907840081
Sb 2.1481719843 -3.6533961653 12.8537691265 -0.000218286676437 -0.000188718987638 -0.00163856418013
Sb 1.9550624666 1.2539868863 -1.6150512476 1.67121719298e-05 -0.000258138778731 0.00132900333393
Sb -0.1084532176 -2.3201236851 -1.6150512476 0.000231399303643 0.000114671210472 0.00132848911325
Sb -2.232943728 1.2891907351 -2.5954232625 -0.000148352664669 8.45893009986e-05 0.00151746521123
Sb 4.2200187172 -2.4364255028 -2.2328114061 -0.0002434834895 0.000142696237247 0.00155268932745
Sb 2.0781466024 1.0527000232 -9.335224727 0.000179463015492 0.000198746290796 0.000564871411227
Sb 0.1274083073 -2.326074294 -9.335224727 -8.27895286369e-05 -0.00025428212367 0.000563328749203
Sb -2.0155240816 1.1636633867 -7.8720132741 -0.000296448219001 0.000171235484696 5.93924879352e-05
Sb 4.1927259505 -2.4206680093 -7.8825215601 -6.63344670445e-05 3.83094402699e-05 8.99886180836e-05
Cr -2.1282851436 -3.6373896847 17.4248887163 -1.25984065317e-05 7.19908944669e-06 0.000375895313252
61
Lattice="8.42843558953 0 0 -4.21421779477 7.29923593142 0 0 0 31.0334408416" Properties=species:S:1:pos:R:3:forces:R:3 energy=-133601.264215 ionic_step=95 pbc="T T T"
Te 2.0935735593 0.8649255042 2.8497819493 -0.000408291215762 -3.85665506072e-06 -0.000334243438596
Te 0.2977392111 -2.2455471731 2.8497819493 -0.000202602945857 0.000355840706936 -0.00033578610062
Te -2.5060887283 1.4468911468 3.4041330218 0.000321387921727 -0.000186662104939 -0.000241426606801
Te 3.5671905471 -2.0595148073 2.9686524326 -4.67940814035e-05 2.87963577867e-05 -0.000316502825317
Te -0.1311436553 0.07571586 7.5127926661 -6.14493706342e-05 3.62525575708e-05 0.000448657538731
Te -2.2956164394 -3.5407812961 7.5425704214 0.000198232070121 -0.000115185431147 0.000277679164372
Te -3.6370488708 -0.4072973536 7.2011120436 0.000123412961943 0.000382323071686 0.000423717836005
Te -1.4657947764 3.3534252174 7.2011120436 -0.000268937412901 -0.000297219550013 0.00042423205668
Te -0.5583406913 0.3223582987 -0.2238780046 -1.85119442915e-05 7.45619978407e-06 0.000392864595519
Te -2.4707399736 -3.4396736286 -0.0302460922 -0.00025531056502 0.000150409547368 9.87303695545e-05
Te -3.9638485164 0.0520609438 -0.387415196 0.00010901478305 -0.00011981341722 -6.32491429959e-05
Te 2.187207425 -3.8924729358 -0.387415196 0.000155808864453 -3.31672335222e-05 -6.37633636706e-05
Te 0.3184124867 1.9814623465 13.6373414598 -2.26257096896e-05 -0.000200031842483 -0.00116522404901
Te -1.5567906374 -1.2664811441 13.6373414598 0.000162750843563 0.000119556306882 -0.00116419560766
Te -4.4383368507 2.5624750736 14.2012086868 -4.52514193792e-05 2.59681440755e-05 -0.00102304203244
Te 1.6826332714 -0.9714652153 13.8535601555 -0.000198489180459 0.00011492832081 -0.00117139469711
Te 1.8217415151 1.1137930826 -13.4571716606 -0.000218543786774 0.000720937386018 0.00023962683444
Te -0.0537023295 -2.1345674416 -13.4571716606 -0.000735592675249 -0.000170721264021 0.000239369724102
Te -1.1533700256 0.6658983056 -13.8021418603 0.000248882806585 -0.000144753119946 0.000138068251174
Te 4.4275350957 -2.5562351957 -14.6489438682 0.000801927142293 -0.000463312827962 0.000193604084048
Te 2.6724929872 1.0072300378 10.4899439618 0.000114671210472 5.11649571389e-05 -0.000844093237624
Te 0.4639596413 -2.8180586049 10.4899439618 1.36268478812e-05 -0.000124955623967 -0.000843579016949
Te -2.4005555056 1.3859614838 10.7168595912 -4.16518746558e-05 2.36541510391e-05 -0.00109606136826
Te 4.0630342282 -2.3457904236 10.8327363417 -8.43321906612e-05 4.80796330904e-05 -0.000994245674655
Te 0.5896810801 -0.340452689 -7.3029871091 0.000234227517355 -0.000136268478812 7.45619978407e-06
Te -1.5798454938 -3.9540320329 -7.5738976115 0.000128812279028 -7.40477771659e-05 -2.51968130634e-05
Te 3.8251995795 0.31110921 -7.0868860762 -0.000173292367395 4.49943090418e-05 6.24778119837e-05
Te 1.6431713976 -3.4682709983 -7.0868860762 -0.000124955623967 0.000128812279028 6.22207016464e-05
Te 0.2777332293 2.3574541262 -3.7049489341 -0.000131383382402 -2.26257096896e-05 0.000583126245182
Te -1.9027485441 -1.4192477472 -3.7049489341 -4.55085297165e-05 0.00012469851363 0.000585440238218
Te -4.7726215006 2.7554744962 -3.4376511451 0.000325244576788 -0.000186404994602 0.000524247977921
Te 1.7682870439 -1.0209174687 -3.3607603691 0.000169949933009 -9.97588109041e-05 0.00072659381344
Te -0.4758179251 2.669398038 -10.1210233567 0.000186404994602 -6.22207016464e-05 0.000851035216733
Te -2.5496753514 -0.9226249561 -10.1210233567 0.00014732422332 -0.00012958361004 0.000849235444372
Te -3.7000543409 2.1362272691 -10.470832735 -0.000229856641619 0.000133440265101 0.00117036625576
Te 2.8162204074 -1.6259423582 -10.3829871396 -4.42229780296e-05 2.54539234008e-05 0.0011582820699
Sb 0.133481402 2.2994709276 9.339807345 -0.000245283261862 -0.000455856628178 -0.00010412968664
Sb -1.9246595561 -1.2653303427 9.339807345 0.000271508516275 0.000440430007935 -0.00010412968664
Sb -3.9828448208 2.299496505 8.3152561354 0.000261995433792 -0.000150666657706 0.000443515331983
Sb 2.3793014543 -1.3736869687 8.5112977203 -0.00027587939201 0.000159922629851 0.000110557445074
Sb -0.2190999336 2.538800646 1.9319170384 -5.70784948987e-05 -0.000506507364642 -0.000510106909365
Sb -2.3082157467 -1.0796506661 1.9319170384 0.000410090988124 0.000302361756761 -0.000511392461052
Sb -4.3093816209 2.4880227023 1.4410276177 0.000141924906235 -8.17610872874e-05 -0.000231913524318
Sb 1.938194251 -1.1190134855 0.7982117703 -0.000279478936734 0.000160436850526 -0.000488252530688
Sb 0.0438449444 -0.0253139022 -11.3181501157 -8.71604043724e-05 4.9879405452e-05 0.00076593169506
Sb -2.1579205712 -3.6202800591 -11.0306336077 0.000102844134953 -5.96495982725e-05 0.000425517608367
Sb -3.8601325752 0.5585836334 -13.090999864 0.000117756534521 0.000136011368475 0.000473083020782
Sb -2.4138136804 3.0636809692 -13.090999864 -6.04209292847e-05 -0.000169435712334 0.000472825910445
Sb 0.09126182 -0.0526900609 11.6313809698 -0.000102329914278 5.93924879352e-05 -0.00142361993808
Sb -1.9555825844 -3.7371000273 12.109809373 0.000273822509311 -0.000157865747152 -0.00139045270456
Sb 4.2409040144 -0.0350508441 12.8595017801 9.95017005667e-05 0.000339385645344 -0.00154394757598
Sb 2.1508068864 -3.6552017401 12.8595017801 -0.000242455048151 -0.000256081896032 -0.00154317624496
Sb 1.9525174434 1.2600670016 -1.616504687 -1.31126272065e-05 -0.000413176312172 0.000571042059325
Sb -0.114991261 -2.3209596869 -1.616504687 0.000349412948502 0.000218286676437 0.000571556279999
Sb -2.2345599918 1.2901238859 -2.5963242767 -0.000132154713414 7.50762185154e-05 0.000927654097273
Sb 4.2116479972 -2.4315926631 -2.2529564611 -0.000374352651228 0.000217515345425 0.000835094375816
Sb 2.0784347948 1.0482547787 -9.3328530868 9.48737144938e-05 0.000123927182618 0.000657688243022
Sb 0.1314020963 -2.3241012538 -9.3328530868 -5.91353775978e-05 -0.000145010230283 0.000658202463697
Sb -2.01876271 1.1655332106 -7.8738389511 -0.000164550615924 9.59021558433e-05 8.3560859649e-05
Sb 4.1957398225 -2.4224080699 -7.8801846967 -4.83367434277e-05 2.72536957625e-05 0.000197460739109
Cr -2.124426718 -3.6396173488 17.4249601467 0.000103872576302 -6.06780396221e-05 0.000266880530202
61
Lattice="8.42843558953 0 0 -4.21421779477 7.29923593142 0 0 0 31.0334408416" Properties=species:S:1:pos:R:3:forces:R:3 energy=-133601.2675 ionic_step=96 pbc="T T T"
Te 2.0961287165 0.8730085145 2.8379162201 -0.000535046612091 0.000181777008529 -0.00414204753522
Te 0.2920167007 -2.2518015103 2.8379162201 -0.000428860042753 0.000371524437516 -0.00414256175589
Te -2.5298285357 1.4605973374 3.3860651171 0.000364582458407 -0.000210830476653 -0.00349695769873
Te 3.5633123923 -2.0572757526 2.9631751295 0.000126498285992 -7.22480048042e-05 -0.00411453672912
Te -0.1223185684 0.0706206913 7.5193823776 -5.21933984885e-05 3.0339019811e-05 0.00249345605193
Te -2.2946242473 -3.5413541387 7.5459896051 0.000245540372199 -0.000142439126909 0.00236310111087
Te -3.6351267473 -0.4079177929 7.2057963387 6.96769014304e-05 0.000333214997247 0.00206562445052
Te -1.4642963987 3.3520708285 7.2057963387 -0.000253510792658 -0.000225742876221 0.00206665289187
Te -0.5628398334 0.3249558808 -0.2279145529 1.4141068556e-05 -9.51308248312e-06 -0.00208233662245
Te -2.4901226784 -3.4284830136 -0.0432869455 -0.000467940814035 0.000270737185263 -0.00266212043325
Te -3.9693696979 0.0460276209 -0.3962006791 -7.14766737921e-05 -0.000355583596599 -0.00250322624475
Te 2.1896718427 -3.8846747886 -0.3962006791 0.000269708743913 0.000239883944777 -0.00250399757576
Te 0.3206546346 1.9791813715 13.6462598537 -0.000252482351309 -0.000133954485776 0.000883174008906
Te -1.553694182 -1.2672824145 13.6462598537 -9.7701928205e-06 0.000286420915843 0.000883688229581
Te -4.4354796972 2.5608254944 14.2153938406 0.000193089863374 -0.000110300334737 -0.000167121719298
Te 1.6839782476 -0.9722417381 13.8583277654 -0.00012469851363 7.09624531173e-05 0.000778787211929
Te 1.8296061919 1.1118174376 -13.4519528713 -0.000509078468016 -0.00142567682078 -0.00116933781441
Te -0.0480590331 -2.1403906323 -13.4519528713 0.0009780477234 0.00115365408383 -0.0011665096007
Te -1.1465126328 0.6619391862 -13.7999346919 -1.33697375438e-05 5.6564274224e-06 -0.00126678263228
Te 4.4261118895 -2.5554135068 -14.6371823978 -0.00129660743142 0.000747933971443 -0.00172546747417
Te 2.6740477505 1.006257326 10.497426757 0.000135240037463 0.000121870299919 0.00421583820205
Te 0.4655794157 -2.8189187141 10.497426757 -3.72809989203e-05 -0.000177920353468 0.00421789508475
Te -2.3982072868 1.3846057384 10.723196472 0.000116213872496 -6.60773567071e-05 0.00405308735848
Te 4.0677408536 -2.3485077963 10.8416603371 0.000139353802861 -8.38179699864e-05 0.00411659361182
Te 0.5865628282 -0.3386523646 -7.3008986647 0.000207745152604 -0.000120327637895 -0.000332186555897
Te -1.5818679957 -3.9528643403 -7.5771405545 0.000186404994602 -0.000108757672712 -0.000141924906235
Te 3.8277016331 0.3084973242 -7.0833374923 -0.000224200214197 9.35881628069e-05 -0.000124441403293
Te 1.6466843829 -3.4691318984 -7.0833374923 -0.000191547201349 0.000148609775007 -0.000124184292955
Te 0.2732051153 2.3510252961 -3.7125513449 -0.000137811140837 7.94470942509e-05 0.000477711006855
Te -1.8994450734 -1.4121118685 -3.7125513449 -0.000138582471849 7.71331012145e-05 0.000478482337867
Te -4.7762979805 2.7575971139 -3.4423449807 0.000430145594439 -0.000248625696248 0.000378980637301
Te 1.7475012094 -1.008916756 -3.3686043779 0.000356612037948 -0.000205688269905 0.000649460712226
Te -0.471948843 2.6678225569 -10.1234895595 -7.50762185154e-05 -0.00019643229776 0.000580040921133
Te -2.5463764044 -0.9251879405 -10.1234895595 0.000134211596113 0.000162750843563 0.000576955597084
Te -3.6984606144 2.1353071303 -10.466564127 0.000280507378083 -0.000162236622888 0.000879060243508
Te 2.8198588675 -1.6280430251 -10.3806423308 -1.079863417e-05 5.6564274224e-06 0.000536075053441
Sb 0.1382171577 2.297122791 9.3445145734 -0.000263023875141 -0.000339128535006 0.0043461931431
Sb -1.9202581333 -1.2682575611 9.3445145734 0.000163779284912 0.000398521022942 0.00434670736377
Sb -3.981401172 2.2986630135 8.3208575959 0.000149638216356 -8.63890733602e-05 0.00374352651228
Sb 2.3871237885 -1.3782031976 8.5190745132 -0.000233456186343 0.000132411823752 0.00368901912075
Sb -0.2262980884 2.542412763 1.9253938125 0.000150152437031 -0.000387208168097 -0.00497225681462
Sb -2.3149430077 -1.0752229367 1.9253938125 0.00041240498116 6.22207016464e-05 -0.00497097126294
Sb -4.3214939424 2.4950157576 1.4115775697 5.27076191632e-05 -2.8282137112e-05 -0.0045580520611
Sb 1.9335910749 -1.1163558394 0.7915139614 -0.000184862332577 0.000105158127989 -0.00450123067654
Sb 0.0498992629 -0.0288093663 -11.3166054993 -0.000197203628772 0.000111842996761 0.00017972012583
Sb -2.1546924962 -3.6221437899 -11.0343332576 -0.000204916938893 0.000121356079244 0.00152800673506
Sb -3.8504148262 0.5528938479 -13.0845164947 0.000421918063643 -0.000495965840809 -0.000960049999783
Sb -2.4040273094 3.0581100405 -13.0845164947 0.000640461850418 -0.000118013644858 -0.000958764448096
Sb 0.0950399375 -0.054871359 11.6397112004 -0.000267651861214 0.000153237761079 0.00314420231584
Sb -1.9515360803 -3.7394362787 12.120722396 0.000103615465965 -5.73356052361e-05 0.00279170404329
Sb 4.2443599445 -0.0373404479 12.8675950169 0.000210059145641 0.000161208181538 0.00196997940502
Sb 2.1545177056 -3.6570498629 12.8675950169 -3.62525575708e-05 -0.000262252544129 0.00196869385333
Sb 1.948102585 1.2666129769 -1.6183208841 7.50762185154e-05 -0.000523733757246 -0.000178434574143
Sb -0.1228676685 -2.3204092933 -1.6183208841 0.000492880516761 0.000196175187422 -0.000176377691444
Sb -2.2377630575 1.2919731776 -2.5985870878 -0.000266623419865 0.000156580195465 0.000832009051767
Sb 4.2011038053 -2.4255049683 -2.2841825591 -0.000536332163778 0.000309817956545 0.000742534654358
Sb 2.079223943 1.0436489017 -9.3295882768 -9.53879351686e-05 -8.150397695e-05 0.000682370835411
Sb 0.1357854751 -2.322481738 -9.3295882768 2.10830476653e-05 0.000123670072281 0.0006795426217
Sb -2.0226172227 1.1677586155 -7.8761842592 -6.22207016464e-05 3.62525575708e-05 -0.00017483502942
Sb 4.1993937431 -2.4245176629 -7.8776600546 -0.000112871438111 6.53060256949e-05 -1.79977236167e-05
Cr -2.1167139342 -3.6440703286 17.4267769608 -0.000503164930256 0.00029259156394 -0.00132617512021
61
Lattice="8.42843558953 0 0 -4.21421779477 7.29923593142 0 0 0 31.0334408416" Properties=species:S:1:pos:R:3:forces:R:3 energy=-133601.270356 ionic_step=97 pbc="T T T"
Te 2.0983449731 0.8828739455 2.8235086651 -0.000446600656032 7.97042045883e-05 -2.2882820027e-05
Te 0.2845811191 -2.2586535612 2.8235086651 -0.000294648446639 0.000346070514116 -2.13401580027e-05
Te -2.554394873 1.4747807255 3.3667181828 0.000220600669473 -0.000128298058353 5.8621156923e-05
Te 3.5579510206 -2.0541803617 2.9559118554 -5.55358328744e-05 3.13674611606e-05 -0.000124441403293
Te -0.1131789163 0.0653439082 7.5269759283 -7.71331012145e-07 -4.11376539811e-06 0.00330438205603
Te -2.2934593154 -3.5420267128 7.5520531882 0.000249911247935 -0.000141153575223 0.00312157660615
Te -3.6339186955 -0.4087853456 7.2114840354 9.87303695545e-05 0.000297733770688 0.00299790653387
Te -1.4629410504 3.3514584008 7.2114840354 -0.000210316255978 -0.000233456186343 0.00299996341657
Te -0.5698106323 0.3289804753 -0.2327941858 -2.08259373279e-05 1.05415238326e-05 0.00266134910224
Te -2.50901756 -3.4175740435 -0.0559106678 -0.000480024999892 0.00027793627471 0.00217515345425
Te -3.9755460124 0.0398701006 -0.407136162 -3.16245714979e-05 -0.000323959025101 0.00225151522445
Te 2.191916252 -3.8762471808 -0.407136162 0.000263795206154 0.000188461877301 0.00224894412108
Te 0.322459493 1.9762676743 13.6551883394 -1.56837305803e-05 5.57929432118e-05 -0.000695740572955
Te -1.5502684183 -1.2673886199 13.6551883394 -5.93924879352e-05 -1.13128548448e-05 -0.000696769014304
Te -4.4311049134 2.5582997106 14.2298741857 -0.000322673473414 0.000185376553252 -0.00120918991671
Te 1.6870232729 -0.9739997851 13.8656147095 -0.000166093277949 9.71877075303e-05 -0.00119273485511
Te 1.8387399538 1.109451502 -13.4458820852 -0.000103872576302 0.0012022479376 -0.00519105771174
Te -0.0414431929 -2.147117738 -13.4458820852 -0.0010922047132 -0.000508564247341 -0.00519028638072
Te -1.1385445857 0.65733883 -13.7982862783 -0.00010310124529 6.01638189473e-05 -0.00480102132993
Te 4.4290493896 -2.557109474 -14.6294425059 0.00112691460874 -0.000651517594925 -0.00341622505279
Te 2.6764877337 1.0055262088 10.5060896251 -0.000128555168691 0.000153494871417 0.00232582011195
Te 0.467432573 -2.820666244 10.5060896251 -0.000197974959784 3.62525575708e-05 0.00232170634656
Te -2.3959978929 1.3833301437 10.7304564194 0.000300304874062 -0.000171749705371 0.00199851865247
Te 4.0728870932 -2.3514789805 10.8515066794 0.000246568813549 -0.000141667795897 0.00216898280615
Te 0.5848442485 -0.3376601417 -7.3012514876 0.000313417501268 -0.000181262787854 -0.00110583156108
Te -1.5836005289 -3.9518640613 -7.5796214387 0.000220857779811 -0.000128812279028 -0.00130380652086
Te 3.8298574929 0.3071496827 -7.0788987069 -0.000153751981754 -0.000233456186343 -0.000801155811281
Te 1.6489294039 -3.4703251079 -7.0788987069 0.000127012506667 0.000249139916923 -0.000800898700944
Te 0.2695291502 2.3434413835 -3.7197651279 -0.000221372000486 -4.73083020782e-05 0.00303930129819
Te -1.8947151981 -1.4051364316 -3.7197651279 -7.14766737921e-05 0.00021700112475 0.00303878707751
Te -4.7816555718 2.7606903221 -3.4449616668 0.000443258221646 -0.000254796344345 0.00317377000464
Te 1.7274079278 -0.997315889 -3.377471589 0.000257110337382 -0.000148609775007 0.00342882345932
Te -0.4687979099 2.6666050569 -10.1239961072 -0.000235770179379 -6.63344670445e-05 -0.00459970393576
Te -2.5437465524 -0.9273079799 -10.1239961072 -6.06780396221e-05 0.00023859839309 -0.00460176081846
Te -3.6970365767 2.1344849613 -10.4647216697 0.000326273018137 -0.00019051876 -0.00446112146391
Te 2.8239171183 -1.6303860584 -10.3775296881 0.000107215010688 -6.06780396221e-05 -0.00437524661122
Sb 0.1429950988 2.2945280811 9.3488748993 -0.000181262787854 -0.000392350374844 0.00309972222747
Sb -1.9156220791 -1.2710980264 9.3488748993 0.000253767902996 0.000349927169176 0.00309946511714
Sb -3.9778126184 2.2965911602 8.3282059984 7.66188805397e-05 -4.06234333063e-05 0.0032519315472
Sb 2.3939209485 -1.3821275415 8.5279718154 -0.000359954472334 0.000204402718218 0.0030889235933
Sb -0.2347852828 2.5467995411 1.9178836698 0.000142439126909 -0.000467683703697 -6.53060256949e-05
Sb -2.3229856644 -1.0700661964 1.9178836698 0.000476168344831 0.000111842996761 -6.58202463697e-05
Sb -4.3343533943 2.5024401691 1.3790585868 0.000160436850526 -9.48737144938e-05 0.000718880503319
Sb 1.9271790216 -1.1126538369 0.7832954698 -0.000118270755196 6.96769014304e-05 0.000711424303535
Sb 0.0540820278 -0.0312242878 -11.3127751647 -0.000278707605722 0.000159922629851 -0.0045387687858
Sb -2.1518087121 -3.6238087443 -11.037209267 -0.000320616590715 0.000185376553252 -0.00558777896231
Sb -3.8405761542 0.5477467178 -13.07929542 0.000249139916923 -0.000219572228124 -0.00506224543271
Sb -2.3946504301 3.0521630617 -13.07929542 0.00031521727363 -0.000105415238326 -0.00506353098439
Sb 0.0997140093 -0.0575699369 11.6470816252 -0.000257881668394 0.000148609775007 0.00108012052734
Sb -1.9477916453 -3.7415981302 12.1344517574 -2.03117166531e-05 1.00273031579e-05 0.000817096652199
Sb 4.2476919581 -0.0396505389 12.875519752 0.000139868023536 2.41683717139e-05 5.96495982725e-05
Sb 2.1581843089 -3.6587804272 12.875519752 4.83367434277e-05 -0.000132668934089 5.78498259109e-05
Sb 1.9433069101 1.2719982201 -1.6187422391 5.6564274224e-05 -0.000642518733117 0.00367462094186
Sb -0.1299292612 -2.3189487366 -1.6187422391 0.000585697348555 0.000271508516275 0.00367410672118
Sb -2.241356161 1.2940476578 -2.6026624678 -0.000134468706451 7.8161542564e-05 0.00419218405101
Sb 4.191336749 -2.4198659531 -2.3175206954 -0.000511906681727 0.000297219550013 0.00438141725932
Sb 2.0804102431 1.0405734722 -9.3265670548 -4.19089849932e-05 -0.000494166068447 -0.00332212266931
Sb 0.139042024 -2.3219713897 -9.3265670548 0.000407776995087 0.000284621143481 -0.00332160844863
Sb -2.0258482289 1.1696240387 -7.8787126373 -2.21114890148e-05 1.33697375438e-05 -0.00182214096102
Sb 4.2024119521 -2.4262602275 -7.8739152879 -0.000469740586396 0.000268680302564 -0.00183371092621
Cr -2.1081177331 -3.64903335 17.4303265698 -0.000464598379649 0.00026713764054 -0.00516611800901
61
Lattice="8.42843558953 0 0 -4.21421779477 7.29923593142 0 0 0 31.0334408416" Properties=species:S:1:pos:R:3:forces:R:3 energy=-133601.273715 ionic_step=98 pbc="T T T"
Te 2.0995309393 0.8862208516 2.817638111 -0.00113359947752 -7.43048875033e-05 -0.000342470969392
Te 0.2822755979 -2.2613540916 2.817638111 -0.000506507364642 0.00101969959806 -0.00034272807973
Te -2.5607297145 1.4784381496 3.3619592324 0.00147221379185 -0.000848207003022 -0.000247340144561
Te 3.5572098341 -2.0537524373 2.9519113202 0.000458170621214 -0.000265852088853 0.000166864608961
Te -0.1082249105 0.0624837104 7.5311367826 -0.000518077329824 0.000303647308448 0.000733792902887
Te -2.2979421121 -3.5394385677 7.555722373 -0.000662573339432 0.00038103752 0.000986532364533
Te -3.6345988218 -0.4071607498 7.2138392728 0.000232170634656 -6.24778119837e-05 0.00163239353204
Te -1.4646880543 3.3512351099 7.2138392728 0.00016892149166 -0.000168664381322 0.0016321364217
Te -0.5722933879 0.3304138956 -0.234545825 -0.00110094646467 0.000637119416032 -0.000687770152496
Te -2.5121189279 -3.4157834671 -0.0550971848 4.11376539811e-06 -4.62798607287e-06 -0.00112974282245
Te -3.977406874 0.0398217309 -0.4106502228 0.00088471667093 0.000786757632388 -0.00186610682872
Te 2.1910277105 -3.8746114418 -0.4106502228 -0.00023859839309 -0.00116316716631 -0.0018653354977
Te 0.3231896766 1.9747746049 13.6556093263 -0.000552787225371 0.000670543759891 0.00213684401398
Te -1.548610291 -1.267274443 13.6556093263 -0.000854891871794 0.000141924906235 0.00213812956567
Te -4.4301569781 2.5577524197 14.2325700354 0.00062349256815 -0.000351984051875 0.0023034515126
Te 1.6914560426 -0.976559047 13.8681247094 0.000918912345802 -0.000534275281079 0.00204402718218
Te 1.8418956715 1.1130138038 -13.446263193 0.000428860042753 -0.000356612037948 -0.000404948781376
Te -0.0429503764 -2.1516318219 -13.446263193 0.000523990867584 -0.000194889635735 -0.000404177450364
Te -1.1379220493 0.6569794082 -13.7977521682 -0.000753590398866 0.000435544911524 0.000639947629743
Te 4.4236782652 -2.5540084524 -14.6257546645 7.37906668285e-05 -4.37087573549e-05 0.0010963184786
Te 2.6778652161 1.0052454072 10.507766255 0.00109040494084 -0.000412147870823 -0.000386436837085
Te 0.4683644954 -2.8217187784 10.507766255 0.000905285497921 -0.000744077316382 -0.000382837292361
Te -2.3971344242 1.3839863207 10.7312339256 -0.000723251379055 0.000419346960269 -0.000425774718704
Te 4.0737932526 -2.3520021521 10.8549573386 -0.000628377664561 0.000360725803346 -0.000373324209878
Te 0.5868835293 -0.3388375216 -7.3040550681 3.80523299325e-05 -2.51968130634e-05 -0.0011451694427
Te -1.5835532479 -3.951891359 -7.58293882 -0.00109246182353 0.000632491429959 -0.000139868023536
Te 3.8320019237 0.3071003075 -7.076524665 -0.000604723513522 -0.00193912616453 -0.000821981748609
Te 1.6500443795 -3.4721575527 -7.076524665 0.00137374053263 0.00149432528086 -0.000824038631308
Te 0.270895633 2.3442825276 -3.7182202718 -0.000923283221537 -0.000802955583643 9.230261112e-05
Te -1.8947604085 -1.406740413 -3.7182202718 0.000227028427908 0.00120301926861 8.87030663967e-05
Te -4.7810185326 2.7603225272 -3.4448580206 0.00114234122899 -0.000660259346396 0.0010412968664
Te 1.7229238479 -0.9947270031 -3.3764513306 0.000511649571389 -0.000291563122591 0.00018357678089
Te -0.4672175209 2.6647520315 -10.1222173081 -0.00189181786245 -0.000583126245182 -0.00145524450958
Te -2.5413515915 -0.9277501249 -10.1222173081 -0.000440944228609 0.00193166996475 -0.00145755850262
Te -3.6977630041 2.1349043646 -10.4674971147 0.00226874161706 -0.00130869161727 -0.00312826147492
Te 2.8280051983 -1.6327463135 -10.3763257828 -0.000383351513036 0.000220086448799 -0.00147144246084
Sb 0.144453453 2.2937273601 9.3489690989 -0.000872632485073 0.000432973808151 -0.00049390895811
Sb -1.9141994577 -1.2719606383 9.3489690989 -0.000812211555789 0.000541731480863 -0.000490823634062
Sb -3.9765745528 2.2958763624 8.3304099972 0.000758732605613 -0.000438116014898 0.000785729191038
Sb 2.3962081793 -1.3834480755 8.5294051544 0.000472054579433 -0.000273051178299 0.000395949919568
Sb -0.2382581303 2.5463251067 1.915133991 -0.000853863430444 -0.00139328091827 -0.00189104653144
Sb -2.3243112161 -1.0668214036 1.915133991 0.000784443639351 0.00143467568259 -0.00188539010402
Sb -4.3402257498 2.5058305767 1.3714662798 0.00109554714758 -0.000632234319621 -0.00280713066353
Sb 1.9253966648 -1.1116247923 0.7799551716 -0.000495451620134 0.000285392474494 -0.00289197707487
Sb 0.0567171242 -0.0327456621 -11.3120527196 -0.000264823647503 0.000149638216356 -0.000889858877678
Sb -2.1514602547 -3.6240099264 -11.0394369434 -0.000662316229095 0.000383608623373 -0.00290791791579
Sb -3.8393863629 0.5475615132 -13.0764058807 0.00010901478305 0.000379494857975 -0.000551244563346
Sb -2.3938951426 3.051225274 -13.0764058807 -0.000277422054035 -0.000284364033144 -0.000552530115033
Sb 0.1022617456 -0.0590408739 11.6460269803 -0.000369467554817 0.000212887359352 -8.150397695e-05
Sb -1.9476384516 -3.7416865767 12.1379099048 2.39112613765e-05 -1.13128548448e-05 0.000413176312172
Sb 4.2493273075 -0.0391964302 12.8756509786 0.000103615465965 2.69965854251e-05 0.000904257056571
Sb 2.1586087141 -3.6604237363 12.8756509786 2.41683717139e-05 -0.000101558583266 0.000905028387583
Sb 1.9443034471 1.275319916 -1.6160973124 0.000293105784615 -0.00138968137355 -0.000574127383373
Sb -0.1323076644 -2.3214726114 -1.6160973124 0.00134957216092 0.000440430007935 -0.000570270728312
Sb -2.2396935706 1.2930877604 -2.6046967823 -0.000466655262348 0.000263795206154 0.00124030026753
Sb 4.1863674795 -2.4169969426 -2.3251070952 -0.00143364724124 0.000830466389743 -0.000242712158488
Sb 2.0818955252 1.0395277863 -9.3253075293 -0.00140742198683 -0.00256287584302 -0.00152723540405
Sb 0.1406902552 -2.3227348394 -9.3253075293 0.0015200363146 0.00249885536901 -0.00152672118337
Sb -2.0262568958 1.1698599828 -7.8830583678 0.0017277814672 -0.000999902102077 -0.0019733218394
Sb 4.2053512444 -2.4279572295 -7.8714006693 -0.00117936511757 0.000680313952712 -0.0016107962637
Cr -2.1111559703 -3.6472792221 17.4336464906 0.00114414100135 -0.000659745125721 -0.00208105107077
61
Lattice="8.42843558953 0 0 -4.21421779477 7.29923593142 0 0 0 31.0334408416" Properties=species:S:1:pos:R:3:forces:R:3 energy=-133601.276391 ionic_step=99 pbc="T T T"
Te 2.1005442632 0.8938763365 2.8102849758 -0.000279221826396 -4.2423205668e-05 -0.00159922629851
Te 0.2761524186 -2.2660593987 2.8102849758 -0.000103615465965 0.000263023875141 -0.00159999762953
Te -2.5741997017 1.486215054 3.3501043067 0.000201574504507 -0.000116213872496 -0.00155088955509
Te 3.5537444988 -2.0517517241 2.9484198992 3.34243438596e-05 -1.92832753036e-05 -0.001651419697
Te -0.1031903394 0.059576998 7.5363808056 -6.7362908394e-05 3.93378816194e-05 -0.00148815463276
Te -2.2978451221 -3.5394945649 7.5620339889 -0.000186919215276 0.000107472121026 -0.00157120127174
Te -3.6336047687 -0.4073205109 7.2181989368 7.66188805397e-05 -0.000133183154764 -0.00144933097182
Te -1.4640526705 3.3504541147 7.2181989368 0.000153237761079 -2.57110337382e-07 -0.00144907386148
Te -0.5773902221 0.3333565556 -0.2382589201 0.000100787252254 -5.88782672604e-05 0.000850520996058
Te -2.5227878476 -3.4096237606 -0.0629209912 -0.000243226379163 0.000141153575223 0.000628634774898
Te -3.9813994036 0.0361904956 -0.4184953822 -9.46166041564e-05 -0.000241426606801 0.000682113725073
Te 2.1921761862 -3.8693381904 -0.4184953822 0.000159922629851 0.000202860056194 0.000681856614736
Te 0.3236982969 1.9720432989 13.6594010691 9.0245728421e-05 6.11922602968e-05 8.48464113359e-06
Te -1.5459906017 -1.2663492683 13.6594010691 -6.9419791093e-06 -0.000109529003725 8.22753079621e-06
Te -4.4259669571 2.5553333088 14.2387794863 -0.000173035257058 0.000101044362591 0.000254025013333
Te 1.6952205345 -0.9787324785 13.8742877939 -5.39931708501e-05 3.05961301484e-05 9.33310524695e-05
Te 1.8475065729 1.111193506 -13.4434795983 -0.000215201352388 0.000658716684372 0.00178820239649
Te -0.0385685023 -2.1555808583 -13.4434795983 -0.000677999959675 -0.000142439126909 0.00178845950683
Te -1.1330731077 0.6541798692 -13.7974210801 0.000171749705371 -9.95017005667e-05 0.00179000216885
Te 4.4287456748 -2.5569341241 -14.6245878467 0.000699340117678 -0.000403663229689 0.00151746521123
Te 2.6805636673 1.0049691642 10.5131398379 -8.6903294035e-05 -1.28555168691e-06 -0.00134442995417
Te 0.4699529544 -2.8239175854 10.5131398379 -4.13947643184e-05 7.53333288528e-05 -0.00134340151282
Te -2.3961210893 1.3834012712 10.7355927913 0.000125469844642 -7.09624531173e-05 -0.00134442995417
Te 4.0770658323 -2.3538915778 10.8609832366 8.71604043724e-05 -5.14220674763e-05 -0.00129172233501
Te 0.5877324229 -0.3393276308 -7.3059265833 -5.96495982725e-05 3.47098955465e-05 -0.000489538082375
Te -1.5825362588 -3.9524785182 -7.5844826869 1.23412961943e-05 -7.45619978407e-06 -0.000135240037463
Te 3.8327333778 0.3069433173 -7.0730446665 -0.000200031842483 2.98247991363e-05 -0.000283592702132
Te 1.650546064 -3.4727125157 -7.0730446665 -0.000127012506667 0.00015812285749 -0.000283078481457
Te 0.2700433991 2.3404100174 -3.7224908979 -9.38452731443e-05 -8.81888457219e-05 0.000549959011659
Te -1.8918328348 -1.4040661014 -3.7224908979 2.87963577867e-05 0.000125469844642 0.000549444790985
Te -4.784630058 2.7624076433 -3.4456710039 0.000227542648583 -0.000131897603077 0.000732764461538
Te 1.7124033887 -0.9886530103 -3.3825480903 0.000117242313846 -6.7362908394e-05 0.000896286636112
Te -0.4663040985 2.6641216995 -10.1201368514 0.000104901017652 -0.000371524437516 0.00178871661716
Te -2.540348997 -0.9282260062 -10.1201368514 0.000373581320216 9.46166041564e-05 0.0017889737275
Te -3.6986314503 2.1354057625 -10.4683978786 0.000158894188502 -9.25597214574e-05 0.00216075527536
Te 2.8306961195 -1.6342999184 -10.3747864766 -0.000110814555411 6.45346946828e-05 0.00201780192777
Sb 0.1460682041 2.2918563638 9.3513973311 -4.7822522753e-05 -1.00273031579e-05 -0.001460900937
Sb -1.9117717525 -1.2724235563 9.3513973311 -1.38839582186e-05 4.57656400539e-05 -0.001460900937
Sb -3.9734112818 2.2940500461 8.3359629543 7.45619978407e-05 -4.2423205668e-05 -0.00149483950154
Sb 2.3988744027 -1.384987421 8.5348174036 3.31672335222e-05 -2.03117166531e-05 -0.00155448909981
Sb -0.2442987547 2.5488896256 1.9108213885 0.00011878497587 -6.76200187314e-05 -0.00118939242073
Sb -2.3295524658 -1.0628723265 1.9108213885 0.000118527865533 -6.9419791093e-05 -0.00118913531039
Sb -4.3482976839 2.5104909122 1.3511031196 -1.28555168691e-06 2.57110337382e-07 -0.000673886194277
Sb 1.9207992075 -1.1089704478 0.777350786 -5.47645018623e-05 3.08532404858e-05 -0.000440687118272
Sb 0.0585385096 -0.03379724 -11.3087911933 -0.000186404994602 0.000106957900351 0.00234458916658
Sb -2.1503991999 -3.6246225269 -11.03729322 -0.000156837305803 9.10170594331e-05 0.00148969729479
Sb -3.8349536616 0.5461671355 -13.0739644133 0.000142953347584 -0.00012469851363 0.00198180648054
Sb -2.390471226 3.0480836291 -13.0739644133 0.000179463015492 -6.09351499594e-05 0.0019815493702
Sb 0.1049242548 -0.060578075 11.6479451329 -3.39385645344e-05 1.90261649662e-05 -0.00100992940524
Sb -1.9453560518 -3.7430043214 12.1466932694 -7.94470942509e-05 4.65369710661e-05 -0.000774159225856
Sb 4.2512100663 -0.0400997874 12.8796058219 3.31672335222e-05 -5.63071638866e-05 -0.000483624544615
Sb 2.1603324234 -3.6616025754 12.8796058219 6.45346946828e-05 -7.71331012145e-07 -0.000484652985964
Sb 1.9416285168 1.277435853 -1.6161788312 1.28555168691e-06 -0.000343499410742 0.00143878944799
Sb -0.1354775838 -2.3202140212 -1.6161788312 0.000299019322375 0.000170721264021 0.001439560779
Sb -2.241088526 1.2938931386 -2.6096340854 -8.74175147098e-05 5.09078468016e-05 0.00149278261884
Sb 4.1810747376 -2.4139411753 -2.3448348272 -0.000329101231848 0.000189233208313 0.00168253004783
Sb 2.0832418031 1.0390382758 -9.3239475726 -0.000337842983319 -7.89328735762e-05 0.00126935373565
Sb 0.1417873224 -2.3236559956 -9.3239475726 -0.000101558583266 0.000332700776572 0.00126858240464
Sb -2.0265752751 1.1700437992 -7.8851233918 0.000242197937813 -0.00014141068556 -0.000139610913198
Sb 4.2069176344 -2.4288615856 -7.8684658744 -4.37087573549e-06 4.37087573549e-06 1.15699651822e-05
Cr -2.1079775544 -3.6491142822 17.4377153197 -0.000223171772847 0.000128555168691 0.00152260741797
61
Lattice="8.42843558953 0 0 -4.21421779477 7.29923593142 0 0 0 31.0334408416" Properties=species:S:1:pos:R:3:forces:R:3 energy=-133601.279437 ionic_step=100 pbc="T T T"
Te 2.1018318437 0.9042186823 2.7984120592 6.86484600809e-05 0.000254796344345 0.000265337868178
Te 0.2678394788 -2.2723456495 2.7984120592 -0.000188461877301 -0.000186404994602 0.00026610919919
Te -2.594839637 1.4981315318 3.332219911 4.49943090418e-05 -2.67394750877e-05 0.000269965854251
Te 3.5477487677 -2.0482900855 2.9423026856 0.000166350388286 -9.69305971929e-05 0.000475139903481
Te -0.096564002 0.0557512785 7.5434205228 -9.10170594331e-05 5.19362881511e-05 -0.0027608508028
Te -2.2956309268 -3.5407729318 7.5698610077 -0.000262252544129 0.000152723540405 -0.00285546740696
Te -3.6316987507 -0.4081848467 7.2243886918 8.38179699864e-05 -0.000168407270985 -0.00232067790521
Te -1.4623511252 3.3492356219 7.2243886918 0.00018563366359 1.10557445074e-05 -0.00231862102251
Te -0.585395896 0.3379786357 -0.2437475632 -0.00027202273695 0.000155551754116 0.000293362894952
Te -2.5400116915 -3.399679565 -0.0758613769 9.7701928205e-05 -5.45073915249e-05 0.000189747428988
Te -3.9865369259 0.0304715297 -0.4299104706 0.000195146746073 0.000308532404858 0.000302618867098
Te 2.1945601925 -3.8620294806 -0.4299104706 -0.000171749705371 -0.000322416363077 0.000303647308448
Te 0.3241662614 1.968035751 13.6661874257 0.000410348098461 -0.000219572228124 0.000946166041564
Te -1.5422859827 -1.2647507637 13.6661874257 0.000398006802267 -0.000243740599838 0.000945394710552
Te -4.4195404135 2.5516229404 14.2492070492 -0.000240141055114 0.000139610913198 0.00164961992464
Te 1.6992351322 -0.9810503086 13.8830030988 -0.00020028895282 0.00011389987946 0.00115005453911
Te 1.8554180831 1.1071131909 -13.4386716448 -0.000112100107098 0.000720166055006 0.0028577814
Te -0.0310790923 -2.1603922729 -13.4386716448 -0.000680828173387 -0.000262252544129 0.00285726717932
Te -1.1254707985 0.6497906719 -13.7966715257 0.000477968117192 -0.000273565398974 0.00313674611606
Te 4.4374030225 -2.5619324485 -14.622929504 0.000937424290093 -0.000542759922213 0.00322390652043
Te 2.6840856766 1.0046854885 10.5215713665 -3.52241162213e-05 1.82548339541e-05 -0.00385562661937
Te 0.4719596293 -2.8268258984 10.5215713665 -3.47098955465e-05 1.92832753036e-05 -0.0038551123987
Te -2.3934451059 1.3818562908 10.7425309562 -0.000149638216356 8.84459560593e-05 -0.00387773810839
Te 4.082440365 -2.3569945671 10.8700757824 -0.000106700790013 6.24778119837e-05 -0.00378337861457
Te 0.5876650969 -0.33928876 -7.3072856535 8.48464113359e-05 -4.80796330904e-05 -0.000328844121511
Te -1.5812627251 -3.9532137936 -7.585989252 0.000226257096896 -0.000129840720378 -0.000313931721943
Te 3.8332203682 0.3064857968 -7.068517519 -3.05961301484e-05 6.17064809716e-05 -8.99886180836e-06
Te 1.6511857833 -3.4729055017 -7.068517519 -7.04482324426e-05 -5.6564274224e-06 -8.99886180836e-06
Te 0.2680864622 2.3338179929 -3.7295997096 -8.66461836976e-05 -5.99067086099e-05 0.00141847773133
Te -1.8871024453 -1.3990753313 -3.7295997096 7.71331012145e-06 0.000105672348664 0.00141924906235
Te -4.7910418014 2.7661094668 -3.446695719 0.000189747428988 -0.000109786114062 0.0015220931973
Te 1.6960959015 -0.9792378738 -3.3914322145 -4.60227503913e-05 2.4939702726e-05 0.00130663473457
Te -0.4647789421 2.663578434 -10.1182793375 4.80796330904e-05 -0.000357126258623 -0.000153237761079
Te -2.5391159374 -0.9292751983 -10.1182793375 0.00033090100421 0.000139868023536 -0.000153494871417
Te -3.6992749658 2.1357772965 -10.4683056607 -0.000176891912119 0.000100273031579 0.000283592702132
Te 2.8336602261 -1.6360112469 -10.3723635652 -0.000436830463211 0.000256081896032 0.000246311703212
Sb 0.1486784972 2.2892866778 9.3554144643 4.80796330904e-05 3.29101231848e-05 -0.00463724204502
Sb -1.9082411936 -1.2733992944 9.3554144643 -2.05688269905e-06 -5.91353775978e-05 -0.00463364250029
Sb -3.9691273591 2.2915767211 8.3446120493 6.29920326585e-05 -3.39385645344e-05 -0.00397389737457
Sb 2.4029140636 -1.3873197214 8.5436617324 5.81069362482e-05 -3.62525575708e-05 -0.00422149462947
Sb -0.2530840007 2.5531531508 1.9047399954 -0.000146810002645 -0.000188976097975 0.00015118087838
Sb -2.3376374082 -1.0573958393 1.9047399954 9.12741697705e-05 0.000221114890148 0.000151437988718
Sb -4.3593940304 2.5168973938 1.3200502992 0.000223685993522 -0.000129069389366 0.000177406132793
Sb 1.914093636 -1.1050989825 0.771347008 -1.10557445074e-05 6.42775843454e-06 -2.2882820027e-05
Sb 0.0611749748 -0.0353194046 -11.3042623372 0.000145010230283 -8.07326459378e-05 0.000946937372577
Sb -2.1483321681 -3.6258159288 -11.0342891843 0.000314703052955 -0.000181777008529 -6.47918050202e-05
Sb -3.8276508336 0.5427598413 -13.0705617056 -0.000188976097975 0.000359954472334 0.0026376949512
Sb -2.3838690101 3.0434628387 -13.0705617056 -0.000403149009014 -2.05688269905e-05 0.00263512384782
Sb 0.1085272396 -0.0626582602 11.6524852657 0.000271508516275 -0.000156323085128 -0.00243149246062
Sb -1.9413977768 -3.7452896336 12.1604783093 0.00029953354305 -0.000171749705371 -0.00174192253576
Sb 4.2539767349 -0.0418101222 12.8863484358 -0.000290534681241 0.000280764488421 -0.000627092112874
Sb 2.1631969504 -3.6631434145 12.8863484358 -0.000389779271471 0.000112614327773 -0.000628891885235
Sb 1.936699457 1.2801794893 -1.6162747147 0.000137811140837 0.000134468706451 0.000887801994979
Sb -0.1403181714 -2.3173171463 -1.6162747147 -4.80796330904e-05 -0.000186404994602 0.000887544884641
Sb -2.2441943324 1.2956862776 -2.6167056582 -9.51308248312e-05 5.21933984885e-05 0.00141153575223
Sb 4.1740381499 -2.4098785976 -2.3738731364 9.51308248312e-05 -5.45073915249e-05 0.00134854371957
Sb 2.0848129224 1.0380519735 -9.3221842788 -5.63071638866e-05 -0.00015220931973 -0.000677742849338
Sb 0.1434270445 -2.3245234743 -9.3221842788 0.000101044362591 0.00012469851363 -0.000676457297651
Sb -2.027282814 1.1704522972 -7.8867603152 -5.91353775978e-05 3.31672335222e-05 -0.000414718974197
Sb 4.2083126993 -2.4296670271 -7.8648081248 -0.000229342420944 0.000132926044426 -0.000286163805506
Cr -2.1016806913 -3.6527497795 17.4418474368 0.000326273018137 -0.000189747428988 0.00267266195708
61
Lattice="8.42843558953 0 0 -4.21421779477 7.29923593142 0 0 0 31.0334408416" Properties=species:S:1:pos:R:3:forces:R:3 energy=-133601.282966 ionic_step=101 pbc="T T T"
Te 2.1037655688 0.9194218914 2.7804082568 0.00022779975892 0.000471283248421 -0.0021913514055
Te 0.2556399822 -2.2816219099 2.7804082568 -0.000285135364156 -0.00043991578726 -0.00219160851584
Te -2.625965435 1.516102028 3.3053382827 -0.000100015921241 6.65915773818e-05 -0.00223814548691
Te 3.5387619546 -2.0431015441 2.9329475055 0.000252996571984 -0.00015812285749 -0.00186636393905
Te -0.0867212633 0.050068568 7.5537065909 -0.000177406132793 9.53879351686e-05 -0.00254539234008
Te -2.2919722159 -3.5428852905 7.5810775235 -0.000288992019217 0.000173292367395 -0.00253922169198
Te -3.6288359205 -0.4095434427 7.2335093843 -1.64550615924e-05 -0.000139353802861 -0.00251865286499
Te -1.459743132 3.3474356351 7.2335093843 0.000103872576302 8.81888457219e-05 -0.00252045263735
Te -0.5972869569 0.3448439461 -0.2519089515 -0.000280764488421 0.000168407270985 -0.00135805680205
Te -2.5660515979 -3.3846454111 -0.0954527483 0.00044480088367 -0.000261738323454 -0.00151026612178
Te -3.9941162731 0.0218905544 -0.4468497917 0.000242455048151 0.000564357190553 -0.00117987933824
Te 2.1982018581 -3.8511750826 -0.4468497917 -0.000366639341106 -0.000487738310013 -0.00117910800723
Te 0.3249496286 1.9621855824 13.6767092529 8.45893009986e-05 -0.000477711006855 0.00259450041452
Te -1.5368279069 -1.2625040956 13.6767092529 0.000452257083454 0.0001630079539 0.00258910109743
Te -4.4099289494 2.5460737565 14.2652003872 0.000440172897597 -0.000252482351309 0.00211318986294
Te 1.7048560601 -0.9842955543 13.8958781349 -9.5645045506e-05 5.3221839838e-05 0.00287886444766
Te 1.8671809092 1.1008998225 -13.431360043 -0.000309817956545 -0.00254976321581 0.00448554694596
Te -0.0198167468 -2.1674724996 -13.431360043 0.00204556984421 0.00154908978272 0.00448349006326
Te -1.1140621683 0.6432038931 -13.7955036793 0.000384122844048 -0.000228571089932 0.00434130804669
Te 4.4501110315 -2.5692694243 -14.6201133928 -0.00215792706164 0.00125392711541 0.00255644808459
Te 2.6891564239 1.0042222814 10.5342527973 0.00028770646753 -8.84459560593e-05 0.00114851187708
Te 0.4748961518 -2.830985693 10.5342527973 0.000213144469689 -0.000197203628772 0.00114465522202
Te -2.3892267543 1.3794208232 10.7530511076 -0.000294391336302 0.000166607498623 0.00123387250909
Te 4.090615133 -2.3617142739 10.8836330952 -0.000212373138677 0.00012572695498 0.00111380198154
Te 0.5872991656 -0.3390774894 -7.3088251336 -0.000289506239892 0.000171235484696 -0.00216769725446
Te -1.5795106331 -3.9542253649 -7.5881686901 0.000150666657706 -9.10170594331e-05 -0.00198926268032
Te 3.8339263769 0.3056567702 -7.0618288684 0.000208259373279 0.000421918063643 -0.00192549931665
Te 1.6522567455 -3.4731024101 -7.0618288684 -0.000261481213117 -0.00039183615417 -0.0019203571099
Te 0.2649064451 2.3238676915 -3.7403129071 1.23412961943e-05 2.85392474494e-05 -0.00104283952842
Te -1.8800752441 -1.3913462036 -3.7403129071 -1.31126272065e-05 -2.85392474494e-05 -0.00104566774213
Te -4.8007038208 2.7716878389 -3.4482996371 -1.7483502942e-05 1.25984065317e-05 -0.000766703026072
Te 1.6713913414 -0.9649746827 -3.4046908964 -0.000228056869258 0.000126755396329 -0.00108577695476
Te -0.4624091264 2.6627633164 -10.1158855925 -4.06234333063e-05 -0.000574641604048 0.00139636624232
Te -2.5372251173 -0.9309199611 -10.1158855925 0.00047231168977 0.00032498746645 0.0013927666976
Te -3.7000543669 2.1362272841 -10.4677097162 -3.93378816194e-05 1.72263926046e-05 0.00190364493797
Te 2.8380294799 -1.638533838 -10.3688445868 -0.000531961288043 0.000313674611606 0.00145395895789
Sb 0.1527313357 2.2854969169 9.3614158306 -9.41023834817e-05 0.000301590425749 -0.000843836127287
Sb -1.9029327467 -1.2750142767 9.3614158306 -0.000301847536086 -7.22480048042e-05 -0.000840493692901
Sb -3.962860123 2.2879583289 8.3575783289 0.000122384520594 -6.50489153576e-05 -0.00186636393905
Sb 2.4090743929 -1.3908763908 8.5569723796 0.000313160390931 -0.000186147884264 -0.00164062106283
Sb -0.2661281267 2.559576967 1.8956308813 -8.8960176734e-05 -0.000124441403293 -0.00185736507724
Sb -2.3497226567 -1.0493111977 1.8956308813 7.09624531173e-05 0.000136268478812 -0.00185325131185
Sb -4.3758814517 2.5264164154 1.2733966318 0.000124955623967 -6.09351499594e-05 -0.00174192253576
Sb 1.9041583055 -1.0993628141 0.761935269 -7.86757632388e-05 3.44527852091e-05 -0.00163882129047
Sb 0.0651554411 -0.0376175289 -11.297703249 0.000161722402213 -9.66734868555e-05 0.00254230701603
Sb -2.1451186336 -3.6276712647 -11.0301159102 0.000564357190553 -0.000321645032064 0.0044858040563
Sb -3.8165305652 0.5374610479 -13.0654631281 -4.85938537651e-05 0.000263538095816 0.00425131942861
Sb -2.3737199882 3.036481796 -13.0654631281 -0.000258910109743 -9.10170594331e-05 0.00424926254591
Sb 0.1138323134 -0.0657211474 11.6598153504 0.000259681440755 -0.0001630079539 0.00207050954693
Sb -1.9353652128 -3.7487725377 12.1812093934 0.000362782686045 -0.000197717849446 0.00207179509862
Sb 4.2581185872 -0.0445345159 12.8966520755 -0.000338871424669 0.000379494857975 0.00241837983341
Sb 2.1676272696 -3.6653681686 12.8966520755 -0.000507792916329 0.00010901478305 0.0024155516197
Sb 1.9291834081 1.2843593025 -1.6164653572 0.00016892149166 0.000582869134844 -0.000654602918974
Sb -0.1476960186 -2.3128979606 -1.6164653572 -0.000408548326099 -0.000446343545695 -0.0006520318156
Sb -2.2490546853 1.298492405 -2.6269936938 -6.7362908394e-05 5.06507364642e-05 -0.000676457297651
Sb 4.1635197539 -2.403805796 -2.4173605473 0.000496737171821 -0.000298762212037 -0.000573613162698
Sb 2.0870560035 1.0363107165 -9.3194943939 3.08532404858e-06 0.000367153561781 -0.000366382230769
Sb 0.1460565572 -2.3255954119 -9.3194943939 -0.000319845259703 -0.000182805449878 -0.000369467554817
Sb -2.0285136806 1.1711629386 -7.8888855388 -0.000114671210472 6.27349223211e-05 -0.00174320808745
Sb 4.2103511616 -2.4308439344 -7.8594025742 0.000190261649662 -0.000106186569339 -0.00144907386148
Cr -2.0919335622 -3.6583772898 17.4476506114 0.00046254149695 -0.000261481213117 0.00424874832523
61
Lattice="8.42843558953 0 0 -4.21421779477 7.29923593142 0 0 0 31.0334408416" Properties=species:S:1:pos:R:3:forces:R:3 energy=-133601.286179 ionic_step=102 pbc="T T T"
Te 2.1057997716 0.9374052905 2.7606676596 -0.000568470955951 -0.000134468706451 -0.00079832759757
Te 0.2410830104 -2.2923752816 2.7606676596 -0.000169435712334 0.000562300307854 -0.000802441362968
Te -2.659202562 1.5352915011 3.2743163402 0.000296448219001 -0.000176891912119 -0.000255053454683
Te 3.5306355848 -2.0384097802 2.9212470383 0.000200546063158 -0.000111071665749 -0.00153494871417
Te -0.0760382374 0.0439007173 7.5652411661 0.000501622268232 -0.000291048901916 0.00699365828712
Te -2.2891320309 -3.5445250728 7.5926114057 0.000180234346505 -0.000106186569339 0.00681162416825
Te -3.6250272818 -0.4090741216 7.2437020913 -0.000224714434872 -0.000245540372199 0.00657611109921
Te -1.4582452564 3.3439025951 7.2437020913 0.000100273031579 0.000313931721943 0.00657071178212
Te -0.6100421572 0.3522081678 -0.2616903074 -0.000145781561295 8.43321906612e-05 -0.000628634774898
Te -2.5941439898 -3.3684262535 -0.1165743014 -0.00170335598515 0.000983704150822 -0.00060189529981
Te -4.0016706221 0.013530372 -0.4650806082 -0.0002985051017 -0.00144675986845 -0.000932796304021
Te 2.2016648106 -3.8404527303 -0.4650806082 0.00110068935433 0.000979590385424 -0.000927396986936
Te 0.3254935556 1.9553042872 13.6863601554 -0.000222657552172 0.000350184279514 -0.00281690085635
Te -1.5305965697 -1.2595345028 13.6863601554 -0.000415233194871 1.51695099055e-05 -0.00281972907006
Te -4.3979171134 2.5391387164 14.2804340384 -0.00041831851892 0.000242455048151 -0.00223865970758
Te 1.7117510279 -0.9882763677 13.9099492105 5.68213845613e-05 -3.47098955465e-05 -0.00300561984399
Te 1.8789086861 1.0952837424 -13.4254944845 7.71331012145e-05 0.00163959262148 -0.00340439797727
Te -0.0090891927 -2.174821017 -13.4254944845 -0.00138711027017 -0.000886773553629 -0.00340208398423
Te -1.1023318798 0.6364314047 -13.7943037094 -0.000499308275195 0.000287192246855 -0.00337740139185
Te 4.4606937548 -2.5753793653 -14.6175010157 0.00125598399811 -0.000724794041079 -0.00239806811676
Te 2.6943906077 1.0034308199 10.5474198325 -0.000752047736841 -5.55358328744e-05 0.00108140607903
Te 0.4781986692 -2.8351229004 10.5474198325 -0.000332957886909 0.000682885056086 0.00108140607903
Te -2.3834722626 1.3760984643 10.7641233399 0.000942052276166 -0.00054893057031 0.000693940800593
Te 4.1002742243 -2.3672909554 10.8981809444 0.000594439100026 -0.00033681454197 0.000414461863859
Te 0.5878091545 -0.3393719318 -7.3099436202 0.000546616577273 -0.00031521727363 -0.000173035257058
Te -1.5762439191 -3.9561114039 -7.5915569023 0.000225228655546 -0.000128812279028 -0.000301076205074
Te 3.8346504733 0.3051151913 -7.0535660004 -0.000736878226936 -0.000346841845128 0.00016892149166
Te 1.6530878145 -3.4734587069 -7.0535660004 -7.22480048042e-05 0.000813239997138 0.000168407270985
Te 0.2620461314 2.3165427527 -3.7492541806 -3.44527852091e-05 5.14220674763e-06 0.00190955847573
Te -1.8751618208 -1.3852066288 -3.7492541806 -2.62252544129e-05 3.16245714979e-05 0.00191212957911
Te -4.8091283911 2.7765517691 -3.4490954221 0.000189233208313 -0.000113128548448 0.0012683252943
Te 1.6459275546 -0.9502731517 -3.4153438428 0.000588525562267 -0.000336043210958 0.00200520352124
Te -0.4586913322 2.6606619056 -10.1121237122 -5.83640465856e-05 3.7023888583e-05 -0.00318559708016
Te -2.5335463459 -0.9330889613 -10.1121237122 -6.04209292847e-05 3.41956748718e-05 -0.00318096909409
Te -3.7017201641 2.137189033 -10.4680799232 0.000432202477139 -0.000252739461646 -0.00279710336037
Te 2.8439532108 -1.6419539072 -10.3648538817 0.000275365171336 -0.000154780423104 -0.00261661190353
Sb 0.156006353 2.2818052504 9.367885109 0.000205431159568 -7.91899839135e-05 0.00477916695125
Sb -1.8980981625 -1.276004693 9.367885109 0.000167378829635 -0.0001354971478 0.00478173805462
Sb -3.957850275 2.2850658905 8.3736677805 -0.000347356065803 0.000199774732146 0.00591996551821
Sb 2.4148757252 -1.3942257932 8.5712419536 -0.000279478936734 0.000166093277949 0.00589528292582
Sb -0.2818120364 2.5651266371 1.885004271 0.000409833877786 0.000305447080809 -0.00230216596092
Sb -2.3623707646 -1.0385033622 1.885004271 -6.58202463697e-05 -0.000505221812955 -0.00230010907822
Sb -4.3942934515 2.5370465934 1.2211754268 0.000213401580027 -0.000122898741268 -0.00151875076291
Sb 1.894008935 -1.0935030696 0.7522273276 0.000659488015384 -0.00038103752 -0.002244316135
Sb 0.0711482026 -0.041077453 -11.2925679184 -0.000383865733711 0.000218286676437 -0.00217978144032
Sb -2.1416885879 -3.6296516034 -11.02282277 -0.000699083007341 0.000405463002051 -0.00405694401354
Sb -3.8054290388 0.5309499527 -13.0591081207 0.000356097817274 -0.000709624531173 -0.00342805212831
Sb -2.3625304538 3.0301231353 -13.0591081207 0.000789328735762 4.37087573549e-05 -0.00343036612135
Sb 0.1198307319 -0.0691843376 11.6668088623 -0.000338614314332 0.000193346973711 -0.00141050731088
Sb -1.928615559 -3.7526694539 12.2029995446 -0.000850520996058 0.000496994282159 -0.00220909201878
Sb 4.2635306504 -0.0468983193 12.9064849635 0.000234484627692 -0.000830209279405 -0.00256544694639
Sb 2.1723804141 -3.6688732533 12.9064849635 0.000833551713791 0.000213401580027 -0.00256261873268
Sb 1.9218580735 1.2896749667 -1.6151033695 -1.36268478812e-05 -0.00124415692259 0.000238341282753
Sb -0.1559621839 -2.3092118639 -1.6151033695 0.00106752212081 0.000633262760971 0.000240655275789
Sb -2.2525428509 1.3005062992 -2.6384002758 -5.42502811875e-05 2.80250267746e-05 0.0019712649567
Sb 4.1515045103 -2.3968687886 -2.4605877663 -0.00101789982569 0.00059109666564 0.00216615459244
Sb 2.0911539763 1.0334727386 -9.3171226736 -0.000388493719784 -0.000879574464183 -0.00192781330969
Sb 0.1505633034 -2.3277253732 -9.3171226736 0.000561014756167 0.000780586984291 -0.0019306415234
Sb -2.0281863408 1.1709739488 -7.8913566503 0.000319588149365 -0.000193089863374 -0.00110968821614
Sb 4.2114833614 -2.4314976105 -7.8522821469 -0.000604723513522 0.000358926030985 -0.00129506476939
Cr -2.0871137394 -3.661160017 17.4526426499 -0.00111817285727 0.000649460712226 -0.00380908964831
61
Lattice="8.42843558953 0 0 -4.21421779477 7.29923593142 0 0 0 31.0334408416" Properties=species:S:1:pos:R:3:forces:R:3 energy=-133601.289695 ionic_step=103 pbc="T T T"
Te 2.1063384276 0.9449002904 2.7603593902 6.22207016464e-05 0.000209544924966 0.000412147870823
Te 0.2348614811 -2.2965892716 2.7603593902 -0.000149638216356 -0.00015812285749 0.00041240498116
Te -2.6644648866 1.5383297071 3.2656961639 -0.000127526727341 7.40477771659e-05 0.000866976057651
Te 3.5320365408 -2.0392186228 2.9211299948 0.000155551754116 -9.12741697705e-05 0.000337585872982
Te -0.0725811558 0.0419047694 7.5696609889 1.20841858569e-05 -6.68486877192e-06 0.00563817258844
Te -2.2921224519 -3.5427985516 7.5961456647 0.000430659815114 -0.000248882806585 0.00564640011924
Te -3.6221981663 -0.40681184 7.2462990448 -7.8161542564e-05 0.000332957886909 0.00531909865975
Te -1.4587898911 3.3403213673 7.2462990448 -0.000326530128475 -9.71877075303e-05 0.00531832732874
Te -0.6102706077 0.3523400639 -0.2645705694 8.84459560593e-05 -5.11649571389e-05 -0.000199003401133
Te -2.6001647302 -3.3649501758 -0.1220455731 -0.000319331039028 0.00018357678089 0.000157351526478
Te -4.0039516622 0.0122139982 -0.4680889752 -0.000110557445074 -0.000308018184183 8.02184252631e-05
Te 2.2016643031 -3.8378191038 -0.4680889752 0.000211858918002 0.00024939702726 8.150397695e-05
Te 0.3253122286 1.9527821662 13.6845150222 -0.000146552892308 0.000146810002645 -0.00364916701846
Te -1.5285030133 -1.2581164085 13.6845150222 -0.000200546063158 5.3221839838e-05 -0.0036473672461
Te -4.3959718421 2.538015613 14.2797750425 8.17610872874e-05 -4.49943090418e-05 -0.00400012262898
Te 1.7144009816 -0.98980632 13.911162338 0.000121613189582 -7.07053427799e-05 -0.00386848213624
Te 1.879992552 1.0959985969 -13.426504292 0.000218543786774 -0.000236027289716 -0.00507638650126
Te -0.0091663416 -2.1761171001 -13.426504292 0.000313417501268 -7.17337841295e-05 -0.00507767205295
Te -1.1002812507 0.6352474729 -13.7932419106 -0.000384379954386 0.00022188622116 -0.00510672552107
Te 4.4593592045 -2.574608862 -14.6167082752 -0.000302875977436 0.000176377691444 -0.00476014078628
Te 2.6960979372 1.0032633288 10.5482437804 8.8960176734e-05 0.000255567675357 0.00297168127946
Te 0.4791973855 -2.8365177462 10.5482437804 -0.000176891912119 -0.000205688269905 0.00297219550013
Te -2.3822554258 1.3753959229 10.7649465846 -3.5738336896e-05 2.13401580027e-05 0.00232710566364
Te 4.1021695158 -2.368385203 10.9005186365 0.000180748567179 -0.000105672348664 0.00202037303114
Te 0.5893013367 -0.340233444 -7.310558426 0.000443258221646 -0.000256339006369 0.000837665479189
Te -1.5747955099 -3.9569476438 -7.5923520049 0.000356869148286 -0.000206973821592 0.00048799542035
Te 3.8355291962 0.3062180918 -7.0508649388 -0.000158379967827 -0.000166350388286 0.000832523272442
Te 1.6525720366 -3.4747711539 -7.0508649388 6.60773567071e-05 0.000219315117787 0.000832780382779
Te 0.2621177432 2.3200022848 -3.7492440717 -0.000229599531282 -9.38452731443e-05 0.00239703967541
Te -1.8781220562 -1.3869984125 -3.7492440717 -3.31672335222e-05 0.000244769041187 0.00239806811676
Te -4.8070220077 2.7753356475 -3.4505315736 0.000172521036383 -9.89874798919e-05 0.00205302604399
Te 1.6428507026 -0.9484967295 -3.4140702947 0.00018357678089 -0.000106700790013 0.0023523024767
Te -0.4564361302 2.6588411604 -10.1092894015 -0.000486195647989 0.000109786114062 -0.00366973584545
Te -2.530841934 -0.9341316519 -10.1092894015 -0.00033681454197 0.00036432534807 -0.00366999295579
Te -3.7030166855 2.1379375804 -10.469043299 7.68759908771e-05 -4.31945366801e-05 -0.00405771534456
Te 2.8465002401 -1.6434244359 -10.3628589172 -0.000252225240971 0.000144753119946 -0.00380446166224
Sb 0.1547398588 2.2810112592 9.3714924334 -6.32491429959e-05 -3.47098955465e-05 0.00529930116377
Sb -1.8980437935 -1.2745108808 9.3714924334 -1.28555168691e-06 7.14766737921e-05 0.00529955827411
Sb -3.9600678637 2.2863462165 8.3758884513 -3.54812265587e-05 2.03117166531e-05 0.00588885516739
Sb 2.4162497459 -1.3950190848 8.5737147093 2.05688269905e-06 -1.54266202429e-06 0.00587419987816
Sb -0.2871201022 2.5646144807 1.8818406465 0.000107472121026 0.000122384520594 -0.00044968598008
Sb -2.3645812572 -1.033650362 1.8818406465 -5.19362881511e-05 -0.000154009092092 -0.000448657538731
Sb -4.3989874532 2.5397566778 1.208738214 -2.80250267746e-05 1.59408409177e-05 -0.000277422054035
Sb 1.8926919013 -1.0927426795 0.7566845054 0.000106443679676 -6.24778119837e-05 -0.000926368545586
Sb 0.0748803742 -0.0432322243 -11.2929684068 0.000249139916923 -0.000143210457922 -0.00440430007935
Sb -2.1410956289 -3.6299939486 -11.0168338529 0.000224971545209 -0.000130097830715 -0.00406414310299
Sb -3.80397856 0.5296372773 -13.0576281899 4.16518746558e-05 0.000100273031579 -0.00506044566035
Sb -2.3606684048 3.0295233209 -13.0576281899 -6.60773567071e-05 -8.6903294035e-05 -0.00506018855001
Sb 0.1215040311 -0.0701504178 11.6650342081 -0.000139610913198 8.17610872874e-05 -3.59954472334e-06
Sb -1.9276628708 -3.753219489 12.2037199577 0.00014141068556 -8.150397695e-05 -0.00119504884815
Sb 4.2661225925 -0.0456393007 12.9065400726 9.51308248312e-05 0.000192318532361 -0.00233970407017
Sb 2.1725860436 -3.6717474513 12.9065400726 -0.000119299196545 -0.000177920353468 -0.00233970407017
Sb 1.921754987 1.292805735 -1.6153693911 -0.000201060283832 -0.000524505088259 0.00106006592102
Sb -0.1587250508 -2.3106879725 -1.6153693911 0.000353012493225 0.000436830463211 0.00105826614866
Sb -2.2506481812 1.2994124107 -2.6405027189 0.000191547201349 -0.000111585886424 0.00183165404351
Sb 4.1477959023 -2.3947276218 -2.4665625878 -0.000376152423589 0.000218543786774 0.00170078488178
Sb 2.0949403361 1.0320830369 -9.3175096662 0.000388236609446 -0.000589554003616 -0.00214121488971
Sb 0.1536599997 -2.3303096077 -9.3175096662 0.000705767876113 -4.16518746558e-05 -0.00214224333106
Sb -2.0255245353 1.169437154 -7.893117362 -0.00027202273695 0.000158894188502 4.96222951147e-05
Sb 4.2101362374 -2.4307198478 -7.8483999517 -0.000490566523724 0.000282050040108 0.000180234346505
Cr -2.0924866668 -3.6580579545 17.4532157763 0.000280507378083 -0.000161722402213 -0.00490078014083
61
Lattice="8.42843558953 0 0 -4.21421779477 7.29923593142 0 0 0 31.0334408416" Properties=species:S:1:pos:R:3:forces:R:3 energy=-133601.292078 ionic_step=104 pbc="T T T"
Te 2.106910326 0.9516555435 2.7577558249 2.98247991363e-05 8.12468666126e-05 -3.13674611606e-05
Te 0.2292972122 -2.3004621769 2.7577558249 -5.55358328744e-05 -6.63344670445e-05 -3.13674611606e-05
Te -2.671467769 1.542372825 3.2568886744 -2.13401580027e-05 1.18270755196e-05 0.000536075053441
Te 3.5305201346 -2.0383431249 2.919983869 0.000125212734305 -7.19908944669e-05 -8.04755356005e-05
Te -0.0687863902 0.0397138594 7.5742769721 5.96495982725e-05 -3.44527852091e-05 0.0042952852963
Te -2.293773674 -3.5418452177 7.6013998137 0.000379494857975 -0.000219058007449 0.00428937175854
Te -3.620042779 -0.4062959864 7.2494602847 -4.19089849932e-05 0.000277422054035 0.00416518746558
Te -1.4581589396 3.3381968194 7.2494602847 -0.00026122410278 -0.000102329914278 0.00416518746558
Te -0.6125750393 0.3536705287 -0.2675166818 5.16791778137e-05 -2.98247991363e-05 -0.000830466389743
Te -2.6073257311 -3.360815768 -0.127764161 -0.000390293492145 0.000225485765884 -0.000656145580998
Te -4.0059933299 0.0103067148 -0.4724404438 -0.000146810002645 -0.000346841845128 -0.000645346946828
Te 2.2022952244 -3.8350973252 -0.4724404438 0.000227285538245 0.000300304874062 -0.000645604057165
Te 0.3249176101 1.9495568762 13.684202209 -0.000183062560216 0.000311360618569 -0.00392350374844
Te -1.5259071408 -1.2561620137 13.684202209 -0.000360982913684 3.08532404858e-06 -0.00392324663811
Te -4.3942299407 2.5370099253 14.2813019633 -4.11376539811e-06 2.31399303643e-06 -0.0039967801946
Te 1.7169990715 -0.9913063286 13.9127364635 0.000231656413981 -0.000133954485776 -0.00409319657112
Te 1.8815016644 1.0958321819 -13.4258197331 0.000391321933495 0.000464598379649 -0.00472337400804
Te -0.0082676658 -2.1773408229 -13.4258197331 -0.000206459600917 -0.000571299169662 -0.0047231168977
Te -1.0976028843 0.6337011166 -13.7914936179 -0.000425774718704 0.000245797482537 -0.00491183588534
Te 4.461079176 -2.5756018884 -14.6165467461 0.000184348111903 -0.000106700790013 -0.00441329894116
Te 2.6981610705 1.0037642305 10.5500366542 0.000108243452038 0.000238084172415 0.001058523259
Te 0.4797951587 -2.8385549238 10.5500366542 -0.000151952209393 -0.000213144469689 0.00105800903833
Te -2.3812898103 1.3748384243 10.7663544106 -3.0339019811e-05 1.77406132793e-05 0.000614493706342
Te 4.1041928184 -2.3695533578 10.9035976062 0.000191804311687 -0.000111071665749 0.000487224089338
Te 0.5903244848 -0.3408241591 -7.3124256272 0.000341442528043 -0.000197203628772 0.00283592702132
Te -1.5736677585 -3.9575987516 -7.5916872604 0.000227285538245 -0.000131640492739 0.00264103738558
Te 3.8369826098 0.3069453032 -7.0493009631 -0.000118527865533 -0.000186919215276 0.002688602798
Te 1.6526689601 -3.4763934532 -7.0493009631 0.000102844134953 0.000196175187422 0.00268834568766
Te 0.262675693 2.321152552 -3.7506596485 -0.000201831614845 8.48464113359e-06 0.00228802489236
Te -1.8788392414 -1.388056745 -3.7506596485 -0.000108500562375 0.000170464153684 0.00228776778202
Te -4.8073947774 2.7755508663 -3.4511501304 0.00017380658807 -0.000100273031579 0.00190133094494
Te 1.6386077791 -0.9460470753 -3.4144102875 0.000253767902996 -0.000146810002645 0.00215175641355
Te -0.4550414045 2.6580903535 -10.1066357746 -0.000284364033144 0.000283592702132 -0.00096622064788
Te -2.5294943537 -0.9349641168 -10.1066357746 -0.000387722388771 0.000104386796977 -0.00096622064788
Te -3.7035772722 2.1382612354 -10.4698879239 2.33970407017e-05 -1.33697375438e-05 -0.0016830442685
Te 2.8481819134 -1.6443953509 -10.3606143893 9.17883904452e-05 -5.27076191632e-05 -0.00129892142445
Sb 0.1540556971 2.2796033134 9.3760123052 -2.46825923886e-05 -4.85938537651e-05 0.00317814088037
Sb -1.897166558 -1.2732144061 9.3760123052 2.98247991363e-05 4.52514193792e-05 0.0031776266597
Sb -3.9610501652 2.2869133488 8.3775491962 -4.42229780296e-05 2.54539234008e-05 0.00407751284054
Sb 2.4180543894 -1.3960609966 8.5781783586 -7.07053427799e-05 4.06234333063e-05 0.0039121908936
Sb -0.2926070821 2.5656282212 1.8783520148 2.90534681241e-05 0.000146810002645 -0.00103564043897
Sb -2.3682026718 -1.0294053661 1.8783520148 -0.000112871438111 -9.84732592172e-05 -0.0010351262183
Sb -4.4036244904 2.5424338737 1.194808171 3.49670058839e-05 -2.03117166531e-05 -0.00103589754931
Sb 1.8901075653 -1.0912506117 0.7576779589 0.000183062560216 -0.000105672348664 -0.00153263472113
Sb 0.0774079618 -0.0446915284 -11.2919293294 0.000103615465965 -5.99067086099e-05 -0.00265132179908
Sb -2.1411981018 -3.6299347858 -11.0119685367 -1.02844134953e-05 6.17064809716e-06 -0.00267908971552
Sb -3.801806906 0.5283776088 -13.0568136037 -5.68213845613e-05 1.05415238326e-05 -0.00453902589614
Sb -2.3584916733 3.0282724467 -13.0568136037 -3.77952195951e-05 4.42229780296e-05 -0.00453928300647
Sb 0.1241987086 -0.0717061912 11.6642986991 -0.000203631387206 0.000117499424183 -0.00118399310364
Sb -1.9268418082 -3.75369353 12.2065069562 -3.13674611606e-05 1.82548339541e-05 -0.00213658690364
Sb 4.2687765544 -0.0448344999 12.9073458905 0.000174577919082 -2.05688269905e-06 -0.00297733770688
Sb 2.1732160469 -3.6744482512 12.9073458905 8.8960176734e-05 -0.000149895326693 -0.00297759481722
Sb 1.9205719334 1.2951624597 -1.6151472979 -0.000132154713414 -0.000453285524804 0.000472568800107
Sb -0.1613575601 -2.3108417798 -1.6151472979 0.000326530128475 0.000341185417705 0.00047231168977
Sb -2.250022699 1.2990512882 -2.6443587602 0.000133697375438 -7.71331012145e-05 0.00141744928998
Sb 4.1445275575 -2.3928406411 -2.4750790186 -0.000331158114548 0.000191290091012 0.001312291162
Sb 2.098064104 1.0314935097 -9.3180014693 0.000256081896032 -0.000401863457327 0.000691626807557
Sb 0.155732429 -2.3327201077 -9.3180014693 0.000475911234493 -2.05688269905e-05 0.000691626807557
Sb -2.0233845786 1.1682016488 -7.8950987506 -0.000174577919082 0.000101044362591 0.00246877345954
Sb 4.2098955815 -2.430580905 -7.8447234053 -0.000366639341106 0.000211601807665 0.00235307380772
Cr -2.0937115337 -3.6573507769 17.4556514543 3.83094402699e-05 -2.15972683401e-05 -0.00464726934817
61
Lattice="8.42843558953 0 0 -4.21421779477 7.29923593142 0 0 0 31.0334408416" Properties=species:S:1:pos:R:3:forces:R:3 energy=-133601.294432 ionic_step=105 pbc="T T T"
Te 2.1077951527 0.9612326401 2.7529609866 -6.53060256949e-05 -0.00010310124529 -0.000606009065209
Te 0.2214456204 -2.3060170079 2.7529609866 5.63071638866e-05 0.000108500562375 -0.000606780396221
Te -2.6829515945 1.5490030179 3.2436561793 8.8960176734e-05 -5.14220674763e-05 -0.000451485752442
Te 3.5285486475 -2.0372048858 2.9180392223 0.00010412968664 -5.93924879352e-05 -0.000905542608258
Te -0.0636502116 0.0367484839 7.5800731429 0.000104901017652 -6.22207016464e-05 0.00120764725468
Te -2.2949077281 -3.541190471 7.6077376592 -2.57110337382e-06 2.8282137112e-06 0.00121150390974
Te -3.6175821566 -0.4058944515 7.253667463 -8.02184252631e-05 -7.45619978407e-05 0.0010564663763
Te -1.4572763676 3.3358650894 7.253667463 2.2882820027e-05 0.000106700790013 0.00105595215563
Te -0.6156105059 0.355423057 -0.2715262468 0.000115442541484 -6.71057980566e-05 -4.55085297165e-05
Te -2.6184177434 -3.3544117887 -0.1367248968 -0.000482081882591 0.000279221826396 -0.000231656413981
Te -4.0096889688 0.0069254649 -0.4788920734 -0.000264052316491 -0.000539160377489 4.47371987044e-05
Te 2.2033756519 -3.8302061816 -0.4788920734 0.000334500548933 0.000497765613171 4.39658676923e-05
Te 0.3250474707 1.9461426811 13.6856395294 -0.000166864608961 4.2423205668e-05 0.00135420014699
Te -1.5228854322 -1.2545673788 13.6856395294 -0.00011981341722 0.000122898741268 0.0013529145953
Te -4.3913431953 2.5353432613 14.2850270249 0.000116985203509 -6.68486877192e-05 0.000947194482914
Te 1.7201130209 -0.9931041689 13.916005295 3.39385645344e-05 -2.00546063158e-05 0.00133748797506
Te 1.8849321808 1.0948094232 -13.4238112962 -0.000203631387206 -0.000928168317948 2.67394750877e-05
Te -0.005666673 -2.1798003593 -13.4238112962 0.000703196772739 0.000639690519405 2.67394750877e-05
Te -1.0933514334 0.6312465391 -13.789782458 -0.000143210457922 8.38179699864e-05 3.29101231848e-05
Te 4.4639397828 -2.5772534613 -14.6151409945 -0.000909656373656 0.000524505088259 -8.04755356005e-05
Te 2.7005895828 1.0039890142 10.5535294174 -3.88236609446e-05 -2.95676887989e-05 0.00175477805263
Te 0.4808147465 -2.84077047 10.5535294174 4.37087573549e-06 4.91080744399e-05 0.00175503516297
Te -2.379738014 1.3739424939 10.7693396978 9.69305971929e-05 -5.83640465856e-05 0.00184965176712
Te 4.1071540292 -2.3712630145 10.9082165428 7.86757632388e-05 -4.31945366801e-05 0.00184168134666
Te 0.5910375849 -0.3412358678 -7.3142996673 0.000171749705371 -9.97588109041e-05 -0.00219649361225
Te -1.5726608663 -3.9581800814 -7.5909187891 0.000182548339541 -0.000105415238326 -0.00246131725975
Te 3.8386162127 0.3074056783 -7.0467219889 -6.11922602968e-05 0.000190261649662 -0.00198874845965
Te 1.6530870653 -3.4780383831 -7.0467219889 -0.000194375415061 -4.19089849932e-05 -0.00198951979066
Te 0.2619855954 2.320564732 -3.7536395774 0.000154523312766 0.000226771317571 0.000579783810796
Te -1.8786752234 -1.3871651927 -3.7536395774 -0.000119042086208 -0.000247597254899 0.000579783810796
Te -4.8084131332 2.7761388146 -3.4522076169 -0.000115185431147 6.71057980566e-05 0.000449171759406
Te 1.6307754381 -0.941525069 -3.417064498 0.000198489180459 -0.000114671210472 0.000796527825208
Te -0.4531804616 2.6571132284 -10.1041312947 -9.20455007826e-05 1.18270755196e-05 -0.00268063237754
Te -2.5277176675 -0.9360871789 -10.1041312947 -5.57929432118e-05 7.32764461538e-05 -0.00268166081889
Te -3.7038696825 2.1384300586 -10.469945256 3.5738336896e-05 -1.90261649662e-05 -0.00203168588599
Te 2.8504878583 -1.6457266894 -10.357933985 -7.89328735762e-05 4.34516470175e-05 -0.00241812272307
Sb 0.154101345 2.2777634831 9.3811697275 5.37360605128e-05 6.71057980566e-05 0.0017421796461
Sb -1.895550395 -1.2723340233 9.3811697275 -3.21387921727e-05 -7.94470942509e-05 0.00174192253576
Sb -3.9613413528 2.2870814661 8.3808444933 -8.53606320107e-05 4.93651847773e-05 0.00153057783843
Sb 2.4207782559 -1.3976336224 8.5842478236 -3.59954472334e-05 2.13401580027e-05 0.00156040263757
Sb -0.2996404327 2.5676761607 1.8731631663 9.69305971929e-05 0.000278964716059 -0.000752819067853
Sb -2.3734929138 -1.0243382727 1.8731631663 -0.000193861194386 -0.00022291466251 -0.000753076178191
Sb -4.4106103734 2.546467177 1.1739266006 6.96769014304e-05 -3.98521022942e-05 -0.000465626820998
Sb 1.8862590603 -1.0890286753 0.7586105134 0.000346070514116 -0.000199260511471 -0.00075513306089
Sb 0.0803015928 -0.0463621678 -11.2900672537 -1.4141068556e-05 8.48464113359e-06 -0.00135034349193
Sb -2.1405611997 -3.6303025016 -11.0072847101 6.09351499594e-05 -3.59954472334e-05 -0.000697026124642
Sb -3.7977319231 0.5260613992 -13.0550532851 0.000184862332577 -0.000281535819433 -0.000203374276869
Sb -2.3544482864 3.0259015112 -13.0550532851 0.000336557431633 -1.90261649662e-05 -0.000202602945857
Sb 0.1276066553 -0.0736737711 11.6652401467 -0.000100273031579 5.70784948987e-05 0.00177277577625
Sb -1.9252916168 -3.7545885338 12.2117863107 -0.000192575642699 0.000112357217436 0.00164216372486
Sb 4.2718614954 -0.0446283919 12.9096124346 6.42775843454e-05 -0.000210573366316 0.00160848227066
Sb 2.1745800227 -3.6772229437 12.9096124346 0.000213915800702 5.06507364642e-05 0.00160951071201
Sb 1.9182780273 1.298280636 -1.6155483811 4.67940814035e-05 -0.000183833891228 0.000477453896518
Sb -0.1652049319 -2.3104142862 -1.6155483811 0.000181262787854 5.16791778137e-05 0.000476939675843
Sb -2.250244614 1.299179411 -2.6484278354 -8.87030663967e-05 5.09078468016e-05 0.000772359453494
Sb 4.139538964 -2.389960474 -2.4897302273 -4.9879405452e-05 2.93105784615e-05 0.00106135147271
Sb 2.1015587653 1.0303390098 -9.3178406107 0.000208516483617 7.8161542564e-05 -0.0029066323641
Sb 0.1584795854 -2.3351693245 -9.3178406107 3.85665506072e-05 -0.000220600669473 -0.00290611814342
Sb -2.0216304461 1.1671888995 -7.8970807955 -0.000281278709096 0.000164293505587 -0.00276445034753
Sb 4.2098864714 -2.4305756452 -7.8404672756 1.13128548448e-05 -9.51308248312e-06 -0.00259501463519
Cr -2.0928226312 -3.6578639853 17.4588918584 -0.000428345822078 0.000246311703212 -6.78771290688e-05
61
Lattice="8.42843558953 0 0 -4.21421779477 7.29923593142 0 0 0 31.0334408416" Properties=species:S:1:pos:R:3:forces:R:3 energy=-133601.297099 ionic_step=106 pbc="T T T"
Te 2.1091455928 0.9748485591 2.7445598471 -0.000173035257058 -2.05688269905e-06 -0.000622721237138
Te 0.2103291143 -2.3139944834 2.7445598471 -8.53606320107e-05 0.000151952209393 -0.000622721237138
Te -2.700916243 1.5593749174 3.2239351016 0.00019643229776 -0.00011389987946 -0.000768502798434
Te 3.5252168848 -2.0352812908 2.9143511612 0.000236027289716 -0.000136268478812 -0.00110223201636
Te -0.056165898 0.0324274115 7.5882571004 8.94743974088e-05 -5.11649571389e-05 0.00128863701096
Te -2.2958378025 -3.540653492 7.6164115632 -9.84732592172e-05 5.68213845613e-05 0.00131306249301
Te -3.6142713581 -0.4055747907 7.2598101475 -8.74175147098e-05 -0.000165579057274 0.000926111435249
Te -1.4558978026 3.3328380222 7.2598101475 0.000100015921241 0.000158637078164 0.000927139876598
Te -0.6205356215 0.3582665751 -0.2774312246 5.91353775978e-06 -4.37087573549e-06 0.000820439086585
Te -2.6352663298 -3.3446842483 -0.1501345125 -0.000500850937219 0.000289506239892 0.000511135350715
Te -4.0152089191 0.0017677782 -0.4887648704 -0.000184091001565 -0.0005440454739 0.000908370821969
Te 2.2050823623 -3.8228469188 -0.4887648704 0.000379237747638 0.000432202477139 0.000908370821969
Te 0.3254733294 1.9415118433 13.6889737257 -0.000161722402213 -0.000120070527557 0.00319768126602
Te -1.5186620815 -1.2526207645 13.6889737257 2.2882820027e-05 0.000199260511471 0.00319819548669
Te -4.3867620674 2.5326983446 14.2917483109 0.00014141068556 -8.150397695e-05 0.00213350157959
Te 1.7244583329 -0.9956129371 13.9214639419 -7.25051151416e-05 4.16518746558e-05 0.0030084480577
Te 1.8906555483 1.0928472496 -13.4203743315 -0.000568213845613 -0.00192884175104 -0.00046254149695
Te -0.0011056979 -2.1837758564 -13.4203743315 0.00138711027017 0.0014567871716 -0.000463055717624
Te -1.0867585005 0.6274401057 -13.7874767123 -3.34243438596e-06 2.8282137112e-06 -0.000286678026181
Te 4.4683854083 -2.5798201456 -14.6126264538 -0.00171338328831 0.000988589247232 -0.00045174286278
Te 2.7039846277 1.0041285467 10.5593539647 -0.000176120581106 -0.000122898741268 0.00390550602483
Te 0.4823914303 -2.8437804327 10.5593539647 1.87690546289e-05 0.000213401580027 0.00390499180415
Te -2.3773026907 1.3725364587 10.7742901959 0.000208516483617 -0.000120841858569 0.00407442751649
Te 4.1117649964 -2.3739251589 10.9155196288 8.58748526855e-05 -4.93651847773e-05 0.00409088257808
Te 0.5917661891 -0.3416565278 -7.31650683 0.000201574504507 -0.000117242313846 -0.00414564707994
Te -1.5713514731 -3.9589360603 -7.5901192607 0.000277164943697 -0.000159665519514 -0.00442975400275
Te 3.8407328915 0.3078545564 -7.0427960925 -0.0001354971478 0.000339642755681 -0.00373118521608
Te 1.653756665 -3.4800959206 -7.0427960925 -0.000362525575708 -5.27076191632e-05 -0.00373015677473
Te 0.2604273131 2.3185423427 -3.7584856902 0.000332443666234 0.000299019322375 0.000506764474979
Te -1.8777029248 -1.3848044853 -3.7584856902 -9.25597214574e-05 -0.000436830463211 0.000507535805991
Te -4.8106024502 2.7774028179 -3.4537053048 -0.000199517621808 0.000116213872496 0.000416775856896
Te 1.6180774992 -0.9341939072 -3.4217318816 0.000159151298839 -9.35881628069e-05 0.000724536930741
Te -0.4504605254 2.6557642222 -10.1011608182 -0.000122384520594 -0.000164807726262 -0.00509027045948
Te -2.5251894262 -0.9377682107 -10.1011608182 8.150397695e-05 0.000188718987638 -0.00508949912847
Te -3.7040957214 2.1385605623 -10.4696428791 9.92445902293e-05 -5.70784948987e-05 -0.00399240931886
Te 2.8539514807 -1.6477264137 -10.3543207805 -0.000320873701052 0.000185376553252 -0.00471540358758
Sb 0.1548205011 2.2751131845 9.3880514113 8.87030663967e-05 9.92445902293e-05 0.00307812495913
Sb -1.8928955921 -1.2716316817 9.3880514113 -4.13947643184e-05 -0.000126241175654 0.00307863917981
Sb -3.9610357824 2.2869050449 8.3863406962 -0.000123927182618 7.2762225479e-05 0.00217026835784
Sb 2.4249899949 -1.4000652722 8.5932552642 -9.51308248312e-06 4.37087573549e-06 0.00241889405409
Sb -0.3096911071 2.5709595299 1.8655993799 0.000171235484696 0.000252482351309 -0.000458941952226
Sb -2.3813617309 -1.0172758139 1.8655993799 -0.000131383382402 -0.000274336729986 -0.000458684841889
Sb -4.4211862192 2.5525731473 1.1426477534 2.77679164372e-05 -1.59408409177e-05 6.58202463697e-05
Sb 1.8804551916 -1.0856778085 0.7584449387 0.000368953334143 -0.000213401580027 -0.000100273031579
Sb 0.084344278 -0.0486962142 -11.2870349564 6.1963591309e-05 -3.52241162213e-05 -0.00292360164637
Sb -2.1391684628 -3.631106599 -11.0015441073 4.9879405452e-05 -2.93105784615e-05 -0.00158457100928
Sb -3.7912567582 0.5224687404 -13.0521888729 0.00033681454197 -0.000545845246261 -0.000932539193683
Sb -2.3480993717 3.0220901806 -13.0521888729 0.000642004512442 -1.90261649662e-05 -0.000932796304021
Sb 0.1323504972 -0.0764126308 11.667686701 1.4141068556e-05 -8.22753079621e-06 0.00424540589085
Sb -1.9226522688 -3.7561123628 12.2207545342 -0.000265594978515 0.000153494871417 0.00403046164879
Sb 4.2760934833 -0.0448010731 12.9137185228 -1.46552892308e-05 -0.000356612037948 0.00391373355562
Sb 2.1768455629 -3.6808016139 12.9137185228 0.000301847536086 0.000190775870337 0.00391373355562
Sb 1.914552046 1.3027982293 -1.6160402337 0.000204916938893 4.57656400539e-05 0.00108886227881
Sb -0.1709802712 -2.3094462868 -1.6160402337 6.27349223211e-05 -0.000198489180459 0.00108706250645
Sb -2.2512068331 1.2997349487 -2.654134754 -0.000268937412901 0.000153751981754 0.00115982473193
Sb 4.1320601005 -2.3856425481 -2.5127000227 8.97315077462e-05 -5.09078468016e-05 0.00165604768308
Sb 2.106068505 1.028500158 -9.3171959295 0.000186404994602 -4.01092126315e-05 -0.00533863904539
Sb 0.1623269469 -2.3381554496 -9.3171959295 0.000128040948016 -0.000141153575223 -0.00533838193505
Sb -2.0197618109 1.166110042 -7.8995607109 -0.000297733770688 0.000171492595034 -0.00494885977392
Sb 4.2100751681 -2.4306845894 -7.8345553823 1.79977236167e-05 -1.00273031579e-05 -0.00468480745743
Cr -2.0903744932 -3.6592774191 17.463247001 -0.000671315090903 0.000386951057759 -0.000583383355519
