
     Program PWSCF v.7.3.1 starts on 13Sep2026 at 23:14: 0 

     This program is part of the open-source Quantum ESPRESSO suite
     for quantum simulation of materials; please cite
         "P. Giannozzi et al., J. Phys.:Condens. Matter 21 395502 (2009);
         "P. Giannozzi et al., J. Phys.:Condens. Matter 29 465901 (2017);
         "P. Giannozzi et al., J. Chem. Phys. 152 154105 (2020);
          URL http://www.quantum-espresso.org", 
     in publications or presentations arising from this work. More details at
     http://www.quantum-espresso.org/quote

     Parallel version (MPI), running on     4 processors

     MPI processes distributed on     1 nodes
     159417 MiB available memory on the printing compute node when the environment starts
 
     Reading input from scf.in

     Current dimensions of program PWSCF are:
     Max number of different atomic species (ntypx) = 10
     Max number of k-points (npk) =  40000
     Max angular momentum in pseudopotentials (lmaxx) =  4
     Message from routine setup:
     using ibrav=0 with symmetry is DISCOURAGED, use correct ibrav instead
 
     K-points division:     npool     =       4
     Subspace diagonalization in iterative solution of the eigenvalue problem:
     a serial algorithm will be used

 
     G-vector sticks info
     --------------------
     sticks:   dense  smooth     PW     G-vecs:    dense   smooth      PW
     Sum        6985    6985   1813              1740649  1740649  232535
 
     Using Slab Decomposition
 


     bravais-lattice index     =            0
     lattice parameter (alat)  =      15.9274  a.u.
     unit-cell volume          =   12884.0056 (a.u.)^3
     number of atoms/cell      =           61
     number of atomic types    =            3
     number of electrons       =       950.00
     number of Kohn-Sham states=          570
     kinetic-energy cutoff     =     100.0000  Ry
     charge density cutoff     =     400.0000  Ry
     scf convergence threshold =      1.0E-06
     mixing beta               =       0.2000
     number of iterations used =            8  local-TF  mixing
     Exchange-correlation= PBE
                           (   1   4   3   4   0   0   0)

     celldm(1)=  15.927435  celldm(2)=   0.000000  celldm(3)=   0.000000
     celldm(4)=   0.000000  celldm(5)=   0.000000  celldm(6)=   0.000000

     crystal axes: (cart. coord. in units of alat)
               a(1) = (   1.000000   0.000000   0.000000 )  
               a(2) = (  -0.500000   0.866025   0.000000 )  
               a(3) = (   0.000000   0.000000   3.681993 )  

     reciprocal axes: (cart. coord. in units 2 pi/alat)
               b(1) = (  1.000000  0.577351  0.000000 )  
               b(2) = (  0.000000  1.154701  0.000000 )  
               b(3) = (  0.000000  0.000000  0.271592 )  


     PseudoPot. # 1 for Cr read from file:
     /data/pclancy3/yi/ONCVPseudoPack/SG15_v1.2/UPF/PBE/Cr_PBE_FR.SG15v1.2.UPF
     MD5 check sum: 19291ff833b3d067f23df56d5404fde6
     Pseudo is Norm-conserving, Zval = 14.0
     Generated using ONCVPSP code by D. R. Hamann
     Using radial grid of 1490 points,  6 beta functions with: 
                l(1) =   0
                l(2) =   0
                l(3) =   1
                l(4) =   1
                l(5) =   2
                l(6) =   2

     PseudoPot. # 2 for Sb read from file:
     /data/pclancy3/yi/ONCVPseudoPack/SG15_v1.2/UPF/PBE/Sb_PBE_FR.SG15v1.2.UPF
     MD5 check sum: 0e999992813bf262e14e71941f404476
     Pseudo is Norm-conserving, Zval = 15.0
     Generated using ONCVPSP code by D. R. Hamann
     Using radial grid of 1468 points,  6 beta functions with: 
                l(1) =   0
                l(2) =   0
                l(3) =   1
                l(4) =   1
                l(5) =   2
                l(6) =   2

     PseudoPot. # 3 for Te read from file:
     /data/pclancy3/yi/ONCVPseudoPack/SG15_v1.2/UPF/PBE/Te_PBE_FR.SG15v1.2.UPF
     MD5 check sum: 7c59b7da87cf03000ce4d32f994025eb
     Pseudo is Norm-conserving, Zval = 16.0
     Generated using ONCVPSP code by D. R. Hamann
     Using radial grid of 1324 points,  6 beta functions with: 
                l(1) =   0
                l(2) =   0
                l(3) =   1
                l(4) =   1
                l(5) =   2
                l(6) =   2

     atomic species   valence    mass     pseudopotential
     Cr               14.00    51.99610     Cr( 1.00)
     Sb               15.00   121.76000     Sb( 1.00)
     Te               16.00   127.60000     Te( 1.00)

      2 Sym. Ops. (no inversion) found


                                    s                        frac. trans.

      isym =  1     identity                                     

 cryst.   s( 1) = (     1          0          0      )
                  (     0          1          0      )
                  (     0          0          1      )

 cart.    s( 1) = (  1.0000000  0.0000000  0.0000000 )
                  (  0.0000000  1.0000000  0.0000000 )
                  (  0.0000000  0.0000000  1.0000000 )


      isym =  2     inv. 180 deg rotation - cryst. axis [1,1,0]  

 cryst.   s( 2) = (     0         -1          0      )
                  (    -1          0          0      )
                  (     0          0          1      )

 cart.    s( 2) = (  0.5000000 -0.8660258  0.0000000 )
                  ( -0.8660250 -0.5000000  0.0000000 )
                  (  0.0000000  0.0000000  1.0000000 )


   Cartesian axes

     site n.     atom                  positions (alat units)
         1        Te     tau(   1) = (   0.2500400   0.1439817   0.4048846  )
         2        Te     tau(   2) = (   0.0003282  -0.2885314   0.4048846  )
         3        Te     tau(   3) = (  -0.2501345   0.1444152   0.4016622  )
         4        Te     tau(   4) = (   0.4998799  -0.2886054   0.4047108  )
         5        Te     tau(   5) = (  -0.0175211   0.0101158   0.8278989  )
         6        Te     tau(   6) = (  -0.2505481  -0.4326959   0.8374919  )
         7        Te     tau(   7) = (  -0.4830856   0.0029491   0.8279266  )
         8        Te     tau(   8) = (  -0.2440968   0.4168899   0.8279266  )
         9        Te     tau(   9) = (   0.0000588  -0.0000339   0.0003183  )
        10        Te     tau(  10) = (  -0.2500436  -0.4329871  -0.0003660  )
        11        Te     tau(  11) = (  -0.4999612  -0.0000107   0.0000678  )
        12        Te     tau(  12) = (   0.2500287  -0.4330405   0.0000678  )
        13        Te     tau(  13) = (   0.0210501   0.2941207   1.6360984  )
        14        Te     tau(  14) = (  -0.2441909  -0.1652899   1.6360984  )
        15        Te     tau(  15) = (  -0.5288224   0.3053158   1.6518524  )
        16        Te     tau(  16) = (   0.2497144  -0.1441723   1.6482639  )
        17        Te     tau(  17) = (   0.2484922   0.1214394  -1.6478331  )
        18        Te     tau(  18) = (   0.0190765  -0.2759199  -1.6478331  )
        19        Te     tau(  19) = (  -0.2421776   0.1398213  -1.6511821  )
        20        Te     tau(  20) = (   0.5172224  -0.2986181  -1.6747989  )
        21        Te     tau(  21) = (   0.2553302   0.1299988   1.2326127  )
        22        Te     tau(  22) = (   0.0150828  -0.2861214   1.2326127  )
        23        Te     tau(  23) = (  -0.2501375   0.1444170   1.2430916  )
        24        Te     tau(  24) = (   0.4852209  -0.2801420   1.2348796  )
        25        Te     tau(  25) = (   0.0338774  -0.0195591  -0.8363451  )
        26        Te     tau(  26) = (  -0.2420133  -0.4376234  -0.8437859  )
        27        Te     tau(  27) = (   0.4821832   0.0054019  -0.8208470  )
        28        Te     tau(  28) = (   0.2364134  -0.4202835  -0.8208470  )
        29        Te     tau(  29) = (   0.0000108   0.2885624  -0.4063577  )
        30        Te     tau(  30) = (  -0.2498970  -0.1442901  -0.4063577  )
        31        Te     tau(  31) = (  -0.5000738   0.2887178  -0.4037334  )
        32        Te     tau(  32) = (   0.2500154  -0.1443461  -0.4021829  )
        33        Te     tau(  33) = (  -0.0025867   0.2930796  -1.2289297  )
        34        Te     tau(  34) = (  -0.2551077  -0.1442993  -1.2289297  )
        35        Te     tau(  35) = (  -0.4716272   0.2722941  -1.2384510  )
        36        Te     tau(  36) = (   0.2589042  -0.1494780  -1.2472062  )
        37        Sb     tau(  37) = (   0.0004650   0.2869164   1.0226698  )
        38        Sb     tau(  38) = (  -0.2482444  -0.1438605   1.0226698  )
        39        Sb     tau(  39) = (  -0.4969278   0.2869014   1.0162058  )
        40        Sb     tau(  40) = (   0.2505456  -0.1446521   0.9921218  )
        41        Sb     tau(  41) = (   0.0002808   0.2889385   0.2179595  )
        42        Sb     tau(  42) = (  -0.2500876  -0.1447120   0.2179595  )
        43        Sb     tau(  43) = (  -0.5003313   0.2888664   0.2176948  )
        44        Sb     tau(  44) = (   0.2501524  -0.1444252   0.2180912  )
        45        Sb     tau(  45) = (  -0.0105574   0.0060953  -1.4409966  )
        46        Sb     tau(  46) = (  -0.2257510  -0.4470124  -1.4344327  )
        47        Sb     tau(  47) = (  -0.4858821  -0.0146129  -1.4625375  )
        48        Sb     tau(  48) = (  -0.2302859   0.4280927  -1.4625375  )
        49        Sb     tau(  49) = (   0.0042800  -0.0024711   1.4504510  )
        50        Sb     tau(  50) = (  -0.2495826  -0.4332533   1.4252744  )
        51        Sb     tau(  51) = (   0.4987720  -0.0007819   1.4617752  )
        52        Sb     tau(  52) = (   0.2500631  -0.4315578   1.4617752  )
        53        Sb     tau(  53) = (   0.2497509   0.1442000  -0.2171206  )
        54        Sb     tau(  54) = (  -0.0000054  -0.2883902  -0.2171206  )
        55        Sb     tau(  55) = (  -0.2498536   0.1442531  -0.2188757  )
        56        Sb     tau(  56) = (   0.4999811  -0.2886638  -0.2184860  )
        57        Sb     tau(  57) = (   0.2587752   0.1411762  -1.0321769  )
        58        Sb     tau(  58) = (   0.0071254  -0.2946936  -1.0321769  )
        59        Sb     tau(  59) = (  -0.2429293   0.1402553  -0.9754496  )
        60        Sb     tau(  60) = (   0.4896153  -0.2826791  -1.0041220  )
        61        Cr     tau(  61) = (  -0.2232181  -0.4484748   1.9543699  )

     --------------------------------------------
     DFT-D3 Dispersion Correction (3-body terms):
     --------------------------------------------
       Reference C6 values for interpolation: 

         atom   Coordination number   C6
         Cr         0.000          1381.48
         Cr         1.827           571.38
         Cr        10.619           306.69
         Sb         0.000           985.88
         Sb         0.975           946.94
         Sb         1.952           896.11
         Sb         2.932           834.76
         Te         0.000           851.07
         Te         0.981           850.20
         Te         1.964           837.16

       Values used:

         atom   Coordination number  R0_AB[au]  C6      C8
         Te         3.082            3.676    837.16  84978.06
         Te         3.082            3.676    837.16  84978.06
         Te         3.125            3.676    837.16  84978.06
         Te         3.090            3.676    837.16  84978.06
         Te         3.140            3.676    837.16  84978.06
         Te         3.090            3.676    837.16  84978.06
         Te         3.146            3.676    837.16  84978.06
         Te         3.146            3.676    837.16  84978.06
         Te         5.225            3.676    837.16  84978.05
         Te         5.230            3.676    837.16  84978.05
         Te         5.219            3.676    837.16  84978.05
         Te         5.219            3.676    837.16  84978.05
         Te         3.291            3.676    837.16  84978.06
         Te         3.291            3.676    837.16  84978.06
         Te         3.461            3.676    837.16  84978.06
         Te         3.212            3.676    837.16  84978.06
         Te         3.941            3.676    837.16  84978.05
         Te         3.941            3.676    837.16  84978.05
         Te         3.120            3.676    837.16  84978.06
         Te         3.760            3.676    837.16  84978.05
         Te         5.229            3.676    837.16  84978.05
         Te         5.229            3.676    837.16  84978.05
         Te         5.161            3.676    837.16  84978.05
         Te         5.188            3.676    837.16  84978.05
         Te         3.223            3.676    837.16  84978.06
         Te         3.092            3.676    837.16  84978.06
         Te         3.195            3.676    837.16  84978.06
         Te         3.195            3.676    837.16  84978.06
         Te         3.066            3.676    837.16  84978.06
         Te         3.066            3.676    837.16  84978.06
         Te         3.101            3.676    837.16  84978.06
         Te         3.130            3.676    837.16  84978.06
         Te         5.050            3.676    837.16  84978.05
         Te         5.050            3.676    837.16  84978.05
         Te         5.131            3.676    837.16  84978.05
         Te         5.231            3.676    837.16  84978.05
         Sb         5.470            3.794    834.76  89580.53
         Sb         5.470            3.794    834.76  89580.53
         Sb         5.458            3.794    834.76  89580.53
         Sb         5.338            3.794    834.76  89580.53
         Sb         5.494            3.794    834.76  89580.53
         Sb         5.494            3.794    834.76  89580.53
         Sb         5.495            3.794    834.76  89580.53
         Sb         5.492            3.794    834.76  89580.53
         Sb         5.509            3.794    834.76  89580.53
         Sb         5.911            3.794    834.76  89580.53
         Sb         5.450            3.794    834.76  89580.53
         Sb         5.450            3.794    834.76  89580.53
         Sb         5.493            3.794    834.76  89580.53
         Sb         5.631            3.794    834.76  89580.53
         Sb         5.361            3.794    834.76  89580.53
         Sb         5.361            3.794    834.76  89580.53
         Sb         5.499            3.794    834.76  89580.53
         Sb         5.499            3.794    834.76  89580.53
         Sb         5.473            3.794    834.76  89580.53
         Sb         5.483            3.794    834.76  89580.53
         Sb         5.567            3.794    834.76  89580.53
         Sb         5.567            3.794    834.76  89580.53
         Sb         4.983            3.794    834.76  89580.53
         Sb         5.401            3.794    834.76  89580.53
         Cr         4.560            3.252    571.38  52732.00

         Molecular C6 ( Ry / a.u.^6 ) =   3092416.23


   Crystallographic axes

     site n.     atom                  positions (cryst. coord.)
         1        Te     tau(   1) = (  0.3331679  0.1662558  0.1099634  )
         2        Te     tau(   2) = ( -0.1662555 -0.3331675  0.1099634  )
         3        Te     tau(   3) = ( -0.1667563  0.1667564  0.1090882  )
         4        Te     tau(   4) = (  0.3332534 -0.3332529  0.1099162  )
         5        Te     tau(   5) = ( -0.0116807  0.0116807  0.2248508  )
         6        Te     tau(   6) = ( -0.5003653 -0.4996344  0.2274561  )
         7        Te     tau(   7) = ( -0.4813830  0.0034053  0.2248583  )
         8        Te     tau(   8) = ( -0.0034052  0.4813832  0.2248583  )
         9        Te     tau(   9) = (  0.0000392 -0.0000392  0.0000865  )
        10        Te     tau(  10) = ( -0.5000289 -0.4999707 -0.0000994  )
        11        Te     tau(  11) = ( -0.4999674 -0.0000124  0.0000184  )
        12        Te     tau(  12) = (  0.0000125 -0.5000324  0.0000184  )
        13        Te     tau(  13) = (  0.1908609  0.3396215  0.4443513  )
        14        Te     tau(  14) = ( -0.3396211 -0.1908604  0.4443513  )
        15        Te     tau(  15) = ( -0.3525482  0.3525485  0.4486300  )
        16        Te     tau(  16) = (  0.1664765 -0.1664759  0.4476553  )
        17        Te     tau(  17) = (  0.3186053  0.1402262 -0.4475384  )
        18        Te     tau(  18) = ( -0.1402260 -0.3186050 -0.4475384  )
        19        Te     tau(  19) = ( -0.1614517  0.1614518 -0.4484479  )
        20        Te     tau(  20) = (  0.3448151 -0.3448147 -0.4548621  )
        21        Te     tau(  21) = (  0.3303851  0.1501098  0.3347678  )
        22        Te     tau(  22) = ( -0.1501096 -0.3303847  0.3347678  )
        23        Te     tau(  23) = ( -0.1667583  0.1667584  0.3376138  )
        24        Te     tau(  24) = (  0.3234808 -0.3234803  0.3353835  )
        25        Te     tau(  25) = (  0.0225849 -0.0225849 -0.2271447  )
        26        Te     tau(  26) = ( -0.4946754 -0.5053242 -0.2291655  )
        27        Te     tau(  27) = (  0.4853020  0.0062376 -0.2229355  )
        28        Te     tau(  28) = ( -0.0062375 -0.4853018 -0.2229355  )
        29        Te     tau(  29) = (  0.1666125  0.3332033 -0.1103635  )
        30        Te     tau(  30) = ( -0.3332030 -0.1666120 -0.1103635  )
        31        Te     tau(  31) = ( -0.3333825  0.3333827 -0.1096508  )
        32        Te     tau(  32) = (  0.1666772 -0.1666766 -0.1092297  )
        33        Te     tau(  33) = (  0.1666230  0.3384193 -0.3337675  )
        34        Te     tau(  34) = ( -0.3384189 -0.1666225 -0.3337675  )
        35        Te     tau(  35) = ( -0.3144181  0.3144183 -0.3363534  )
        36        Te     tau(  36) = (  0.1726030 -0.1726024 -0.3387313  )
        37        Sb     tau(  37) = (  0.1661164  0.3313027  0.2777490  )
        38        Sb     tau(  38) = ( -0.3313024 -0.1661159  0.2777490  )
        39        Sb     tau(  39) = ( -0.3312851  0.3312853  0.2759934  )
        40        Sb     tau(  40) = (  0.1670306 -0.1670300  0.2694524  )
        41        Sb     tau(  41) = (  0.1670996  0.3336375  0.0591961  )
        42        Sb     tau(  42) = ( -0.3336372 -0.1670991  0.0591961  )
        43        Sb     tau(  43) = ( -0.3335541  0.3335544  0.0591242  )
        44        Sb     tau(  44) = (  0.1667685 -0.1667679  0.0592318  )
        45        Sb     tau(  45) = ( -0.0070383  0.0070383 -0.3913632  )
        46        Sb     tau(  46) = ( -0.4838339 -0.5161658 -0.3895805  )
        47        Sb     tau(  47) = ( -0.4943189 -0.0168735 -0.3972135  )
        48        Sb     tau(  48) = (  0.0168736  0.4943191 -0.3972135  )
        49        Sb     tau(  49) = (  0.0028534 -0.0028534  0.3939310  )
        50        Sb     tau(  50) = ( -0.4997216 -0.5002780  0.3870932  )
        51        Sb     tau(  51) = (  0.4983205 -0.0009029  0.3970065  )
        52        Sb     tau(  52) = (  0.0009030 -0.4983203  0.3970065  )
        53        Sb     tau(  53) = (  0.3330048  0.1665079 -0.0589682  )
        54        Sb     tau(  54) = ( -0.1665077 -0.3330045 -0.0589682  )
        55        Sb     tau(  55) = ( -0.1665690  0.1665692 -0.0594449  )
        56        Sb     tau(  56) = (  0.3333209 -0.3333204 -0.0593390  )
        57        Sb     tau(  57) = (  0.3402833  0.1630163 -0.2803310  )
        58        Sb     tau(  58) = ( -0.1630161 -0.3402830 -0.2803310  )
        59        Sb     tau(  59) = ( -0.1619528  0.1619530 -0.2649243  )
        60        Sb     tau(  60) = (  0.3264104 -0.3264099 -0.2727115  )
        61        Cr     tau(  61) = ( -0.4821452 -0.5178543  0.5307913  )

     number of k points=     7  Marzari-Vanderbilt smearing, width (Ry)=  0.0147
                       cart. coord. in units 2pi/alat
        k(    1) = (   0.0000000   0.0000000   0.0000000), wk =   0.1250000
        k(    2) = (   0.0000000   0.2886753   0.0000000), wk =   0.5000000
        k(    3) = (   0.0000000  -0.5773505   0.0000000), wk =   0.2500000
        k(    4) = (   0.2500000   0.4330129   0.0000000), wk =   0.2500000
        k(    5) = (  -0.2500000   0.1443376   0.0000000), wk =   0.2500000
        k(    6) = (   0.5000000  -0.2886753   0.0000000), wk =   0.1250000
        k(    7) = (  -0.2500000   0.4330129   0.0000000), wk =   0.5000000

                       cryst. coord.
        k(    1) = (   0.0000000   0.0000000   0.0000000), wk =   0.1250000
        k(    2) = (   0.0000000   0.2500000   0.0000000), wk =   0.5000000
        k(    3) = (   0.0000000  -0.5000000   0.0000000), wk =   0.2500000
        k(    4) = (   0.2500000   0.2500000   0.0000000), wk =   0.2500000
        k(    5) = (  -0.2500000   0.2500000   0.0000000), wk =   0.2500000
        k(    6) = (   0.5000000  -0.5000000   0.0000000), wk =   0.1250000
        k(    7) = (  -0.2500000   0.5000000   0.0000000), wk =   0.5000000

     Dense  grid:  1740649 G-vectors     FFT dimensions: ( 108, 108, 375)

     Dynamical RAM for                 wfc:    1892.32 MB

     Dynamical RAM for     wfc (w. buffer):    5676.95 MB

     Dynamical RAM for           str. fact:      79.68 MB

     Dynamical RAM for           local pot:       0.00 MB

     Dynamical RAM for          nlocal pot:    3645.20 MB

     Dynamical RAM for                qrad:       4.82 MB

     Dynamical RAM for          rho,v,vnew:     179.79 MB

     Dynamical RAM for               rhoin:      59.93 MB

     Dynamical RAM for            rho*nmix:     424.96 MB

     Dynamical RAM for           G-vectors:     112.88 MB

     Dynamical RAM for          h,s,v(r/c):      59.49 MB

     Dynamical RAM for          <psi|beta>:       9.55 MB

     Dynamical RAM for                 psi:    3784.63 MB

     Dynamical RAM for                hpsi:    3784.63 MB

     Dynamical RAM for      wfcinit/wfcrot:    3792.08 MB

     Estimated static dynamical RAM per process >       9.80 GB

     Estimated max dynamical RAM per process >      17.67 GB

     Estimated total dynamical RAM >      69.44 GB

     Initial potential from superposition of free atoms

     starting charge     949.9776, renormalised to     950.0000
     Starting wfcs are  550 randomized atomic wfcs +   20 random wfcs

     total cpu time spent up to now is      285.0 secs

     Self-consistent Calculation

     iteration #  1     ecut=   100.00 Ry     beta= 0.20
     Davidson diagonalization with overlap

---- Real-time Memory Report at c_bands before calling an iterative solver
         12113 MiB given to the printing process from OS
             0 MiB allocation reported by mallinfo(arena+hblkhd)
        122268 MiB available memory on the node where the printing process lives
------------------
     ethr =  1.00E-02,  avg # of iterations =  6.9

     total cpu time spent up to now is     1273.2 secs

     total energy              =   -9818.99670175 Ry
     estimated scf accuracy    <      16.65594958 Ry

     iteration #  2     ecut=   100.00 Ry     beta= 0.20
     Davidson diagonalization with overlap

---- Real-time Memory Report at c_bands before calling an iterative solver
         17917 MiB given to the printing process from OS
             0 MiB allocation reported by mallinfo(arena+hblkhd)
        121595 MiB available memory on the node where the printing process lives
------------------
     ethr =  1.75E-03,  avg # of iterations =  2.0

     total cpu time spent up to now is     2073.2 secs

     total energy              =   -9819.58148578 Ry
     estimated scf accuracy    <       0.85937061 Ry

     iteration #  3     ecut=   100.00 Ry     beta= 0.20
     Davidson diagonalization with overlap

---- Real-time Memory Report at c_bands before calling an iterative solver
         18403 MiB given to the printing process from OS
             0 MiB allocation reported by mallinfo(arena+hblkhd)
        121540 MiB available memory on the node where the printing process lives
------------------
     ethr =  9.05E-05,  avg # of iterations = 17.3

     total cpu time spent up to now is     3606.3 secs

     total energy              =   -9819.98295231 Ry
     estimated scf accuracy    <       0.48547799 Ry

     iteration #  4     ecut=   100.00 Ry     beta= 0.20
     Davidson diagonalization with overlap

---- Real-time Memory Report at c_bands before calling an iterative solver
         18458 MiB given to the printing process from OS
             0 MiB allocation reported by mallinfo(arena+hblkhd)
        121493 MiB available memory on the node where the printing process lives
------------------
     ethr =  5.11E-05,  avg # of iterations =  2.0

     total cpu time spent up to now is     4421.4 secs

     total energy              =   -9819.97905275 Ry
     estimated scf accuracy    <       0.17283130 Ry

     iteration #  5     ecut=   100.00 Ry     beta= 0.20
     Davidson diagonalization with overlap

---- Real-time Memory Report at c_bands before calling an iterative solver
         18513 MiB given to the printing process from OS
             0 MiB allocation reported by mallinfo(arena+hblkhd)
        121436 MiB available memory on the node where the printing process lives
------------------
     ethr =  1.82E-05,  avg # of iterations = 15.1

     total cpu time spent up to now is     5563.4 secs

     total energy              =   -9820.00158030 Ry
     estimated scf accuracy    <       0.02760143 Ry

     iteration #  6     ecut=   100.00 Ry     beta= 0.20
     Davidson diagonalization with overlap

---- Real-time Memory Report at c_bands before calling an iterative solver
         18567 MiB given to the printing process from OS
             0 MiB allocation reported by mallinfo(arena+hblkhd)
        121384 MiB available memory on the node where the printing process lives
------------------
     c_bands:  1 eigenvalues not converged
     ethr =  2.91E-06,  avg # of iterations = 10.1

     total cpu time spent up to now is     6620.1 secs

     total energy              =   -9820.00350838 Ry
     estimated scf accuracy    <       0.00827448 Ry

     iteration #  7     ecut=   100.00 Ry     beta= 0.20
     Davidson diagonalization with overlap

---- Real-time Memory Report at c_bands before calling an iterative solver
         18620 MiB given to the printing process from OS
             0 MiB allocation reported by mallinfo(arena+hblkhd)
        121331 MiB available memory on the node where the printing process lives
------------------
     ethr =  8.71E-07,  avg # of iterations =  5.6

     total cpu time spent up to now is     7505.0 secs

     total energy              =   -9820.00367721 Ry
     estimated scf accuracy    <       0.00506515 Ry

     iteration #  8     ecut=   100.00 Ry     beta= 0.20
     Davidson diagonalization with overlap

---- Real-time Memory Report at c_bands before calling an iterative solver
         18674 MiB given to the printing process from OS
             0 MiB allocation reported by mallinfo(arena+hblkhd)
        121274 MiB available memory on the node where the printing process lives
------------------
     ethr =  5.33E-07,  avg # of iterations =  2.1

     total cpu time spent up to now is     8328.1 secs

     total energy              =   -9820.00407214 Ry
     estimated scf accuracy    <       0.00242007 Ry

     iteration #  9     ecut=   100.00 Ry     beta= 0.20
     Davidson diagonalization with overlap

---- Real-time Memory Report at c_bands before calling an iterative solver
         18727 MiB given to the printing process from OS
             0 MiB allocation reported by mallinfo(arena+hblkhd)
        121221 MiB available memory on the node where the printing process lives
------------------
     ethr =  2.55E-07,  avg # of iterations =  1.7

     total cpu time spent up to now is     9125.3 secs

     total energy              =   -9820.00405652 Ry
     estimated scf accuracy    <       0.00147383 Ry

     iteration # 10     ecut=   100.00 Ry     beta= 0.20
     Davidson diagonalization with overlap

---- Real-time Memory Report at c_bands before calling an iterative solver
         18780 MiB given to the printing process from OS
             0 MiB allocation reported by mallinfo(arena+hblkhd)
        121167 MiB available memory on the node where the printing process lives
------------------
     ethr =  1.55E-07,  avg # of iterations =  2.4

     total cpu time spent up to now is     9938.7 secs

     total energy              =   -9820.00398463 Ry
     estimated scf accuracy    <       0.00108474 Ry

     iteration # 11     ecut=   100.00 Ry     beta= 0.20
     Davidson diagonalization with overlap

---- Real-time Memory Report at c_bands before calling an iterative solver
         18834 MiB given to the printing process from OS
             0 MiB allocation reported by mallinfo(arena+hblkhd)
        121167 MiB available memory on the node where the printing process lives
------------------
     ethr =  1.14E-07,  avg # of iterations =  2.6

     total cpu time spent up to now is    10762.5 secs

     total energy              =   -9820.00404687 Ry
     estimated scf accuracy    <       0.00056649 Ry

     iteration # 12     ecut=   100.00 Ry     beta= 0.20
     Davidson diagonalization with overlap

---- Real-time Memory Report at c_bands before calling an iterative solver
         18834 MiB given to the printing process from OS
             0 MiB allocation reported by mallinfo(arena+hblkhd)
        121165 MiB available memory on the node where the printing process lives
------------------
     ethr =  5.96E-08,  avg # of iterations =  1.3

     total cpu time spent up to now is    11529.2 secs

     total energy              =   -9820.00404201 Ry
     estimated scf accuracy    <       0.00034313 Ry

     iteration # 13     ecut=   100.00 Ry     beta= 0.20
     Davidson diagonalization with overlap

---- Real-time Memory Report at c_bands before calling an iterative solver
         18837 MiB given to the printing process from OS
             0 MiB allocation reported by mallinfo(arena+hblkhd)
        121163 MiB available memory on the node where the printing process lives
------------------
     ethr =  3.61E-08,  avg # of iterations =  5.1

     total cpu time spent up to now is    12388.9 secs

     total energy              =   -9820.00403622 Ry
     estimated scf accuracy    <       0.00023480 Ry

     iteration # 14     ecut=   100.00 Ry     beta= 0.20
     Davidson diagonalization with overlap

---- Real-time Memory Report at c_bands before calling an iterative solver
         18838 MiB given to the printing process from OS
             0 MiB allocation reported by mallinfo(arena+hblkhd)
        121161 MiB available memory on the node where the printing process lives
------------------
     ethr =  2.47E-08,  avg # of iterations =  2.1

     total cpu time spent up to now is    13194.8 secs

     total energy              =   -9820.00403829 Ry
     estimated scf accuracy    <       0.00008275 Ry

     iteration # 15     ecut=   100.00 Ry     beta= 0.20
     Davidson diagonalization with overlap

---- Real-time Memory Report at c_bands before calling an iterative solver
         18838 MiB given to the printing process from OS
             0 MiB allocation reported by mallinfo(arena+hblkhd)
        121153 MiB available memory on the node where the printing process lives
------------------
     ethr =  8.71E-09,  avg # of iterations =  5.1

     total cpu time spent up to now is    14174.1 secs

     total energy              =   -9820.00404253 Ry
     estimated scf accuracy    <       0.00005124 Ry

     iteration # 16     ecut=   100.00 Ry     beta= 0.20
     Davidson diagonalization with overlap

---- Real-time Memory Report at c_bands before calling an iterative solver
         18838 MiB given to the printing process from OS
             0 MiB allocation reported by mallinfo(arena+hblkhd)
        121156 MiB available memory on the node where the printing process lives
------------------
     ethr =  5.39E-09,  avg # of iterations =  2.0

     total cpu time spent up to now is    14971.6 secs

     total energy              =   -9820.00404477 Ry
     estimated scf accuracy    <       0.00002668 Ry

     iteration # 17     ecut=   100.00 Ry     beta= 0.20
     Davidson diagonalization with overlap

---- Real-time Memory Report at c_bands before calling an iterative solver
         18838 MiB given to the printing process from OS
             0 MiB allocation reported by mallinfo(arena+hblkhd)
        121156 MiB available memory on the node where the printing process lives
------------------
     ethr =  2.81E-09,  avg # of iterations =  2.0

     total cpu time spent up to now is    15777.3 secs

     total energy              =   -9820.00404335 Ry
     estimated scf accuracy    <       0.00001643 Ry

     iteration # 18     ecut=   100.00 Ry     beta= 0.20
     Davidson diagonalization with overlap

---- Real-time Memory Report at c_bands before calling an iterative solver
         18838 MiB given to the printing process from OS
             0 MiB allocation reported by mallinfo(arena+hblkhd)
        121155 MiB available memory on the node where the printing process lives
------------------
     ethr =  1.73E-09,  avg # of iterations =  2.0

     total cpu time spent up to now is    16578.3 secs

     total energy              =   -9820.00404321 Ry
     estimated scf accuracy    <       0.00000809 Ry

     iteration # 19     ecut=   100.00 Ry     beta= 0.20
     Davidson diagonalization with overlap

---- Real-time Memory Report at c_bands before calling an iterative solver
         18838 MiB given to the printing process from OS
             0 MiB allocation reported by mallinfo(arena+hblkhd)
        121155 MiB available memory on the node where the printing process lives
------------------
     ethr =  8.51E-10,  avg # of iterations =  2.0

     total cpu time spent up to now is    17449.0 secs

     total energy              =   -9820.00404335 Ry
     estimated scf accuracy    <       0.00000563 Ry

     iteration # 20     ecut=   100.00 Ry     beta= 0.20
     Davidson diagonalization with overlap

---- Real-time Memory Report at c_bands before calling an iterative solver
         18838 MiB given to the printing process from OS
             0 MiB allocation reported by mallinfo(arena+hblkhd)
        121156 MiB available memory on the node where the printing process lives
------------------
     ethr =  5.93E-10,  avg # of iterations =  2.0

     total cpu time spent up to now is    18253.3 secs

     total energy              =   -9820.00404329 Ry
     estimated scf accuracy    <       0.00000156 Ry

     iteration # 21     ecut=   100.00 Ry     beta= 0.20
     Davidson diagonalization with overlap

---- Real-time Memory Report at c_bands before calling an iterative solver
         18839 MiB given to the printing process from OS
             0 MiB allocation reported by mallinfo(arena+hblkhd)
        121148 MiB available memory on the node where the printing process lives
------------------
     ethr =  1.65E-10,  avg # of iterations =  3.4

     total cpu time spent up to now is    19117.7 secs

     End of self-consistent calculation

          k = 0.0000 0.0000 0.0000 (217657 PWs)   bands (ev):

   -60.0412 -31.4375 -31.4347 -31.3836 -25.9286 -25.9278 -25.9253 -25.9248
   -25.8947 -25.8946 -25.8859 -25.8845 -25.8843 -25.8841 -25.8841 -25.8838
   -25.8836 -25.8815 -25.8815 -25.8702 -25.8698 -25.8697 -25.8688 -25.8676
   -25.8642 -25.8630 -25.8619 -25.8602 -25.8581 -25.8561 -25.8561 -25.8554
   -25.8545 -25.8544 -25.8543 -25.8541 -25.8540 -25.8522 -25.8521 -25.8507
   -25.8505 -25.8417 -25.8416 -25.8394 -25.8393 -25.8343 -25.8341 -25.8329
   -25.8328 -25.8320 -25.8314 -25.8300 -25.8266 -25.8261 -25.8256 -25.8253
   -25.8242 -25.8200 -25.8192 -25.8150 -25.8140 -25.8114 -25.8090 -25.8088
   -25.8072 -25.8068 -25.8066 -25.8057 -25.8040 -25.7984 -25.7862 -25.7847
   -25.7844 -25.7785 -25.7768 -25.7766 -25.7752 -25.7729 -25.7720 -25.7706
   -25.7698 -25.7668 -25.7637 -25.7633 -25.7632 -25.7572 -25.7564 -25.7552
   -25.7526 -25.7522 -25.7515 -25.7514 -25.7500 -25.7488 -25.7473 -25.7471
   -25.7453 -25.7439 -25.7438 -25.7433 -25.7430 -25.7427 -25.7424 -25.7415
   -25.7409 -25.7406 -25.7393 -25.7385 -25.7375 -25.7331 -25.7260 -25.7254
   -25.7252 -25.7247 -25.7234 -25.7227 -25.7216 -25.7081 -25.7068 -25.7040
   -25.7030 -25.7027 -25.7022 -25.7013 -25.7005 -25.6996 -25.6995 -25.6988
   -25.6984 -25.6968 -25.6967 -25.6956 -25.6954 -25.6926 -25.6915 -25.6915
   -25.6872 -25.6869 -25.6849 -25.6805 -25.6804 -25.6730 -25.6727 -25.6716
   -25.6709 -25.6708 -25.6702 -25.6701 -25.6698 -25.6691 -25.6687 -25.6668
   -25.6662 -25.6654 -25.6651 -25.6644 -25.6642 -25.6637 -25.6636 -25.6627
   -25.6533 -25.6530 -25.6506 -25.6493 -25.6456 -25.6455 -25.6381 -25.6367
   -25.6365 -25.6364 -25.6357 -25.6357 -25.6344 -25.6316 -25.6310 -25.6308
   -25.6298 -25.6297 -25.6281 -25.6199 -25.6190 -25.6184 -25.6140 -25.6134
   -18.6153 -18.6139 -18.6088 -18.6086 -18.6072 -18.6063 -18.6006 -18.5990
   -18.5942 -18.5941 -18.5934 -18.5920 -18.5916 -18.5892 -18.5885 -18.5878
   -18.5870 -18.5864 -18.5853 -18.5837 -18.5837 -18.5795 -18.5782 -18.5764
   -18.5753 -18.5752 -18.5715 -18.5694 -18.5693 -18.5656 -18.5620 -18.5606
   -18.5592 -18.5562 -18.5537 -18.5485 -18.5462 -18.5335 -18.5317 -18.5299
   -18.5291 -18.5253 -18.5236 -18.5211 -18.5206 -18.5190 -18.5181 -18.5133
   -18.5130 -18.5116 -18.5095 -18.5049 -18.5034 -18.5031 -18.5016 -18.5003
   -18.4958 -18.4950 -18.4932 -18.4922 -18.4920 -18.4906 -18.4895 -18.4888
   -18.4880 -18.4869 -18.4867 -18.4859 -18.4847 -18.4842 -18.4840 -18.4839
   -18.4837 -18.4837 -18.4836 -18.4793 -18.4781 -18.4775 -18.4731 -18.4728
   -18.4722 -18.4721 -18.4706 -18.4697 -18.4696 -18.4692 -18.4690 -18.4686
   -18.4684 -18.4683 -18.4680 -18.4677 -18.4663 -18.4652 -18.4651 -18.4643
   -18.4625 -18.4620 -18.4620 -18.4614 -18.4605 -18.4601 -18.4593 -18.4579
   -18.4573 -18.4570 -18.4564 -18.4550 -18.4546 -18.4530 -18.4529 -18.4517
   -18.4500 -18.4444 -18.4437 -18.2572 -18.2541 -18.1429 -18.1303 -18.1221
    -2.6484  -2.5837  -2.5408  -1.9175  -1.8276  -1.7633  -0.6803  -0.6706
    -0.6238  -0.6159  -0.6029  -0.5899  -0.5731  -0.5699  -0.5627  -0.5323
    -0.5164  -0.4934  -0.4925  -0.4889  -0.4847  -0.4699  -0.4062  -0.4035
    -0.3797  -0.3532  -0.3423  -0.3321  -0.2993  -0.2869  -0.2791  -0.2627
    -0.2487  -0.2362  -0.2173  -0.1345   1.2111   1.2485   1.2693   1.2813
     1.2884   1.3424   1.3455   1.3511   1.3698   2.0085   2.0445   2.0590
     2.0772   2.0947   2.1358   2.1734   2.1767   2.1844   2.4384   2.6106
     2.8075   4.2111   4.4760   4.6994   5.0953   5.1034   5.1273   5.1562
     5.1820   5.1979   5.2378   5.2432   5.2460   6.5817   6.6713   6.7167
     6.8197   6.8244   6.8647   6.9542   6.9721   6.9830   6.9862   6.9919
     7.0087   7.0185   7.0235   7.0282   7.0516   7.0596   7.0673   7.0691
     7.0774   7.0939   7.0956   7.1410   7.1458   7.1501   7.1549   7.2031
     7.7489   7.7538   7.8116   7.8712   7.9067   7.9282   7.9321   7.9441
     8.0566   8.0661   8.0973   8.1457   8.2027   8.3052   8.3357   8.3668
     8.5695   8.6250   8.7256   8.7467   8.7589   8.7703   8.7764   8.8063
     8.8580   8.8582   8.8810   8.8936   8.9326   9.0110   9.0276   9.0550
     9.0726   9.0984   9.1393   9.1408   9.1748   9.2290   9.2345   9.2443
     9.3231   9.3431   9.3517   9.3951   9.3976   9.4529   9.4699   9.5120
     9.5806   9.5988   9.6141   9.6297   9.6374   9.6378   9.6481   9.6553
     9.6753   9.7106   9.7124   9.8416   9.8962   9.9408   9.9419   9.9969
    10.0991  10.1053  10.1123  10.1453  10.1819  10.4034  10.5541  10.6799
    10.8954  10.9614  10.9806  11.3174  11.4130  11.5060  11.6038  11.6611
    11.6842  11.7060  11.7986  11.8022  11.8166  11.8378  11.9271  11.9543
    11.9729  12.0173  12.1005  12.1020  12.2755  12.3348  12.3751  12.3903
    12.4140  12.4507  12.5109  12.5448  12.6072  12.6524  12.7095  12.7529
    12.8780  12.9068  12.9146  12.9272  12.9409  12.9875  13.0959  13.0988
    13.1979  13.2100  13.2451  13.2482  13.2638  13.2793  13.3500  13.3843
    13.3884  13.4292  13.6544  13.6974  13.7157  13.7301  13.7789  13.8672
    14.0208  14.0563  14.0731  14.1911  14.1923  14.2471  14.2724  14.2733
    14.3017  14.3411  14.3647  14.4323  14.5073  14.7090  14.7411  14.8204
    14.9467  14.9659  15.0020  15.0159  15.0967  15.1454  15.4387  15.4610
    15.5345  15.6095  15.6171  15.8826  15.8924  16.1000  16.1009  16.1545
    16.1940  16.2213  16.2894  16.3446  16.3948  16.4026  16.4682  16.4762
    16.5627  16.6115

     occupation numbers 
     1.0000   1.0000   1.0000   1.0000   1.0000   1.0000   1.0000   1.0000
     1.0000   1.0000   1.0000   1.0000   1.0000   1.0000   1.0000   1.0000
     1.0000   1.0000   1.0000   1.0000   1.0000   1.0000   1.0000   1.0000
     1.0000   1.0000   1.0000   1.0000   1.0000   1.0000   1.0000   1.0000
     1.0000   1.0000   1.0000   1.0000   1.0000   1.0000   1.0000   1.0000
     1.0000   1.0000   1.0000   1.0000   1.0000   1.0000   1.0000   1.0000
     1.0000   1.0000   1.0000   1.0000   1.0000   1.0000   1.0000   1.0000
     1.0000   1.0000   1.0000   1.0000   1.0000   1.0000   1.0000   1.0000
     1.0000   1.0000   1.0000   1.0000   1.0000   1.0000   1.0000   1.0000
     1.0000   1.0000   1.0000   1.0000   1.0000   1.0000   1.0000   1.0000
     1.0000   1.0000   1.0000   1.0000   1.0000   1.0000   1.0000   1.0000
     1.0000   1.0000   1.0000   1.0000   1.0000   1.0000   1.0000   1.0000
     1.0000   1.0000   1.0000   1.0000   1.0000   1.0000   1.0000   1.0000
     1.0000   1.0000   1.0000   1.0000   1.0000   1.0000   1.0000   1.0000
     1.0000   1.0000   1.0000   1.0000   1.0000   1.0000   1.0000   1.0000
     1.0000   1.0000   1.0000   1.0000   1.0000   1.0000   1.0000   1.0000
     1.0000   1.0000   1.0000   1.0000   1.0000   1.0000   1.0000   1.0000
     1.0000   1.0000   1.0000   1.0000   1.0000   1.0000   1.0000   1.0000
     1.0000   1.0000   1.0000   1.0000   1.0000   1.0000   1.0000   1.0000
     1.0000   1.0000   1.0000   1.0000   1.0000   1.0000   1.0000   1.0000
     1.0000   1.0000   1.0000   1.0000   1.0000   1.0000   1.0000   1.0000
     1.0000   1.0000   1.0000   1.0000   1.0000   1.0000   1.0000   1.0000
     1.0000   1.0000   1.0000   1.0000   1.0000   1.0000   1.0000   1.0000
     1.0000   1.0000   1.0000   1.0000   1.0000   1.0000   1.0000   1.0000
     1.0000   1.0000   1.0000   1.0000   1.0000   1.0000   1.0000   1.0000
     1.0000   1.0000   1.0000   1.0000   1.0000   1.0000   1.0000   1.0000
     1.0000   1.0000   1.0000   1.0000   1.0000   1.0000   1.0000   1.0000
     1.0000   1.0000   1.0000   1.0000   1.0000   1.0000   1.0000   1.0000
     1.0000   1.0000   1.0000   1.0000   1.0000   1.0000   1.0000   1.0000
     1.0000   1.0000   1.0000   1.0000   1.0000   1.0000   1.0000   1.0000
     1.0000   1.0000   1.0000   1.0000   1.0000   1.0000   1.0000   1.0000
     1.0000   1.0000   1.0000   1.0000   1.0000   1.0000   1.0000   1.0000
     1.0000   1.0000   1.0000   1.0000   1.0000   1.0000   1.0000   1.0000
     1.0000   1.0000   1.0000   1.0000   1.0000   1.0000   1.0000   1.0000
     1.0000   1.0000   1.0000   1.0000   1.0000   1.0000   1.0000   1.0000
     1.0000   1.0000   1.0000   1.0000   1.0000   1.0000   1.0000   1.0000
     1.0000   1.0000   1.0000   1.0000   1.0000   1.0000   1.0000   1.0000
     1.0000   1.0000   1.0000   1.0000   1.0000   1.0000   1.0000   1.0000
     1.0000   1.0000   1.0000   1.0000   1.0000   1.0000   1.0000   1.0000
     1.0000   1.0000   1.0000   1.0000   1.0000   1.0000   1.0000   1.0000
     1.0000   1.0000   1.0000   1.0000   1.0000   1.0000   1.0000   1.0000
     1.0000   1.0000   1.0000   1.0000   1.0000   1.0000   1.0000   1.0000
     1.0000   1.0000   1.0000   1.0000   1.0000   1.0000   1.0000   1.0000
     1.0000   1.0000   1.0000   1.0000   1.0000   1.0000   1.0000   1.0000
     1.0000   1.0000   1.0000   1.0000   1.0000   1.0000   1.0000   1.0000
     1.0000   1.0000   1.0000   1.0000   1.0000   1.0000   1.0000   1.0000
     1.0000   1.0000   1.0000   1.0000   1.0000   1.0000   1.0000   1.0000
     1.0000   1.0000   1.0000   1.0000   1.0000   1.0000   1.0000   1.0000
     1.0000   1.0000   1.0000   1.0000   1.0000   1.0000   1.0000   1.0000
     1.0000   1.0000   1.0000   1.0000   1.0000   1.0000   1.0000   1.0000
     1.0000   1.0000   1.0000   1.0000   1.0000   1.0000   1.0000   1.0000
     1.0000   1.0000   1.0000   1.0000   1.0000   1.0000   1.0000   1.0000
     1.0000   1.0000   1.0000   1.0000   1.0000   1.0000   1.0000   1.0000
     1.0000   1.0000   1.0000   1.0000   1.0000   1.0000   1.0000   1.0000
     1.0000   1.0000   1.0000   1.0000   1.0000   1.0000   1.0000   1.0000
     1.0000   1.0000   1.0000   1.0000   1.0000   1.0000   1.0000   1.0000
     1.0000   1.0000   1.0000   1.0000   1.0000   1.0000   1.0000   1.0000
     1.0000   1.0000   1.0000   1.0000   1.0000   1.0000   1.0000   1.0000
     1.0000   1.0000   1.0000   1.0000   1.0000   1.0000   1.0000   1.0000
     1.0036   1.0119   1.0161   0.8835   0.5466   0.2408   0.0670   0.0258
     0.0168   0.0109   0.0014   0.0012   0.0009   0.0005   0.0000   0.0000
     0.0000   0.0000   0.0000   0.0000   0.0000   0.0000   0.0000   0.0000
     0.0000   0.0000   0.0000   0.0000   0.0000   0.0000   0.0000   0.0000
     0.0000   0.0000   0.0000   0.0000   0.0000   0.0000   0.0000   0.0000
     0.0000   0.0000   0.0000   0.0000   0.0000   0.0000   0.0000   0.0000
     0.0000   0.0000   0.0000   0.0000   0.0000   0.0000   0.0000   0.0000
     0.0000   0.0000   0.0000   0.0000   0.0000   0.0000   0.0000   0.0000
     0.0000   0.0000   0.0000   0.0000   0.0000   0.0000   0.0000   0.0000
     0.0000   0.0000   0.0000   0.0000   0.0000   0.0000   0.0000   0.0000
     0.0000   0.0000   0.0000   0.0000   0.0000   0.0000   0.0000   0.0000
     0.0000   0.0000   0.0000   0.0000   0.0000   0.0000   0.0000   0.0000
     0.0000   0.0000

          k = 0.0000 0.2887 0.0000 (217692 PWs)   bands (ev):

   -60.0412 -31.4375 -31.4347 -31.3836 -25.9284 -25.9279 -25.9254 -25.9249
   -25.8948 -25.8945 -25.8857 -25.8846 -25.8843 -25.8841 -25.8841 -25.8839
   -25.8836 -25.8815 -25.8815 -25.8701 -25.8698 -25.8698 -25.8687 -25.8676
   -25.8642 -25.8630 -25.8619 -25.8602 -25.8581 -25.8561 -25.8560 -25.8553
   -25.8546 -25.8544 -25.8543 -25.8541 -25.8540 -25.8522 -25.8521 -25.8507
   -25.8505 -25.8417 -25.8416 -25.8394 -25.8393 -25.8342 -25.8341 -25.8329
   -25.8328 -25.8319 -25.8315 -25.8301 -25.8266 -25.8259 -25.8256 -25.8253
   -25.8244 -25.8199 -25.8193 -25.8150 -25.8140 -25.8114 -25.8091 -25.8089
   -25.8072 -25.8068 -25.8066 -25.8055 -25.8042 -25.7984 -25.7862 -25.7847
   -25.7844 -25.7785 -25.7767 -25.7766 -25.7752 -25.7729 -25.7720 -25.7706
   -25.7698 -25.7668 -25.7637 -25.7633 -25.7632 -25.7571 -25.7564 -25.7549
   -25.7530 -25.7521 -25.7516 -25.7513 -25.7499 -25.7490 -25.7473 -25.7471
   -25.7452 -25.7442 -25.7435 -25.7433 -25.7430 -25.7427 -25.7424 -25.7415
   -25.7409 -25.7406 -25.7393 -25.7386 -25.7376 -25.7331 -25.7260 -25.7255
   -25.7251 -25.7247 -25.7233 -25.7228 -25.7216 -25.7079 -25.7069 -25.7039
   -25.7029 -25.7028 -25.7023 -25.7013 -25.7005 -25.6996 -25.6995 -25.6988
   -25.6984 -25.6968 -25.6967 -25.6955 -25.6954 -25.6926 -25.6915 -25.6915
   -25.6871 -25.6869 -25.6849 -25.6805 -25.6804 -25.6729 -25.6726 -25.6714
   -25.6709 -25.6708 -25.6703 -25.6700 -25.6698 -25.6690 -25.6688 -25.6668
   -25.6660 -25.6654 -25.6651 -25.6647 -25.6641 -25.6637 -25.6636 -25.6629
   -25.6533 -25.6530 -25.6506 -25.6493 -25.6456 -25.6455 -25.6381 -25.6367
   -25.6365 -25.6363 -25.6358 -25.6356 -25.6344 -25.6316 -25.6310 -25.6308
   -25.6298 -25.6297 -25.6282 -25.6199 -25.6190 -25.6185 -25.6139 -25.6135
   -18.6146 -18.6132 -18.6091 -18.6079 -18.6072 -18.6067 -18.6010 -18.5997
   -18.5941 -18.5939 -18.5929 -18.5918 -18.5915 -18.5893 -18.5886 -18.5879
   -18.5876 -18.5863 -18.5851 -18.5840 -18.5831 -18.5794 -18.5780 -18.5764
   -18.5758 -18.5756 -18.5712 -18.5697 -18.5693 -18.5656 -18.5618 -18.5608
   -18.5593 -18.5559 -18.5541 -18.5482 -18.5460 -18.5336 -18.5313 -18.5298
   -18.5290 -18.5249 -18.5236 -18.5218 -18.5204 -18.5191 -18.5185 -18.5134
   -18.5129 -18.5118 -18.5095 -18.5047 -18.5036 -18.5031 -18.5020 -18.4996
   -18.4963 -18.4941 -18.4923 -18.4921 -18.4915 -18.4900 -18.4897 -18.4881
   -18.4872 -18.4868 -18.4864 -18.4857 -18.4853 -18.4848 -18.4845 -18.4843
   -18.4843 -18.4834 -18.4834 -18.4801 -18.4787 -18.4781 -18.4727 -18.4725
   -18.4720 -18.4718 -18.4710 -18.4698 -18.4696 -18.4692 -18.4688 -18.4687
   -18.4685 -18.4682 -18.4681 -18.4676 -18.4667 -18.4654 -18.4651 -18.4639
   -18.4630 -18.4623 -18.4621 -18.4616 -18.4603 -18.4599 -18.4596 -18.4582
   -18.4572 -18.4569 -18.4565 -18.4553 -18.4546 -18.4532 -18.4527 -18.4519
   -18.4500 -18.4444 -18.4437 -18.2572 -18.2541 -18.1429 -18.1303 -18.1221
    -2.4948  -2.4324  -2.3858  -1.7834  -1.6938  -1.6247  -1.3310  -1.2962
    -1.2247  -0.9033  -0.8490  -0.8300  -0.7759  -0.7301  -0.7208  -0.7109
    -0.6625  -0.6321  -0.5732  -0.4665  -0.4184  -0.3942  -0.3614  -0.3345
    -0.3241  -0.3025  -0.2893  -0.1982  -0.1552  -0.1400  -0.1222  -0.0782
    -0.0692  -0.0603  -0.0280  -0.0079   1.3424   1.3722   1.3920   1.4350
     1.4654   1.4751   1.7121   1.7486   1.8224   1.9312   1.9533   1.9904
     2.0156   2.0644   2.0706   2.3934   2.4406   2.5090   2.5679   2.6024
     2.7745   3.9846   4.1775   4.3528   5.2213   5.2627   5.3291   5.3470
     5.3755   5.3919   5.3991   5.4598   5.5224   6.4177   6.4699   6.4925
     6.5291   6.5601   6.6002   6.6010   6.6211   6.6655   6.6832   6.7375
     6.7650   6.7819   6.7874   6.9220   6.9382   6.9698   7.0951   7.1171
     7.1510   7.2083   7.2288   7.2902   7.3010   7.4174   7.4777   7.5350
     7.5866   7.6114   7.6292   7.6431   7.6687   7.7881   7.8277   7.8490
     7.9332   8.0058   8.0234   8.0618   8.0854   8.1097   8.1301   8.1756
     8.2051   8.2336   8.2576   8.2985   8.3072   8.3299   8.3476   8.3690
     8.3788   8.4058   8.4782   8.6050   8.6608   8.6733   8.7322   8.7898
     8.8852   8.9041   8.9213   8.9445   9.0020   9.0561   9.1915   9.2570
     9.2885   9.3220   9.3906   9.4277   9.4684   9.5092   9.5554   9.5987
     9.6259   9.6585   9.6681   9.7177   9.7316   9.8156   9.8377   9.8917
     9.8980   9.9521  10.0932  10.1833  10.2294  10.2691  10.3309  10.3618
    10.4173  10.4589  10.4959  10.5341  10.5826  10.6015  10.7160  10.8965
    11.0603  11.0942  11.3077  11.5347  11.5786  11.7128  11.7669  11.8576
    11.9198  11.9739  12.0102  12.0814  12.0949  12.1209  12.1708  12.2292
    12.2834  12.3206  12.3635  12.3816  12.4117  12.4908  12.5087  12.5649
    12.6274  12.6666  12.7286  12.7510  12.7823  12.8298  12.8798  12.8872
    12.9094  12.9398  12.9614  13.0304  13.0688  13.0917  13.1251  13.1437
    13.2402  13.3529  13.4576  13.4895  13.5880  13.6096  13.6666  13.7270
    13.7489  13.8024  13.8525  13.8877  13.9142  13.9834  14.0209  14.0779
    14.1417  14.2128  14.2311  14.2609  14.3057  14.3583  14.4401  14.4932
    14.5151  14.5693  14.6244  14.6896  14.7589  14.7951  14.8403  14.8984
    14.9360  14.9858  15.0385  15.0706  15.0887  15.1597  15.2833  15.3521
    15.3721  15.5508  15.6332  15.7728  15.8081  15.8945  15.9549  16.0005
    16.1234  16.1481  16.1876  16.2486  16.3065  16.3403  16.4167  16.4689
    16.4856  16.5097

     occupation numbers 
     1.0000   1.0000   1.0000   1.0000   1.0000   1.0000   1.0000   1.0000
     1.0000   1.0000   1.0000   1.0000   1.0000   1.0000   1.0000   1.0000
     1.0000   1.0000   1.0000   1.0000   1.0000   1.0000   1.0000   1.0000
     1.0000   1.0000   1.0000   1.0000   1.0000   1.0000   1.0000   1.0000
     1.0000   1.0000   1.0000   1.0000   1.0000   1.0000   1.0000   1.0000
     1.0000   1.0000   1.0000   1.0000   1.0000   1.0000   1.0000   1.0000
     1.0000   1.0000   1.0000   1.0000   1.0000   1.0000   1.0000   1.0000
     1.0000   1.0000   1.0000   1.0000   1.0000   1.0000   1.0000   1.0000
     1.0000   1.0000   1.0000   1.0000   1.0000   1.0000   1.0000   1.0000
     1.0000   1.0000   1.0000   1.0000   1.0000   1.0000   1.0000   1.0000
     1.0000   1.0000   1.0000   1.0000   1.0000   1.0000   1.0000   1.0000
     1.0000   1.0000   1.0000   1.0000   1.0000   1.0000   1.0000   1.0000
     1.0000   1.0000   1.0000   1.0000   1.0000   1.0000   1.0000   1.0000
     1.0000   1.0000   1.0000   1.0000   1.0000   1.0000   1.0000   1.0000
     1.0000   1.0000   1.0000   1.0000   1.0000   1.0000   1.0000   1.0000
     1.0000   1.0000   1.0000   1.0000   1.0000   1.0000   1.0000   1.0000
     1.0000   1.0000   1.0000   1.0000   1.0000   1.0000   1.0000   1.0000
     1.0000   1.0000   1.0000   1.0000   1.0000   1.0000   1.0000   1.0000
     1.0000   1.0000   1.0000   1.0000   1.0000   1.0000   1.0000   1.0000
     1.0000   1.0000   1.0000   1.0000   1.0000   1.0000   1.0000   1.0000
     1.0000   1.0000   1.0000   1.0000   1.0000   1.0000   1.0000   1.0000
     1.0000   1.0000   1.0000   1.0000   1.0000   1.0000   1.0000   1.0000
     1.0000   1.0000   1.0000   1.0000   1.0000   1.0000   1.0000   1.0000
     1.0000   1.0000   1.0000   1.0000   1.0000   1.0000   1.0000   1.0000
     1.0000   1.0000   1.0000   1.0000   1.0000   1.0000   1.0000   1.0000
     1.0000   1.0000   1.0000   1.0000   1.0000   1.0000   1.0000   1.0000
     1.0000   1.0000   1.0000   1.0000   1.0000   1.0000   1.0000   1.0000
     1.0000   1.0000   1.0000   1.0000   1.0000   1.0000   1.0000   1.0000
     1.0000   1.0000   1.0000   1.0000   1.0000   1.0000   1.0000   1.0000
     1.0000   1.0000   1.0000   1.0000   1.0000   1.0000   1.0000   1.0000
     1.0000   1.0000   1.0000   1.0000   1.0000   1.0000   1.0000   1.0000
     1.0000   1.0000   1.0000   1.0000   1.0000   1.0000   1.0000   1.0000
     1.0000   1.0000   1.0000   1.0000   1.0000   1.0000   1.0000   1.0000
     1.0000   1.0000   1.0000   1.0000   1.0000   1.0000   1.0000   1.0000
     1.0000   1.0000   1.0000   1.0000   1.0000   1.0000   1.0000   1.0000
     1.0000   1.0000   1.0000   1.0000   1.0000   1.0000   1.0000   1.0000
     1.0000   1.0000   1.0000   1.0000   1.0000   1.0000   1.0000   1.0000
     1.0000   1.0000   1.0000   1.0000   1.0000   1.0000   1.0000   1.0000
     1.0000   1.0000   1.0000   1.0000   1.0000   1.0000   1.0000   1.0000
     1.0000   1.0000   1.0000   1.0000   1.0000   1.0000   1.0000   1.0000
     1.0000   1.0000   1.0000   1.0000   1.0000   1.0000   1.0000   1.0000
     1.0000   1.0000   1.0000   1.0000   1.0000   1.0000   1.0000   1.0000
     1.0000   1.0000   1.0000   1.0000   1.0000   1.0000   1.0000   1.0000
     1.0000   1.0000   1.0000   1.0000   1.0000   1.0000   1.0000   1.0000
     1.0000   1.0000   1.0000   1.0000   1.0000   1.0000   1.0000   1.0000
     1.0000   1.0000   1.0000   1.0000   1.0000   1.0000   1.0000   1.0000
     1.0000   1.0000   1.0000   1.0000   1.0000   1.0000   1.0000   1.0000
     1.0000   1.0000   1.0000   1.0000   1.0000   1.0000   1.0000   1.0000
     1.0000   1.0000   1.0000   1.0000   1.0000   1.0000   1.0000   1.0000
     1.0000   1.0000   1.0000   1.0000   1.0000   1.0000   1.0000   1.0000
     1.0000   1.0000   1.0000   1.0000   1.0000   1.0000   1.0000   1.0000
     1.0000   1.0000   1.0000   1.0000   1.0000   1.0000   1.0000   1.0000
     1.0000   1.0000   1.0000   1.0000   1.0000   1.0000   1.0000   1.0000
     1.0000   1.0000   1.0000   1.0000   1.0000   1.0000   1.0000   1.0000
     1.0000   1.0000   1.0000   1.0000   1.0000   1.0000   1.0000   1.0000
     1.0000   1.0000   1.0000   1.0000   1.0000   1.0000   1.0000   1.0000
     1.0000   1.0000   1.0000   1.0000   1.0000   1.0000   1.0000   1.0000
     1.0000   1.0000   1.0000   1.0000   1.0000   1.0000   1.0000   1.0000
     1.0000   1.0000   1.0000   1.0000   1.0000   1.0000   1.0000   1.0037
     1.0443   1.0601   0.9108   0.1730   0.0972   0.0095   0.0029   0.0003
     0.0000   0.0000   0.0000   0.0000   0.0000   0.0000   0.0000   0.0000
     0.0000   0.0000   0.0000   0.0000   0.0000   0.0000   0.0000   0.0000
     0.0000   0.0000   0.0000   0.0000   0.0000   0.0000   0.0000   0.0000
     0.0000   0.0000   0.0000   0.0000   0.0000   0.0000   0.0000   0.0000
     0.0000   0.0000   0.0000   0.0000   0.0000   0.0000   0.0000   0.0000
     0.0000   0.0000   0.0000   0.0000   0.0000   0.0000   0.0000   0.0000
     0.0000   0.0000   0.0000   0.0000   0.0000   0.0000   0.0000   0.0000
     0.0000   0.0000   0.0000   0.0000   0.0000   0.0000   0.0000   0.0000
     0.0000   0.0000   0.0000   0.0000   0.0000   0.0000   0.0000   0.0000
     0.0000   0.0000   0.0000   0.0000   0.0000   0.0000   0.0000   0.0000
     0.0000   0.0000   0.0000   0.0000   0.0000   0.0000   0.0000   0.0000
     0.0000   0.0000

          k = 0.0000-0.5774 0.0000 (217530 PWs)   bands (ev):

   -60.0412 -31.4375 -31.4347 -31.3836 -25.9282 -25.9281 -25.9254 -25.9249
   -25.8948 -25.8945 -25.8855 -25.8848 -25.8843 -25.8841 -25.8840 -25.8840
   -25.8835 -25.8815 -25.8815 -25.8700 -25.8699 -25.8698 -25.8687 -25.8676
   -25.8642 -25.8630 -25.8619 -25.8602 -25.8581 -25.8561 -25.8559 -25.8553
   -25.8547 -25.8545 -25.8543 -25.8541 -25.8540 -25.8522 -25.8521 -25.8507
   -25.8505 -25.8417 -25.8416 -25.8394 -25.8393 -25.8341 -25.8341 -25.8328
   -25.8328 -25.8318 -25.8316 -25.8302 -25.8266 -25.8257 -25.8255 -25.8253
   -25.8247 -25.8198 -25.8194 -25.8150 -25.8140 -25.8113 -25.8091 -25.8089
   -25.8071 -25.8068 -25.8067 -25.8050 -25.8047 -25.7984 -25.7862 -25.7847
   -25.7844 -25.7785 -25.7767 -25.7766 -25.7752 -25.7729 -25.7720 -25.7706
   -25.7698 -25.7668 -25.7637 -25.7633 -25.7632 -25.7571 -25.7564 -25.7543
   -25.7536 -25.7520 -25.7517 -25.7513 -25.7499 -25.7491 -25.7473 -25.7471
   -25.7452 -25.7443 -25.7434 -25.7433 -25.7430 -25.7427 -25.7424 -25.7415
   -25.7409 -25.7406 -25.7393 -25.7386 -25.7376 -25.7331 -25.7259 -25.7255
   -25.7250 -25.7248 -25.7233 -25.7228 -25.7216 -25.7074 -25.7073 -25.7038
   -25.7030 -25.7028 -25.7024 -25.7012 -25.7005 -25.6996 -25.6995 -25.6987
   -25.6985 -25.6968 -25.6967 -25.6955 -25.6954 -25.6926 -25.6915 -25.6914
   -25.6871 -25.6869 -25.6849 -25.6805 -25.6804 -25.6729 -25.6726 -25.6710
   -25.6710 -25.6707 -25.6707 -25.6698 -25.6697 -25.6691 -25.6689 -25.6669
   -25.6655 -25.6654 -25.6653 -25.6652 -25.6639 -25.6637 -25.6635 -25.6633
   -25.6533 -25.6530 -25.6506 -25.6493 -25.6456 -25.6455 -25.6381 -25.6367
   -25.6366 -25.6362 -25.6359 -25.6355 -25.6344 -25.6316 -25.6309 -25.6309
   -25.6298 -25.6297 -25.6282 -25.6199 -25.6188 -25.6187 -25.6138 -25.6137
   -18.6137 -18.6123 -18.6095 -18.6083 -18.6068 -18.6064 -18.6013 -18.6007
   -18.5940 -18.5937 -18.5920 -18.5915 -18.5914 -18.5893 -18.5889 -18.5885
   -18.5881 -18.5863 -18.5847 -18.5845 -18.5824 -18.5793 -18.5775 -18.5768
   -18.5763 -18.5760 -18.5707 -18.5702 -18.5693 -18.5657 -18.5614 -18.5612
   -18.5593 -18.5552 -18.5549 -18.5479 -18.5457 -18.5337 -18.5309 -18.5296
   -18.5289 -18.5239 -18.5236 -18.5229 -18.5200 -18.5194 -18.5190 -18.5135
   -18.5125 -18.5123 -18.5095 -18.5042 -18.5040 -18.5027 -18.5026 -18.4982
   -18.4975 -18.4924 -18.4921 -18.4918 -18.4908 -18.4905 -18.4881 -18.4871
   -18.4869 -18.4869 -18.4864 -18.4859 -18.4857 -18.4855 -18.4851 -18.4848
   -18.4846 -18.4832 -18.4828 -18.4811 -18.4794 -18.4787 -18.4721 -18.4720
   -18.4718 -18.4718 -18.4713 -18.4699 -18.4696 -18.4692 -18.4691 -18.4687
   -18.4685 -18.4678 -18.4677 -18.4677 -18.4674 -18.4657 -18.4652 -18.4634
   -18.4632 -18.4629 -18.4622 -18.4619 -18.4602 -18.4599 -18.4592 -18.4590
   -18.4571 -18.4567 -18.4564 -18.4558 -18.4547 -18.4534 -18.4524 -18.4522
   -18.4501 -18.4444 -18.4436 -18.2572 -18.2542 -18.1430 -18.1303 -18.1221
    -2.0617  -2.0368  -2.0311  -1.9432  -1.9346  -1.9260  -1.3993  -1.3875
    -1.3283  -1.2403  -1.2276  -1.1800  -0.9494  -0.8870  -0.8786  -0.8379
    -0.8294  -0.8257  -0.5098  -0.4389  -0.4119  -0.3840  -0.3369  -0.3168
    -0.3120  -0.2771  -0.2021  -0.1667  -0.1222  -0.1186  -0.0287  -0.0208
     0.0317   0.0827   0.1009   0.1085   1.5553   1.5939   1.6125   1.6635
     1.6817   1.6897   1.7285   1.7698   1.7990   1.8132   1.8512   1.8565
     2.2397   2.3262   2.3869   2.4239   2.5100   2.5237   3.2293   3.2547
     3.3200   3.3467   3.4468   3.4498   5.6074   5.6662   5.7132   5.7179
     5.7642   5.7831   5.7928   5.8238   5.8424   5.8840   5.8928   5.9392
     6.1228   6.1491   6.2098   6.2858   6.3058   6.3153   6.6482   6.6907
     6.7706   6.7877   6.8792   6.9141   6.9282   7.0703   7.0833   7.1353
     7.1595   7.1701   7.2072   7.2411   7.3040   7.3464   7.3537   7.3749
     7.3949   7.4159   7.4338   7.4675   7.4847   7.4929   7.5197   7.5741
     7.5819   7.5948   7.6514   7.6696   7.6722   7.7179   7.8453   7.8559
     7.9100   7.9850   8.0983   8.1256   8.2207   8.3257   8.3466   8.3924
     8.4170   8.4310   8.4444   8.4558   8.4730   8.4834   8.6368   8.7131
     8.8329   8.8543   9.0373   9.0852   9.1759   9.2111   9.2748   9.2927
     9.3456   9.4013   9.4193   9.4801   9.5204   9.5273   9.5454   9.6259
     9.6526   9.7360   9.7423   9.7552   9.8344   9.8637   9.8858   9.9070
     9.9454  10.0838  10.1200  10.2054  10.2587  10.2846  10.3359  10.3440
    10.3851  10.4903  10.5429  10.6123  10.7635  10.7671  10.9668  10.9762
    11.1424  11.1992  11.4400  11.5176  11.7159  11.7808  11.9253  12.1085
    12.1169  12.2072  12.2789  12.3915  12.4327  12.4886  12.5094  12.5484
    12.5640  12.6058  12.6111  12.6359  12.6883  12.7137  12.7311  12.8379
    12.8684  12.9280  12.9672  12.9918  13.0117  13.0539  13.0851  13.1536
    13.1783  13.2139  13.2432  13.2715  13.3498  13.5029  13.5262  13.5601
    13.5817  13.6597  13.6933  13.7719  13.8225  13.8407  13.8781  13.9320
    13.9816  14.0172  14.0907  14.1267  14.1606  14.1704  14.2556  14.3472
    14.3548  14.4446  14.4595  14.5377  14.5941  14.6108  14.6237  14.6959
    14.7149  14.7210  14.7431  14.9171  14.9439  15.0571  15.0892  15.1019
    15.1477  15.1891  15.2141  15.2337  15.2770  15.3926  15.4388  15.4869
    15.5002  15.5151  15.5334  15.5528  15.6299  15.6813  15.6865  15.7351
    15.7470  15.8180  15.8488  15.9135  15.9487  15.9727  16.0636  16.1173
    16.2646  16.3737

     occupation numbers 
     1.0000   1.0000   1.0000   1.0000   1.0000   1.0000   1.0000   1.0000
     1.0000   1.0000   1.0000   1.0000   1.0000   1.0000   1.0000   1.0000
     1.0000   1.0000   1.0000   1.0000   1.0000   1.0000   1.0000   1.0000
     1.0000   1.0000   1.0000   1.0000   1.0000   1.0000   1.0000   1.0000
     1.0000   1.0000   1.0000   1.0000   1.0000   1.0000   1.0000   1.0000
     1.0000   1.0000   1.0000   1.0000   1.0000   1.0000   1.0000   1.0000
     1.0000   1.0000   1.0000   1.0000   1.0000   1.0000   1.0000   1.0000
     1.0000   1.0000   1.0000   1.0000   1.0000   1.0000   1.0000   1.0000
     1.0000   1.0000   1.0000   1.0000   1.0000   1.0000   1.0000   1.0000
     1.0000   1.0000   1.0000   1.0000   1.0000   1.0000   1.0000   1.0000
     1.0000   1.0000   1.0000   1.0000   1.0000   1.0000   1.0000   1.0000
     1.0000   1.0000   1.0000   1.0000   1.0000   1.0000   1.0000   1.0000
     1.0000   1.0000   1.0000   1.0000   1.0000   1.0000   1.0000   1.0000
     1.0000   1.0000   1.0000   1.0000   1.0000   1.0000   1.0000   1.0000
     1.0000   1.0000   1.0000   1.0000   1.0000   1.0000   1.0000   1.0000
     1.0000   1.0000   1.0000   1.0000   1.0000   1.0000   1.0000   1.0000
     1.0000   1.0000   1.0000   1.0000   1.0000   1.0000   1.0000   1.0000
     1.0000   1.0000   1.0000   1.0000   1.0000   1.0000   1.0000   1.0000
     1.0000   1.0000   1.0000   1.0000   1.0000   1.0000   1.0000   1.0000
     1.0000   1.0000   1.0000   1.0000   1.0000   1.0000   1.0000   1.0000
     1.0000   1.0000   1.0000   1.0000   1.0000   1.0000   1.0000   1.0000
     1.0000   1.0000   1.0000   1.0000   1.0000   1.0000   1.0000   1.0000
     1.0000   1.0000   1.0000   1.0000   1.0000   1.0000   1.0000   1.0000
     1.0000   1.0000   1.0000   1.0000   1.0000   1.0000   1.0000   1.0000
     1.0000   1.0000   1.0000   1.0000   1.0000   1.0000   1.0000   1.0000
     1.0000   1.0000   1.0000   1.0000   1.0000   1.0000   1.0000   1.0000
     1.0000   1.0000   1.0000   1.0000   1.0000   1.0000   1.0000   1.0000
     1.0000   1.0000   1.0000   1.0000   1.0000   1.0000   1.0000   1.0000
     1.0000   1.0000   1.0000   1.0000   1.0000   1.0000   1.0000   1.0000
     1.0000   1.0000   1.0000   1.0000   1.0000   1.0000   1.0000   1.0000
     1.0000   1.0000   1.0000   1.0000   1.0000   1.0000   1.0000   1.0000
     1.0000   1.0000   1.0000   1.0000   1.0000   1.0000   1.0000   1.0000
     1.0000   1.0000   1.0000   1.0000   1.0000   1.0000   1.0000   1.0000
     1.0000   1.0000   1.0000   1.0000   1.0000   1.0000   1.0000   1.0000
     1.0000   1.0000   1.0000   1.0000   1.0000   1.0000   1.0000   1.0000
     1.0000   1.0000   1.0000   1.0000   1.0000   1.0000   1.0000   1.0000
     1.0000   1.0000   1.0000   1.0000   1.0000   1.0000   1.0000   1.0000
     1.0000   1.0000   1.0000   1.0000   1.0000   1.0000   1.0000   1.0000
     1.0000   1.0000   1.0000   1.0000   1.0000   1.0000   1.0000   1.0000
     1.0000   1.0000   1.0000   1.0000   1.0000   1.0000   1.0000   1.0000
     1.0000   1.0000   1.0000   1.0000   1.0000   1.0000   1.0000   1.0000
     1.0000   1.0000   1.0000   1.0000   1.0000   1.0000   1.0000   1.0000
     1.0000   1.0000   1.0000   1.0000   1.0000   1.0000   1.0000   1.0000
     1.0000   1.0000   1.0000   1.0000   1.0000   1.0000   1.0000   1.0000
     1.0000   1.0000   1.0000   1.0000   1.0000   1.0000   1.0000   1.0000
     1.0000   1.0000   1.0000   1.0000   1.0000   1.0000   1.0000   1.0000
     1.0000   1.0000   1.0000   1.0000   1.0000   1.0000   1.0000   1.0000
     1.0000   1.0000   1.0000   1.0000   1.0000   1.0000   1.0000   1.0000
     1.0000   1.0000   1.0000   1.0000   1.0000   1.0000   1.0000   1.0000
     1.0000   1.0000   1.0000   1.0000   1.0000   1.0000   1.0000   1.0000
     1.0000   1.0000   1.0000   1.0000   1.0000   1.0000   1.0000   1.0000
     1.0000   1.0000   1.0000   1.0000   1.0000   1.0000   1.0000   1.0000
     1.0000   1.0000   1.0000   1.0000   1.0000   1.0000   1.0000   1.0000
     1.0000   1.0000   1.0000   1.0000   1.0000   1.0000   1.0000   1.0000
     1.0000   1.0000   1.0000   1.0000   1.0000   1.0000   1.0000   1.0000
     1.0000   1.0000   1.0000   1.0000   1.0000   1.0000   1.0000   1.0000
     1.0000   1.0000   1.0000   1.0000   1.0000   1.0000   1.0000   1.0000
     1.0000   1.0000   1.0000   1.0000   1.0000   1.0000   1.0000   1.0000
     1.0000   1.0000   1.0000   1.0000   1.0002   1.0002   1.0129   1.0150
     1.0791   1.0777   0.4474   0.2117   0.0089   0.0021   0.0000   0.0000
     0.0000   0.0000   0.0000   0.0000   0.0000   0.0000   0.0000   0.0000
     0.0000   0.0000   0.0000   0.0000   0.0000   0.0000   0.0000   0.0000
     0.0000   0.0000   0.0000   0.0000   0.0000   0.0000   0.0000   0.0000
     0.0000   0.0000   0.0000   0.0000   0.0000   0.0000   0.0000   0.0000
     0.0000   0.0000   0.0000   0.0000   0.0000   0.0000   0.0000   0.0000
     0.0000   0.0000   0.0000   0.0000   0.0000   0.0000   0.0000   0.0000
     0.0000   0.0000   0.0000   0.0000   0.0000   0.0000   0.0000   0.0000
     0.0000   0.0000   0.0000   0.0000   0.0000   0.0000   0.0000   0.0000
     0.0000   0.0000   0.0000   0.0000   0.0000   0.0000   0.0000   0.0000
     0.0000   0.0000   0.0000   0.0000   0.0000   0.0000   0.0000   0.0000
     0.0000   0.0000   0.0000   0.0000   0.0000   0.0000   0.0000   0.0000
     0.0000   0.0000

          k = 0.2500 0.4330 0.0000 (217507 PWs)   bands (ev):

   -60.0412 -31.4375 -31.4347 -31.3836 -25.9282 -25.9281 -25.9254 -25.9249
   -25.8948 -25.8945 -25.8855 -25.8848 -25.8843 -25.8841 -25.8840 -25.8840
   -25.8835 -25.8815 -25.8815 -25.8700 -25.8699 -25.8698 -25.8687 -25.8676
   -25.8642 -25.8630 -25.8619 -25.8602 -25.8581 -25.8560 -25.8560 -25.8553
   -25.8547 -25.8545 -25.8543 -25.8541 -25.8540 -25.8522 -25.8521 -25.8507
   -25.8505 -25.8417 -25.8416 -25.8394 -25.8393 -25.8341 -25.8341 -25.8328
   -25.8328 -25.8318 -25.8316 -25.8302 -25.8266 -25.8257 -25.8255 -25.8253
   -25.8247 -25.8198 -25.8194 -25.8150 -25.8140 -25.8113 -25.8091 -25.8089
   -25.8071 -25.8068 -25.8066 -25.8050 -25.8047 -25.7984 -25.7862 -25.7847
   -25.7844 -25.7785 -25.7767 -25.7766 -25.7752 -25.7729 -25.7720 -25.7706
   -25.7698 -25.7668 -25.7637 -25.7633 -25.7632 -25.7571 -25.7564 -25.7543
   -25.7536 -25.7520 -25.7517 -25.7513 -25.7499 -25.7491 -25.7473 -25.7471
   -25.7452 -25.7443 -25.7434 -25.7433 -25.7430 -25.7427 -25.7424 -25.7415
   -25.7409 -25.7406 -25.7393 -25.7386 -25.7376 -25.7331 -25.7259 -25.7255
   -25.7250 -25.7248 -25.7233 -25.7228 -25.7216 -25.7074 -25.7073 -25.7038
   -25.7030 -25.7028 -25.7024 -25.7012 -25.7005 -25.6996 -25.6995 -25.6987
   -25.6985 -25.6968 -25.6967 -25.6955 -25.6954 -25.6926 -25.6915 -25.6914
   -25.6871 -25.6869 -25.6849 -25.6805 -25.6804 -25.6729 -25.6726 -25.6710
   -25.6710 -25.6707 -25.6707 -25.6698 -25.6697 -25.6690 -25.6690 -25.6669
   -25.6654 -25.6654 -25.6653 -25.6653 -25.6639 -25.6637 -25.6635 -25.6633
   -25.6533 -25.6530 -25.6506 -25.6493 -25.6456 -25.6455 -25.6381 -25.6367
   -25.6366 -25.6362 -25.6359 -25.6355 -25.6344 -25.6316 -25.6310 -25.6309
   -25.6298 -25.6297 -25.6282 -25.6199 -25.6188 -25.6187 -25.6138 -25.6137
   -18.6138 -18.6121 -18.6097 -18.6080 -18.6072 -18.6062 -18.6014 -18.6007
   -18.5940 -18.5937 -18.5921 -18.5916 -18.5913 -18.5892 -18.5890 -18.5884
   -18.5881 -18.5863 -18.5847 -18.5845 -18.5824 -18.5793 -18.5775 -18.5768
   -18.5763 -18.5760 -18.5707 -18.5701 -18.5693 -18.5657 -18.5615 -18.5611
   -18.5593 -18.5552 -18.5549 -18.5479 -18.5457 -18.5337 -18.5309 -18.5296
   -18.5289 -18.5240 -18.5236 -18.5230 -18.5201 -18.5192 -18.5191 -18.5135
   -18.5126 -18.5123 -18.5095 -18.5042 -18.5040 -18.5028 -18.5026 -18.4982
   -18.4975 -18.4926 -18.4921 -18.4915 -18.4909 -18.4902 -18.4882 -18.4874
   -18.4869 -18.4865 -18.4865 -18.4860 -18.4857 -18.4855 -18.4851 -18.4846
   -18.4846 -18.4832 -18.4828 -18.4812 -18.4794 -18.4787 -18.4721 -18.4720
   -18.4719 -18.4716 -18.4712 -18.4701 -18.4696 -18.4692 -18.4691 -18.4687
   -18.4684 -18.4679 -18.4677 -18.4677 -18.4673 -18.4656 -18.4653 -18.4635
   -18.4633 -18.4628 -18.4622 -18.4618 -18.4604 -18.4598 -18.4593 -18.4588
   -18.4571 -18.4567 -18.4564 -18.4558 -18.4547 -18.4534 -18.4524 -18.4522
   -18.4501 -18.4444 -18.4436 -18.2572 -18.2542 -18.1429 -18.1303 -18.1221
    -2.1935  -2.1373  -2.0810  -1.6566  -1.6481  -1.6139  -1.5168  -1.5035
    -1.4904  -1.4390  -1.3820  -1.3303  -1.0216  -0.9769  -0.9019  -0.8502
    -0.8429  -0.7794  -0.4135  -0.3381  -0.2986  -0.2711  -0.2312  -0.2125
    -0.1899  -0.1771  -0.1594  -0.1403  -0.0809  -0.0524  -0.0436  -0.0268
     0.0084   0.0130   0.0157   0.0618   1.1615   1.2101   1.2547   1.3736
     1.4416   1.4434   1.9974   2.0403   2.0657   2.1215   2.1690   2.1901
     2.3633   2.4667   2.6067   2.6077   2.6408   2.6615   2.6765   2.7363
     2.7577   3.4880   3.5805   3.7031   5.4280   5.4826   5.5571   5.7234
     5.7819   5.8361   5.8655   5.9143   5.9269   5.9518   5.9799   6.0470
     6.1973   6.2597   6.3418   6.3924   6.4320   6.5188   6.5869   6.6250
     6.6554   6.7100   6.7881   6.7994   6.9212   6.9262   7.0021   7.0492
     7.0697   7.0995   7.1109   7.1272   7.2733   7.2913   7.3527   7.3781
     7.3900   7.4061   7.4263   7.4736   7.4969   7.5336   7.5353   7.5580
     7.5905   7.6553   7.6849   7.7074   7.7534   7.8379   7.9218   8.0028
     8.0369   8.0831   8.0900   8.1173   8.1377   8.1394   8.1809   8.2136
     8.3475   8.3897   8.4785   8.5340   8.5801   8.6240   8.6319   8.7471
     8.7846   8.8161   8.8716   8.9219   8.9490   9.0875   9.1910   9.2523
     9.3098   9.3237   9.3775   9.3870   9.4577   9.5099   9.5770   9.6591
     9.6864   9.7525   9.7809   9.9025   9.9635   9.9733  10.0179  10.0761
    10.0806  10.2445  10.3313  10.3410  10.3739  10.4023  10.4511  10.4864
    10.4953  10.5481  10.5859  10.6734  10.7745  10.7784  10.7931  10.9352
    11.2089  11.3235  11.4466  11.5466  11.6159  11.7926  11.8146  11.9726
    12.0028  12.0497  12.1363  12.2308  12.2536  12.3747  12.4022  12.4801
    12.5964  12.6449  12.6622  12.7177  12.7337  12.7653  12.8226  12.8413
    12.8738  12.9092  12.9341  12.9624  13.0123  13.0258  13.0467  13.1253
    13.1573  13.1798  13.2145  13.2699  13.3249  13.3792  13.3877  13.4134
    13.5006  13.5496  13.6284  13.6641  13.7924  13.8472  13.8640  13.9638
    14.0003  14.0233  14.1548  14.1949  14.2659  14.2883  14.3233  14.3278
    14.3803  14.4128  14.4352  14.4919  14.6589  14.7027  14.7185  14.7266
    14.8401  14.8659  14.8853  14.8946  15.0009  15.0256  15.0409  15.0926
    15.1365  15.1526  15.1765  15.2140  15.2768  15.2848  15.3321  15.3955
    15.4160  15.4783  15.4919  15.5063  15.5498  15.6052  15.6337  15.6589
    15.7326  15.8096  15.8851  15.9228  16.0052  16.0397  16.0713  16.1084
    16.1678  16.2036

     occupation numbers 
     1.0000   1.0000   1.0000   1.0000   1.0000   1.0000   1.0000   1.0000
     1.0000   1.0000   1.0000   1.0000   1.0000   1.0000   1.0000   1.0000
     1.0000   1.0000   1.0000   1.0000   1.0000   1.0000   1.0000   1.0000
     1.0000   1.0000   1.0000   1.0000   1.0000   1.0000   1.0000   1.0000
     1.0000   1.0000   1.0000   1.0000   1.0000   1.0000   1.0000   1.0000
     1.0000   1.0000   1.0000   1.0000   1.0000   1.0000   1.0000   1.0000
     1.0000   1.0000   1.0000   1.0000   1.0000   1.0000   1.0000   1.0000
     1.0000   1.0000   1.0000   1.0000   1.0000   1.0000   1.0000   1.0000
     1.0000   1.0000   1.0000   1.0000   1.0000   1.0000   1.0000   1.0000
     1.0000   1.0000   1.0000   1.0000   1.0000   1.0000   1.0000   1.0000
     1.0000   1.0000   1.0000   1.0000   1.0000   1.0000   1.0000   1.0000
     1.0000   1.0000   1.0000   1.0000   1.0000   1.0000   1.0000   1.0000
     1.0000   1.0000   1.0000   1.0000   1.0000   1.0000   1.0000   1.0000
     1.0000   1.0000   1.0000   1.0000   1.0000   1.0000   1.0000   1.0000
     1.0000   1.0000   1.0000   1.0000   1.0000   1.0000   1.0000   1.0000
     1.0000   1.0000   1.0000   1.0000   1.0000   1.0000   1.0000   1.0000
     1.0000   1.0000   1.0000   1.0000   1.0000   1.0000   1.0000   1.0000
     1.0000   1.0000   1.0000   1.0000   1.0000   1.0000   1.0000   1.0000
     1.0000   1.0000   1.0000   1.0000   1.0000   1.0000   1.0000   1.0000
     1.0000   1.0000   1.0000   1.0000   1.0000   1.0000   1.0000   1.0000
     1.0000   1.0000   1.0000   1.0000   1.0000   1.0000   1.0000   1.0000
     1.0000   1.0000   1.0000   1.0000   1.0000   1.0000   1.0000   1.0000
     1.0000   1.0000   1.0000   1.0000   1.0000   1.0000   1.0000   1.0000
     1.0000   1.0000   1.0000   1.0000   1.0000   1.0000   1.0000   1.0000
     1.0000   1.0000   1.0000   1.0000   1.0000   1.0000   1.0000   1.0000
     1.0000   1.0000   1.0000   1.0000   1.0000   1.0000   1.0000   1.0000
     1.0000   1.0000   1.0000   1.0000   1.0000   1.0000   1.0000   1.0000
     1.0000   1.0000   1.0000   1.0000   1.0000   1.0000   1.0000   1.0000
     1.0000   1.0000   1.0000   1.0000   1.0000   1.0000   1.0000   1.0000
     1.0000   1.0000   1.0000   1.0000   1.0000   1.0000   1.0000   1.0000
     1.0000   1.0000   1.0000   1.0000   1.0000   1.0000   1.0000   1.0000
     1.0000   1.0000   1.0000   1.0000   1.0000   1.0000   1.0000   1.0000
     1.0000   1.0000   1.0000   1.0000   1.0000   1.0000   1.0000   1.0000
     1.0000   1.0000   1.0000   1.0000   1.0000   1.0000   1.0000   1.0000
     1.0000   1.0000   1.0000   1.0000   1.0000   1.0000   1.0000   1.0000
     1.0000   1.0000   1.0000   1.0000   1.0000   1.0000   1.0000   1.0000
     1.0000   1.0000   1.0000   1.0000   1.0000   1.0000   1.0000   1.0000
     1.0000   1.0000   1.0000   1.0000   1.0000   1.0000   1.0000   1.0000
     1.0000   1.0000   1.0000   1.0000   1.0000   1.0000   1.0000   1.0000
     1.0000   1.0000   1.0000   1.0000   1.0000   1.0000   1.0000   1.0000
     1.0000   1.0000   1.0000   1.0000   1.0000   1.0000   1.0000   1.0000
     1.0000   1.0000   1.0000   1.0000   1.0000   1.0000   1.0000   1.0000
     1.0000   1.0000   1.0000   1.0000   1.0000   1.0000   1.0000   1.0000
     1.0000   1.0000   1.0000   1.0000   1.0000   1.0000   1.0000   1.0000
     1.0000   1.0000   1.0000   1.0000   1.0000   1.0000   1.0000   1.0000
     1.0000   1.0000   1.0000   1.0000   1.0000   1.0000   1.0000   1.0000
     1.0000   1.0000   1.0000   1.0000   1.0000   1.0000   1.0000   1.0000
     1.0000   1.0000   1.0000   1.0000   1.0000   1.0000   1.0000   1.0000
     1.0000   1.0000   1.0000   1.0000   1.0000   1.0000   1.0000   1.0000
     1.0000   1.0000   1.0000   1.0000   1.0000   1.0000   1.0000   1.0000
     1.0000   1.0000   1.0000   1.0000   1.0000   1.0000   1.0000   1.0000
     1.0000   1.0000   1.0000   1.0000   1.0000   1.0000   1.0000   1.0000
     1.0000   1.0000   1.0000   1.0000   1.0000   1.0000   1.0000   1.0000
     1.0000   1.0000   1.0000   1.0000   1.0000   1.0000   1.0000   1.0000
     1.0000   1.0000   1.0000   1.0000   1.0000   1.0000   1.0000   1.0000
     1.0000   1.0000   1.0000   1.0000   1.0000   1.0000   1.0000   1.0000
     1.0000   1.0000   1.0000   1.0000   1.0000   1.0000   1.0000   1.0000
     1.0000   1.0000   1.0000   1.0000   1.0000   1.0000   1.0000   1.0000
     1.0000   1.0000   1.0000   1.0000   1.0002   1.0002   1.0004   1.0076
     1.0729   0.8654   0.4243   0.1493   0.0555   0.0016   0.0009   0.0000
     0.0000   0.0000   0.0000   0.0000   0.0000   0.0000   0.0000   0.0000
     0.0000   0.0000   0.0000   0.0000   0.0000   0.0000   0.0000   0.0000
     0.0000   0.0000   0.0000   0.0000   0.0000   0.0000   0.0000   0.0000
     0.0000   0.0000   0.0000   0.0000   0.0000   0.0000   0.0000   0.0000
     0.0000   0.0000   0.0000   0.0000   0.0000   0.0000   0.0000   0.0000
     0.0000   0.0000   0.0000   0.0000   0.0000   0.0000   0.0000   0.0000
     0.0000   0.0000   0.0000   0.0000   0.0000   0.0000   0.0000   0.0000
     0.0000   0.0000   0.0000   0.0000   0.0000   0.0000   0.0000   0.0000
     0.0000   0.0000   0.0000   0.0000   0.0000   0.0000   0.0000   0.0000
     0.0000   0.0000   0.0000   0.0000   0.0000   0.0000   0.0000   0.0000
     0.0000   0.0000   0.0000   0.0000   0.0000   0.0000   0.0000   0.0000
     0.0000   0.0000

          k =-0.2500 0.1443 0.0000 (217692 PWs)   bands (ev):

   -60.0412 -31.4375 -31.4347 -31.3836 -25.9286 -25.9278 -25.9253 -25.9248
   -25.8947 -25.8946 -25.8859 -25.8845 -25.8843 -25.8841 -25.8841 -25.8838
   -25.8836 -25.8815 -25.8815 -25.8702 -25.8698 -25.8697 -25.8688 -25.8676
   -25.8642 -25.8630 -25.8619 -25.8602 -25.8581 -25.8561 -25.8559 -25.8554
   -25.8546 -25.8544 -25.8544 -25.8541 -25.8540 -25.8522 -25.8521 -25.8507
   -25.8505 -25.8417 -25.8416 -25.8394 -25.8393 -25.8343 -25.8341 -25.8329
   -25.8327 -25.8320 -25.8314 -25.8300 -25.8266 -25.8261 -25.8256 -25.8253
   -25.8242 -25.8200 -25.8192 -25.8150 -25.8140 -25.8114 -25.8090 -25.8089
   -25.8072 -25.8068 -25.8066 -25.8057 -25.8040 -25.7984 -25.7862 -25.7847
   -25.7844 -25.7785 -25.7767 -25.7766 -25.7753 -25.7729 -25.7720 -25.7706
   -25.7698 -25.7668 -25.7637 -25.7633 -25.7632 -25.7571 -25.7564 -25.7552
   -25.7527 -25.7521 -25.7516 -25.7515 -25.7500 -25.7488 -25.7473 -25.7471
   -25.7454 -25.7439 -25.7436 -25.7433 -25.7430 -25.7427 -25.7424 -25.7415
   -25.7409 -25.7406 -25.7393 -25.7385 -25.7376 -25.7331 -25.7260 -25.7254
   -25.7252 -25.7247 -25.7234 -25.7227 -25.7216 -25.7081 -25.7068 -25.7040
   -25.7030 -25.7027 -25.7022 -25.7013 -25.7005 -25.6996 -25.6995 -25.6989
   -25.6984 -25.6968 -25.6967 -25.6956 -25.6954 -25.6926 -25.6915 -25.6915
   -25.6872 -25.6868 -25.6849 -25.6805 -25.6804 -25.6729 -25.6726 -25.6716
   -25.6709 -25.6708 -25.6702 -25.6701 -25.6697 -25.6690 -25.6686 -25.6668
   -25.6662 -25.6655 -25.6652 -25.6645 -25.6643 -25.6637 -25.6636 -25.6627
   -25.6533 -25.6530 -25.6506 -25.6493 -25.6456 -25.6455 -25.6381 -25.6367
   -25.6365 -25.6364 -25.6357 -25.6357 -25.6344 -25.6316 -25.6310 -25.6308
   -25.6298 -25.6297 -25.6281 -25.6199 -25.6191 -25.6184 -25.6140 -25.6134
   -18.6145 -18.6133 -18.6088 -18.6084 -18.6069 -18.6065 -18.6015 -18.5993
   -18.5941 -18.5940 -18.5928 -18.5918 -18.5914 -18.5895 -18.5884 -18.5878
   -18.5875 -18.5865 -18.5853 -18.5838 -18.5830 -18.5793 -18.5789 -18.5767
   -18.5753 -18.5751 -18.5713 -18.5695 -18.5694 -18.5656 -18.5618 -18.5607
   -18.5594 -18.5562 -18.5537 -18.5483 -18.5460 -18.5332 -18.5312 -18.5298
   -18.5288 -18.5255 -18.5235 -18.5215 -18.5212 -18.5190 -18.5181 -18.5134
   -18.5131 -18.5117 -18.5095 -18.5050 -18.5035 -18.5033 -18.5016 -18.5000
   -18.4958 -18.4942 -18.4925 -18.4921 -18.4911 -18.4898 -18.4892 -18.4889
   -18.4875 -18.4868 -18.4859 -18.4859 -18.4852 -18.4846 -18.4843 -18.4843
   -18.4839 -18.4838 -18.4837 -18.4802 -18.4787 -18.4779 -18.4728 -18.4726
   -18.4719 -18.4718 -18.4707 -18.4701 -18.4698 -18.4695 -18.4690 -18.4684
   -18.4684 -18.4681 -18.4679 -18.4674 -18.4664 -18.4655 -18.4654 -18.4640
   -18.4632 -18.4621 -18.4621 -18.4615 -18.4607 -18.4600 -18.4594 -18.4581
   -18.4574 -18.4570 -18.4567 -18.4549 -18.4546 -18.4532 -18.4528 -18.4517
   -18.4501 -18.4444 -18.4437 -18.2572 -18.2542 -18.1429 -18.1303 -18.1221
    -2.4949  -2.4337  -2.3859  -1.7871  -1.6990  -1.6265  -1.3236  -1.2416
    -1.2224  -0.8784  -0.8609  -0.8527  -0.8042  -0.7342  -0.7217  -0.7155
    -0.6749  -0.6362  -0.5545  -0.4795  -0.4405  -0.4328  -0.3695  -0.3267
    -0.3181  -0.2803  -0.2796  -0.1887  -0.1643  -0.1183  -0.1151  -0.0986
    -0.0760  -0.0533  -0.0342  -0.0073   1.3492   1.3732   1.3980   1.4307
     1.4607   1.4803   1.7051   1.7546   1.8221   1.9559   1.9807   2.0080
     2.0368   2.0635   2.0729   2.3707   2.4362   2.4738   2.5660   2.6124
     2.7769   3.9803   4.1768   4.3533   5.2225   5.2611   5.3341   5.3463
     5.3801   5.3900   5.3948   5.4388   5.5171   6.4194   6.4844   6.4844
     6.5569   6.5664   6.5986   6.6002   6.6359   6.6495   6.6904   6.6994
     6.7700   6.7834   6.7885   6.9252   6.9527   6.9615   7.1008   7.1022
     7.1426   7.2082   7.2283   7.2663   7.3200   7.3444   7.4736   7.5229
     7.5737   7.6101   7.6225   7.6253   7.6695   7.7888   7.8245   7.8648
     7.9336   7.9895   8.0271   8.0734   8.0836   8.1026   8.1542   8.1687
     8.1947   8.2694   8.2707   8.2914   8.3274   8.3394   8.3450   8.3695
     8.3792   8.3994   8.4787   8.5883   8.6468   8.6809   8.7280   8.8100
     8.8732   8.8871   8.8983   8.9450   8.9979   9.0598   9.2215   9.2335
     9.2717   9.3455   9.3875   9.4558   9.4647   9.5107   9.5272   9.6034
     9.6319   9.6386   9.6765   9.7173   9.7347   9.7968   9.8520   9.8949
     9.9055   9.9646  10.0570  10.1838  10.2507  10.3384  10.3399  10.3822
    10.4456  10.4811  10.5130  10.5457  10.5844  10.5973  10.7175  10.9165
    11.1019  11.1547  11.3213  11.5503  11.6122  11.6319  11.7739  11.8448
    11.9332  11.9499  12.0177  12.0364  12.0949  12.1044  12.1245  12.1930
    12.2622  12.3177  12.3593  12.3867  12.4084  12.5006  12.5632  12.6086
    12.6123  12.6890  12.7041  12.7291  12.7763  12.8407  12.8704  12.9027
    12.9082  12.9510  12.9588  13.0206  13.0771  13.0819  13.1085  13.1751
    13.2722  13.3249  13.4015  13.5076  13.5483  13.6500  13.6987  13.7286
    13.7563  13.8536  13.8862  13.9000  13.9203  14.0001  14.0134  14.0173
    14.1454  14.1709  14.2319  14.2670  14.2678  14.3860  14.3894  14.4852
    14.5063  14.5949  14.6108  14.6750  14.7611  14.8165  14.8359  14.9076
    14.9499  15.0066  15.0340  15.0657  15.1099  15.1232  15.2973  15.3118
    15.4097  15.4850  15.5611  15.5876  15.8538  15.8606  15.9003  15.9922
    16.1371  16.2041  16.2198  16.2520  16.2819  16.3801  16.4238  16.4640
    16.5054  16.5318

     occupation numbers 
     1.0000   1.0000   1.0000   1.0000   1.0000   1.0000   1.0000   1.0000
     1.0000   1.0000   1.0000   1.0000   1.0000   1.0000   1.0000   1.0000
     1.0000   1.0000   1.0000   1.0000   1.0000   1.0000   1.0000   1.0000
     1.0000   1.0000   1.0000   1.0000   1.0000   1.0000   1.0000   1.0000
     1.0000   1.0000   1.0000   1.0000   1.0000   1.0000   1.0000   1.0000
     1.0000   1.0000   1.0000   1.0000   1.0000   1.0000   1.0000   1.0000
     1.0000   1.0000   1.0000   1.0000   1.0000   1.0000   1.0000   1.0000
     1.0000   1.0000   1.0000   1.0000   1.0000   1.0000   1.0000   1.0000
     1.0000   1.0000   1.0000   1.0000   1.0000   1.0000   1.0000   1.0000
     1.0000   1.0000   1.0000   1.0000   1.0000   1.0000   1.0000   1.0000
     1.0000   1.0000   1.0000   1.0000   1.0000   1.0000   1.0000   1.0000
     1.0000   1.0000   1.0000   1.0000   1.0000   1.0000   1.0000   1.0000
     1.0000   1.0000   1.0000   1.0000   1.0000   1.0000   1.0000   1.0000
     1.0000   1.0000   1.0000   1.0000   1.0000   1.0000   1.0000   1.0000
     1.0000   1.0000   1.0000   1.0000   1.0000   1.0000   1.0000   1.0000
     1.0000   1.0000   1.0000   1.0000   1.0000   1.0000   1.0000   1.0000
     1.0000   1.0000   1.0000   1.0000   1.0000   1.0000   1.0000   1.0000
     1.0000   1.0000   1.0000   1.0000   1.0000   1.0000   1.0000   1.0000
     1.0000   1.0000   1.0000   1.0000   1.0000   1.0000   1.0000   1.0000
     1.0000   1.0000   1.0000   1.0000   1.0000   1.0000   1.0000   1.0000
     1.0000   1.0000   1.0000   1.0000   1.0000   1.0000   1.0000   1.0000
     1.0000   1.0000   1.0000   1.0000   1.0000   1.0000   1.0000   1.0000
     1.0000   1.0000   1.0000   1.0000   1.0000   1.0000   1.0000   1.0000
     1.0000   1.0000   1.0000   1.0000   1.0000   1.0000   1.0000   1.0000
     1.0000   1.0000   1.0000   1.0000   1.0000   1.0000   1.0000   1.0000
     1.0000   1.0000   1.0000   1.0000   1.0000   1.0000   1.0000   1.0000
     1.0000   1.0000   1.0000   1.0000   1.0000   1.0000   1.0000   1.0000
     1.0000   1.0000   1.0000   1.0000   1.0000   1.0000   1.0000   1.0000
     1.0000   1.0000   1.0000   1.0000   1.0000   1.0000   1.0000   1.0000
     1.0000   1.0000   1.0000   1.0000   1.0000   1.0000   1.0000   1.0000
     1.0000   1.0000   1.0000   1.0000   1.0000   1.0000   1.0000   1.0000
     1.0000   1.0000   1.0000   1.0000   1.0000   1.0000   1.0000   1.0000
     1.0000   1.0000   1.0000   1.0000   1.0000   1.0000   1.0000   1.0000
     1.0000   1.0000   1.0000   1.0000   1.0000   1.0000   1.0000   1.0000
     1.0000   1.0000   1.0000   1.0000   1.0000   1.0000   1.0000   1.0000
     1.0000   1.0000   1.0000   1.0000   1.0000   1.0000   1.0000   1.0000
     1.0000   1.0000   1.0000   1.0000   1.0000   1.0000   1.0000   1.0000
     1.0000   1.0000   1.0000   1.0000   1.0000   1.0000   1.0000   1.0000
     1.0000   1.0000   1.0000   1.0000   1.0000   1.0000   1.0000   1.0000
     1.0000   1.0000   1.0000   1.0000   1.0000   1.0000   1.0000   1.0000
     1.0000   1.0000   1.0000   1.0000   1.0000   1.0000   1.0000   1.0000
     1.0000   1.0000   1.0000   1.0000   1.0000   1.0000   1.0000   1.0000
     1.0000   1.0000   1.0000   1.0000   1.0000   1.0000   1.0000   1.0000
     1.0000   1.0000   1.0000   1.0000   1.0000   1.0000   1.0000   1.0000
     1.0000   1.0000   1.0000   1.0000   1.0000   1.0000   1.0000   1.0000
     1.0000   1.0000   1.0000   1.0000   1.0000   1.0000   1.0000   1.0000
     1.0000   1.0000   1.0000   1.0000   1.0000   1.0000   1.0000   1.0000
     1.0000   1.0000   1.0000   1.0000   1.0000   1.0000   1.0000   1.0000
     1.0000   1.0000   1.0000   1.0000   1.0000   1.0000   1.0000   1.0000
     1.0000   1.0000   1.0000   1.0000   1.0000   1.0000   1.0000   1.0000
     1.0000   1.0000   1.0000   1.0000   1.0000   1.0000   1.0000   1.0000
     1.0000   1.0000   1.0000   1.0000   1.0000   1.0000   1.0000   1.0000
     1.0000   1.0000   1.0000   1.0000   1.0000   1.0000   1.0000   1.0000
     1.0000   1.0000   1.0000   1.0000   1.0000   1.0000   1.0000   1.0000
     1.0000   1.0000   1.0000   1.0000   1.0000   1.0000   1.0000   1.0000
     1.0000   1.0000   1.0000   1.0000   1.0000   1.0000   1.0000   1.0000
     1.0000   1.0000   1.0000   1.0000   1.0000   1.0000   1.0000   1.0000
     1.0000   1.0000   1.0000   1.0000   1.0000   1.0000   1.0000   1.0000
     1.0000   1.0000   1.0000   1.0000   1.0000   1.0000   1.0000   1.0054
     1.0637   1.0819   0.8720   0.1425   0.0588   0.0428   0.0025   0.0004
     0.0000   0.0000   0.0000   0.0000   0.0000   0.0000   0.0000   0.0000
     0.0000   0.0000   0.0000   0.0000   0.0000   0.0000   0.0000   0.0000
     0.0000   0.0000   0.0000   0.0000   0.0000   0.0000   0.0000   0.0000
     0.0000   0.0000   0.0000   0.0000   0.0000   0.0000   0.0000   0.0000
     0.0000   0.0000   0.0000   0.0000   0.0000   0.0000   0.0000   0.0000
     0.0000   0.0000   0.0000   0.0000   0.0000   0.0000   0.0000   0.0000
     0.0000   0.0000   0.0000   0.0000   0.0000   0.0000   0.0000   0.0000
     0.0000   0.0000   0.0000   0.0000   0.0000   0.0000   0.0000   0.0000
     0.0000   0.0000   0.0000   0.0000   0.0000   0.0000   0.0000   0.0000
     0.0000   0.0000   0.0000   0.0000   0.0000   0.0000   0.0000   0.0000
     0.0000   0.0000   0.0000   0.0000   0.0000   0.0000   0.0000   0.0000
     0.0000   0.0000

          k = 0.5000-0.2887 0.0000 (217530 PWs)   bands (ev):

   -60.0412 -31.4375 -31.4347 -31.3836 -25.9286 -25.9278 -25.9253 -25.9248
   -25.8947 -25.8946 -25.8859 -25.8845 -25.8843 -25.8841 -25.8841 -25.8838
   -25.8836 -25.8815 -25.8815 -25.8702 -25.8698 -25.8697 -25.8687 -25.8676
   -25.8642 -25.8630 -25.8619 -25.8602 -25.8581 -25.8560 -25.8558 -25.8555
   -25.8547 -25.8544 -25.8544 -25.8541 -25.8540 -25.8522 -25.8521 -25.8507
   -25.8505 -25.8417 -25.8416 -25.8394 -25.8393 -25.8343 -25.8341 -25.8329
   -25.8327 -25.8320 -25.8315 -25.8300 -25.8266 -25.8261 -25.8256 -25.8253
   -25.8242 -25.8200 -25.8192 -25.8150 -25.8140 -25.8114 -25.8090 -25.8089
   -25.8072 -25.8068 -25.8066 -25.8057 -25.8040 -25.7984 -25.7862 -25.7847
   -25.7844 -25.7785 -25.7766 -25.7766 -25.7753 -25.7729 -25.7720 -25.7706
   -25.7698 -25.7668 -25.7637 -25.7634 -25.7632 -25.7571 -25.7564 -25.7552
   -25.7527 -25.7520 -25.7517 -25.7515 -25.7500 -25.7488 -25.7473 -25.7471
   -25.7456 -25.7439 -25.7435 -25.7433 -25.7430 -25.7427 -25.7424 -25.7415
   -25.7409 -25.7406 -25.7393 -25.7385 -25.7376 -25.7332 -25.7260 -25.7255
   -25.7252 -25.7247 -25.7234 -25.7227 -25.7216 -25.7081 -25.7068 -25.7040
   -25.7029 -25.7027 -25.7022 -25.7013 -25.7005 -25.6995 -25.6994 -25.6989
   -25.6983 -25.6968 -25.6966 -25.6956 -25.6954 -25.6926 -25.6915 -25.6914
   -25.6872 -25.6868 -25.6849 -25.6805 -25.6803 -25.6729 -25.6725 -25.6716
   -25.6710 -25.6708 -25.6702 -25.6701 -25.6696 -25.6688 -25.6684 -25.6668
   -25.6662 -25.6656 -25.6654 -25.6645 -25.6643 -25.6638 -25.6636 -25.6628
   -25.6533 -25.6530 -25.6506 -25.6493 -25.6456 -25.6455 -25.6381 -25.6367
   -25.6365 -25.6363 -25.6357 -25.6357 -25.6344 -25.6316 -25.6310 -25.6308
   -25.6298 -25.6297 -25.6281 -25.6199 -25.6191 -25.6185 -25.6140 -25.6134
   -18.6136 -18.6126 -18.6093 -18.6083 -18.6075 -18.6047 -18.6033 -18.5996
   -18.5941 -18.5939 -18.5919 -18.5917 -18.5908 -18.5900 -18.5884 -18.5882
   -18.5878 -18.5866 -18.5854 -18.5840 -18.5818 -18.5800 -18.5791 -18.5771
   -18.5754 -18.5751 -18.5712 -18.5697 -18.5694 -18.5656 -18.5616 -18.5608
   -18.5597 -18.5563 -18.5537 -18.5481 -18.5459 -18.5329 -18.5308 -18.5297
   -18.5282 -18.5258 -18.5234 -18.5219 -18.5218 -18.5189 -18.5181 -18.5135
   -18.5132 -18.5118 -18.5094 -18.5050 -18.5035 -18.5034 -18.5017 -18.4997
   -18.4957 -18.4932 -18.4922 -18.4916 -18.4902 -18.4894 -18.4889 -18.4884
   -18.4868 -18.4868 -18.4867 -18.4859 -18.4855 -18.4851 -18.4845 -18.4841
   -18.4839 -18.4837 -18.4835 -18.4818 -18.4795 -18.4783 -18.4726 -18.4723
   -18.4713 -18.4712 -18.4709 -18.4708 -18.4703 -18.4698 -18.4690 -18.4685
   -18.4682 -18.4680 -18.4673 -18.4669 -18.4664 -18.4660 -18.4658 -18.4640
   -18.4635 -18.4623 -18.4622 -18.4615 -18.4612 -18.4597 -18.4594 -18.4582
   -18.4574 -18.4571 -18.4570 -18.4549 -18.4546 -18.4533 -18.4528 -18.4517
   -18.4501 -18.4444 -18.4437 -18.2572 -18.2542 -18.1429 -18.1303 -18.1221
    -2.0840  -2.0590  -2.0338  -1.9383  -1.9271  -1.8837  -1.4080  -1.3658
    -1.2891  -1.2290  -1.2222  -1.1754  -0.9592  -0.9501  -0.8853  -0.8486
    -0.8369  -0.8214  -0.4835  -0.4736  -0.4418  -0.3661  -0.3546  -0.3058
    -0.3013  -0.2850  -0.1874  -0.1506  -0.1214  -0.1180  -0.0447  -0.0057
     0.0312   0.0365   0.0951   0.1144   1.5739   1.5844   1.5971   1.6239
     1.6771   1.6947   1.7587   1.7929   1.8435   1.8491   1.8560   1.8609
     2.2735   2.3088   2.4062   2.4459   2.5141   2.5250   3.2011   3.2457
     3.3118   3.3146   3.4407   3.4549   5.5847   5.6687   5.6761   5.7038
     5.7890   5.7892   5.7975   5.8154   5.8616   5.8796   5.8963   5.9840
     6.0917   6.1422   6.1973   6.2893   6.3080   6.3173   6.6459   6.6778
     6.7414   6.7594   6.8753   6.9013   6.9125   7.0380   7.0680   7.1079
     7.1445   7.1838   7.2109   7.2956   7.3116   7.3456   7.3533   7.3679
     7.3943   7.4160   7.4390   7.4630   7.4912   7.5233   7.5373   7.5432
     7.5693   7.5940   7.6051   7.6627   7.6765   7.7703   7.8027   7.8534
     7.9573   8.0134   8.0562   8.1283   8.2145   8.3341   8.3628   8.3675
     8.4035   8.4331   8.4483   8.4534   8.4552   8.4930   8.6341   8.6904
     8.7940   8.9124   9.0408   9.0725   9.1279   9.1863   9.2285   9.3321
     9.3949   9.4019   9.4208   9.5056   9.5263   9.5345   9.5806   9.6288
     9.6707   9.7184   9.7307   9.7316   9.8194   9.8467   9.8877   9.9049
    10.0236  10.0491  10.1291  10.1894  10.2331  10.3466  10.3502  10.3689
    10.4175  10.5014  10.5429  10.5987  10.7675  10.7888  10.9794  10.9952
    11.2288  11.2652  11.4735  11.6242  11.6969  11.7673  11.9543  12.1068
    12.1483  12.2286  12.3185  12.3220  12.4031  12.4716  12.4969  12.5366
    12.5559  12.5723  12.5994  12.6105  12.6483  12.7609  12.7784  12.8820
    12.9099  12.9291  12.9402  13.0046  13.0270  13.0761  13.1108  13.1177
    13.1528  13.1580  13.2847  13.3410  13.3552  13.4605  13.5038  13.5677
    13.5776  13.5989  13.7093  13.7570  13.7770  13.8201  13.8384  13.8941
    13.9295  13.9938  14.0919  14.1466  14.1599  14.1695  14.3406  14.4231
    14.4624  14.5073  14.5361  14.5685  14.5833  14.6458  14.6578  14.7035
    14.7181  14.7341  14.7528  14.7929  14.8772  14.9363  14.9716  14.9786
    15.0837  15.1334  15.1718  15.1987  15.2328  15.2770  15.3240  15.3835
    15.4749  15.4931  15.5605  15.5795  15.6273  15.6867  15.7092  15.7247
    15.7530  15.8224  15.8924  15.9197  15.9579  15.9922  16.0355  16.0690
    16.3161  16.3614

     occupation numbers 
     1.0000   1.0000   1.0000   1.0000   1.0000   1.0000   1.0000   1.0000
     1.0000   1.0000   1.0000   1.0000   1.0000   1.0000   1.0000   1.0000
     1.0000   1.0000   1.0000   1.0000   1.0000   1.0000   1.0000   1.0000
     1.0000   1.0000   1.0000   1.0000   1.0000   1.0000   1.0000   1.0000
     1.0000   1.0000   1.0000   1.0000   1.0000   1.0000   1.0000   1.0000
     1.0000   1.0000   1.0000   1.0000   1.0000   1.0000   1.0000   1.0000
     1.0000   1.0000   1.0000   1.0000   1.0000   1.0000   1.0000   1.0000
     1.0000   1.0000   1.0000   1.0000   1.0000   1.0000   1.0000   1.0000
     1.0000   1.0000   1.0000   1.0000   1.0000   1.0000   1.0000   1.0000
     1.0000   1.0000   1.0000   1.0000   1.0000   1.0000   1.0000   1.0000
     1.0000   1.0000   1.0000   1.0000   1.0000   1.0000   1.0000   1.0000
     1.0000   1.0000   1.0000   1.0000   1.0000   1.0000   1.0000   1.0000
     1.0000   1.0000   1.0000   1.0000   1.0000   1.0000   1.0000   1.0000
     1.0000   1.0000   1.0000   1.0000   1.0000   1.0000   1.0000   1.0000
     1.0000   1.0000   1.0000   1.0000   1.0000   1.0000   1.0000   1.0000
     1.0000   1.0000   1.0000   1.0000   1.0000   1.0000   1.0000   1.0000
     1.0000   1.0000   1.0000   1.0000   1.0000   1.0000   1.0000   1.0000
     1.0000   1.0000   1.0000   1.0000   1.0000   1.0000   1.0000   1.0000
     1.0000   1.0000   1.0000   1.0000   1.0000   1.0000   1.0000   1.0000
     1.0000   1.0000   1.0000   1.0000   1.0000   1.0000   1.0000   1.0000
     1.0000   1.0000   1.0000   1.0000   1.0000   1.0000   1.0000   1.0000
     1.0000   1.0000   1.0000   1.0000   1.0000   1.0000   1.0000   1.0000
     1.0000   1.0000   1.0000   1.0000   1.0000   1.0000   1.0000   1.0000
     1.0000   1.0000   1.0000   1.0000   1.0000   1.0000   1.0000   1.0000
     1.0000   1.0000   1.0000   1.0000   1.0000   1.0000   1.0000   1.0000
     1.0000   1.0000   1.0000   1.0000   1.0000   1.0000   1.0000   1.0000
     1.0000   1.0000   1.0000   1.0000   1.0000   1.0000   1.0000   1.0000
     1.0000   1.0000   1.0000   1.0000   1.0000   1.0000   1.0000   1.0000
     1.0000   1.0000   1.0000   1.0000   1.0000   1.0000   1.0000   1.0000
     1.0000   1.0000   1.0000   1.0000   1.0000   1.0000   1.0000   1.0000
     1.0000   1.0000   1.0000   1.0000   1.0000   1.0000   1.0000   1.0000
     1.0000   1.0000   1.0000   1.0000   1.0000   1.0000   1.0000   1.0000
     1.0000   1.0000   1.0000   1.0000   1.0000   1.0000   1.0000   1.0000
     1.0000   1.0000   1.0000   1.0000   1.0000   1.0000   1.0000   1.0000
     1.0000   1.0000   1.0000   1.0000   1.0000   1.0000   1.0000   1.0000
     1.0000   1.0000   1.0000   1.0000   1.0000   1.0000   1.0000   1.0000
     1.0000   1.0000   1.0000   1.0000   1.0000   1.0000   1.0000   1.0000
     1.0000   1.0000   1.0000   1.0000   1.0000   1.0000   1.0000   1.0000
     1.0000   1.0000   1.0000   1.0000   1.0000   1.0000   1.0000   1.0000
     1.0000   1.0000   1.0000   1.0000   1.0000   1.0000   1.0000   1.0000
     1.0000   1.0000   1.0000   1.0000   1.0000   1.0000   1.0000   1.0000
     1.0000   1.0000   1.0000   1.0000   1.0000   1.0000   1.0000   1.0000
     1.0000   1.0000   1.0000   1.0000   1.0000   1.0000   1.0000   1.0000
     1.0000   1.0000   1.0000   1.0000   1.0000   1.0000   1.0000   1.0000
     1.0000   1.0000   1.0000   1.0000   1.0000   1.0000   1.0000   1.0000
     1.0000   1.0000   1.0000   1.0000   1.0000   1.0000   1.0000   1.0000
     1.0000   1.0000   1.0000   1.0000   1.0000   1.0000   1.0000   1.0000
     1.0000   1.0000   1.0000   1.0000   1.0000   1.0000   1.0000   1.0000
     1.0000   1.0000   1.0000   1.0000   1.0000   1.0000   1.0000   1.0000
     1.0000   1.0000   1.0000   1.0000   1.0000   1.0000   1.0000   1.0000
     1.0000   1.0000   1.0000   1.0000   1.0000   1.0000   1.0000   1.0000
     1.0000   1.0000   1.0000   1.0000   1.0000   1.0000   1.0000   1.0000
     1.0000   1.0000   1.0000   1.0000   1.0000   1.0000   1.0000   1.0000
     1.0000   1.0000   1.0000   1.0000   1.0000   1.0000   1.0000   1.0000
     1.0000   1.0000   1.0000   1.0000   1.0000   1.0000   1.0000   1.0000
     1.0000   1.0000   1.0000   1.0000   1.0000   1.0000   1.0000   1.0000
     1.0000   1.0000   1.0000   1.0000   1.0000   1.0000   1.0000   1.0000
     1.0000   1.0000   1.0000   1.0000   1.0000   1.0000   1.0000   1.0000
     1.0000   1.0000   1.0000   1.0000   1.0002   1.0003   1.0158   1.0199
     1.0573   1.0074   0.3346   0.0485   0.0131   0.0029   0.0000   0.0000
     0.0000   0.0000   0.0000   0.0000   0.0000   0.0000   0.0000   0.0000
     0.0000   0.0000   0.0000   0.0000   0.0000   0.0000   0.0000   0.0000
     0.0000   0.0000   0.0000   0.0000   0.0000   0.0000   0.0000   0.0000
     0.0000   0.0000   0.0000   0.0000   0.0000   0.0000   0.0000   0.0000
     0.0000   0.0000   0.0000   0.0000   0.0000   0.0000   0.0000   0.0000
     0.0000   0.0000   0.0000   0.0000   0.0000   0.0000   0.0000   0.0000
     0.0000   0.0000   0.0000   0.0000   0.0000   0.0000   0.0000   0.0000
     0.0000   0.0000   0.0000   0.0000   0.0000   0.0000   0.0000   0.0000
     0.0000   0.0000   0.0000   0.0000   0.0000   0.0000   0.0000   0.0000
     0.0000   0.0000   0.0000   0.0000   0.0000   0.0000   0.0000   0.0000
     0.0000   0.0000   0.0000   0.0000   0.0000   0.0000   0.0000   0.0000
     0.0000   0.0000

          k =-0.2500 0.4330 0.0000 (217507 PWs)   bands (ev):

   -60.0412 -31.4375 -31.4347 -31.3836 -25.9284 -25.9279 -25.9254 -25.9249
   -25.8948 -25.8945 -25.8857 -25.8846 -25.8843 -25.8841 -25.8841 -25.8839
   -25.8836 -25.8815 -25.8815 -25.8701 -25.8698 -25.8698 -25.8687 -25.8676
   -25.8642 -25.8630 -25.8619 -25.8602 -25.8581 -25.8560 -25.8559 -25.8554
   -25.8547 -25.8545 -25.8543 -25.8541 -25.8540 -25.8522 -25.8521 -25.8507
   -25.8505 -25.8417 -25.8416 -25.8394 -25.8393 -25.8342 -25.8341 -25.8329
   -25.8327 -25.8319 -25.8315 -25.8301 -25.8266 -25.8259 -25.8256 -25.8253
   -25.8244 -25.8199 -25.8193 -25.8150 -25.8140 -25.8114 -25.8091 -25.8089
   -25.8072 -25.8068 -25.8066 -25.8055 -25.8042 -25.7984 -25.7862 -25.7847
   -25.7844 -25.7785 -25.7767 -25.7766 -25.7753 -25.7729 -25.7720 -25.7706
   -25.7698 -25.7668 -25.7637 -25.7633 -25.7632 -25.7571 -25.7564 -25.7549
   -25.7530 -25.7520 -25.7517 -25.7514 -25.7500 -25.7490 -25.7473 -25.7471
   -25.7454 -25.7441 -25.7434 -25.7433 -25.7430 -25.7427 -25.7424 -25.7415
   -25.7409 -25.7406 -25.7393 -25.7386 -25.7376 -25.7331 -25.7260 -25.7255
   -25.7251 -25.7247 -25.7233 -25.7228 -25.7216 -25.7079 -25.7069 -25.7039
   -25.7029 -25.7028 -25.7023 -25.7013 -25.7005 -25.6996 -25.6995 -25.6988
   -25.6984 -25.6968 -25.6967 -25.6956 -25.6954 -25.6926 -25.6915 -25.6915
   -25.6871 -25.6868 -25.6849 -25.6805 -25.6804 -25.6729 -25.6726 -25.6714
   -25.6709 -25.6708 -25.6703 -25.6701 -25.6697 -25.6689 -25.6687 -25.6669
   -25.6660 -25.6655 -25.6653 -25.6648 -25.6641 -25.6638 -25.6636 -25.6629
   -25.6533 -25.6530 -25.6506 -25.6493 -25.6456 -25.6455 -25.6381 -25.6367
   -25.6365 -25.6363 -25.6358 -25.6356 -25.6344 -25.6316 -25.6310 -25.6308
   -25.6298 -25.6297 -25.6282 -25.6199 -25.6190 -25.6185 -25.6139 -25.6135
   -18.6137 -18.6124 -18.6092 -18.6083 -18.6076 -18.6053 -18.6024 -18.5999
   -18.5940 -18.5938 -18.5920 -18.5917 -18.5911 -18.5897 -18.5886 -18.5883
   -18.5880 -18.5864 -18.5851 -18.5842 -18.5822 -18.5792 -18.5790 -18.5768
   -18.5757 -18.5756 -18.5710 -18.5699 -18.5693 -18.5656 -18.5615 -18.5610
   -18.5595 -18.5559 -18.5541 -18.5480 -18.5458 -18.5333 -18.5309 -18.5296
   -18.5286 -18.5250 -18.5235 -18.5222 -18.5211 -18.5190 -18.5185 -18.5135
   -18.5130 -18.5119 -18.5095 -18.5047 -18.5036 -18.5032 -18.5020 -18.4992
   -18.4964 -18.4930 -18.4921 -18.4915 -18.4906 -18.4897 -18.4887 -18.4879
   -18.4868 -18.4868 -18.4865 -18.4858 -18.4857 -18.4852 -18.4846 -18.4844
   -18.4842 -18.4834 -18.4834 -18.4815 -18.4794 -18.4785 -18.4724 -18.4723
   -18.4715 -18.4714 -18.4712 -18.4704 -18.4699 -18.4695 -18.4689 -18.4688
   -18.4681 -18.4679 -18.4678 -18.4673 -18.4668 -18.4658 -18.4655 -18.4637
   -18.4634 -18.4625 -18.4622 -18.4617 -18.4608 -18.4596 -18.4595 -18.4585
   -18.4572 -18.4569 -18.4569 -18.4553 -18.4546 -18.4533 -18.4527 -18.4518
   -18.4501 -18.4444 -18.4437 -18.2572 -18.2542 -18.1429 -18.1303 -18.1221
    -2.1941  -2.1440  -2.0811  -1.6548  -1.6295  -1.6166  -1.5245  -1.5006
    -1.4931  -1.4271  -1.3788  -1.3244  -1.0042  -0.9763  -0.9169  -0.8579
    -0.8470  -0.7956  -0.3974  -0.3419  -0.3237  -0.2698  -0.2322  -0.2262
    -0.1981  -0.1769  -0.1655  -0.1240  -0.0678  -0.0575  -0.0444  -0.0126
     0.0085   0.0110   0.0187   0.0320   1.1648   1.2158   1.2548   1.3853
     1.4432   1.4642   2.0007   2.0222   2.0874   2.1149   2.1752   2.1841
     2.3844   2.4861   2.5807   2.6118   2.6532   2.6585   2.6821   2.7422
     2.7526   3.4665   3.5707   3.7031   5.4225   5.4867   5.5579   5.7376
     5.7586   5.8208   5.8515   5.9155   5.9271   5.9591   6.0030   6.0468
     6.1775   6.2405   6.3399   6.4137   6.4457   6.5417   6.5890   6.6305
     6.6509   6.7306   6.7569   6.7939   6.9084   6.9398   6.9697   7.0269
     7.0692   7.1010   7.1061   7.1323   7.2909   7.3131   7.3366   7.3560
     7.3790   7.4035   7.4422   7.4590   7.4868   7.5286   7.5342   7.5482
     7.5922   7.6561   7.6648   7.7241   7.7502   7.8368   7.9134   7.9748
     8.0395   8.0777   8.0924   8.1116   8.1327   8.1491   8.1644   8.2048
     8.4075   8.4354   8.4711   8.5098   8.6030   8.6251   8.6345   8.7356
     8.7739   8.8165   8.8597   8.9321   8.9627   9.0873   9.1316   9.2693
     9.2869   9.3233   9.3552   9.4128   9.4760   9.5218   9.5503   9.6839
     9.7362   9.7957   9.8155   9.8963   9.9501   9.9842  10.0140  10.0309
    10.0615  10.2403  10.3061  10.3376  10.3965  10.4282  10.4652  10.4902
    10.5261  10.5483  10.6032  10.6630  10.7733  10.7786  10.7990  10.9323
    11.1917  11.3483  11.4328  11.5638  11.6271  11.7770  11.9260  11.9717
    12.0039  12.0730  12.1513  12.2249  12.2802  12.3331  12.4413  12.4896
    12.5784  12.6168  12.6456  12.7063  12.7357  12.7697  12.8223  12.8345
    12.8571  12.9138  12.9399  12.9841  12.9978  13.0252  13.0486  13.0930
    13.1582  13.1836  13.2545  13.2714  13.3010  13.3649  13.3910  13.4121
    13.4371  13.5599  13.5892  13.7309  13.8012  13.8606  13.8965  13.9627
    14.0000  14.0099  14.1053  14.1854  14.2622  14.3203  14.3470  14.3850
    14.4186  14.4665  14.5017  14.5477  14.6169  14.6771  14.7078  14.7225
    14.7420  14.7951  14.8461  14.8859  14.9447  14.9847  15.0087  15.0620
    15.0806  15.1249  15.1636  15.1912  15.2475  15.2847  15.3074  15.3686
    15.4101  15.4508  15.4943  15.5140  15.5500  15.6012  15.6602  15.6804
    15.7329  15.8081  15.8768  15.9574  16.0264  16.0566  16.0868  16.1318
    16.1647  16.2445

     occupation numbers 
     1.0000   1.0000   1.0000   1.0000   1.0000   1.0000   1.0000   1.0000
     1.0000   1.0000   1.0000   1.0000   1.0000   1.0000   1.0000   1.0000
     1.0000   1.0000   1.0000   1.0000   1.0000   1.0000   1.0000   1.0000
     1.0000   1.0000   1.0000   1.0000   1.0000   1.0000   1.0000   1.0000
     1.0000   1.0000   1.0000   1.0000   1.0000   1.0000   1.0000   1.0000
     1.0000   1.0000   1.0000   1.0000   1.0000   1.0000   1.0000   1.0000
     1.0000   1.0000   1.0000   1.0000   1.0000   1.0000   1.0000   1.0000
     1.0000   1.0000   1.0000   1.0000   1.0000   1.0000   1.0000   1.0000
     1.0000   1.0000   1.0000   1.0000   1.0000   1.0000   1.0000   1.0000
     1.0000   1.0000   1.0000   1.0000   1.0000   1.0000   1.0000   1.0000
     1.0000   1.0000   1.0000   1.0000   1.0000   1.0000   1.0000   1.0000
     1.0000   1.0000   1.0000   1.0000   1.0000   1.0000   1.0000   1.0000
     1.0000   1.0000   1.0000   1.0000   1.0000   1.0000   1.0000   1.0000
     1.0000   1.0000   1.0000   1.0000   1.0000   1.0000   1.0000   1.0000
     1.0000   1.0000   1.0000   1.0000   1.0000   1.0000   1.0000   1.0000
     1.0000   1.0000   1.0000   1.0000   1.0000   1.0000   1.0000   1.0000
     1.0000   1.0000   1.0000   1.0000   1.0000   1.0000   1.0000   1.0000
     1.0000   1.0000   1.0000   1.0000   1.0000   1.0000   1.0000   1.0000
     1.0000   1.0000   1.0000   1.0000   1.0000   1.0000   1.0000   1.0000
     1.0000   1.0000   1.0000   1.0000   1.0000   1.0000   1.0000   1.0000
     1.0000   1.0000   1.0000   1.0000   1.0000   1.0000   1.0000   1.0000
     1.0000   1.0000   1.0000   1.0000   1.0000   1.0000   1.0000   1.0000
     1.0000   1.0000   1.0000   1.0000   1.0000   1.0000   1.0000   1.0000
     1.0000   1.0000   1.0000   1.0000   1.0000   1.0000   1.0000   1.0000
     1.0000   1.0000   1.0000   1.0000   1.0000   1.0000   1.0000   1.0000
     1.0000   1.0000   1.0000   1.0000   1.0000   1.0000   1.0000   1.0000
     1.0000   1.0000   1.0000   1.0000   1.0000   1.0000   1.0000   1.0000
     1.0000   1.0000   1.0000   1.0000   1.0000   1.0000   1.0000   1.0000
     1.0000   1.0000   1.0000   1.0000   1.0000   1.0000   1.0000   1.0000
     1.0000   1.0000   1.0000   1.0000   1.0000   1.0000   1.0000   1.0000
     1.0000   1.0000   1.0000   1.0000   1.0000   1.0000   1.0000   1.0000
     1.0000   1.0000   1.0000   1.0000   1.0000   1.0000   1.0000   1.0000
     1.0000   1.0000   1.0000   1.0000   1.0000   1.0000   1.0000   1.0000
     1.0000   1.0000   1.0000   1.0000   1.0000   1.0000   1.0000   1.0000
     1.0000   1.0000   1.0000   1.0000   1.0000   1.0000   1.0000   1.0000
     1.0000   1.0000   1.0000   1.0000   1.0000   1.0000   1.0000   1.0000
     1.0000   1.0000   1.0000   1.0000   1.0000   1.0000   1.0000   1.0000
     1.0000   1.0000   1.0000   1.0000   1.0000   1.0000   1.0000   1.0000
     1.0000   1.0000   1.0000   1.0000   1.0000   1.0000   1.0000   1.0000
     1.0000   1.0000   1.0000   1.0000   1.0000   1.0000   1.0000   1.0000
     1.0000   1.0000   1.0000   1.0000   1.0000   1.0000   1.0000   1.0000
     1.0000   1.0000   1.0000   1.0000   1.0000   1.0000   1.0000   1.0000
     1.0000   1.0000   1.0000   1.0000   1.0000   1.0000   1.0000   1.0000
     1.0000   1.0000   1.0000   1.0000   1.0000   1.0000   1.0000   1.0000
     1.0000   1.0000   1.0000   1.0000   1.0000   1.0000   1.0000   1.0000
     1.0000   1.0000   1.0000   1.0000   1.0000   1.0000   1.0000   1.0000
     1.0000   1.0000   1.0000   1.0000   1.0000   1.0000   1.0000   1.0000
     1.0000   1.0000   1.0000   1.0000   1.0000   1.0000   1.0000   1.0000
     1.0000   1.0000   1.0000   1.0000   1.0000   1.0000   1.0000   1.0000
     1.0000   1.0000   1.0000   1.0000   1.0000   1.0000   1.0000   1.0000
     1.0000   1.0000   1.0000   1.0000   1.0000   1.0000   1.0000   1.0000
     1.0000   1.0000   1.0000   1.0000   1.0000   1.0000   1.0000   1.0000
     1.0000   1.0000   1.0000   1.0000   1.0000   1.0000   1.0000   1.0000
     1.0000   1.0000   1.0000   1.0000   1.0000   1.0000   1.0000   1.0000
     1.0000   1.0000   1.0000   1.0000   1.0000   1.0000   1.0000   1.0000
     1.0000   1.0000   1.0000   1.0000   1.0000   1.0000   1.0000   1.0000
     1.0000   1.0000   1.0000   1.0000   1.0000   1.0000   1.0000   1.0000
     1.0000   1.0000   1.0000   1.0000   1.0000   1.0000   1.0000   1.0000
     1.0000   1.0000   1.0000   1.0000   1.0002   1.0002   1.0004   1.0072
     1.0803   0.7846   0.4736   0.1193   0.0463   0.0023   0.0000   0.0000
     0.0000   0.0000   0.0000   0.0000   0.0000   0.0000   0.0000   0.0000
     0.0000   0.0000   0.0000   0.0000   0.0000   0.0000   0.0000   0.0000
     0.0000   0.0000   0.0000   0.0000   0.0000   0.0000   0.0000   0.0000
     0.0000   0.0000   0.0000   0.0000   0.0000   0.0000   0.0000   0.0000
     0.0000   0.0000   0.0000   0.0000   0.0000   0.0000   0.0000   0.0000
     0.0000   0.0000   0.0000   0.0000   0.0000   0.0000   0.0000   0.0000
     0.0000   0.0000   0.0000   0.0000   0.0000   0.0000   0.0000   0.0000
     0.0000   0.0000   0.0000   0.0000   0.0000   0.0000   0.0000   0.0000
     0.0000   0.0000   0.0000   0.0000   0.0000   0.0000   0.0000   0.0000
     0.0000   0.0000   0.0000   0.0000   0.0000   0.0000   0.0000   0.0000
     0.0000   0.0000   0.0000   0.0000   0.0000   0.0000   0.0000   0.0000
     0.0000   0.0000

     the Fermi energy is    11.4534 ev

!    total energy              =   -9820.00404335 Ry
     estimated scf accuracy    <       0.00000024 Ry
     smearing contrib. (-TS)   =      -0.00212734 Ry
     internal energy E=F+TS    =   -9820.00191600 Ry

     The total energy is F=E-TS. E is the sum of the following terms:
     one-electron contribution =   -4963.62100018 Ry
     hartree contribution      =    2729.51537076 Ry
     xc contribution           =   -1066.35728069 Ry
     ewald contribution        =   -6518.39362218 Ry
     DFT-D3 Dispersion         =      -1.14538371 Ry

     convergence has been achieved in  21 iterations

     Writing all to output data dir ./out/sb2te3.save/ :
     XML data file, charge density, pseudopotentials, collected wavefunctions
 
     init_run     :    280.13s CPU    284.66s WALL (       1 calls)
     electrons    :  18705.80s CPU  18891.42s WALL (       1 calls)

     Called by init_run:
     wfcinit      :    276.20s CPU    280.30s WALL (       1 calls)
     wfcinit:atom :      2.27s CPU      2.94s WALL (       2 calls)
     wfcinit:wfcr :    267.86s CPU    269.89s WALL (       2 calls)
     potinit      :      2.15s CPU      2.41s WALL (       1 calls)
     hinit0       :      0.91s CPU      0.98s WALL (       1 calls)

     Called by electrons:
     c_bands      :  16541.04s CPU  16657.38s WALL (      21 calls)
     sum_band     :   1968.58s CPU   1975.50s WALL (      21 calls)
     v_of_rho     :     48.76s CPU     49.46s WALL (      22 calls)
     v_h          :      2.97s CPU      3.01s WALL (      22 calls)
     v_xc         :     45.79s CPU     46.44s WALL (      22 calls)
     mix_rho      :    146.27s CPU    149.42s WALL (      21 calls)
     energy_dftd3 :      0.46s CPU      0.46s WALL (       1 calls)

     Called by c_bands:
     init_us_2    :    225.14s CPU    226.73s WALL (      86 calls)
     cegterg      :  15750.88s CPU  15864.90s WALL (      42 calls)

     Called by sum_band:
     sum_band:wei :      0.04s CPU      0.04s WALL (      21 calls)
     sum_band:loo :   1954.22s CPU   1960.92s WALL (      21 calls)
     sum_band:buf :     30.44s CPU     30.65s WALL (      42 calls)
     sum_band:ini :    110.17s CPU    110.61s WALL (      42 calls)

     Called by *egterg:
     cdiaghg      :    144.94s CPU    145.48s WALL (     246 calls)
     cegterg:over :   1789.46s CPU   1795.91s WALL (     204 calls)
     cegterg:upda :    992.75s CPU   1011.23s WALL (     204 calls)
     cegterg:last :   1708.76s CPU   1715.08s WALL (      84 calls)
     h_psi        :  10608.79s CPU  10674.37s WALL (     248 calls)
     g_psi        :     28.33s CPU     28.44s WALL (     204 calls)

     Called by h_psi:
     h_psi:calbec :   1489.56s CPU   1495.10s WALL (     248 calls)
     vloc_psi     :   7570.89s CPU   7596.06s WALL (     248 calls)
     add_vuspsi   :   1502.47s CPU   1507.82s WALL (     248 calls)

     General routines
     calbec       :   1489.56s CPU   1495.10s WALL (     248 calls)
     fft          :     10.70s CPU     10.75s WALL (     219 calls)
     ffts         :     30.12s CPU     30.22s WALL (     675 calls)
     fftw         :   6325.86s CPU   6346.47s WALL (  131960 calls)
 
     Parallel routines
 
     PWSCF        :      5h16m CPU      5h19m WALL

 
   This run was terminated on:   4:33:41  14Sep2026            

=------------------------------------------------------------------------------=
   JOB DONE.
=------------------------------------------------------------------------------=
