
     Program PWSCF v.7.3.1 starts on 13Sep2026 at 19:52:12 

     This program is part of the open-source Quantum ESPRESSO suite
     for quantum simulation of materials; please cite
         "P. Giannozzi et al., J. Phys.:Condens. Matter 21 395502 (2009);
         "P. Giannozzi et al., J. Phys.:Condens. Matter 29 465901 (2017);
         "P. Giannozzi et al., J. Chem. Phys. 152 154105 (2020);
          URL http://www.quantum-espresso.org", 
     in publications or presentations arising from this work. More details at
     http://www.quantum-espresso.org/quote

     Parallel version (MPI), running on     5 processors

     MPI processes distributed on     1 nodes
     105374 MiB available memory on the printing compute node when the environment starts
 
     Reading input from scf.in

     Current dimensions of program PWSCF are:
     Max number of different atomic species (ntypx) = 10
     Max number of k-points (npk) =  40000
     Max angular momentum in pseudopotentials (lmaxx) =  4
     Message from routine setup:
     using ibrav=0 with symmetry is DISCOURAGED, use correct ibrav instead
 
     K-points division:     npool     =       5
     Subspace diagonalization in iterative solution of the eigenvalue problem:
     a serial algorithm will be used

 
     G-vector sticks info
     --------------------
     sticks:   dense  smooth     PW     G-vecs:    dense   smooth      PW
     Sum        3481    3481    931               615191   615191   85127
 
     Using Slab Decomposition
 


     bravais-lattice index     =            0
     lattice parameter (alat)  =      15.9274  a.u.
     unit-cell volume          =   12884.0056 (a.u.)^3
     number of atoms/cell      =           61
     number of atomic types    =            3
     number of electrons       =       950.00
     number of Kohn-Sham states=          570
     kinetic-energy cutoff     =      50.0000  Ry
     charge density cutoff     =     200.0000  Ry
     scf convergence threshold =      1.0E-06
     mixing beta               =       0.2000
     number of iterations used =            8  local-TF  mixing
     Exchange-correlation= PBE
                           (   1   4   3   4   0   0   0)

     celldm(1)=  15.927435  celldm(2)=   0.000000  celldm(3)=   0.000000
     celldm(4)=   0.000000  celldm(5)=   0.000000  celldm(6)=   0.000000

     crystal axes: (cart. coord. in units of alat)
               a(1) = (   1.000000   0.000000   0.000000 )  
               a(2) = (  -0.500000   0.866025   0.000000 )  
               a(3) = (   0.000000   0.000000   3.681993 )  

     reciprocal axes: (cart. coord. in units 2 pi/alat)
               b(1) = (  1.000000  0.577351  0.000000 )  
               b(2) = (  0.000000  1.154701  0.000000 )  
               b(3) = (  0.000000  0.000000  0.271592 )  


     PseudoPot. # 1 for Cr read from file:
     /data/pclancy3/yi/ONCVPseudoPack/SG15_v1.2/UPF/PBE/Cr_PBE_FR.SG15v1.2.UPF
     MD5 check sum: 19291ff833b3d067f23df56d5404fde6
     Pseudo is Norm-conserving, Zval = 14.0
     Generated using ONCVPSP code by D. R. Hamann
     Using radial grid of 1490 points,  6 beta functions with: 
                l(1) =   0
                l(2) =   0
                l(3) =   1
                l(4) =   1
                l(5) =   2
                l(6) =   2

     PseudoPot. # 2 for Sb read from file:
     /data/pclancy3/yi/ONCVPseudoPack/SG15_v1.2/UPF/PBE/Sb_PBE_FR.SG15v1.2.UPF
     MD5 check sum: 0e999992813bf262e14e71941f404476
     Pseudo is Norm-conserving, Zval = 15.0
     Generated using ONCVPSP code by D. R. Hamann
     Using radial grid of 1468 points,  6 beta functions with: 
                l(1) =   0
                l(2) =   0
                l(3) =   1
                l(4) =   1
                l(5) =   2
                l(6) =   2

     PseudoPot. # 3 for Te read from file:
     /data/pclancy3/yi/ONCVPseudoPack/SG15_v1.2/UPF/PBE/Te_PBE_FR.SG15v1.2.UPF
     MD5 check sum: 7c59b7da87cf03000ce4d32f994025eb
     Pseudo is Norm-conserving, Zval = 16.0
     Generated using ONCVPSP code by D. R. Hamann
     Using radial grid of 1324 points,  6 beta functions with: 
                l(1) =   0
                l(2) =   0
                l(3) =   1
                l(4) =   1
                l(5) =   2
                l(6) =   2

     atomic species   valence    mass     pseudopotential
     Cr               14.00    51.99610     Cr( 1.00)
     Sb               15.00   121.76000     Sb( 1.00)
     Te               16.00   127.60000     Te( 1.00)

      2 Sym. Ops. (no inversion) found


                                    s                        frac. trans.

      isym =  1     identity                                     

 cryst.   s( 1) = (     1          0          0      )
                  (     0          1          0      )
                  (     0          0          1      )

 cart.    s( 1) = (  1.0000000  0.0000000  0.0000000 )
                  (  0.0000000  1.0000000  0.0000000 )
                  (  0.0000000  0.0000000  1.0000000 )


      isym =  2     inv. 180 deg rotation - cryst. axis [1,1,0]  

 cryst.   s( 2) = (     0         -1          0      )
                  (    -1          0          0      )
                  (     0          0          1      )

 cart.    s( 2) = (  0.5000000 -0.8660258  0.0000000 )
                  ( -0.8660250 -0.5000000  0.0000000 )
                  (  0.0000000  0.0000000  1.0000000 )


   Cartesian axes

     site n.     atom                  positions (alat units)
         1        Te     tau(   1) = (   0.2500400   0.1439817   0.4048846  )
         2        Te     tau(   2) = (   0.0003282  -0.2885314   0.4048846  )
         3        Te     tau(   3) = (  -0.2501345   0.1444152   0.4016622  )
         4        Te     tau(   4) = (   0.4998799  -0.2886054   0.4047108  )
         5        Te     tau(   5) = (  -0.0175211   0.0101158   0.8278989  )
         6        Te     tau(   6) = (  -0.2505481  -0.4326959   0.8374919  )
         7        Te     tau(   7) = (  -0.4830856   0.0029491   0.8279266  )
         8        Te     tau(   8) = (  -0.2440968   0.4168899   0.8279266  )
         9        Te     tau(   9) = (   0.0000588  -0.0000339   0.0003183  )
        10        Te     tau(  10) = (  -0.2500436  -0.4329871  -0.0003660  )
        11        Te     tau(  11) = (  -0.4999612  -0.0000107   0.0000678  )
        12        Te     tau(  12) = (   0.2500287  -0.4330405   0.0000678  )
        13        Te     tau(  13) = (   0.0210501   0.2941207   1.6360984  )
        14        Te     tau(  14) = (  -0.2441909  -0.1652899   1.6360984  )
        15        Te     tau(  15) = (  -0.5288224   0.3053158   1.6518524  )
        16        Te     tau(  16) = (   0.2497144  -0.1441723   1.6482639  )
        17        Te     tau(  17) = (   0.2484922   0.1214394  -1.6478331  )
        18        Te     tau(  18) = (   0.0190765  -0.2759199  -1.6478331  )
        19        Te     tau(  19) = (  -0.2421776   0.1398213  -1.6511821  )
        20        Te     tau(  20) = (   0.5172224  -0.2986181  -1.6747989  )
        21        Te     tau(  21) = (   0.2553302   0.1299988   1.2326127  )
        22        Te     tau(  22) = (   0.0150828  -0.2861214   1.2326127  )
        23        Te     tau(  23) = (  -0.2501375   0.1444170   1.2430916  )
        24        Te     tau(  24) = (   0.4852209  -0.2801420   1.2348796  )
        25        Te     tau(  25) = (   0.0338774  -0.0195591  -0.8363451  )
        26        Te     tau(  26) = (  -0.2420133  -0.4376234  -0.8437859  )
        27        Te     tau(  27) = (   0.4821832   0.0054019  -0.8208470  )
        28        Te     tau(  28) = (   0.2364134  -0.4202835  -0.8208470  )
        29        Te     tau(  29) = (   0.0000108   0.2885624  -0.4063577  )
        30        Te     tau(  30) = (  -0.2498970  -0.1442901  -0.4063577  )
        31        Te     tau(  31) = (  -0.5000738   0.2887178  -0.4037334  )
        32        Te     tau(  32) = (   0.2500154  -0.1443461  -0.4021829  )
        33        Te     tau(  33) = (  -0.0025867   0.2930796  -1.2289297  )
        34        Te     tau(  34) = (  -0.2551077  -0.1442993  -1.2289297  )
        35        Te     tau(  35) = (  -0.4716272   0.2722941  -1.2384510  )
        36        Te     tau(  36) = (   0.2589042  -0.1494780  -1.2472062  )
        37        Sb     tau(  37) = (   0.0004650   0.2869164   1.0226698  )
        38        Sb     tau(  38) = (  -0.2482444  -0.1438605   1.0226698  )
        39        Sb     tau(  39) = (  -0.4969278   0.2869014   1.0162058  )
        40        Sb     tau(  40) = (   0.2505456  -0.1446521   0.9921218  )
        41        Sb     tau(  41) = (   0.0002808   0.2889385   0.2179595  )
        42        Sb     tau(  42) = (  -0.2500876  -0.1447120   0.2179595  )
        43        Sb     tau(  43) = (  -0.5003313   0.2888664   0.2176948  )
        44        Sb     tau(  44) = (   0.2501524  -0.1444252   0.2180912  )
        45        Sb     tau(  45) = (  -0.0105574   0.0060953  -1.4409966  )
        46        Sb     tau(  46) = (  -0.2257510  -0.4470124  -1.4344327  )
        47        Sb     tau(  47) = (  -0.4858821  -0.0146129  -1.4625375  )
        48        Sb     tau(  48) = (  -0.2302859   0.4280927  -1.4625375  )
        49        Sb     tau(  49) = (   0.0042800  -0.0024711   1.4504510  )
        50        Sb     tau(  50) = (  -0.2495826  -0.4332533   1.4252744  )
        51        Sb     tau(  51) = (   0.4987720  -0.0007819   1.4617752  )
        52        Sb     tau(  52) = (   0.2500631  -0.4315578   1.4617752  )
        53        Sb     tau(  53) = (   0.2497509   0.1442000  -0.2171206  )
        54        Sb     tau(  54) = (  -0.0000054  -0.2883902  -0.2171206  )
        55        Sb     tau(  55) = (  -0.2498536   0.1442531  -0.2188757  )
        56        Sb     tau(  56) = (   0.4999811  -0.2886638  -0.2184860  )
        57        Sb     tau(  57) = (   0.2587752   0.1411762  -1.0321769  )
        58        Sb     tau(  58) = (   0.0071254  -0.2946936  -1.0321769  )
        59        Sb     tau(  59) = (  -0.2429293   0.1402553  -0.9754496  )
        60        Sb     tau(  60) = (   0.4896153  -0.2826791  -1.0041220  )
        61        Cr     tau(  61) = (  -0.2232181  -0.4484748   1.9543699  )

     --------------------------------------------
     DFT-D3 Dispersion Correction (3-body terms):
     --------------------------------------------
       Reference C6 values for interpolation: 

         atom   Coordination number   C6
         Cr         0.000          1381.48
         Cr         1.827           571.38
         Cr        10.619           306.69
         Sb         0.000           985.88
         Sb         0.975           946.94
         Sb         1.952           896.11
         Sb         2.932           834.76
         Te         0.000           851.07
         Te         0.981           850.20
         Te         1.964           837.16

       Values used:

         atom   Coordination number  R0_AB[au]  C6      C8
         Te         3.082            3.676    837.16  84978.06
         Te         3.082            3.676    837.16  84978.06
         Te         3.125            3.676    837.16  84978.06
         Te         3.090            3.676    837.16  84978.06
         Te         3.140            3.676    837.16  84978.06
         Te         3.090            3.676    837.16  84978.06
         Te         3.146            3.676    837.16  84978.06
         Te         3.146            3.676    837.16  84978.06
         Te         5.225            3.676    837.16  84978.05
         Te         5.230            3.676    837.16  84978.05
         Te         5.219            3.676    837.16  84978.05
         Te         5.219            3.676    837.16  84978.05
         Te         3.291            3.676    837.16  84978.06
         Te         3.291            3.676    837.16  84978.06
         Te         3.461            3.676    837.16  84978.06
         Te         3.212            3.676    837.16  84978.06
         Te         3.941            3.676    837.16  84978.05
         Te         3.941            3.676    837.16  84978.05
         Te         3.120            3.676    837.16  84978.06
         Te         3.760            3.676    837.16  84978.05
         Te         5.229            3.676    837.16  84978.05
         Te         5.229            3.676    837.16  84978.05
         Te         5.161            3.676    837.16  84978.05
         Te         5.188            3.676    837.16  84978.05
         Te         3.223            3.676    837.16  84978.06
         Te         3.092            3.676    837.16  84978.06
         Te         3.195            3.676    837.16  84978.06
         Te         3.195            3.676    837.16  84978.06
         Te         3.066            3.676    837.16  84978.06
         Te         3.066            3.676    837.16  84978.06
         Te         3.101            3.676    837.16  84978.06
         Te         3.130            3.676    837.16  84978.06
         Te         5.050            3.676    837.16  84978.05
         Te         5.050            3.676    837.16  84978.05
         Te         5.131            3.676    837.16  84978.05
         Te         5.231            3.676    837.16  84978.05
         Sb         5.470            3.794    834.76  89580.53
         Sb         5.470            3.794    834.76  89580.53
         Sb         5.458            3.794    834.76  89580.53
         Sb         5.338            3.794    834.76  89580.53
         Sb         5.494            3.794    834.76  89580.53
         Sb         5.494            3.794    834.76  89580.53
         Sb         5.495            3.794    834.76  89580.53
         Sb         5.492            3.794    834.76  89580.53
         Sb         5.509            3.794    834.76  89580.53
         Sb         5.911            3.794    834.76  89580.53
         Sb         5.450            3.794    834.76  89580.53
         Sb         5.450            3.794    834.76  89580.53
         Sb         5.493            3.794    834.76  89580.53
         Sb         5.631            3.794    834.76  89580.53
         Sb         5.361            3.794    834.76  89580.53
         Sb         5.361            3.794    834.76  89580.53
         Sb         5.499            3.794    834.76  89580.53
         Sb         5.499            3.794    834.76  89580.53
         Sb         5.473            3.794    834.76  89580.53
         Sb         5.483            3.794    834.76  89580.53
         Sb         5.567            3.794    834.76  89580.53
         Sb         5.567            3.794    834.76  89580.53
         Sb         4.983            3.794    834.76  89580.53
         Sb         5.401            3.794    834.76  89580.53
         Cr         4.560            3.252    571.38  52732.00

         Molecular C6 ( Ry / a.u.^6 ) =   3092416.23


   Crystallographic axes

     site n.     atom                  positions (cryst. coord.)
         1        Te     tau(   1) = (  0.3331679  0.1662558  0.1099634  )
         2        Te     tau(   2) = ( -0.1662555 -0.3331675  0.1099634  )
         3        Te     tau(   3) = ( -0.1667563  0.1667564  0.1090882  )
         4        Te     tau(   4) = (  0.3332534 -0.3332529  0.1099162  )
         5        Te     tau(   5) = ( -0.0116807  0.0116807  0.2248508  )
         6        Te     tau(   6) = ( -0.5003653 -0.4996344  0.2274561  )
         7        Te     tau(   7) = ( -0.4813830  0.0034053  0.2248583  )
         8        Te     tau(   8) = ( -0.0034052  0.4813832  0.2248583  )
         9        Te     tau(   9) = (  0.0000392 -0.0000392  0.0000865  )
        10        Te     tau(  10) = ( -0.5000289 -0.4999707 -0.0000994  )
        11        Te     tau(  11) = ( -0.4999674 -0.0000124  0.0000184  )
        12        Te     tau(  12) = (  0.0000125 -0.5000324  0.0000184  )
        13        Te     tau(  13) = (  0.1908609  0.3396215  0.4443513  )
        14        Te     tau(  14) = ( -0.3396211 -0.1908604  0.4443513  )
        15        Te     tau(  15) = ( -0.3525482  0.3525485  0.4486300  )
        16        Te     tau(  16) = (  0.1664765 -0.1664759  0.4476553  )
        17        Te     tau(  17) = (  0.3186053  0.1402262 -0.4475384  )
        18        Te     tau(  18) = ( -0.1402260 -0.3186050 -0.4475384  )
        19        Te     tau(  19) = ( -0.1614517  0.1614518 -0.4484479  )
        20        Te     tau(  20) = (  0.3448151 -0.3448147 -0.4548621  )
        21        Te     tau(  21) = (  0.3303851  0.1501098  0.3347678  )
        22        Te     tau(  22) = ( -0.1501096 -0.3303847  0.3347678  )
        23        Te     tau(  23) = ( -0.1667583  0.1667584  0.3376138  )
        24        Te     tau(  24) = (  0.3234808 -0.3234803  0.3353835  )
        25        Te     tau(  25) = (  0.0225849 -0.0225849 -0.2271447  )
        26        Te     tau(  26) = ( -0.4946754 -0.5053242 -0.2291655  )
        27        Te     tau(  27) = (  0.4853020  0.0062376 -0.2229355  )
        28        Te     tau(  28) = ( -0.0062375 -0.4853018 -0.2229355  )
        29        Te     tau(  29) = (  0.1666125  0.3332033 -0.1103635  )
        30        Te     tau(  30) = ( -0.3332030 -0.1666120 -0.1103635  )
        31        Te     tau(  31) = ( -0.3333825  0.3333827 -0.1096508  )
        32        Te     tau(  32) = (  0.1666772 -0.1666766 -0.1092297  )
        33        Te     tau(  33) = (  0.1666230  0.3384193 -0.3337675  )
        34        Te     tau(  34) = ( -0.3384189 -0.1666225 -0.3337675  )
        35        Te     tau(  35) = ( -0.3144181  0.3144183 -0.3363534  )
        36        Te     tau(  36) = (  0.1726030 -0.1726024 -0.3387313  )
        37        Sb     tau(  37) = (  0.1661164  0.3313027  0.2777490  )
        38        Sb     tau(  38) = ( -0.3313024 -0.1661159  0.2777490  )
        39        Sb     tau(  39) = ( -0.3312851  0.3312853  0.2759934  )
        40        Sb     tau(  40) = (  0.1670306 -0.1670300  0.2694524  )
        41        Sb     tau(  41) = (  0.1670996  0.3336375  0.0591961  )
        42        Sb     tau(  42) = ( -0.3336372 -0.1670991  0.0591961  )
        43        Sb     tau(  43) = ( -0.3335541  0.3335544  0.0591242  )
        44        Sb     tau(  44) = (  0.1667685 -0.1667679  0.0592318  )
        45        Sb     tau(  45) = ( -0.0070383  0.0070383 -0.3913632  )
        46        Sb     tau(  46) = ( -0.4838339 -0.5161658 -0.3895805  )
        47        Sb     tau(  47) = ( -0.4943189 -0.0168735 -0.3972135  )
        48        Sb     tau(  48) = (  0.0168736  0.4943191 -0.3972135  )
        49        Sb     tau(  49) = (  0.0028534 -0.0028534  0.3939310  )
        50        Sb     tau(  50) = ( -0.4997216 -0.5002780  0.3870932  )
        51        Sb     tau(  51) = (  0.4983205 -0.0009029  0.3970065  )
        52        Sb     tau(  52) = (  0.0009030 -0.4983203  0.3970065  )
        53        Sb     tau(  53) = (  0.3330048  0.1665079 -0.0589682  )
        54        Sb     tau(  54) = ( -0.1665077 -0.3330045 -0.0589682  )
        55        Sb     tau(  55) = ( -0.1665690  0.1665692 -0.0594449  )
        56        Sb     tau(  56) = (  0.3333209 -0.3333204 -0.0593390  )
        57        Sb     tau(  57) = (  0.3402833  0.1630163 -0.2803310  )
        58        Sb     tau(  58) = ( -0.1630161 -0.3402830 -0.2803310  )
        59        Sb     tau(  59) = ( -0.1619528  0.1619530 -0.2649243  )
        60        Sb     tau(  60) = (  0.3264104 -0.3264099 -0.2727115  )
        61        Cr     tau(  61) = ( -0.4821452 -0.5178543  0.5307913  )

     number of k points=     9  Marzari-Vanderbilt smearing, width (Ry)=  0.0147
                       cart. coord. in units 2pi/alat
        k(    1) = (   0.0000000   0.0000000   0.0000000), wk =   0.0800000
        k(    2) = (   0.0000000   0.2309402   0.0000000), wk =   0.3200000
        k(    3) = (   0.0000000   0.4618804   0.0000000), wk =   0.3200000
        k(    4) = (   0.2000000   0.3464103   0.0000000), wk =   0.1600000
        k(    5) = (   0.2000000   0.5773505   0.0000000), wk =   0.3200000
        k(    6) = (  -0.2000000   0.1154701   0.0000000), wk =   0.1600000
        k(    7) = (  -0.4000000   0.2309402   0.0000000), wk =   0.1600000
        k(    8) = (  -0.2000000   0.3464103   0.0000000), wk =   0.3200000
        k(    9) = (  -0.4000000   0.4618804   0.0000000), wk =   0.1600000

                       cryst. coord.
        k(    1) = (   0.0000000   0.0000000   0.0000000), wk =   0.0800000
        k(    2) = (   0.0000000   0.2000000   0.0000000), wk =   0.3200000
        k(    3) = (   0.0000000   0.4000000   0.0000000), wk =   0.3200000
        k(    4) = (   0.2000000   0.2000000   0.0000000), wk =   0.1600000
        k(    5) = (   0.2000000   0.4000000   0.0000000), wk =   0.3200000
        k(    6) = (  -0.2000000   0.2000000   0.0000000), wk =   0.1600000
        k(    7) = (  -0.4000000   0.4000000   0.0000000), wk =   0.1600000
        k(    8) = (  -0.2000000   0.4000000   0.0000000), wk =   0.3200000
        k(    9) = (  -0.4000000   0.6000000   0.0000000), wk =   0.1600000

     Dense  grid:   615191 G-vectors     FFT dimensions: (  72,  72, 270)

     Dynamical RAM for                 wfc:     669.04 MB

     Dynamical RAM for     wfc (w. buffer):    2007.12 MB

     Dynamical RAM for           str. fact:      28.16 MB

     Dynamical RAM for           local pot:       0.00 MB

     Dynamical RAM for          nlocal pot:    1288.78 MB

     Dynamical RAM for                qrad:       3.41 MB

     Dynamical RAM for          rho,v,vnew:      60.20 MB

     Dynamical RAM for               rhoin:      20.07 MB

     Dynamical RAM for            rho*nmix:     150.19 MB

     Dynamical RAM for           G-vectors:      39.90 MB

     Dynamical RAM for          h,s,v(r/c):      59.49 MB

     Dynamical RAM for          <psi|beta>:       9.55 MB

     Dynamical RAM for                 psi:    1338.08 MB

     Dynamical RAM for                hpsi:    1338.08 MB

     Dynamical RAM for      wfcinit/wfcrot:    1345.52 MB

     Estimated static dynamical RAM per process >       3.46 GB

     Estimated max dynamical RAM per process >       6.28 GB

     Estimated total dynamical RAM >      30.83 GB

     Initial potential from superposition of free atoms

     starting charge     949.9776, renormalised to     950.0000
     Starting wfcs are  550 randomized atomic wfcs +   20 random wfcs

     total cpu time spent up to now is       89.3 secs

     Self-consistent Calculation

     iteration #  1     ecut=    50.00 Ry     beta= 0.20
     Davidson diagonalization with overlap

---- Real-time Memory Report at c_bands before calling an iterative solver
          4377 MiB given to the printing process from OS
             0 MiB allocation reported by mallinfo(arena+hblkhd)
         88503 MiB available memory on the node where the printing process lives
------------------
     ethr =  1.00E-02,  avg # of iterations =  6.4

     total cpu time spent up to now is      405.6 secs

     total energy              =   -9818.97904493 Ry
     estimated scf accuracy    <      16.67328176 Ry

     iteration #  2     ecut=    50.00 Ry     beta= 0.20
     Davidson diagonalization with overlap

---- Real-time Memory Report at c_bands before calling an iterative solver
          6458 MiB given to the printing process from OS
             0 MiB allocation reported by mallinfo(arena+hblkhd)
         88279 MiB available memory on the node where the printing process lives
------------------
     ethr =  1.76E-03,  avg # of iterations =  2.0

     total cpu time spent up to now is      662.7 secs

     total energy              =   -9819.56302921 Ry
     estimated scf accuracy    <       0.83107563 Ry

     iteration #  3     ecut=    50.00 Ry     beta= 0.20
     Davidson diagonalization with overlap

---- Real-time Memory Report at c_bands before calling an iterative solver
          6599 MiB given to the printing process from OS
             0 MiB allocation reported by mallinfo(arena+hblkhd)
         88259 MiB available memory on the node where the printing process lives
------------------
     ethr =  8.75E-05,  avg # of iterations = 16.8

     total cpu time spent up to now is     1169.5 secs

     total energy              =   -9819.95512735 Ry
     estimated scf accuracy    <       0.48293087 Ry

     iteration #  4     ecut=    50.00 Ry     beta= 0.20
     Davidson diagonalization with overlap

---- Real-time Memory Report at c_bands before calling an iterative solver
          6618 MiB given to the printing process from OS
             0 MiB allocation reported by mallinfo(arena+hblkhd)
         88240 MiB available memory on the node where the printing process lives
------------------
     ethr =  5.08E-05,  avg # of iterations =  2.0

     total cpu time spent up to now is     1431.9 secs

     total energy              =   -9819.95555170 Ry
     estimated scf accuracy    <       0.16198571 Ry

     iteration #  5     ecut=    50.00 Ry     beta= 0.20
     Davidson diagonalization with overlap

---- Real-time Memory Report at c_bands before calling an iterative solver
          6637 MiB given to the printing process from OS
             0 MiB allocation reported by mallinfo(arena+hblkhd)
         88220 MiB available memory on the node where the printing process lives
------------------
     c_bands:  1 eigenvalues not converged
     ethr =  1.71E-05,  avg # of iterations = 14.3

     total cpu time spent up to now is     1842.9 secs

     total energy              =   -9819.97761227 Ry
     estimated scf accuracy    <       0.02533026 Ry

     iteration #  6     ecut=    50.00 Ry     beta= 0.20
     Davidson diagonalization with overlap

---- Real-time Memory Report at c_bands before calling an iterative solver
          6656 MiB given to the printing process from OS
             0 MiB allocation reported by mallinfo(arena+hblkhd)
         88203 MiB available memory on the node where the printing process lives
------------------
     c_bands:  1 eigenvalues not converged
     ethr =  2.67E-06,  avg # of iterations = 10.1

     total cpu time spent up to now is     2187.4 secs

     total energy              =   -9819.97915918 Ry
     estimated scf accuracy    <       0.00793663 Ry

     iteration #  7     ecut=    50.00 Ry     beta= 0.20
     Davidson diagonalization with overlap

---- Real-time Memory Report at c_bands before calling an iterative solver
          6675 MiB given to the printing process from OS
             0 MiB allocation reported by mallinfo(arena+hblkhd)
         88185 MiB available memory on the node where the printing process lives
------------------
     ethr =  8.35E-07,  avg # of iterations =  5.1

     total cpu time spent up to now is     2470.5 secs

     total energy              =   -9819.97938828 Ry
     estimated scf accuracy    <       0.00416170 Ry

     iteration #  8     ecut=    50.00 Ry     beta= 0.20
     Davidson diagonalization with overlap

---- Real-time Memory Report at c_bands before calling an iterative solver
          6694 MiB given to the printing process from OS
             0 MiB allocation reported by mallinfo(arena+hblkhd)
         88162 MiB available memory on the node where the printing process lives
------------------
     ethr =  4.38E-07,  avg # of iterations =  3.6

     total cpu time spent up to now is     2743.3 secs

     total energy              =   -9819.97973086 Ry
     estimated scf accuracy    <       0.00245103 Ry

     iteration #  9     ecut=    50.00 Ry     beta= 0.20
     Davidson diagonalization with overlap

---- Real-time Memory Report at c_bands before calling an iterative solver
          6713 MiB given to the printing process from OS
             0 MiB allocation reported by mallinfo(arena+hblkhd)
         88143 MiB available memory on the node where the printing process lives
------------------
     ethr =  2.58E-07,  avg # of iterations =  1.6

     total cpu time spent up to now is     2997.1 secs

     total energy              =   -9819.97969888 Ry
     estimated scf accuracy    <       0.00169947 Ry

     iteration # 10     ecut=    50.00 Ry     beta= 0.20
     Davidson diagonalization with overlap

---- Real-time Memory Report at c_bands before calling an iterative solver
          6732 MiB given to the printing process from OS
             0 MiB allocation reported by mallinfo(arena+hblkhd)
         88122 MiB available memory on the node where the printing process lives
------------------
     ethr =  1.79E-07,  avg # of iterations =  2.0

     total cpu time spent up to now is     3254.2 secs

     total energy              =   -9819.97964740 Ry
     estimated scf accuracy    <       0.00095126 Ry

     iteration # 11     ecut=    50.00 Ry     beta= 0.20
     Davidson diagonalization with overlap

---- Real-time Memory Report at c_bands before calling an iterative solver
          6751 MiB given to the printing process from OS
             0 MiB allocation reported by mallinfo(arena+hblkhd)
         88124 MiB available memory on the node where the printing process lives
------------------
     ethr =  1.00E-07,  avg # of iterations =  3.4

     total cpu time spent up to now is     3526.5 secs

     total energy              =   -9819.97969453 Ry
     estimated scf accuracy    <       0.00063406 Ry

     iteration # 12     ecut=    50.00 Ry     beta= 0.20
     Davidson diagonalization with overlap

---- Real-time Memory Report at c_bands before calling an iterative solver
          6751 MiB given to the printing process from OS
             0 MiB allocation reported by mallinfo(arena+hblkhd)
         88116 MiB available memory on the node where the printing process lives
------------------
     ethr =  6.67E-08,  avg # of iterations =  1.1

     total cpu time spent up to now is     3768.6 secs

     total energy              =   -9819.97969194 Ry
     estimated scf accuracy    <       0.00035782 Ry

     iteration # 13     ecut=    50.00 Ry     beta= 0.20
     Davidson diagonalization with overlap

---- Real-time Memory Report at c_bands before calling an iterative solver
          6751 MiB given to the printing process from OS
             0 MiB allocation reported by mallinfo(arena+hblkhd)
         88120 MiB available memory on the node where the printing process lives
------------------
     ethr =  3.77E-08,  avg # of iterations =  4.8

     total cpu time spent up to now is     4040.4 secs

     total energy              =   -9819.97967299 Ry
     estimated scf accuracy    <       0.00023413 Ry

     iteration # 14     ecut=    50.00 Ry     beta= 0.20
     Davidson diagonalization with overlap

---- Real-time Memory Report at c_bands before calling an iterative solver
          6751 MiB given to the printing process from OS
             0 MiB allocation reported by mallinfo(arena+hblkhd)
         88124 MiB available memory on the node where the printing process lives
------------------
     ethr =  2.46E-08,  avg # of iterations =  2.9

     total cpu time spent up to now is     4310.5 secs

     total energy              =   -9819.97968442 Ry
     estimated scf accuracy    <       0.00007258 Ry

     iteration # 15     ecut=    50.00 Ry     beta= 0.20
     Davidson diagonalization with overlap

---- Real-time Memory Report at c_bands before calling an iterative solver
          6751 MiB given to the printing process from OS
             0 MiB allocation reported by mallinfo(arena+hblkhd)
         88119 MiB available memory on the node where the printing process lives
------------------
     ethr =  7.64E-09,  avg # of iterations =  5.8

     total cpu time spent up to now is     4600.6 secs

     total energy              =   -9819.97968572 Ry
     estimated scf accuracy    <       0.00004874 Ry

     iteration # 16     ecut=    50.00 Ry     beta= 0.20
     Davidson diagonalization with overlap

---- Real-time Memory Report at c_bands before calling an iterative solver
          6751 MiB given to the printing process from OS
             0 MiB allocation reported by mallinfo(arena+hblkhd)
         88123 MiB available memory on the node where the printing process lives
------------------
     ethr =  5.13E-09,  avg # of iterations =  2.0

     total cpu time spent up to now is     4857.9 secs

     total energy              =   -9819.97968656 Ry
     estimated scf accuracy    <       0.00002367 Ry

     iteration # 17     ecut=    50.00 Ry     beta= 0.20
     Davidson diagonalization with overlap

---- Real-time Memory Report at c_bands before calling an iterative solver
          6751 MiB given to the printing process from OS
             0 MiB allocation reported by mallinfo(arena+hblkhd)
         88122 MiB available memory on the node where the printing process lives
------------------
     ethr =  2.49E-09,  avg # of iterations =  4.0

     total cpu time spent up to now is     5161.8 secs

     total energy              =   -9819.97968780 Ry
     estimated scf accuracy    <       0.00001689 Ry

     iteration # 18     ecut=    50.00 Ry     beta= 0.20
     Davidson diagonalization with overlap

---- Real-time Memory Report at c_bands before calling an iterative solver
          6751 MiB given to the printing process from OS
             0 MiB allocation reported by mallinfo(arena+hblkhd)
         88118 MiB available memory on the node where the printing process lives
------------------
     ethr =  1.78E-09,  avg # of iterations =  1.0

     total cpu time spent up to now is     5397.1 secs

     total energy              =   -9819.97968588 Ry
     estimated scf accuracy    <       0.00001466 Ry

     iteration # 19     ecut=    50.00 Ry     beta= 0.20
     Davidson diagonalization with overlap

---- Real-time Memory Report at c_bands before calling an iterative solver
          6751 MiB given to the printing process from OS
             0 MiB allocation reported by mallinfo(arena+hblkhd)
         88117 MiB available memory on the node where the printing process lives
------------------
     ethr =  1.54E-09,  avg # of iterations =  2.0

     total cpu time spent up to now is     5655.6 secs

     total energy              =   -9819.97968649 Ry
     estimated scf accuracy    <       0.00000749 Ry

     iteration # 20     ecut=    50.00 Ry     beta= 0.20
     Davidson diagonalization with overlap

---- Real-time Memory Report at c_bands before calling an iterative solver
          6751 MiB given to the printing process from OS
             0 MiB allocation reported by mallinfo(arena+hblkhd)
         88122 MiB available memory on the node where the printing process lives
------------------
     ethr =  7.88E-10,  avg # of iterations =  1.0

     total cpu time spent up to now is     5891.0 secs

     total energy              =   -9819.97968633 Ry
     estimated scf accuracy    <       0.00000312 Ry

     iteration # 21     ecut=    50.00 Ry     beta= 0.20
     Davidson diagonalization with overlap

---- Real-time Memory Report at c_bands before calling an iterative solver
          6751 MiB given to the printing process from OS
             0 MiB allocation reported by mallinfo(arena+hblkhd)
         88118 MiB available memory on the node where the printing process lives
------------------
     ethr =  3.29E-10,  avg # of iterations =  4.8

     total cpu time spent up to now is     6165.4 secs

     End of self-consistent calculation

          k = 0.0000 0.0000 0.0000 ( 76781 PWs)   bands (ev):

   -60.0692 -31.4649 -31.4615 -31.4100 -25.9285 -25.9277 -25.9254 -25.9249
   -25.8922 -25.8920 -25.8906 -25.8882 -25.8880 -25.8850 -25.8836 -25.8828
   -25.8826 -25.8820 -25.8818 -25.8775 -25.8753 -25.8733 -25.8717 -25.8713
   -25.8692 -25.8680 -25.8669 -25.8667 -25.8662 -25.8648 -25.8646 -25.8624
   -25.8624 -25.8611 -25.8610 -25.8594 -25.8586 -25.8582 -25.8581 -25.8557
   -25.8557 -25.8463 -25.8446 -25.8424 -25.8419 -25.8411 -25.8398 -25.8396
   -25.8395 -25.8369 -25.8368 -25.8324 -25.8300 -25.8293 -25.8290 -25.8281
   -25.8243 -25.8173 -25.8172 -25.8171 -25.8170 -25.8167 -25.8164 -25.8161
   -25.8154 -25.8143 -25.8095 -25.8089 -25.8085 -25.8082 -25.7945 -25.7937
   -25.7936 -25.7812 -25.7783 -25.7777 -25.7771 -25.7771 -25.7756 -25.7736
   -25.7706 -25.7696 -25.7681 -25.7675 -25.7660 -25.7619 -25.7615 -25.7607
   -25.7599 -25.7592 -25.7541 -25.7540 -25.7537 -25.7532 -25.7526 -25.7518
   -25.7514 -25.7505 -25.7502 -25.7491 -25.7464 -25.7455 -25.7453 -25.7435
   -25.7429 -25.7423 -25.7412 -25.7411 -25.7402 -25.7401 -25.7396 -25.7382
   -25.7309 -25.7271 -25.7267 -25.7234 -25.7228 -25.7220 -25.7207 -25.7179
   -25.7166 -25.7015 -25.7010 -25.6994 -25.6991 -25.6974 -25.6973 -25.6972
   -25.6968 -25.6965 -25.6950 -25.6949 -25.6938 -25.6935 -25.6934 -25.6859
   -25.6859 -25.6803 -25.6800 -25.6747 -25.6747 -25.6745 -25.6685 -25.6682
   -25.6670 -25.6667 -25.6665 -25.6663 -25.6659 -25.6652 -25.6651 -25.6648
   -25.6644 -25.6639 -25.6635 -25.6630 -25.6584 -25.6579 -25.6578 -25.6569
   -25.6453 -25.6449 -25.6412 -25.6399 -25.6374 -25.6373 -25.6298 -25.6285
   -25.6283 -25.6281 -25.6275 -25.6274 -25.6259 -25.6226 -25.6224 -25.6218
   -25.6214 -25.6213 -25.6195 -25.6113 -25.6103 -25.6097 -25.6050 -25.6044
   -18.6113 -18.6103 -18.6045 -18.6043 -18.6030 -18.6028 -18.5974 -18.5968
   -18.5966 -18.5953 -18.5904 -18.5896 -18.5888 -18.5877 -18.5876 -18.5860
   -18.5854 -18.5844 -18.5823 -18.5823 -18.5820 -18.5803 -18.5792 -18.5767
   -18.5753 -18.5740 -18.5735 -18.5731 -18.5729 -18.5695 -18.5656 -18.5641
   -18.5634 -18.5601 -18.5577 -18.5466 -18.5445 -18.5304 -18.5294 -18.5283
   -18.5277 -18.5256 -18.5228 -18.5217 -18.5207 -18.5186 -18.5161 -18.5138
   -18.5132 -18.5106 -18.5084 -18.5074 -18.5066 -18.5046 -18.5044 -18.5039
   -18.5037 -18.4950 -18.4929 -18.4918 -18.4895 -18.4874 -18.4862 -18.4839
   -18.4838 -18.4826 -18.4814 -18.4813 -18.4802 -18.4784 -18.4781 -18.4780
   -18.4774 -18.4774 -18.4771 -18.4768 -18.4760 -18.4726 -18.4722 -18.4715
   -18.4710 -18.4708 -18.4682 -18.4678 -18.4670 -18.4658 -18.4658 -18.4641
   -18.4640 -18.4634 -18.4630 -18.4626 -18.4621 -18.4617 -18.4616 -18.4607
   -18.4603 -18.4603 -18.4602 -18.4594 -18.4588 -18.4588 -18.4576 -18.4562
   -18.4557 -18.4557 -18.4552 -18.4538 -18.4537 -18.4528 -18.4509 -18.4480
   -18.4435 -18.4410 -18.4309 -18.2590 -18.2559 -18.1470 -18.1346 -18.1262
    -2.6461  -2.5864  -2.5338  -1.9154  -1.8262  -1.7571  -0.6819  -0.6685
    -0.6228  -0.6161  -0.6083  -0.5884  -0.5776  -0.5649  -0.5629  -0.5379
    -0.5124  -0.4882  -0.4872  -0.4836  -0.4818  -0.4677  -0.4002  -0.3965
    -0.3719  -0.3440  -0.3360  -0.3329  -0.2956  -0.2898  -0.2782  -0.2530
    -0.2394  -0.2391  -0.2214  -0.1349   1.2130   1.2478   1.2692   1.2825
     1.2884   1.3498   1.3500   1.3573   1.3762   2.0066   2.0461   2.0608
     2.0794   2.0965   2.1345   2.1813   2.1828   2.1926   2.4360   2.6138
     2.8129   4.2111   4.4768   4.7072   5.0937   5.1000   5.1235   5.1543
     5.1798   5.1975   5.2404   5.2449   5.2471   6.5790   6.6680   6.7141
     6.8143   6.8209   6.8620   6.9543   6.9711   6.9808   6.9851   6.9920
     7.0071   7.0201   7.0242   7.0285   7.0554   7.0628   7.0713   7.0732
     7.0777   7.0930   7.0949   7.1394   7.1498   7.1527   7.1572   7.1973
     7.7443   7.7481   7.8116   7.8735   7.9073   7.9328   7.9374   7.9485
     8.0520   8.0626   8.0944   8.1439   8.1996   8.3076   8.3383   8.3682
     8.5711   8.6193   8.7252   8.7483   8.7568   8.7644   8.7759   8.8036
     8.8623   8.8627   8.8785   8.8893   8.9305   9.0066   9.0260   9.0550
     9.0726   9.0944   9.1452   9.1468   9.1752   9.2280   9.2341   9.2419
     9.3218   9.3380   9.3504   9.3982   9.4008   9.4487   9.4673   9.5094
     9.5743   9.5923   9.6160   9.6251   9.6410   9.6412   9.6509   9.6544
     9.6740   9.7150   9.7166   9.8420   9.8977   9.9407   9.9429   9.9962
    10.1011  10.1103  10.1174  10.1445  10.1796  10.4001  10.5579  10.6846
    10.8814  10.9562  10.9656  11.3171  11.4173  11.5016  11.5931  11.6571
    11.6842  11.7033  11.8022  11.8071  11.8114  11.8338  11.9276  11.9572
    11.9739  12.0198  12.0997  12.1003  12.2713  12.3265  12.3731  12.3842
    12.4126  12.4460  12.5091  12.5421  12.6058  12.6529  12.7114  12.7530
    12.8810  12.9069  12.9162  12.9289  12.9343  12.9920  13.0964  13.0988
    13.1979  13.2143  13.2415  13.2511  13.2635  13.2783  13.3464  13.3779
    13.3913  13.4300  13.6518  13.6936  13.7114  13.7267  13.7772  13.8661
    14.0225  14.0582  14.0739  14.1898  14.1915  14.2447  14.2707  14.2762
    14.3039  14.3424  14.3644  14.4270  14.5042  14.7084  14.7414  14.8178
    14.9446  14.9702  15.0048  15.0186  15.0928  15.1420  15.4344  15.4594
    15.5326  15.6109  15.6181  15.8819  15.8921  16.1001  16.1020  16.1535
    16.1924  16.2195  16.2873  16.3393  16.3951  16.4019  16.4723  16.4797
    16.5626  16.6137

     occupation numbers 
     1.0000   1.0000   1.0000   1.0000   1.0000   1.0000   1.0000   1.0000
     1.0000   1.0000   1.0000   1.0000   1.0000   1.0000   1.0000   1.0000
     1.0000   1.0000   1.0000   1.0000   1.0000   1.0000   1.0000   1.0000
     1.0000   1.0000   1.0000   1.0000   1.0000   1.0000   1.0000   1.0000
     1.0000   1.0000   1.0000   1.0000   1.0000   1.0000   1.0000   1.0000
     1.0000   1.0000   1.0000   1.0000   1.0000   1.0000   1.0000   1.0000
     1.0000   1.0000   1.0000   1.0000   1.0000   1.0000   1.0000   1.0000
     1.0000   1.0000   1.0000   1.0000   1.0000   1.0000   1.0000   1.0000
     1.0000   1.0000   1.0000   1.0000   1.0000   1.0000   1.0000   1.0000
     1.0000   1.0000   1.0000   1.0000   1.0000   1.0000   1.0000   1.0000
     1.0000   1.0000   1.0000   1.0000   1.0000   1.0000   1.0000   1.0000
     1.0000   1.0000   1.0000   1.0000   1.0000   1.0000   1.0000   1.0000
     1.0000   1.0000   1.0000   1.0000   1.0000   1.0000   1.0000   1.0000
     1.0000   1.0000   1.0000   1.0000   1.0000   1.0000   1.0000   1.0000
     1.0000   1.0000   1.0000   1.0000   1.0000   1.0000   1.0000   1.0000
     1.0000   1.0000   1.0000   1.0000   1.0000   1.0000   1.0000   1.0000
     1.0000   1.0000   1.0000   1.0000   1.0000   1.0000   1.0000   1.0000
     1.0000   1.0000   1.0000   1.0000   1.0000   1.0000   1.0000   1.0000
     1.0000   1.0000   1.0000   1.0000   1.0000   1.0000   1.0000   1.0000
     1.0000   1.0000   1.0000   1.0000   1.0000   1.0000   1.0000   1.0000
     1.0000   1.0000   1.0000   1.0000   1.0000   1.0000   1.0000   1.0000
     1.0000   1.0000   1.0000   1.0000   1.0000   1.0000   1.0000   1.0000
     1.0000   1.0000   1.0000   1.0000   1.0000   1.0000   1.0000   1.0000
     1.0000   1.0000   1.0000   1.0000   1.0000   1.0000   1.0000   1.0000
     1.0000   1.0000   1.0000   1.0000   1.0000   1.0000   1.0000   1.0000
     1.0000   1.0000   1.0000   1.0000   1.0000   1.0000   1.0000   1.0000
     1.0000   1.0000   1.0000   1.0000   1.0000   1.0000   1.0000   1.0000
     1.0000   1.0000   1.0000   1.0000   1.0000   1.0000   1.0000   1.0000
     1.0000   1.0000   1.0000   1.0000   1.0000   1.0000   1.0000   1.0000
     1.0000   1.0000   1.0000   1.0000   1.0000   1.0000   1.0000   1.0000
     1.0000   1.0000   1.0000   1.0000   1.0000   1.0000   1.0000   1.0000
     1.0000   1.0000   1.0000   1.0000   1.0000   1.0000   1.0000   1.0000
     1.0000   1.0000   1.0000   1.0000   1.0000   1.0000   1.0000   1.0000
     1.0000   1.0000   1.0000   1.0000   1.0000   1.0000   1.0000   1.0000
     1.0000   1.0000   1.0000   1.0000   1.0000   1.0000   1.0000   1.0000
     1.0000   1.0000   1.0000   1.0000   1.0000   1.0000   1.0000   1.0000
     1.0000   1.0000   1.0000   1.0000   1.0000   1.0000   1.0000   1.0000
     1.0000   1.0000   1.0000   1.0000   1.0000   1.0000   1.0000   1.0000
     1.0000   1.0000   1.0000   1.0000   1.0000   1.0000   1.0000   1.0000
     1.0000   1.0000   1.0000   1.0000   1.0000   1.0000   1.0000   1.0000
     1.0000   1.0000   1.0000   1.0000   1.0000   1.0000   1.0000   1.0000
     1.0000   1.0000   1.0000   1.0000   1.0000   1.0000   1.0000   1.0000
     1.0000   1.0000   1.0000   1.0000   1.0000   1.0000   1.0000   1.0000
     1.0000   1.0000   1.0000   1.0000   1.0000   1.0000   1.0000   1.0000
     1.0000   1.0000   1.0000   1.0000   1.0000   1.0000   1.0000   1.0000
     1.0000   1.0000   1.0000   1.0000   1.0000   1.0000   1.0000   1.0000
     1.0000   1.0000   1.0000   1.0000   1.0000   1.0000   1.0000   1.0000
     1.0000   1.0000   1.0000   1.0000   1.0000   1.0000   1.0000   1.0000
     1.0000   1.0000   1.0000   1.0000   1.0000   1.0000   1.0000   1.0000
     1.0000   1.0000   1.0000   1.0000   1.0000   1.0000   1.0000   1.0000
     1.0000   1.0000   1.0000   1.0000   1.0000   1.0000   1.0000   1.0000
     1.0000   1.0000   1.0000   1.0000   1.0000   1.0000   1.0000   1.0000
     1.0000   1.0000   1.0000   1.0000   1.0000   1.0000   1.0000   1.0000
     1.0000   1.0000   1.0000   1.0000   1.0000   1.0000   1.0000   1.0000
     1.0000   1.0000   1.0000   1.0000   1.0000   1.0000   1.0000   1.0000
     1.0000   1.0000   1.0000   1.0000   1.0000   1.0000   1.0000   1.0000
     1.0000   1.0000   1.0000   1.0000   1.0000   1.0000   1.0000   1.0000
     1.0000   1.0000   1.0000   1.0000   1.0000   1.0000   1.0000   1.0000
     1.0000   1.0000   1.0000   1.0000   1.0000   1.0000   1.0000   1.0000
     1.0043   1.0156   1.0180   0.8138   0.4482   0.1963   0.0557   0.0183
     0.0107   0.0072   0.0007   0.0006   0.0006   0.0003   0.0000   0.0000
     0.0000   0.0000   0.0000   0.0000   0.0000   0.0000   0.0000   0.0000
     0.0000   0.0000   0.0000   0.0000   0.0000   0.0000   0.0000   0.0000
     0.0000   0.0000   0.0000   0.0000   0.0000   0.0000   0.0000   0.0000
     0.0000   0.0000   0.0000   0.0000   0.0000   0.0000   0.0000   0.0000
     0.0000   0.0000   0.0000   0.0000   0.0000   0.0000   0.0000   0.0000
     0.0000   0.0000   0.0000   0.0000   0.0000   0.0000   0.0000   0.0000
     0.0000   0.0000   0.0000   0.0000   0.0000   0.0000   0.0000   0.0000
     0.0000   0.0000   0.0000   0.0000   0.0000   0.0000   0.0000   0.0000
     0.0000   0.0000   0.0000   0.0000   0.0000   0.0000   0.0000   0.0000
     0.0000   0.0000   0.0000   0.0000   0.0000   0.0000   0.0000   0.0000
     0.0000   0.0000

          k = 0.0000 0.2309 0.0000 ( 76885 PWs)   bands (ev):

   -60.0692 -31.4649 -31.4615 -31.4100 -25.9284 -25.9277 -25.9254 -25.9249
   -25.8922 -25.8920 -25.8906 -25.8882 -25.8880 -25.8849 -25.8837 -25.8829
   -25.8826 -25.8820 -25.8818 -25.8775 -25.8753 -25.8733 -25.8717 -25.8713
   -25.8692 -25.8680 -25.8669 -25.8666 -25.8662 -25.8648 -25.8647 -25.8624
   -25.8624 -25.8611 -25.8610 -25.8594 -25.8587 -25.8582 -25.8581 -25.8557
   -25.8556 -25.8463 -25.8446 -25.8424 -25.8418 -25.8412 -25.8398 -25.8396
   -25.8395 -25.8369 -25.8368 -25.8324 -25.8298 -25.8293 -25.8290 -25.8282
   -25.8243 -25.8173 -25.8172 -25.8171 -25.8170 -25.8167 -25.8165 -25.8160
   -25.8154 -25.8145 -25.8094 -25.8089 -25.8086 -25.8082 -25.7945 -25.7937
   -25.7936 -25.7811 -25.7783 -25.7777 -25.7771 -25.7770 -25.7756 -25.7736
   -25.7704 -25.7696 -25.7684 -25.7675 -25.7660 -25.7619 -25.7615 -25.7606
   -25.7600 -25.7591 -25.7541 -25.7539 -25.7537 -25.7533 -25.7526 -25.7518
   -25.7515 -25.7505 -25.7502 -25.7491 -25.7465 -25.7455 -25.7453 -25.7435
   -25.7429 -25.7423 -25.7412 -25.7411 -25.7402 -25.7401 -25.7396 -25.7382
   -25.7309 -25.7271 -25.7267 -25.7234 -25.7229 -25.7219 -25.7209 -25.7179
   -25.7167 -25.7015 -25.7009 -25.6994 -25.6991 -25.6974 -25.6973 -25.6972
   -25.6968 -25.6965 -25.6950 -25.6949 -25.6937 -25.6936 -25.6934 -25.6859
   -25.6859 -25.6803 -25.6800 -25.6748 -25.6746 -25.6745 -25.6684 -25.6682
   -25.6670 -25.6667 -25.6665 -25.6663 -25.6657 -25.6652 -25.6651 -25.6646
   -25.6645 -25.6640 -25.6636 -25.6632 -25.6583 -25.6579 -25.6578 -25.6570
   -25.6453 -25.6449 -25.6412 -25.6400 -25.6374 -25.6373 -25.6298 -25.6285
   -25.6283 -25.6281 -25.6276 -25.6274 -25.6259 -25.6226 -25.6224 -25.6218
   -25.6214 -25.6213 -25.6195 -25.6113 -25.6103 -25.6098 -25.6050 -25.6045
   -18.6109 -18.6098 -18.6045 -18.6040 -18.6033 -18.6027 -18.5972 -18.5970
   -18.5964 -18.5957 -18.5909 -18.5895 -18.5886 -18.5875 -18.5873 -18.5861
   -18.5856 -18.5844 -18.5823 -18.5822 -18.5819 -18.5805 -18.5796 -18.5766
   -18.5752 -18.5741 -18.5735 -18.5733 -18.5731 -18.5695 -18.5655 -18.5643
   -18.5634 -18.5600 -18.5580 -18.5464 -18.5443 -18.5304 -18.5290 -18.5281
   -18.5275 -18.5253 -18.5229 -18.5221 -18.5207 -18.5190 -18.5161 -18.5139
   -18.5133 -18.5106 -18.5079 -18.5073 -18.5064 -18.5047 -18.5045 -18.5043
   -18.5040 -18.4951 -18.4929 -18.4918 -18.4889 -18.4869 -18.4858 -18.4841
   -18.4833 -18.4822 -18.4812 -18.4809 -18.4799 -18.4788 -18.4784 -18.4781
   -18.4778 -18.4776 -18.4774 -18.4765 -18.4759 -18.4730 -18.4722 -18.4719
   -18.4714 -18.4711 -18.4680 -18.4676 -18.4669 -18.4660 -18.4656 -18.4642
   -18.4640 -18.4636 -18.4628 -18.4625 -18.4621 -18.4618 -18.4615 -18.4606
   -18.4605 -18.4603 -18.4599 -18.4595 -18.4589 -18.4588 -18.4578 -18.4563
   -18.4559 -18.4557 -18.4550 -18.4539 -18.4537 -18.4530 -18.4510 -18.4481
   -18.4435 -18.4410 -18.4309 -18.2590 -18.2559 -18.1470 -18.1346 -18.1262
    -2.5476  -2.4894  -2.4345  -1.8284  -1.7398  -1.6673  -1.1743  -1.1495
    -1.0567  -0.8376  -0.7936  -0.7825  -0.7352  -0.6772  -0.6693  -0.6393
    -0.6074  -0.5678  -0.5205  -0.4707  -0.4245  -0.3990  -0.3715  -0.3448
    -0.3315  -0.2889  -0.2716  -0.2448  -0.2027  -0.1856  -0.1478  -0.1260
    -0.1157  -0.1106  -0.0583  -0.0292   1.3050   1.3298   1.3489   1.3879
     1.4331   1.4422   1.5776   1.6182   1.6802   1.9619   1.9867   2.0182
     2.0470   2.1102   2.1164   2.3045   2.3487   2.4416   2.4583   2.6080
     2.7947   4.0705   4.2903   4.4857   5.1651   5.2083   5.2594   5.2842
     5.2995   5.3397   5.3433   5.3769   5.4181   6.5005   6.5378   6.5861
     6.5990   6.6293   6.6626   6.6985   6.7219   6.7434   6.7448   6.7489
     6.7945   6.8200   6.8294   6.9217   7.0147   7.0409   7.0964   7.1245
     7.1416   7.1656   7.1815   7.2720   7.2765   7.3355   7.4202   7.5338
     7.5766   7.6156   7.7785   7.8068   7.8529   7.8849   7.9026   7.9644
     7.9735   8.0055   8.0188   8.0286   8.0735   8.1002   8.2157   8.2526
     8.2883   8.3083   8.3345   8.3618   8.3849   8.4293   8.4479   8.4709
     8.4770   8.4897   8.6355   8.6955   8.7417   8.8137   8.8389   8.9067
     8.9232   8.9497   8.9635   8.9985   9.0285   9.0857   9.1442   9.2171
     9.2403   9.2975   9.3706   9.4111   9.4491   9.4930   9.5121   9.5533
     9.5749   9.5912   9.6062   9.6628   9.6997   9.7259   9.7884   9.8283
     9.8589   9.8618  10.0712  10.1090  10.1627  10.2521  10.2890  10.3198
    10.3540  10.4099  10.4694  10.4815  10.5307  10.6004  10.7013  10.8177
    10.9751  11.0292  11.2341  11.4155  11.5661  11.6486  11.7052  11.7537
    11.8459  11.9313  11.9935  12.0030  12.0712  12.1098  12.1537  12.2015
    12.2338  12.2562  12.2749  12.2869  12.3496  12.3934  12.4411  12.5028
    12.5394  12.5835  12.6016  12.6357  12.6579  12.6865  12.7296  12.7805
    12.8067  12.8689  12.9164  12.9629  13.0073  13.0469  13.0913  13.1052
    13.2286  13.2724  13.3940  13.4320  13.5051  13.5307  13.6068  13.6206
    13.6603  13.6792  13.7409  13.7940  13.8411  13.9381  13.9828  14.0172
    14.1077  14.1559  14.1679  14.2178  14.2700  14.3665  14.4509  14.5063
    14.5522  14.5974  14.6322  14.6762  14.7235  14.7624  14.8009  14.8172
    14.8547  14.9165  14.9375  14.9692  15.0474  15.0763  15.2563  15.3603
    15.4409  15.7226  15.7490  15.7867  15.8564  15.9156  15.9776  16.0836
    16.1133  16.1568  16.1937  16.2853  16.3019  16.3621  16.3839  16.4783
    16.5007  16.5294

     occupation numbers 
     1.0000   1.0000   1.0000   1.0000   1.0000   1.0000   1.0000   1.0000
     1.0000   1.0000   1.0000   1.0000   1.0000   1.0000   1.0000   1.0000
     1.0000   1.0000   1.0000   1.0000   1.0000   1.0000   1.0000   1.0000
     1.0000   1.0000   1.0000   1.0000   1.0000   1.0000   1.0000   1.0000
     1.0000   1.0000   1.0000   1.0000   1.0000   1.0000   1.0000   1.0000
     1.0000   1.0000   1.0000   1.0000   1.0000   1.0000   1.0000   1.0000
     1.0000   1.0000   1.0000   1.0000   1.0000   1.0000   1.0000   1.0000
     1.0000   1.0000   1.0000   1.0000   1.0000   1.0000   1.0000   1.0000
     1.0000   1.0000   1.0000   1.0000   1.0000   1.0000   1.0000   1.0000
     1.0000   1.0000   1.0000   1.0000   1.0000   1.0000   1.0000   1.0000
     1.0000   1.0000   1.0000   1.0000   1.0000   1.0000   1.0000   1.0000
     1.0000   1.0000   1.0000   1.0000   1.0000   1.0000   1.0000   1.0000
     1.0000   1.0000   1.0000   1.0000   1.0000   1.0000   1.0000   1.0000
     1.0000   1.0000   1.0000   1.0000   1.0000   1.0000   1.0000   1.0000
     1.0000   1.0000   1.0000   1.0000   1.0000   1.0000   1.0000   1.0000
     1.0000   1.0000   1.0000   1.0000   1.0000   1.0000   1.0000   1.0000
     1.0000   1.0000   1.0000   1.0000   1.0000   1.0000   1.0000   1.0000
     1.0000   1.0000   1.0000   1.0000   1.0000   1.0000   1.0000   1.0000
     1.0000   1.0000   1.0000   1.0000   1.0000   1.0000   1.0000   1.0000
     1.0000   1.0000   1.0000   1.0000   1.0000   1.0000   1.0000   1.0000
     1.0000   1.0000   1.0000   1.0000   1.0000   1.0000   1.0000   1.0000
     1.0000   1.0000   1.0000   1.0000   1.0000   1.0000   1.0000   1.0000
     1.0000   1.0000   1.0000   1.0000   1.0000   1.0000   1.0000   1.0000
     1.0000   1.0000   1.0000   1.0000   1.0000   1.0000   1.0000   1.0000
     1.0000   1.0000   1.0000   1.0000   1.0000   1.0000   1.0000   1.0000
     1.0000   1.0000   1.0000   1.0000   1.0000   1.0000   1.0000   1.0000
     1.0000   1.0000   1.0000   1.0000   1.0000   1.0000   1.0000   1.0000
     1.0000   1.0000   1.0000   1.0000   1.0000   1.0000   1.0000   1.0000
     1.0000   1.0000   1.0000   1.0000   1.0000   1.0000   1.0000   1.0000
     1.0000   1.0000   1.0000   1.0000   1.0000   1.0000   1.0000   1.0000
     1.0000   1.0000   1.0000   1.0000   1.0000   1.0000   1.0000   1.0000
     1.0000   1.0000   1.0000   1.0000   1.0000   1.0000   1.0000   1.0000
     1.0000   1.0000   1.0000   1.0000   1.0000   1.0000   1.0000   1.0000
     1.0000   1.0000   1.0000   1.0000   1.0000   1.0000   1.0000   1.0000
     1.0000   1.0000   1.0000   1.0000   1.0000   1.0000   1.0000   1.0000
     1.0000   1.0000   1.0000   1.0000   1.0000   1.0000   1.0000   1.0000
     1.0000   1.0000   1.0000   1.0000   1.0000   1.0000   1.0000   1.0000
     1.0000   1.0000   1.0000   1.0000   1.0000   1.0000   1.0000   1.0000
     1.0000   1.0000   1.0000   1.0000   1.0000   1.0000   1.0000   1.0000
     1.0000   1.0000   1.0000   1.0000   1.0000   1.0000   1.0000   1.0000
     1.0000   1.0000   1.0000   1.0000   1.0000   1.0000   1.0000   1.0000
     1.0000   1.0000   1.0000   1.0000   1.0000   1.0000   1.0000   1.0000
     1.0000   1.0000   1.0000   1.0000   1.0000   1.0000   1.0000   1.0000
     1.0000   1.0000   1.0000   1.0000   1.0000   1.0000   1.0000   1.0000
     1.0000   1.0000   1.0000   1.0000   1.0000   1.0000   1.0000   1.0000
     1.0000   1.0000   1.0000   1.0000   1.0000   1.0000   1.0000   1.0000
     1.0000   1.0000   1.0000   1.0000   1.0000   1.0000   1.0000   1.0000
     1.0000   1.0000   1.0000   1.0000   1.0000   1.0000   1.0000   1.0000
     1.0000   1.0000   1.0000   1.0000   1.0000   1.0000   1.0000   1.0000
     1.0000   1.0000   1.0000   1.0000   1.0000   1.0000   1.0000   1.0000
     1.0000   1.0000   1.0000   1.0000   1.0000   1.0000   1.0000   1.0000
     1.0000   1.0000   1.0000   1.0000   1.0000   1.0000   1.0000   1.0000
     1.0000   1.0000   1.0000   1.0000   1.0000   1.0000   1.0000   1.0000
     1.0000   1.0000   1.0000   1.0000   1.0000   1.0000   1.0000   1.0000
     1.0000   1.0000   1.0000   1.0000   1.0000   1.0000   1.0000   1.0000
     1.0000   1.0000   1.0000   1.0000   1.0000   1.0000   1.0000   1.0000
     1.0000   1.0000   1.0000   1.0000   1.0000   1.0000   1.0000   1.0000
     1.0000   1.0000   1.0000   1.0000   1.0000   1.0000   1.0000   1.0000
     1.0000   1.0000   1.0000   1.0000   1.0000   1.0000   1.0001   1.0011
     1.0206   1.0405   1.0217   0.4546   0.0841   0.0214   0.0069   0.0023
     0.0002   0.0000   0.0000   0.0000   0.0000   0.0000   0.0000   0.0000
     0.0000   0.0000   0.0000   0.0000   0.0000   0.0000   0.0000   0.0000
     0.0000   0.0000   0.0000   0.0000   0.0000   0.0000   0.0000   0.0000
     0.0000   0.0000   0.0000   0.0000   0.0000   0.0000   0.0000   0.0000
     0.0000   0.0000   0.0000   0.0000   0.0000   0.0000   0.0000   0.0000
     0.0000   0.0000   0.0000   0.0000   0.0000   0.0000   0.0000   0.0000
     0.0000   0.0000   0.0000   0.0000   0.0000   0.0000   0.0000   0.0000
     0.0000   0.0000   0.0000   0.0000   0.0000   0.0000   0.0000   0.0000
     0.0000   0.0000   0.0000   0.0000   0.0000   0.0000   0.0000   0.0000
     0.0000   0.0000   0.0000   0.0000   0.0000   0.0000   0.0000   0.0000
     0.0000   0.0000   0.0000   0.0000   0.0000   0.0000   0.0000   0.0000
     0.0000   0.0000

          k = 0.0000 0.4619 0.0000 ( 76897 PWs)   bands (ev):

   -60.0692 -31.4649 -31.4615 -31.4100 -25.9282 -25.9279 -25.9254 -25.9249
   -25.8923 -25.8919 -25.8906 -25.8882 -25.8880 -25.8847 -25.8839 -25.8830
   -25.8825 -25.8820 -25.8817 -25.8775 -25.8753 -25.8733 -25.8717 -25.8713
   -25.8692 -25.8680 -25.8669 -25.8665 -25.8663 -25.8648 -25.8647 -25.8624
   -25.8623 -25.8611 -25.8610 -25.8593 -25.8588 -25.8582 -25.8580 -25.8557
   -25.8556 -25.8462 -25.8446 -25.8424 -25.8416 -25.8413 -25.8399 -25.8396
   -25.8395 -25.8369 -25.8368 -25.8324 -25.8296 -25.8293 -25.8290 -25.8285
   -25.8243 -25.8173 -25.8172 -25.8171 -25.8170 -25.8167 -25.8166 -25.8155
   -25.8154 -25.8149 -25.8092 -25.8089 -25.8088 -25.8082 -25.7945 -25.7937
   -25.7937 -25.7811 -25.7783 -25.7778 -25.7771 -25.7769 -25.7757 -25.7736
   -25.7699 -25.7696 -25.7689 -25.7675 -25.7660 -25.7619 -25.7615 -25.7605
   -25.7601 -25.7591 -25.7541 -25.7539 -25.7537 -25.7533 -25.7525 -25.7518
   -25.7517 -25.7505 -25.7501 -25.7491 -25.7465 -25.7455 -25.7453 -25.7435
   -25.7429 -25.7423 -25.7412 -25.7411 -25.7402 -25.7400 -25.7397 -25.7383
   -25.7309 -25.7271 -25.7267 -25.7233 -25.7229 -25.7216 -25.7211 -25.7178
   -25.7169 -25.7015 -25.7009 -25.6995 -25.6991 -25.6973 -25.6973 -25.6971
   -25.6969 -25.6965 -25.6950 -25.6949 -25.6937 -25.6936 -25.6934 -25.6859
   -25.6858 -25.6803 -25.6800 -25.6748 -25.6746 -25.6745 -25.6682 -25.6681
   -25.6670 -25.6667 -25.6665 -25.6663 -25.6654 -25.6651 -25.6651 -25.6648
   -25.6642 -25.6640 -25.6638 -25.6636 -25.6581 -25.6579 -25.6577 -25.6574
   -25.6453 -25.6449 -25.6412 -25.6400 -25.6374 -25.6373 -25.6298 -25.6286
   -25.6284 -25.6280 -25.6276 -25.6273 -25.6259 -25.6226 -25.6225 -25.6218
   -25.6214 -25.6213 -25.6195 -25.6113 -25.6101 -25.6100 -25.6048 -25.6046
   -18.6100 -18.6087 -18.6050 -18.6044 -18.6028 -18.6022 -18.5975 -18.5971
   -18.5967 -18.5954 -18.5918 -18.5894 -18.5883 -18.5873 -18.5865 -18.5863
   -18.5859 -18.5846 -18.5822 -18.5818 -18.5815 -18.5810 -18.5806 -18.5765
   -18.5748 -18.5742 -18.5737 -18.5737 -18.5733 -18.5695 -18.5652 -18.5646
   -18.5634 -18.5595 -18.5587 -18.5461 -18.5440 -18.5304 -18.5286 -18.5276
   -18.5272 -18.5246 -18.5234 -18.5229 -18.5206 -18.5198 -18.5160 -18.5138
   -18.5136 -18.5107 -18.5071 -18.5068 -18.5059 -18.5052 -18.5052 -18.5047
   -18.5044 -18.4951 -18.4927 -18.4919 -18.4874 -18.4858 -18.4853 -18.4848
   -18.4819 -18.4814 -18.4810 -18.4802 -18.4798 -18.4794 -18.4790 -18.4783
   -18.4781 -18.4781 -18.4773 -18.4759 -18.4757 -18.4740 -18.4727 -18.4723
   -18.4721 -18.4717 -18.4674 -18.4672 -18.4669 -18.4666 -18.4652 -18.4642
   -18.4641 -18.4640 -18.4626 -18.4623 -18.4619 -18.4618 -18.4616 -18.4611
   -18.4604 -18.4603 -18.4598 -18.4594 -18.4591 -18.4588 -18.4583 -18.4565
   -18.4561 -18.4557 -18.4545 -18.4541 -18.4537 -18.4536 -18.4512 -18.4483
   -18.4435 -18.4410 -18.4309 -18.2590 -18.2559 -18.1470 -18.1346 -18.1262
    -2.2572  -2.2053  -2.1407  -1.7989  -1.7436  -1.6677  -1.5483  -1.4783
    -1.4017  -1.1666  -1.0778  -0.9930  -0.9275  -0.8700  -0.8547  -0.8146
    -0.8058  -0.8018  -0.5130  -0.4545  -0.4100  -0.3808  -0.3578  -0.3151
    -0.3012  -0.2742  -0.2125  -0.1984  -0.1225  -0.0540  -0.0437  -0.0364
     0.0021   0.0585   0.0792   0.0872   1.4926   1.5235   1.5501   1.5960
     1.6219   1.6304   1.7944   1.8209   1.8604   1.8783   1.9266   1.9321
     2.1104   2.1847   2.2907   2.3934   2.5178   2.6729   2.9008   2.9560
     3.0662   3.5970   3.7039   3.8535   5.4514   5.4944   5.5495   5.5774
     5.6255   5.6289   5.7539   5.8519   5.9271   5.9808   6.0273   6.0434
     6.0993   6.1323   6.1522   6.5877   6.6248   6.6550   6.6983   6.7580
     6.7839   6.8213   6.8344   6.8693   6.8716   6.8771   6.9284   7.0214
     7.0577   7.0752   7.1379   7.2625   7.3211   7.3485   7.3728   7.4111
     7.4365   7.4631   7.4790   7.4928   7.5608   7.6347   7.6628   7.6873
     7.6931   7.7472   7.8007   7.8495   7.8700   7.8933   7.9156   7.9256
     7.9703   8.0155   8.0446   8.1304   8.1776   8.2119   8.2383   8.2586
     8.2933   8.4353   8.4516   8.5207   8.5523   8.6173   8.6530   8.6564
     8.7587   8.8074   8.9772   9.0425   9.0714   9.1105   9.2498   9.3452
     9.3829   9.4451   9.4602   9.5196   9.5260   9.5813   9.6190   9.6503
     9.6873   9.7192   9.7404   9.7883   9.8148   9.8247   9.8640   9.8955
     9.9315   9.9456  10.0638  10.1768  10.2293  10.2738  10.3473  10.3920
    10.4801  10.5339  10.5737  10.5842  10.6639  10.7905  10.8673  11.0331
    11.1318  11.1614  11.3907  11.4971  11.7276  11.7657  11.9366  12.0684
    12.1057  12.1446  12.2306  12.2808  12.3020  12.3529  12.4078  12.4326
    12.4811  12.5348  12.5638  12.6093  12.6317  12.6464  12.6978  12.7281
    12.7756  12.8060  12.8854  12.9825  13.0228  13.0706  13.0947  13.1477
    13.1875  13.1962  13.2629  13.2908  13.2957  13.3529  13.4194  13.5008
    13.5739  13.6067  13.6301  13.7041  13.7548  13.8218  13.8679  13.8800
    13.9247  13.9943  14.0641  14.1185  14.1462  14.1837  14.2152  14.2632
    14.3402  14.3854  14.4150  14.4334  14.4558  14.4720  14.5097  14.5330
    14.5499  14.6158  14.7436  14.8549  14.9096  14.9656  15.0001  15.0220
    15.0617  15.0659  15.1266  15.1386  15.1803  15.2234  15.3051  15.3651
    15.3972  15.4691  15.5634  15.6273  15.6894  15.7260  15.7702  15.9331
    15.9666  16.0600  16.1402  16.1926  16.2489  16.2941  16.3494  16.3658
    16.4051  16.4250

     occupation numbers 
     1.0000   1.0000   1.0000   1.0000   1.0000   1.0000   1.0000   1.0000
     1.0000   1.0000   1.0000   1.0000   1.0000   1.0000   1.0000   1.0000
     1.0000   1.0000   1.0000   1.0000   1.0000   1.0000   1.0000   1.0000
     1.0000   1.0000   1.0000   1.0000   1.0000   1.0000   1.0000   1.0000
     1.0000   1.0000   1.0000   1.0000   1.0000   1.0000   1.0000   1.0000
     1.0000   1.0000   1.0000   1.0000   1.0000   1.0000   1.0000   1.0000
     1.0000   1.0000   1.0000   1.0000   1.0000   1.0000   1.0000   1.0000
     1.0000   1.0000   1.0000   1.0000   1.0000   1.0000   1.0000   1.0000
     1.0000   1.0000   1.0000   1.0000   1.0000   1.0000   1.0000   1.0000
     1.0000   1.0000   1.0000   1.0000   1.0000   1.0000   1.0000   1.0000
     1.0000   1.0000   1.0000   1.0000   1.0000   1.0000   1.0000   1.0000
     1.0000   1.0000   1.0000   1.0000   1.0000   1.0000   1.0000   1.0000
     1.0000   1.0000   1.0000   1.0000   1.0000   1.0000   1.0000   1.0000
     1.0000   1.0000   1.0000   1.0000   1.0000   1.0000   1.0000   1.0000
     1.0000   1.0000   1.0000   1.0000   1.0000   1.0000   1.0000   1.0000
     1.0000   1.0000   1.0000   1.0000   1.0000   1.0000   1.0000   1.0000
     1.0000   1.0000   1.0000   1.0000   1.0000   1.0000   1.0000   1.0000
     1.0000   1.0000   1.0000   1.0000   1.0000   1.0000   1.0000   1.0000
     1.0000   1.0000   1.0000   1.0000   1.0000   1.0000   1.0000   1.0000
     1.0000   1.0000   1.0000   1.0000   1.0000   1.0000   1.0000   1.0000
     1.0000   1.0000   1.0000   1.0000   1.0000   1.0000   1.0000   1.0000
     1.0000   1.0000   1.0000   1.0000   1.0000   1.0000   1.0000   1.0000
     1.0000   1.0000   1.0000   1.0000   1.0000   1.0000   1.0000   1.0000
     1.0000   1.0000   1.0000   1.0000   1.0000   1.0000   1.0000   1.0000
     1.0000   1.0000   1.0000   1.0000   1.0000   1.0000   1.0000   1.0000
     1.0000   1.0000   1.0000   1.0000   1.0000   1.0000   1.0000   1.0000
     1.0000   1.0000   1.0000   1.0000   1.0000   1.0000   1.0000   1.0000
     1.0000   1.0000   1.0000   1.0000   1.0000   1.0000   1.0000   1.0000
     1.0000   1.0000   1.0000   1.0000   1.0000   1.0000   1.0000   1.0000
     1.0000   1.0000   1.0000   1.0000   1.0000   1.0000   1.0000   1.0000
     1.0000   1.0000   1.0000   1.0000   1.0000   1.0000   1.0000   1.0000
     1.0000   1.0000   1.0000   1.0000   1.0000   1.0000   1.0000   1.0000
     1.0000   1.0000   1.0000   1.0000   1.0000   1.0000   1.0000   1.0000
     1.0000   1.0000   1.0000   1.0000   1.0000   1.0000   1.0000   1.0000
     1.0000   1.0000   1.0000   1.0000   1.0000   1.0000   1.0000   1.0000
     1.0000   1.0000   1.0000   1.0000   1.0000   1.0000   1.0000   1.0000
     1.0000   1.0000   1.0000   1.0000   1.0000   1.0000   1.0000   1.0000
     1.0000   1.0000   1.0000   1.0000   1.0000   1.0000   1.0000   1.0000
     1.0000   1.0000   1.0000   1.0000   1.0000   1.0000   1.0000   1.0000
     1.0000   1.0000   1.0000   1.0000   1.0000   1.0000   1.0000   1.0000
     1.0000   1.0000   1.0000   1.0000   1.0000   1.0000   1.0000   1.0000
     1.0000   1.0000   1.0000   1.0000   1.0000   1.0000   1.0000   1.0000
     1.0000   1.0000   1.0000   1.0000   1.0000   1.0000   1.0000   1.0000
     1.0000   1.0000   1.0000   1.0000   1.0000   1.0000   1.0000   1.0000
     1.0000   1.0000   1.0000   1.0000   1.0000   1.0000   1.0000   1.0000
     1.0000   1.0000   1.0000   1.0000   1.0000   1.0000   1.0000   1.0000
     1.0000   1.0000   1.0000   1.0000   1.0000   1.0000   1.0000   1.0000
     1.0000   1.0000   1.0000   1.0000   1.0000   1.0000   1.0000   1.0000
     1.0000   1.0000   1.0000   1.0000   1.0000   1.0000   1.0000   1.0000
     1.0000   1.0000   1.0000   1.0000   1.0000   1.0000   1.0000   1.0000
     1.0000   1.0000   1.0000   1.0000   1.0000   1.0000   1.0000   1.0000
     1.0000   1.0000   1.0000   1.0000   1.0000   1.0000   1.0000   1.0000
     1.0000   1.0000   1.0000   1.0000   1.0000   1.0000   1.0000   1.0000
     1.0000   1.0000   1.0000   1.0000   1.0000   1.0000   1.0000   1.0000
     1.0000   1.0000   1.0000   1.0000   1.0000   1.0000   1.0000   1.0000
     1.0000   1.0000   1.0000   1.0000   1.0000   1.0000   1.0000   1.0000
     1.0000   1.0000   1.0000   1.0000   1.0000   1.0000   1.0000   1.0000
     1.0000   1.0000   1.0000   1.0000   1.0000   1.0000   1.0000   1.0000
     1.0000   1.0000   1.0000   1.0000   1.0000   1.0006   1.0032   1.0422
     1.0818   1.0822   0.5457   0.2068   0.0043   0.0018   0.0000   0.0000
     0.0000   0.0000   0.0000   0.0000   0.0000   0.0000   0.0000   0.0000
     0.0000   0.0000   0.0000   0.0000   0.0000   0.0000   0.0000   0.0000
     0.0000   0.0000   0.0000   0.0000   0.0000   0.0000   0.0000   0.0000
     0.0000   0.0000   0.0000   0.0000   0.0000   0.0000   0.0000   0.0000
     0.0000   0.0000   0.0000   0.0000   0.0000   0.0000   0.0000   0.0000
     0.0000   0.0000   0.0000   0.0000   0.0000   0.0000   0.0000   0.0000
     0.0000   0.0000   0.0000   0.0000   0.0000   0.0000   0.0000   0.0000
     0.0000   0.0000   0.0000   0.0000   0.0000   0.0000   0.0000   0.0000
     0.0000   0.0000   0.0000   0.0000   0.0000   0.0000   0.0000   0.0000
     0.0000   0.0000   0.0000   0.0000   0.0000   0.0000   0.0000   0.0000
     0.0000   0.0000   0.0000   0.0000   0.0000   0.0000   0.0000   0.0000
     0.0000   0.0000

          k = 0.2000 0.3464 0.0000 ( 76958 PWs)   bands (ev):

   -60.0692 -31.4650 -31.4615 -31.4100 -25.9282 -25.9279 -25.9254 -25.9249
   -25.8923 -25.8919 -25.8906 -25.8882 -25.8880 -25.8847 -25.8839 -25.8830
   -25.8825 -25.8820 -25.8817 -25.8775 -25.8753 -25.8733 -25.8717 -25.8713
   -25.8692 -25.8680 -25.8669 -25.8665 -25.8663 -25.8648 -25.8647 -25.8624
   -25.8624 -25.8611 -25.8610 -25.8593 -25.8588 -25.8582 -25.8580 -25.8557
   -25.8556 -25.8462 -25.8446 -25.8424 -25.8417 -25.8413 -25.8399 -25.8396
   -25.8395 -25.8369 -25.8368 -25.8324 -25.8296 -25.8293 -25.8290 -25.8285
   -25.8243 -25.8173 -25.8172 -25.8171 -25.8170 -25.8167 -25.8166 -25.8155
   -25.8154 -25.8149 -25.8092 -25.8089 -25.8087 -25.8082 -25.7945 -25.7937
   -25.7937 -25.7811 -25.7783 -25.7778 -25.7771 -25.7769 -25.7757 -25.7736
   -25.7699 -25.7696 -25.7689 -25.7675 -25.7660 -25.7619 -25.7615 -25.7605
   -25.7601 -25.7591 -25.7541 -25.7539 -25.7537 -25.7533 -25.7525 -25.7518
   -25.7517 -25.7505 -25.7501 -25.7491 -25.7465 -25.7455 -25.7453 -25.7435
   -25.7429 -25.7423 -25.7412 -25.7411 -25.7402 -25.7400 -25.7397 -25.7383
   -25.7309 -25.7271 -25.7267 -25.7233 -25.7229 -25.7216 -25.7211 -25.7178
   -25.7169 -25.7015 -25.7009 -25.6995 -25.6991 -25.6973 -25.6973 -25.6971
   -25.6969 -25.6965 -25.6950 -25.6949 -25.6937 -25.6936 -25.6934 -25.6859
   -25.6858 -25.6803 -25.6800 -25.6748 -25.6746 -25.6745 -25.6682 -25.6681
   -25.6670 -25.6667 -25.6665 -25.6664 -25.6654 -25.6651 -25.6651 -25.6648
   -25.6642 -25.6640 -25.6638 -25.6636 -25.6581 -25.6579 -25.6577 -25.6573
   -25.6453 -25.6449 -25.6412 -25.6400 -25.6374 -25.6373 -25.6298 -25.6286
   -25.6284 -25.6280 -25.6276 -25.6273 -25.6259 -25.6226 -25.6225 -25.6218
   -25.6214 -25.6213 -25.6195 -25.6113 -25.6101 -25.6100 -25.6048 -25.6046
   -18.6103 -18.6088 -18.6051 -18.6039 -18.6030 -18.6025 -18.5971 -18.5971
   -18.5968 -18.5957 -18.5916 -18.5895 -18.5884 -18.5873 -18.5868 -18.5862
   -18.5860 -18.5846 -18.5822 -18.5816 -18.5814 -18.5809 -18.5808 -18.5766
   -18.5749 -18.5740 -18.5738 -18.5736 -18.5733 -18.5695 -18.5653 -18.5645
   -18.5634 -18.5594 -18.5587 -18.5462 -18.5441 -18.5305 -18.5287 -18.5277
   -18.5273 -18.5246 -18.5231 -18.5229 -18.5204 -18.5198 -18.5160 -18.5138
   -18.5136 -18.5107 -18.5072 -18.5069 -18.5059 -18.5052 -18.5051 -18.5045
   -18.5044 -18.4951 -18.4927 -18.4919 -18.4878 -18.4858 -18.4855 -18.4848
   -18.4822 -18.4816 -18.4810 -18.4800 -18.4798 -18.4793 -18.4791 -18.4783
   -18.4781 -18.4780 -18.4772 -18.4759 -18.4759 -18.4738 -18.4725 -18.4723
   -18.4720 -18.4715 -18.4675 -18.4672 -18.4670 -18.4665 -18.4651 -18.4642
   -18.4642 -18.4640 -18.4626 -18.4623 -18.4620 -18.4619 -18.4616 -18.4610
   -18.4604 -18.4603 -18.4598 -18.4595 -18.4590 -18.4589 -18.4582 -18.4565
   -18.4560 -18.4557 -18.4546 -18.4541 -18.4536 -18.4534 -18.4511 -18.4483
   -18.4435 -18.4410 -18.4309 -18.2590 -18.2559 -18.1470 -18.1346 -18.1262
    -2.3529  -2.2977  -2.2378  -1.6702  -1.5871  -1.4966  -1.4544  -1.4329
    -1.3817  -1.3131  -1.3019  -1.2778  -0.8831  -0.8343  -0.7587  -0.7039
    -0.6922  -0.6539  -0.4940  -0.4140  -0.3691  -0.3404  -0.3050  -0.2798
    -0.2445  -0.2427  -0.1859  -0.1368  -0.1302  -0.1209  -0.0925  -0.0603
    -0.0275   0.0181   0.0265   0.0370   1.2014   1.2512   1.3005   1.5746
     1.6073   1.6704   1.8044   1.8233   1.8979   1.9252   1.9729   1.9831
     2.3579   2.4180   2.4473   2.4803   2.5316   2.5735   2.5801   2.5905
     2.7322   3.7582   3.8972   4.0496   5.3291   5.3903   5.4733   5.4785
     5.5549   5.5920   5.6351   5.6838   5.7095   6.1075   6.1532   6.2335
     6.2813   6.3572   6.4266   6.4710   6.5153   6.6146   6.6751   6.7428
     6.7730   6.8600   6.9434   7.0059   7.0647   7.0982   7.1245   7.1514
     7.1645   7.2019   7.2163   7.2425   7.2637   7.2907   7.3141   7.3588
     7.3804   7.4068   7.4238   7.4853   7.5053   7.5394   7.5728   7.5933
     7.6578   7.7034   7.7202   7.7274   7.8134   7.9808   8.0177   8.0412
     8.0635   8.0845   8.1104   8.1525   8.1777   8.3197   8.3350   8.4029
     8.4194   8.4953   8.5710   8.6681   8.7064   8.7346   8.7519   8.7944
     8.8989   8.9257   8.9565   8.9887   9.0493   9.0996   9.1052   9.1892
     9.2001   9.2471   9.2751   9.3071   9.3649   9.3778   9.5017   9.5603
     9.6433   9.6693   9.7009   9.7767   9.8073   9.8619   9.8930   9.9498
    10.0214  10.1159  10.2719  10.3066  10.3939  10.4068  10.4493  10.4887
    10.5289  10.5567  10.6137  10.6455  10.7054  10.7161  10.8261  10.9756
    11.1656  11.2363  11.3882  11.5178  11.6263  11.6940  11.7978  11.8424
    11.9595  12.0203  12.1707  12.2183  12.2350  12.2783  12.3166  12.3561
    12.4426  12.4834  12.5418  12.5606  12.5890  12.6370  12.6649  12.6827
    12.7260  12.7458  12.7529  12.7666  12.8012  12.8848  12.9258  12.9930
    13.0642  13.1122  13.2021  13.2452  13.3035  13.3081  13.3536  13.4451
    13.5051  13.5247  13.5652  13.6709  13.6913  13.7734  13.8580  13.8825
    13.9034  13.9926  14.0233  14.0485  14.1256  14.1411  14.1487  14.1727
    14.2260  14.2497  14.2889  14.3083  14.4776  14.5137  14.5336  14.5827
    14.5950  14.7263  14.7716  14.8079  14.8770  14.9112  14.9416  14.9704
    15.0030  15.0832  15.0945  15.1909  15.2271  15.2645  15.3215  15.3869
    15.4344  15.4526  15.4970  15.5674  15.6015  15.6335  15.6483  15.7691
    15.8606  15.9455  16.0296  16.1380  16.2714  16.3057  16.3332  16.3388
    16.4244  16.5125

     occupation numbers 
     1.0000   1.0000   1.0000   1.0000   1.0000   1.0000   1.0000   1.0000
     1.0000   1.0000   1.0000   1.0000   1.0000   1.0000   1.0000   1.0000
     1.0000   1.0000   1.0000   1.0000   1.0000   1.0000   1.0000   1.0000
     1.0000   1.0000   1.0000   1.0000   1.0000   1.0000   1.0000   1.0000
     1.0000   1.0000   1.0000   1.0000   1.0000   1.0000   1.0000   1.0000
     1.0000   1.0000   1.0000   1.0000   1.0000   1.0000   1.0000   1.0000
     1.0000   1.0000   1.0000   1.0000   1.0000   1.0000   1.0000   1.0000
     1.0000   1.0000   1.0000   1.0000   1.0000   1.0000   1.0000   1.0000
     1.0000   1.0000   1.0000   1.0000   1.0000   1.0000   1.0000   1.0000
     1.0000   1.0000   1.0000   1.0000   1.0000   1.0000   1.0000   1.0000
     1.0000   1.0000   1.0000   1.0000   1.0000   1.0000   1.0000   1.0000
     1.0000   1.0000   1.0000   1.0000   1.0000   1.0000   1.0000   1.0000
     1.0000   1.0000   1.0000   1.0000   1.0000   1.0000   1.0000   1.0000
     1.0000   1.0000   1.0000   1.0000   1.0000   1.0000   1.0000   1.0000
     1.0000   1.0000   1.0000   1.0000   1.0000   1.0000   1.0000   1.0000
     1.0000   1.0000   1.0000   1.0000   1.0000   1.0000   1.0000   1.0000
     1.0000   1.0000   1.0000   1.0000   1.0000   1.0000   1.0000   1.0000
     1.0000   1.0000   1.0000   1.0000   1.0000   1.0000   1.0000   1.0000
     1.0000   1.0000   1.0000   1.0000   1.0000   1.0000   1.0000   1.0000
     1.0000   1.0000   1.0000   1.0000   1.0000   1.0000   1.0000   1.0000
     1.0000   1.0000   1.0000   1.0000   1.0000   1.0000   1.0000   1.0000
     1.0000   1.0000   1.0000   1.0000   1.0000   1.0000   1.0000   1.0000
     1.0000   1.0000   1.0000   1.0000   1.0000   1.0000   1.0000   1.0000
     1.0000   1.0000   1.0000   1.0000   1.0000   1.0000   1.0000   1.0000
     1.0000   1.0000   1.0000   1.0000   1.0000   1.0000   1.0000   1.0000
     1.0000   1.0000   1.0000   1.0000   1.0000   1.0000   1.0000   1.0000
     1.0000   1.0000   1.0000   1.0000   1.0000   1.0000   1.0000   1.0000
     1.0000   1.0000   1.0000   1.0000   1.0000   1.0000   1.0000   1.0000
     1.0000   1.0000   1.0000   1.0000   1.0000   1.0000   1.0000   1.0000
     1.0000   1.0000   1.0000   1.0000   1.0000   1.0000   1.0000   1.0000
     1.0000   1.0000   1.0000   1.0000   1.0000   1.0000   1.0000   1.0000
     1.0000   1.0000   1.0000   1.0000   1.0000   1.0000   1.0000   1.0000
     1.0000   1.0000   1.0000   1.0000   1.0000   1.0000   1.0000   1.0000
     1.0000   1.0000   1.0000   1.0000   1.0000   1.0000   1.0000   1.0000
     1.0000   1.0000   1.0000   1.0000   1.0000   1.0000   1.0000   1.0000
     1.0000   1.0000   1.0000   1.0000   1.0000   1.0000   1.0000   1.0000
     1.0000   1.0000   1.0000   1.0000   1.0000   1.0000   1.0000   1.0000
     1.0000   1.0000   1.0000   1.0000   1.0000   1.0000   1.0000   1.0000
     1.0000   1.0000   1.0000   1.0000   1.0000   1.0000   1.0000   1.0000
     1.0000   1.0000   1.0000   1.0000   1.0000   1.0000   1.0000   1.0000
     1.0000   1.0000   1.0000   1.0000   1.0000   1.0000   1.0000   1.0000
     1.0000   1.0000   1.0000   1.0000   1.0000   1.0000   1.0000   1.0000
     1.0000   1.0000   1.0000   1.0000   1.0000   1.0000   1.0000   1.0000
     1.0000   1.0000   1.0000   1.0000   1.0000   1.0000   1.0000   1.0000
     1.0000   1.0000   1.0000   1.0000   1.0000   1.0000   1.0000   1.0000
     1.0000   1.0000   1.0000   1.0000   1.0000   1.0000   1.0000   1.0000
     1.0000   1.0000   1.0000   1.0000   1.0000   1.0000   1.0000   1.0000
     1.0000   1.0000   1.0000   1.0000   1.0000   1.0000   1.0000   1.0000
     1.0000   1.0000   1.0000   1.0000   1.0000   1.0000   1.0000   1.0000
     1.0000   1.0000   1.0000   1.0000   1.0000   1.0000   1.0000   1.0000
     1.0000   1.0000   1.0000   1.0000   1.0000   1.0000   1.0000   1.0000
     1.0000   1.0000   1.0000   1.0000   1.0000   1.0000   1.0000   1.0000
     1.0000   1.0000   1.0000   1.0000   1.0000   1.0000   1.0000   1.0000
     1.0000   1.0000   1.0000   1.0000   1.0000   1.0000   1.0000   1.0000
     1.0000   1.0000   1.0000   1.0000   1.0000   1.0000   1.0000   1.0000
     1.0000   1.0000   1.0000   1.0000   1.0000   1.0000   1.0000   1.0000
     1.0000   1.0000   1.0000   1.0000   1.0000   1.0000   1.0000   1.0000
     1.0000   1.0000   1.0000   1.0000   1.0000   1.0000   1.0000   1.0000
     1.0000   1.0000   1.0000   1.0000   1.0001   1.0001   1.0013   1.0208
     1.0813   1.0182   0.5553   0.1615   0.0320   0.0088   0.0008   0.0002
     0.0000   0.0000   0.0000   0.0000   0.0000   0.0000   0.0000   0.0000
     0.0000   0.0000   0.0000   0.0000   0.0000   0.0000   0.0000   0.0000
     0.0000   0.0000   0.0000   0.0000   0.0000   0.0000   0.0000   0.0000
     0.0000   0.0000   0.0000   0.0000   0.0000   0.0000   0.0000   0.0000
     0.0000   0.0000   0.0000   0.0000   0.0000   0.0000   0.0000   0.0000
     0.0000   0.0000   0.0000   0.0000   0.0000   0.0000   0.0000   0.0000
     0.0000   0.0000   0.0000   0.0000   0.0000   0.0000   0.0000   0.0000
     0.0000   0.0000   0.0000   0.0000   0.0000   0.0000   0.0000   0.0000
     0.0000   0.0000   0.0000   0.0000   0.0000   0.0000   0.0000   0.0000
     0.0000   0.0000   0.0000   0.0000   0.0000   0.0000   0.0000   0.0000
     0.0000   0.0000   0.0000   0.0000   0.0000   0.0000   0.0000   0.0000
     0.0000   0.0000

          k = 0.2000 0.5774 0.0000 ( 76936 PWs)   bands (ev):

   -60.0692 -31.4649 -31.4615 -31.4100 -25.9282 -25.9279 -25.9254 -25.9249
   -25.8923 -25.8919 -25.8906 -25.8882 -25.8880 -25.8847 -25.8838 -25.8830
   -25.8825 -25.8820 -25.8817 -25.8775 -25.8753 -25.8733 -25.8717 -25.8713
   -25.8692 -25.8680 -25.8669 -25.8665 -25.8663 -25.8648 -25.8647 -25.8624
   -25.8623 -25.8611 -25.8610 -25.8593 -25.8588 -25.8582 -25.8580 -25.8557
   -25.8556 -25.8462 -25.8446 -25.8423 -25.8416 -25.8413 -25.8399 -25.8396
   -25.8395 -25.8369 -25.8368 -25.8324 -25.8296 -25.8293 -25.8290 -25.8285
   -25.8243 -25.8173 -25.8172 -25.8171 -25.8170 -25.8167 -25.8165 -25.8155
   -25.8154 -25.8149 -25.8092 -25.8089 -25.8088 -25.8082 -25.7945 -25.7937
   -25.7937 -25.7811 -25.7783 -25.7778 -25.7771 -25.7768 -25.7757 -25.7736
   -25.7699 -25.7696 -25.7689 -25.7675 -25.7660 -25.7619 -25.7615 -25.7605
   -25.7601 -25.7591 -25.7541 -25.7539 -25.7536 -25.7533 -25.7525 -25.7518
   -25.7517 -25.7505 -25.7501 -25.7491 -25.7465 -25.7455 -25.7453 -25.7435
   -25.7429 -25.7423 -25.7412 -25.7411 -25.7403 -25.7400 -25.7397 -25.7383
   -25.7309 -25.7271 -25.7267 -25.7234 -25.7229 -25.7216 -25.7211 -25.7178
   -25.7169 -25.7015 -25.7009 -25.6994 -25.6991 -25.6973 -25.6973 -25.6971
   -25.6969 -25.6964 -25.6950 -25.6949 -25.6937 -25.6936 -25.6934 -25.6859
   -25.6858 -25.6803 -25.6800 -25.6748 -25.6746 -25.6745 -25.6682 -25.6680
   -25.6670 -25.6667 -25.6664 -25.6663 -25.6654 -25.6651 -25.6651 -25.6648
   -25.6642 -25.6641 -25.6639 -25.6637 -25.6581 -25.6579 -25.6578 -25.6574
   -25.6453 -25.6449 -25.6412 -25.6400 -25.6374 -25.6373 -25.6298 -25.6286
   -25.6284 -25.6280 -25.6276 -25.6273 -25.6259 -25.6226 -25.6224 -25.6218
   -25.6214 -25.6213 -25.6195 -25.6113 -25.6102 -25.6100 -25.6048 -25.6046
   -18.6098 -18.6083 -18.6053 -18.6045 -18.6030 -18.6015 -18.5982 -18.5970
   -18.5967 -18.5951 -18.5921 -18.5894 -18.5882 -18.5872 -18.5865 -18.5862
   -18.5860 -18.5846 -18.5823 -18.5822 -18.5815 -18.5811 -18.5804 -18.5764
   -18.5746 -18.5744 -18.5739 -18.5737 -18.5732 -18.5695 -18.5650 -18.5647
   -18.5635 -18.5595 -18.5587 -18.5461 -18.5440 -18.5303 -18.5285 -18.5276
   -18.5268 -18.5245 -18.5237 -18.5229 -18.5212 -18.5196 -18.5159 -18.5140
   -18.5135 -18.5107 -18.5070 -18.5065 -18.5059 -18.5053 -18.5052 -18.5049
   -18.5044 -18.4952 -18.4926 -18.4918 -18.4868 -18.4859 -18.4853 -18.4841
   -18.4817 -18.4810 -18.4809 -18.4805 -18.4803 -18.4796 -18.4789 -18.4782
   -18.4780 -18.4779 -18.4775 -18.4759 -18.4754 -18.4747 -18.4729 -18.4723
   -18.4722 -18.4720 -18.4672 -18.4671 -18.4668 -18.4667 -18.4652 -18.4643
   -18.4641 -18.4641 -18.4627 -18.4623 -18.4619 -18.4616 -18.4615 -18.4612
   -18.4605 -18.4603 -18.4598 -18.4594 -18.4592 -18.4588 -18.4584 -18.4566
   -18.4561 -18.4558 -18.4543 -18.4540 -18.4538 -18.4537 -18.4513 -18.4484
   -18.4435 -18.4410 -18.4309 -18.2590 -18.2559 -18.1470 -18.1346 -18.1262
    -1.9910  -1.9728  -1.9609  -1.8789  -1.8563  -1.8497  -1.5418  -1.4830
    -1.3939  -1.3165  -1.2577  -1.2062  -1.1713  -1.1461  -1.1180  -0.8751
    -0.7922  -0.7418  -0.3965  -0.3702  -0.3226  -0.2924  -0.2818  -0.2032
    -0.1889  -0.1232  -0.1133  -0.0863  -0.0827  -0.0786  -0.0260  -0.0076
     0.0188   0.0491   0.0791   0.0805   1.2035   1.2407   1.3052   1.3242
     1.3464   1.3859   2.0106   2.0452   2.1517   2.2224   2.2918   2.3550
     2.3899   2.4397   2.4708   2.4922   2.5071   2.5673   3.1016   3.1277
     3.1896   3.2192   3.3068   3.3131   5.5121   5.5631   5.6159   5.7312
     5.8432   5.9238   5.9399   5.9534   6.0340   6.1084   6.1451   6.1779
     6.2003   6.2359   6.2452   6.2783   6.3275   6.3575   6.3685   6.3845
     6.4266   6.7053   6.7694   6.7841   6.8340   6.8633   6.8942   6.9296
     6.9436   6.9551   6.9966   7.0688   7.2358   7.3120   7.3772   7.4245
     7.4450   7.5075   7.5355   7.5746   7.5848   7.6304   7.6570   7.7265
     7.7440   7.7528   7.7824   7.7981   7.8108   7.8413   7.8522   7.8832
     7.9021   7.9220   7.9539   7.9774   7.9832   8.0687   8.0976   8.1453
     8.2250   8.2350   8.2653   8.2923   8.5237   8.5665   8.6248   8.7019
     8.8018   8.8574   8.9063   9.0360   9.0435   9.1319   9.2341   9.2420
     9.2893   9.3773   9.3956   9.4897   9.5232   9.6315   9.6820   9.7288
     9.7940   9.8221   9.8659   9.9503   9.9769  10.0101  10.0546  10.0813
    10.1007  10.1782  10.2196  10.2523  10.2803  10.3805  10.3963  10.4174
    10.4374  10.5107  10.5584  10.6130  10.7365  10.8149  10.9085  10.9114
    11.1564  11.2982  11.4404  11.5428  11.7411  11.9103  11.9737  12.0047
    12.1075  12.1946  12.2594  12.2959  12.3411  12.4616  12.5049  12.5335
    12.5675  12.5954  12.6205  12.6567  12.6725  12.7240  12.7789  12.8409
    12.8474  12.8784  12.9427  12.9637  13.0288  13.0563  13.0932  13.1745
    13.2334  13.2680  13.3600  13.3854  13.4101  13.4470  13.4593  13.5231
    13.6037  13.6362  13.6948  13.7513  13.7685  13.7771  13.8366  13.9531
    14.0631  14.1257  14.1810  14.2268  14.2866  14.3572  14.4023  14.4414
    14.4816  14.5068  14.5668  14.6197  14.6355  14.7119  14.7761  14.8149
    14.8399  14.8883  14.8994  14.9210  14.9831  15.0084  15.0361  15.0601
    15.0875  15.1075  15.1866  15.2344  15.2857  15.3135  15.3573  15.4178
    15.4354  15.5102  15.5463  15.6070  15.6207  15.6424  15.7017  15.7294
    15.7753  15.7968  15.8535  15.8735  15.9138  15.9612  16.0403  16.0955
    16.1132  16.1741

     occupation numbers 
     1.0000   1.0000   1.0000   1.0000   1.0000   1.0000   1.0000   1.0000
     1.0000   1.0000   1.0000   1.0000   1.0000   1.0000   1.0000   1.0000
     1.0000   1.0000   1.0000   1.0000   1.0000   1.0000   1.0000   1.0000
     1.0000   1.0000   1.0000   1.0000   1.0000   1.0000   1.0000   1.0000
     1.0000   1.0000   1.0000   1.0000   1.0000   1.0000   1.0000   1.0000
     1.0000   1.0000   1.0000   1.0000   1.0000   1.0000   1.0000   1.0000
     1.0000   1.0000   1.0000   1.0000   1.0000   1.0000   1.0000   1.0000
     1.0000   1.0000   1.0000   1.0000   1.0000   1.0000   1.0000   1.0000
     1.0000   1.0000   1.0000   1.0000   1.0000   1.0000   1.0000   1.0000
     1.0000   1.0000   1.0000   1.0000   1.0000   1.0000   1.0000   1.0000
     1.0000   1.0000   1.0000   1.0000   1.0000   1.0000   1.0000   1.0000
     1.0000   1.0000   1.0000   1.0000   1.0000   1.0000   1.0000   1.0000
     1.0000   1.0000   1.0000   1.0000   1.0000   1.0000   1.0000   1.0000
     1.0000   1.0000   1.0000   1.0000   1.0000   1.0000   1.0000   1.0000
     1.0000   1.0000   1.0000   1.0000   1.0000   1.0000   1.0000   1.0000
     1.0000   1.0000   1.0000   1.0000   1.0000   1.0000   1.0000   1.0000
     1.0000   1.0000   1.0000   1.0000   1.0000   1.0000   1.0000   1.0000
     1.0000   1.0000   1.0000   1.0000   1.0000   1.0000   1.0000   1.0000
     1.0000   1.0000   1.0000   1.0000   1.0000   1.0000   1.0000   1.0000
     1.0000   1.0000   1.0000   1.0000   1.0000   1.0000   1.0000   1.0000
     1.0000   1.0000   1.0000   1.0000   1.0000   1.0000   1.0000   1.0000
     1.0000   1.0000   1.0000   1.0000   1.0000   1.0000   1.0000   1.0000
     1.0000   1.0000   1.0000   1.0000   1.0000   1.0000   1.0000   1.0000
     1.0000   1.0000   1.0000   1.0000   1.0000   1.0000   1.0000   1.0000
     1.0000   1.0000   1.0000   1.0000   1.0000   1.0000   1.0000   1.0000
     1.0000   1.0000   1.0000   1.0000   1.0000   1.0000   1.0000   1.0000
     1.0000   1.0000   1.0000   1.0000   1.0000   1.0000   1.0000   1.0000
     1.0000   1.0000   1.0000   1.0000   1.0000   1.0000   1.0000   1.0000
     1.0000   1.0000   1.0000   1.0000   1.0000   1.0000   1.0000   1.0000
     1.0000   1.0000   1.0000   1.0000   1.0000   1.0000   1.0000   1.0000
     1.0000   1.0000   1.0000   1.0000   1.0000   1.0000   1.0000   1.0000
     1.0000   1.0000   1.0000   1.0000   1.0000   1.0000   1.0000   1.0000
     1.0000   1.0000   1.0000   1.0000   1.0000   1.0000   1.0000   1.0000
     1.0000   1.0000   1.0000   1.0000   1.0000   1.0000   1.0000   1.0000
     1.0000   1.0000   1.0000   1.0000   1.0000   1.0000   1.0000   1.0000
     1.0000   1.0000   1.0000   1.0000   1.0000   1.0000   1.0000   1.0000
     1.0000   1.0000   1.0000   1.0000   1.0000   1.0000   1.0000   1.0000
     1.0000   1.0000   1.0000   1.0000   1.0000   1.0000   1.0000   1.0000
     1.0000   1.0000   1.0000   1.0000   1.0000   1.0000   1.0000   1.0000
     1.0000   1.0000   1.0000   1.0000   1.0000   1.0000   1.0000   1.0000
     1.0000   1.0000   1.0000   1.0000   1.0000   1.0000   1.0000   1.0000
     1.0000   1.0000   1.0000   1.0000   1.0000   1.0000   1.0000   1.0000
     1.0000   1.0000   1.0000   1.0000   1.0000   1.0000   1.0000   1.0000
     1.0000   1.0000   1.0000   1.0000   1.0000   1.0000   1.0000   1.0000
     1.0000   1.0000   1.0000   1.0000   1.0000   1.0000   1.0000   1.0000
     1.0000   1.0000   1.0000   1.0000   1.0000   1.0000   1.0000   1.0000
     1.0000   1.0000   1.0000   1.0000   1.0000   1.0000   1.0000   1.0000
     1.0000   1.0000   1.0000   1.0000   1.0000   1.0000   1.0000   1.0000
     1.0000   1.0000   1.0000   1.0000   1.0000   1.0000   1.0000   1.0000
     1.0000   1.0000   1.0000   1.0000   1.0000   1.0000   1.0000   1.0000
     1.0000   1.0000   1.0000   1.0000   1.0000   1.0000   1.0000   1.0000
     1.0000   1.0000   1.0000   1.0000   1.0000   1.0000   1.0000   1.0000
     1.0000   1.0000   1.0000   1.0000   1.0000   1.0000   1.0000   1.0000
     1.0000   1.0000   1.0000   1.0000   1.0000   1.0000   1.0000   1.0000
     1.0000   1.0000   1.0000   1.0000   1.0000   1.0000   1.0000   1.0000
     1.0000   1.0000   1.0000   1.0000   1.0000   1.0000   1.0000   1.0000
     1.0000   1.0000   1.0000   1.0000   1.0000   1.0000   1.0000   1.0000
     1.0000   1.0000   1.0000   1.0000   1.0000   1.0000   1.0000   1.0000
     1.0000   1.0000   1.0000   1.0000   1.0001   1.0010   1.0071   1.0074
     1.0829   0.8734   0.3687   0.1168   0.0031   0.0000   0.0000   0.0000
     0.0000   0.0000   0.0000   0.0000   0.0000   0.0000   0.0000   0.0000
     0.0000   0.0000   0.0000   0.0000   0.0000   0.0000   0.0000   0.0000
     0.0000   0.0000   0.0000   0.0000   0.0000   0.0000   0.0000   0.0000
     0.0000   0.0000   0.0000   0.0000   0.0000   0.0000   0.0000   0.0000
     0.0000   0.0000   0.0000   0.0000   0.0000   0.0000   0.0000   0.0000
     0.0000   0.0000   0.0000   0.0000   0.0000   0.0000   0.0000   0.0000
     0.0000   0.0000   0.0000   0.0000   0.0000   0.0000   0.0000   0.0000
     0.0000   0.0000   0.0000   0.0000   0.0000   0.0000   0.0000   0.0000
     0.0000   0.0000   0.0000   0.0000   0.0000   0.0000   0.0000   0.0000
     0.0000   0.0000   0.0000   0.0000   0.0000   0.0000   0.0000   0.0000
     0.0000   0.0000   0.0000   0.0000   0.0000   0.0000   0.0000   0.0000
     0.0000   0.0000

          k =-0.2000 0.1155 0.0000 ( 76885 PWs)   bands (ev):

   -60.0692 -31.4649 -31.4615 -31.4100 -25.9285 -25.9277 -25.9254 -25.9249
   -25.8922 -25.8920 -25.8906 -25.8882 -25.8880 -25.8850 -25.8836 -25.8828
   -25.8826 -25.8820 -25.8818 -25.8775 -25.8753 -25.8733 -25.8717 -25.8713
   -25.8692 -25.8680 -25.8669 -25.8667 -25.8662 -25.8648 -25.8647 -25.8624
   -25.8624 -25.8611 -25.8610 -25.8594 -25.8586 -25.8582 -25.8581 -25.8557
   -25.8556 -25.8463 -25.8446 -25.8423 -25.8418 -25.8411 -25.8398 -25.8396
   -25.8395 -25.8369 -25.8368 -25.8324 -25.8300 -25.8293 -25.8290 -25.8281
   -25.8243 -25.8173 -25.8172 -25.8171 -25.8170 -25.8167 -25.8164 -25.8161
   -25.8154 -25.8143 -25.8095 -25.8089 -25.8085 -25.8082 -25.7945 -25.7937
   -25.7936 -25.7811 -25.7783 -25.7777 -25.7771 -25.7771 -25.7757 -25.7735
   -25.7706 -25.7696 -25.7681 -25.7675 -25.7660 -25.7619 -25.7615 -25.7607
   -25.7599 -25.7592 -25.7541 -25.7540 -25.7537 -25.7532 -25.7527 -25.7518
   -25.7514 -25.7505 -25.7502 -25.7491 -25.7464 -25.7455 -25.7453 -25.7435
   -25.7429 -25.7423 -25.7412 -25.7411 -25.7402 -25.7401 -25.7396 -25.7382
   -25.7309 -25.7271 -25.7267 -25.7234 -25.7228 -25.7220 -25.7207 -25.7179
   -25.7166 -25.7015 -25.7010 -25.6994 -25.6991 -25.6974 -25.6973 -25.6972
   -25.6968 -25.6964 -25.6950 -25.6949 -25.6938 -25.6935 -25.6934 -25.6859
   -25.6859 -25.6803 -25.6800 -25.6748 -25.6746 -25.6745 -25.6684 -25.6681
   -25.6670 -25.6667 -25.6664 -25.6662 -25.6659 -25.6652 -25.6651 -25.6648
   -25.6644 -25.6640 -25.6636 -25.6630 -25.6585 -25.6579 -25.6578 -25.6569
   -25.6453 -25.6449 -25.6412 -25.6400 -25.6374 -25.6373 -25.6298 -25.6285
   -25.6283 -25.6281 -25.6275 -25.6274 -25.6259 -25.6226 -25.6224 -25.6218
   -25.6214 -25.6213 -25.6195 -25.6113 -25.6103 -25.6097 -25.6050 -25.6044
   -18.6108 -18.6099 -18.6044 -18.6041 -18.6032 -18.6028 -18.5973 -18.5973
   -18.5964 -18.5955 -18.5908 -18.5896 -18.5886 -18.5875 -18.5873 -18.5862
   -18.5855 -18.5843 -18.5827 -18.5824 -18.5819 -18.5804 -18.5792 -18.5766
   -18.5752 -18.5743 -18.5736 -18.5732 -18.5729 -18.5695 -18.5655 -18.5642
   -18.5635 -18.5602 -18.5577 -18.5465 -18.5443 -18.5301 -18.5290 -18.5281
   -18.5275 -18.5257 -18.5227 -18.5220 -18.5212 -18.5187 -18.5160 -18.5140
   -18.5132 -18.5106 -18.5082 -18.5072 -18.5066 -18.5047 -18.5046 -18.5039
   -18.5037 -18.4952 -18.4929 -18.4917 -18.4889 -18.4870 -18.4855 -18.4835
   -18.4834 -18.4828 -18.4812 -18.4810 -18.4795 -18.4790 -18.4781 -18.4778
   -18.4777 -18.4776 -18.4773 -18.4771 -18.4757 -18.4732 -18.4722 -18.4719
   -18.4712 -18.4712 -18.4680 -18.4677 -18.4668 -18.4658 -18.4658 -18.4642
   -18.4641 -18.4634 -18.4629 -18.4625 -18.4621 -18.4618 -18.4614 -18.4607
   -18.4604 -18.4603 -18.4600 -18.4594 -18.4590 -18.4590 -18.4577 -18.4564
   -18.4558 -18.4558 -18.4551 -18.4538 -18.4537 -18.4530 -18.4511 -18.4481
   -18.4435 -18.4410 -18.4309 -18.2590 -18.2559 -18.1470 -18.1346 -18.1262
    -2.5477  -2.4900  -2.4345  -1.8302  -1.7422  -1.6680  -1.1682  -1.0946
    -1.0558  -0.8228  -0.8102  -0.8089  -0.7557  -0.6817  -0.6646  -0.6584
    -0.5943  -0.5610  -0.5193  -0.4878  -0.4454  -0.4410  -0.3761  -0.3438
    -0.3059  -0.2778  -0.2624  -0.2344  -0.2084  -0.1677  -0.1414  -0.1374
    -0.1314  -0.1080  -0.0535  -0.0286   1.3083   1.3306   1.3586   1.3849
     1.4285   1.4480   1.5707   1.6212   1.6793   1.9821   2.0161   2.0282
     2.0716   2.1089   2.1189   2.2668   2.3246   2.4417   2.4531   2.6140
     2.7962   4.0686   4.2906   4.4862   5.1701   5.2029   5.2777   5.2790
     5.2931   5.3396   5.3399   5.3576   5.4167   6.4903   6.5617   6.5718
     6.6103   6.6189   6.6802   6.7029   6.7162   6.7418   6.7442   6.7648
     6.8043   6.8197   6.8311   6.9195   7.0066   7.0395   7.0809   7.1324
     7.1369   7.1727   7.1877   7.2463   7.2928   7.2943   7.4030   7.5323
     7.5723   7.6059   7.7609   7.8052   7.8424   7.8683   7.9042   7.9537
     7.9566   7.9809   8.0281   8.0322   8.0435   8.1243   8.2275   8.2745
     8.2925   8.3470   8.3696   8.3801   8.3997   8.4116   8.4516   8.4765
     8.4791   8.4803   8.6084   8.6936   8.7678   8.7853   8.8266   8.8984
     8.9150   8.9372   8.9642   9.0090   9.0294   9.0785   9.1677   9.1790
     9.2489   9.3134   9.3702   9.4199   9.4306   9.4882   9.5033   9.5639
     9.5650   9.5961   9.6143   9.6586   9.6974   9.7267   9.8110   9.8453
     9.8518   9.8624  10.0386  10.1226  10.1977  10.2837  10.3067  10.3172
    10.3984  10.4023  10.4632  10.4837  10.5229  10.6278  10.7007  10.8258
    11.0343  11.0498  11.2506  11.4074  11.5968  11.6344  11.6708  11.7662
    11.8546  11.8994  11.9823  11.9882  12.0315  12.0698  12.1306  12.2074
    12.2116  12.2666  12.2838  12.3189  12.3523  12.3585  12.4288  12.5106
    12.5245  12.5972  12.6130  12.6380  12.6722  12.6760  12.7288  12.7835
    12.8224  12.8873  12.9116  12.9769  13.0396  13.0554  13.0936  13.1170
    13.2125  13.2497  13.3405  13.4142  13.5140  13.5474  13.5987  13.6487
    13.6725  13.6948  13.7585  13.8337  13.8746  13.9153  13.9632  13.9639
    14.1174  14.1441  14.1565  14.1958  14.2521  14.4284  14.4301  14.5270
    14.5508  14.5745  14.6158  14.6855  14.7371  14.7611  14.8127  14.8274
    14.8723  14.9025  14.9279  14.9439  15.0142  15.0729  15.3104  15.3208
    15.5618  15.5835  15.6409  15.7615  15.8249  15.8856  15.9337  16.0486
    16.1446  16.2035  16.2082  16.2839  16.3310  16.3520  16.4314  16.4862
    16.5015  16.5298

     occupation numbers 
     1.0000   1.0000   1.0000   1.0000   1.0000   1.0000   1.0000   1.0000
     1.0000   1.0000   1.0000   1.0000   1.0000   1.0000   1.0000   1.0000
     1.0000   1.0000   1.0000   1.0000   1.0000   1.0000   1.0000   1.0000
     1.0000   1.0000   1.0000   1.0000   1.0000   1.0000   1.0000   1.0000
     1.0000   1.0000   1.0000   1.0000   1.0000   1.0000   1.0000   1.0000
     1.0000   1.0000   1.0000   1.0000   1.0000   1.0000   1.0000   1.0000
     1.0000   1.0000   1.0000   1.0000   1.0000   1.0000   1.0000   1.0000
     1.0000   1.0000   1.0000   1.0000   1.0000   1.0000   1.0000   1.0000
     1.0000   1.0000   1.0000   1.0000   1.0000   1.0000   1.0000   1.0000
     1.0000   1.0000   1.0000   1.0000   1.0000   1.0000   1.0000   1.0000
     1.0000   1.0000   1.0000   1.0000   1.0000   1.0000   1.0000   1.0000
     1.0000   1.0000   1.0000   1.0000   1.0000   1.0000   1.0000   1.0000
     1.0000   1.0000   1.0000   1.0000   1.0000   1.0000   1.0000   1.0000
     1.0000   1.0000   1.0000   1.0000   1.0000   1.0000   1.0000   1.0000
     1.0000   1.0000   1.0000   1.0000   1.0000   1.0000   1.0000   1.0000
     1.0000   1.0000   1.0000   1.0000   1.0000   1.0000   1.0000   1.0000
     1.0000   1.0000   1.0000   1.0000   1.0000   1.0000   1.0000   1.0000
     1.0000   1.0000   1.0000   1.0000   1.0000   1.0000   1.0000   1.0000
     1.0000   1.0000   1.0000   1.0000   1.0000   1.0000   1.0000   1.0000
     1.0000   1.0000   1.0000   1.0000   1.0000   1.0000   1.0000   1.0000
     1.0000   1.0000   1.0000   1.0000   1.0000   1.0000   1.0000   1.0000
     1.0000   1.0000   1.0000   1.0000   1.0000   1.0000   1.0000   1.0000
     1.0000   1.0000   1.0000   1.0000   1.0000   1.0000   1.0000   1.0000
     1.0000   1.0000   1.0000   1.0000   1.0000   1.0000   1.0000   1.0000
     1.0000   1.0000   1.0000   1.0000   1.0000   1.0000   1.0000   1.0000
     1.0000   1.0000   1.0000   1.0000   1.0000   1.0000   1.0000   1.0000
     1.0000   1.0000   1.0000   1.0000   1.0000   1.0000   1.0000   1.0000
     1.0000   1.0000   1.0000   1.0000   1.0000   1.0000   1.0000   1.0000
     1.0000   1.0000   1.0000   1.0000   1.0000   1.0000   1.0000   1.0000
     1.0000   1.0000   1.0000   1.0000   1.0000   1.0000   1.0000   1.0000
     1.0000   1.0000   1.0000   1.0000   1.0000   1.0000   1.0000   1.0000
     1.0000   1.0000   1.0000   1.0000   1.0000   1.0000   1.0000   1.0000
     1.0000   1.0000   1.0000   1.0000   1.0000   1.0000   1.0000   1.0000
     1.0000   1.0000   1.0000   1.0000   1.0000   1.0000   1.0000   1.0000
     1.0000   1.0000   1.0000   1.0000   1.0000   1.0000   1.0000   1.0000
     1.0000   1.0000   1.0000   1.0000   1.0000   1.0000   1.0000   1.0000
     1.0000   1.0000   1.0000   1.0000   1.0000   1.0000   1.0000   1.0000
     1.0000   1.0000   1.0000   1.0000   1.0000   1.0000   1.0000   1.0000
     1.0000   1.0000   1.0000   1.0000   1.0000   1.0000   1.0000   1.0000
     1.0000   1.0000   1.0000   1.0000   1.0000   1.0000   1.0000   1.0000
     1.0000   1.0000   1.0000   1.0000   1.0000   1.0000   1.0000   1.0000
     1.0000   1.0000   1.0000   1.0000   1.0000   1.0000   1.0000   1.0000
     1.0000   1.0000   1.0000   1.0000   1.0000   1.0000   1.0000   1.0000
     1.0000   1.0000   1.0000   1.0000   1.0000   1.0000   1.0000   1.0000
     1.0000   1.0000   1.0000   1.0000   1.0000   1.0000   1.0000   1.0000
     1.0000   1.0000   1.0000   1.0000   1.0000   1.0000   1.0000   1.0000
     1.0000   1.0000   1.0000   1.0000   1.0000   1.0000   1.0000   1.0000
     1.0000   1.0000   1.0000   1.0000   1.0000   1.0000   1.0000   1.0000
     1.0000   1.0000   1.0000   1.0000   1.0000   1.0000   1.0000   1.0000
     1.0000   1.0000   1.0000   1.0000   1.0000   1.0000   1.0000   1.0000
     1.0000   1.0000   1.0000   1.0000   1.0000   1.0000   1.0000   1.0000
     1.0000   1.0000   1.0000   1.0000   1.0000   1.0000   1.0000   1.0000
     1.0000   1.0000   1.0000   1.0000   1.0000   1.0000   1.0000   1.0000
     1.0000   1.0000   1.0000   1.0000   1.0000   1.0000   1.0000   1.0000
     1.0000   1.0000   1.0000   1.0000   1.0000   1.0000   1.0000   1.0000
     1.0000   1.0000   1.0000   1.0000   1.0000   1.0000   1.0000   1.0000
     1.0000   1.0000   1.0000   1.0000   1.0000   1.0000   1.0000   1.0000
     1.0000   1.0000   1.0000   1.0000   1.0000   1.0000   1.0000   1.0000
     1.0000   1.0000   1.0000   1.0000   1.0000   1.0000   1.0001   1.0013
     1.0428   1.0498   0.9925   0.4840   0.0525   0.0277   0.0140   0.0017
     0.0002   0.0000   0.0000   0.0000   0.0000   0.0000   0.0000   0.0000
     0.0000   0.0000   0.0000   0.0000   0.0000   0.0000   0.0000   0.0000
     0.0000   0.0000   0.0000   0.0000   0.0000   0.0000   0.0000   0.0000
     0.0000   0.0000   0.0000   0.0000   0.0000   0.0000   0.0000   0.0000
     0.0000   0.0000   0.0000   0.0000   0.0000   0.0000   0.0000   0.0000
     0.0000   0.0000   0.0000   0.0000   0.0000   0.0000   0.0000   0.0000
     0.0000   0.0000   0.0000   0.0000   0.0000   0.0000   0.0000   0.0000
     0.0000   0.0000   0.0000   0.0000   0.0000   0.0000   0.0000   0.0000
     0.0000   0.0000   0.0000   0.0000   0.0000   0.0000   0.0000   0.0000
     0.0000   0.0000   0.0000   0.0000   0.0000   0.0000   0.0000   0.0000
     0.0000   0.0000   0.0000   0.0000   0.0000   0.0000   0.0000   0.0000
     0.0000   0.0000

          k =-0.4000 0.2309 0.0000 ( 76897 PWs)   bands (ev):

   -60.0692 -31.4649 -31.4615 -31.4100 -25.9285 -25.9277 -25.9254 -25.9249
   -25.8922 -25.8920 -25.8906 -25.8882 -25.8880 -25.8850 -25.8836 -25.8828
   -25.8826 -25.8819 -25.8818 -25.8775 -25.8753 -25.8733 -25.8717 -25.8713
   -25.8692 -25.8680 -25.8669 -25.8667 -25.8661 -25.8648 -25.8647 -25.8624
   -25.8623 -25.8611 -25.8610 -25.8595 -25.8587 -25.8582 -25.8581 -25.8557
   -25.8556 -25.8463 -25.8446 -25.8423 -25.8418 -25.8412 -25.8398 -25.8396
   -25.8395 -25.8369 -25.8368 -25.8324 -25.8299 -25.8293 -25.8290 -25.8281
   -25.8243 -25.8174 -25.8172 -25.8172 -25.8170 -25.8167 -25.8164 -25.8161
   -25.8154 -25.8143 -25.8095 -25.8090 -25.8085 -25.8082 -25.7945 -25.7937
   -25.7936 -25.7811 -25.7783 -25.7777 -25.7770 -25.7770 -25.7757 -25.7735
   -25.7707 -25.7696 -25.7682 -25.7675 -25.7660 -25.7619 -25.7615 -25.7607
   -25.7599 -25.7591 -25.7541 -25.7540 -25.7536 -25.7533 -25.7527 -25.7518
   -25.7514 -25.7505 -25.7502 -25.7491 -25.7464 -25.7455 -25.7453 -25.7435
   -25.7429 -25.7423 -25.7412 -25.7411 -25.7402 -25.7401 -25.7396 -25.7382
   -25.7309 -25.7271 -25.7267 -25.7234 -25.7228 -25.7220 -25.7207 -25.7180
   -25.7166 -25.7015 -25.7009 -25.6994 -25.6991 -25.6974 -25.6973 -25.6973
   -25.6967 -25.6964 -25.6950 -25.6949 -25.6938 -25.6936 -25.6934 -25.6859
   -25.6858 -25.6803 -25.6800 -25.6748 -25.6746 -25.6744 -25.6684 -25.6680
   -25.6670 -25.6666 -25.6662 -25.6660 -25.6658 -25.6653 -25.6651 -25.6649
   -25.6643 -25.6642 -25.6639 -25.6632 -25.6585 -25.6580 -25.6578 -25.6569
   -25.6453 -25.6449 -25.6412 -25.6400 -25.6374 -25.6373 -25.6299 -25.6286
   -25.6283 -25.6281 -25.6275 -25.6274 -25.6259 -25.6226 -25.6224 -25.6218
   -25.6214 -25.6213 -25.6195 -25.6113 -25.6104 -25.6097 -25.6050 -25.6044
   -18.6098 -18.6093 -18.6046 -18.6043 -18.6033 -18.6014 -18.5988 -18.5971
   -18.5958 -18.5955 -18.5915 -18.5895 -18.5882 -18.5873 -18.5867 -18.5861
   -18.5856 -18.5843 -18.5838 -18.5826 -18.5819 -18.5806 -18.5791 -18.5763
   -18.5749 -18.5748 -18.5739 -18.5732 -18.5729 -18.5695 -18.5653 -18.5643
   -18.5638 -18.5602 -18.5577 -18.5462 -18.5441 -18.5295 -18.5284 -18.5279
   -18.5267 -18.5258 -18.5229 -18.5225 -18.5222 -18.5188 -18.5157 -18.5144
   -18.5132 -18.5106 -18.5078 -18.5068 -18.5067 -18.5052 -18.5048 -18.5039
   -18.5038 -18.4955 -18.4928 -18.4915 -18.4880 -18.4863 -18.4838 -18.4837
   -18.4829 -18.4824 -18.4811 -18.4807 -18.4802 -18.4784 -18.4781 -18.4780
   -18.4780 -18.4780 -18.4776 -18.4772 -18.4748 -18.4747 -18.4727 -18.4722
   -18.4722 -18.4715 -18.4678 -18.4675 -18.4664 -18.4659 -18.4658 -18.4645
   -18.4644 -18.4633 -18.4628 -18.4622 -18.4622 -18.4618 -18.4611 -18.4606
   -18.4605 -18.4604 -18.4598 -18.4595 -18.4594 -18.4591 -18.4578 -18.4567
   -18.4560 -18.4558 -18.4547 -18.4539 -18.4537 -18.4531 -18.4515 -18.4482
   -18.4435 -18.4410 -18.4309 -18.2590 -18.2559 -18.1470 -18.1346 -18.1262
    -2.2579  -2.2140  -2.1408  -1.8047  -1.7369  -1.6680  -1.5314  -1.4516
    -1.3940  -1.1459  -1.0563  -0.9891  -0.9428  -0.9338  -0.8575  -0.8299
    -0.8132  -0.7973  -0.4827  -0.4823  -0.4371  -0.4059  -0.3434  -0.2999
    -0.2917  -0.2882  -0.2018  -0.1897  -0.1103  -0.0704  -0.0385  -0.0224
     0.0053   0.0104   0.0734   0.0929   1.5108   1.5231   1.5404   1.5742
     1.6170   1.6353   1.8227   1.8532   1.8858   1.8954   1.9237   1.9356
     2.1304   2.2003   2.2904   2.4039   2.5310   2.6753   2.8562   2.9491
     3.0662   3.5771   3.6987   3.8537   5.4407   5.4935   5.5393   5.5792
     5.6263   5.6267   5.7495   5.8371   5.9256   5.9895   6.0266   6.0403
     6.1176   6.1327   6.1735   6.5961   6.6139   6.6233   6.6747   6.7425
     6.7525   6.8087   6.8493   6.8686   6.8726   6.8874   6.9111   7.0186
     7.0546   7.0586   7.1434   7.2381   7.3132   7.3456   7.3597   7.4162
     7.4177   7.4637   7.4850   7.4903   7.5979   7.6626   7.6792   7.6840
     7.6995   7.7228   7.7879   7.8256   7.8584   7.8991   7.9230   7.9423
     7.9601   8.0267   8.0615   8.1275   8.1663   8.2219   8.2411   8.2428
     8.2877   8.4354   8.4652   8.5044   8.5205   8.6213   8.6309   8.6564
     8.7860   8.8320   8.9816   8.9888   9.0653   9.1053   9.2294   9.3332
     9.4015   9.4768   9.5026   9.5270   9.5272   9.5704   9.6352   9.6463
     9.6716   9.6908   9.7260   9.7781   9.8197   9.8452   9.8773   9.8989
     9.9170   9.9338  10.0707  10.2167  10.2386  10.3425  10.3834  10.3884
    10.4776  10.5300  10.5734  10.5855  10.6751  10.7941  10.9146  11.0398
    11.1835  11.2598  11.3911  11.5953  11.6604  11.8014  11.9593  12.0846
    12.1286  12.1654  12.2006  12.2595  12.2878  12.3296  12.3900  12.4242
    12.4475  12.5048  12.5575  12.5997  12.6339  12.6381  12.7299  12.7590
    12.7781  12.8594  12.9056  12.9110  13.0282  13.0432  13.1074  13.1092
    13.2188  13.2240  13.2438  13.2951  13.3140  13.3670  13.4152  13.5425
    13.5814  13.5968  13.6067  13.6773  13.7088  13.7727  13.8648  13.8732
    13.8984  14.0207  14.0428  14.0946  14.1781  14.2259  14.2826  14.3018
    14.3363  14.3969  14.4225  14.4367  14.4567  14.4691  14.4950  14.5436
    14.5991  14.6316  14.7795  14.7953  14.8606  14.8898  14.9081  14.9896
    15.0368  15.0551  15.0821  15.1323  15.1664  15.1971  15.2560  15.3291
    15.3514  15.4149  15.5440  15.5515  15.6090  15.7122  15.7395  15.9158
    15.9848  16.0468  16.1766  16.1931  16.2436  16.3058  16.3706  16.3883
    16.4149  16.4607

     occupation numbers 
     1.0000   1.0000   1.0000   1.0000   1.0000   1.0000   1.0000   1.0000
     1.0000   1.0000   1.0000   1.0000   1.0000   1.0000   1.0000   1.0000
     1.0000   1.0000   1.0000   1.0000   1.0000   1.0000   1.0000   1.0000
     1.0000   1.0000   1.0000   1.0000   1.0000   1.0000   1.0000   1.0000
     1.0000   1.0000   1.0000   1.0000   1.0000   1.0000   1.0000   1.0000
     1.0000   1.0000   1.0000   1.0000   1.0000   1.0000   1.0000   1.0000
     1.0000   1.0000   1.0000   1.0000   1.0000   1.0000   1.0000   1.0000
     1.0000   1.0000   1.0000   1.0000   1.0000   1.0000   1.0000   1.0000
     1.0000   1.0000   1.0000   1.0000   1.0000   1.0000   1.0000   1.0000
     1.0000   1.0000   1.0000   1.0000   1.0000   1.0000   1.0000   1.0000
     1.0000   1.0000   1.0000   1.0000   1.0000   1.0000   1.0000   1.0000
     1.0000   1.0000   1.0000   1.0000   1.0000   1.0000   1.0000   1.0000
     1.0000   1.0000   1.0000   1.0000   1.0000   1.0000   1.0000   1.0000
     1.0000   1.0000   1.0000   1.0000   1.0000   1.0000   1.0000   1.0000
     1.0000   1.0000   1.0000   1.0000   1.0000   1.0000   1.0000   1.0000
     1.0000   1.0000   1.0000   1.0000   1.0000   1.0000   1.0000   1.0000
     1.0000   1.0000   1.0000   1.0000   1.0000   1.0000   1.0000   1.0000
     1.0000   1.0000   1.0000   1.0000   1.0000   1.0000   1.0000   1.0000
     1.0000   1.0000   1.0000   1.0000   1.0000   1.0000   1.0000   1.0000
     1.0000   1.0000   1.0000   1.0000   1.0000   1.0000   1.0000   1.0000
     1.0000   1.0000   1.0000   1.0000   1.0000   1.0000   1.0000   1.0000
     1.0000   1.0000   1.0000   1.0000   1.0000   1.0000   1.0000   1.0000
     1.0000   1.0000   1.0000   1.0000   1.0000   1.0000   1.0000   1.0000
     1.0000   1.0000   1.0000   1.0000   1.0000   1.0000   1.0000   1.0000
     1.0000   1.0000   1.0000   1.0000   1.0000   1.0000   1.0000   1.0000
     1.0000   1.0000   1.0000   1.0000   1.0000   1.0000   1.0000   1.0000
     1.0000   1.0000   1.0000   1.0000   1.0000   1.0000   1.0000   1.0000
     1.0000   1.0000   1.0000   1.0000   1.0000   1.0000   1.0000   1.0000
     1.0000   1.0000   1.0000   1.0000   1.0000   1.0000   1.0000   1.0000
     1.0000   1.0000   1.0000   1.0000   1.0000   1.0000   1.0000   1.0000
     1.0000   1.0000   1.0000   1.0000   1.0000   1.0000   1.0000   1.0000
     1.0000   1.0000   1.0000   1.0000   1.0000   1.0000   1.0000   1.0000
     1.0000   1.0000   1.0000   1.0000   1.0000   1.0000   1.0000   1.0000
     1.0000   1.0000   1.0000   1.0000   1.0000   1.0000   1.0000   1.0000
     1.0000   1.0000   1.0000   1.0000   1.0000   1.0000   1.0000   1.0000
     1.0000   1.0000   1.0000   1.0000   1.0000   1.0000   1.0000   1.0000
     1.0000   1.0000   1.0000   1.0000   1.0000   1.0000   1.0000   1.0000
     1.0000   1.0000   1.0000   1.0000   1.0000   1.0000   1.0000   1.0000
     1.0000   1.0000   1.0000   1.0000   1.0000   1.0000   1.0000   1.0000
     1.0000   1.0000   1.0000   1.0000   1.0000   1.0000   1.0000   1.0000
     1.0000   1.0000   1.0000   1.0000   1.0000   1.0000   1.0000   1.0000
     1.0000   1.0000   1.0000   1.0000   1.0000   1.0000   1.0000   1.0000
     1.0000   1.0000   1.0000   1.0000   1.0000   1.0000   1.0000   1.0000
     1.0000   1.0000   1.0000   1.0000   1.0000   1.0000   1.0000   1.0000
     1.0000   1.0000   1.0000   1.0000   1.0000   1.0000   1.0000   1.0000
     1.0000   1.0000   1.0000   1.0000   1.0000   1.0000   1.0000   1.0000
     1.0000   1.0000   1.0000   1.0000   1.0000   1.0000   1.0000   1.0000
     1.0000   1.0000   1.0000   1.0000   1.0000   1.0000   1.0000   1.0000
     1.0000   1.0000   1.0000   1.0000   1.0000   1.0000   1.0000   1.0000
     1.0000   1.0000   1.0000   1.0000   1.0000   1.0000   1.0000   1.0000
     1.0000   1.0000   1.0000   1.0000   1.0000   1.0000   1.0000   1.0000
     1.0000   1.0000   1.0000   1.0000   1.0000   1.0000   1.0000   1.0000
     1.0000   1.0000   1.0000   1.0000   1.0000   1.0000   1.0000   1.0000
     1.0000   1.0000   1.0000   1.0000   1.0000   1.0000   1.0000   1.0000
     1.0000   1.0000   1.0000   1.0000   1.0000   1.0000   1.0000   1.0000
     1.0000   1.0000   1.0000   1.0000   1.0000   1.0000   1.0000   1.0000
     1.0000   1.0000   1.0000   1.0000   1.0000   1.0000   1.0000   1.0000
     1.0000   1.0000   1.0000   1.0000   1.0000   1.0000   1.0000   1.0000
     1.0000   1.0000   1.0000   1.0000   1.0000   1.0006   1.0079   1.0452
     1.0744   0.9734   0.5442   0.0538   0.0172   0.0007   0.0000   0.0000
     0.0000   0.0000   0.0000   0.0000   0.0000   0.0000   0.0000   0.0000
     0.0000   0.0000   0.0000   0.0000   0.0000   0.0000   0.0000   0.0000
     0.0000   0.0000   0.0000   0.0000   0.0000   0.0000   0.0000   0.0000
     0.0000   0.0000   0.0000   0.0000   0.0000   0.0000   0.0000   0.0000
     0.0000   0.0000   0.0000   0.0000   0.0000   0.0000   0.0000   0.0000
     0.0000   0.0000   0.0000   0.0000   0.0000   0.0000   0.0000   0.0000
     0.0000   0.0000   0.0000   0.0000   0.0000   0.0000   0.0000   0.0000
     0.0000   0.0000   0.0000   0.0000   0.0000   0.0000   0.0000   0.0000
     0.0000   0.0000   0.0000   0.0000   0.0000   0.0000   0.0000   0.0000
     0.0000   0.0000   0.0000   0.0000   0.0000   0.0000   0.0000   0.0000
     0.0000   0.0000   0.0000   0.0000   0.0000   0.0000   0.0000   0.0000
     0.0000   0.0000

          k =-0.2000 0.3464 0.0000 ( 76958 PWs)   bands (ev):

   -60.0692 -31.4649 -31.4615 -31.4100 -25.9284 -25.9277 -25.9254 -25.9249
   -25.8922 -25.8920 -25.8906 -25.8882 -25.8880 -25.8849 -25.8837 -25.8829
   -25.8826 -25.8820 -25.8818 -25.8775 -25.8753 -25.8733 -25.8717 -25.8713
   -25.8692 -25.8680 -25.8669 -25.8667 -25.8662 -25.8648 -25.8647 -25.8624
   -25.8623 -25.8611 -25.8610 -25.8594 -25.8587 -25.8582 -25.8581 -25.8557
   -25.8556 -25.8463 -25.8446 -25.8423 -25.8418 -25.8412 -25.8398 -25.8396
   -25.8395 -25.8369 -25.8368 -25.8324 -25.8298 -25.8293 -25.8290 -25.8282
   -25.8243 -25.8173 -25.8172 -25.8171 -25.8170 -25.8167 -25.8165 -25.8160
   -25.8154 -25.8145 -25.8094 -25.8089 -25.8086 -25.8082 -25.7945 -25.7937
   -25.7936 -25.7811 -25.7783 -25.7777 -25.7770 -25.7769 -25.7757 -25.7736
   -25.7704 -25.7696 -25.7684 -25.7675 -25.7660 -25.7619 -25.7615 -25.7606
   -25.7600 -25.7591 -25.7541 -25.7539 -25.7536 -25.7533 -25.7526 -25.7518
   -25.7515 -25.7505 -25.7502 -25.7491 -25.7465 -25.7455 -25.7453 -25.7435
   -25.7429 -25.7423 -25.7412 -25.7411 -25.7402 -25.7400 -25.7397 -25.7383
   -25.7309 -25.7271 -25.7267 -25.7234 -25.7229 -25.7219 -25.7209 -25.7179
   -25.7167 -25.7015 -25.7009 -25.6994 -25.6991 -25.6974 -25.6973 -25.6972
   -25.6968 -25.6964 -25.6950 -25.6949 -25.6937 -25.6936 -25.6934 -25.6859
   -25.6858 -25.6803 -25.6800 -25.6748 -25.6746 -25.6745 -25.6683 -25.6681
   -25.6670 -25.6667 -25.6664 -25.6662 -25.6657 -25.6652 -25.6651 -25.6647
   -25.6645 -25.6641 -25.6638 -25.6633 -25.6583 -25.6579 -25.6578 -25.6570
   -25.6453 -25.6449 -25.6412 -25.6400 -25.6374 -25.6373 -25.6299 -25.6286
   -25.6283 -25.6281 -25.6276 -25.6274 -25.6259 -25.6226 -25.6224 -25.6218
   -25.6214 -25.6213 -25.6195 -25.6113 -25.6103 -25.6098 -25.6050 -25.6045
   -18.6101 -18.6092 -18.6045 -18.6042 -18.6035 -18.6019 -18.5981 -18.5971
   -18.5960 -18.5957 -18.5914 -18.5895 -18.5883 -18.5874 -18.5866 -18.5865
   -18.5857 -18.5844 -18.5829 -18.5824 -18.5818 -18.5806 -18.5795 -18.5764
   -18.5749 -18.5745 -18.5738 -18.5734 -18.5731 -18.5695 -18.5653 -18.5644
   -18.5636 -18.5600 -18.5580 -18.5462 -18.5441 -18.5300 -18.5286 -18.5279
   -18.5270 -18.5254 -18.5229 -18.5225 -18.5215 -18.5190 -18.5159 -18.5142
   -18.5133 -18.5106 -18.5076 -18.5070 -18.5064 -18.5049 -18.5048 -18.5043
   -18.5040 -18.4953 -18.4928 -18.4917 -18.4880 -18.4863 -18.4847 -18.4841
   -18.4827 -18.4821 -18.4811 -18.4804 -18.4800 -18.4787 -18.4784 -18.4782
   -18.4781 -18.4777 -18.4777 -18.4766 -18.4753 -18.4741 -18.4725 -18.4723
   -18.4718 -18.4716 -18.4677 -18.4675 -18.4666 -18.4661 -18.4656 -18.4644
   -18.4642 -18.4636 -18.4627 -18.4624 -18.4621 -18.4618 -18.4613 -18.4606
   -18.4605 -18.4604 -18.4597 -18.4595 -18.4592 -18.4590 -18.4579 -18.4566
   -18.4560 -18.4558 -18.4547 -18.4540 -18.4537 -18.4532 -18.4513 -18.4483
   -18.4435 -18.4410 -18.4309 -18.2590 -18.2559 -18.1470 -18.1346 -18.1262
    -2.3532  -2.3004  -2.2379  -1.6778  -1.6011  -1.4977  -1.4433  -1.3798
    -1.3642  -1.3114  -1.3072  -1.2974  -0.8682  -0.8389  -0.7759  -0.7134
    -0.6969  -0.6719  -0.4735  -0.4194  -0.4087  -0.3367  -0.3042  -0.2838
    -0.2655  -0.2437  -0.1786  -0.1314  -0.1286  -0.1082  -0.0731  -0.0601
    -0.0417   0.0041   0.0312   0.0336   1.2064   1.2498   1.3007   1.5899
     1.6397   1.6702   1.8103   1.8542   1.8851   1.9152   1.9746   1.9811
     2.3736   2.4204   2.4299   2.4898   2.5212   2.5758   2.5817   2.5873
     2.7336   3.7451   3.8925   4.0498   5.3191   5.3956   5.4764   5.5033
     5.5337   5.5901   5.6136   5.6893   5.6959   6.1186   6.1676   6.2280
     6.2663   6.3335   6.4238   6.4915   6.5405   6.6349   6.6789   6.7500
     6.7698   6.8825   6.9200   6.9814   7.0627   7.1067   7.1242   7.1408
     7.1652   7.1863   7.2101   7.2412   7.2620   7.2813   7.2955   7.3558
     7.3735   7.3872   7.4182   7.4464   7.4936   7.5376   7.5691   7.5898
     7.6630   7.7002   7.7356   7.7449   7.8086   7.9656   8.0177   8.0446
     8.0556   8.0811   8.0906   8.1657   8.1770   8.2991   8.3486   8.4054
     8.4644   8.5424   8.5754   8.6366   8.7057   8.7399   8.7464   8.7870
     8.8620   8.9234   8.9420   8.9883   9.0572   9.0991   9.1168   9.1683
     9.2250   9.2623   9.2779   9.3114   9.3526   9.4085   9.5240   9.5899
     9.6100   9.6656   9.6939   9.7783   9.8424   9.8624   9.8792   9.9208
    10.0380  10.1387  10.2451  10.3087  10.3957  10.4249  10.4687  10.5112
    10.5471  10.5910  10.5991  10.6765  10.7070  10.7164  10.8428  10.9761
    11.1516  11.2755  11.3831  11.5290  11.6096  11.7266  11.7878  11.8345
    12.0225  12.0334  12.1159  12.1932  12.2052  12.2683  12.3065  12.4232
    12.4368  12.4827  12.5201  12.5407  12.5942  12.6450  12.6615  12.6988
    12.7203  12.7318  12.7614  12.7768  12.8360  12.8844  12.9695  13.0177
    13.0531  13.1244  13.1748  13.2360  13.2703  13.3304  13.3466  13.3616
    13.4675  13.5463  13.5995  13.6983  13.7663  13.7899  13.8245  13.8638
    13.8995  13.9395  14.0165  14.0358  14.1108  14.1461  14.1749  14.2051
    14.2322  14.2664  14.3217  14.3920  14.4617  14.5021  14.5354  14.5924
    14.6005  14.6199  14.7018  14.7804  14.7914  14.8862  14.9148  14.9890
    14.9925  15.0520  15.1004  15.1243  15.2710  15.3009  15.3401  15.3922
    15.4186  15.4739  15.4909  15.5709  15.5832  15.6239  15.6673  15.7377
    15.8113  15.9663  16.0625  16.1211  16.2145  16.3110  16.3201  16.3740
    16.4297  16.5081

     occupation numbers 
     1.0000   1.0000   1.0000   1.0000   1.0000   1.0000   1.0000   1.0000
     1.0000   1.0000   1.0000   1.0000   1.0000   1.0000   1.0000   1.0000
     1.0000   1.0000   1.0000   1.0000   1.0000   1.0000   1.0000   1.0000
     1.0000   1.0000   1.0000   1.0000   1.0000   1.0000   1.0000   1.0000
     1.0000   1.0000   1.0000   1.0000   1.0000   1.0000   1.0000   1.0000
     1.0000   1.0000   1.0000   1.0000   1.0000   1.0000   1.0000   1.0000
     1.0000   1.0000   1.0000   1.0000   1.0000   1.0000   1.0000   1.0000
     1.0000   1.0000   1.0000   1.0000   1.0000   1.0000   1.0000   1.0000
     1.0000   1.0000   1.0000   1.0000   1.0000   1.0000   1.0000   1.0000
     1.0000   1.0000   1.0000   1.0000   1.0000   1.0000   1.0000   1.0000
     1.0000   1.0000   1.0000   1.0000   1.0000   1.0000   1.0000   1.0000
     1.0000   1.0000   1.0000   1.0000   1.0000   1.0000   1.0000   1.0000
     1.0000   1.0000   1.0000   1.0000   1.0000   1.0000   1.0000   1.0000
     1.0000   1.0000   1.0000   1.0000   1.0000   1.0000   1.0000   1.0000
     1.0000   1.0000   1.0000   1.0000   1.0000   1.0000   1.0000   1.0000
     1.0000   1.0000   1.0000   1.0000   1.0000   1.0000   1.0000   1.0000
     1.0000   1.0000   1.0000   1.0000   1.0000   1.0000   1.0000   1.0000
     1.0000   1.0000   1.0000   1.0000   1.0000   1.0000   1.0000   1.0000
     1.0000   1.0000   1.0000   1.0000   1.0000   1.0000   1.0000   1.0000
     1.0000   1.0000   1.0000   1.0000   1.0000   1.0000   1.0000   1.0000
     1.0000   1.0000   1.0000   1.0000   1.0000   1.0000   1.0000   1.0000
     1.0000   1.0000   1.0000   1.0000   1.0000   1.0000   1.0000   1.0000
     1.0000   1.0000   1.0000   1.0000   1.0000   1.0000   1.0000   1.0000
     1.0000   1.0000   1.0000   1.0000   1.0000   1.0000   1.0000   1.0000
     1.0000   1.0000   1.0000   1.0000   1.0000   1.0000   1.0000   1.0000
     1.0000   1.0000   1.0000   1.0000   1.0000   1.0000   1.0000   1.0000
     1.0000   1.0000   1.0000   1.0000   1.0000   1.0000   1.0000   1.0000
     1.0000   1.0000   1.0000   1.0000   1.0000   1.0000   1.0000   1.0000
     1.0000   1.0000   1.0000   1.0000   1.0000   1.0000   1.0000   1.0000
     1.0000   1.0000   1.0000   1.0000   1.0000   1.0000   1.0000   1.0000
     1.0000   1.0000   1.0000   1.0000   1.0000   1.0000   1.0000   1.0000
     1.0000   1.0000   1.0000   1.0000   1.0000   1.0000   1.0000   1.0000
     1.0000   1.0000   1.0000   1.0000   1.0000   1.0000   1.0000   1.0000
     1.0000   1.0000   1.0000   1.0000   1.0000   1.0000   1.0000   1.0000
     1.0000   1.0000   1.0000   1.0000   1.0000   1.0000   1.0000   1.0000
     1.0000   1.0000   1.0000   1.0000   1.0000   1.0000   1.0000   1.0000
     1.0000   1.0000   1.0000   1.0000   1.0000   1.0000   1.0000   1.0000
     1.0000   1.0000   1.0000   1.0000   1.0000   1.0000   1.0000   1.0000
     1.0000   1.0000   1.0000   1.0000   1.0000   1.0000   1.0000   1.0000
     1.0000   1.0000   1.0000   1.0000   1.0000   1.0000   1.0000   1.0000
     1.0000   1.0000   1.0000   1.0000   1.0000   1.0000   1.0000   1.0000
     1.0000   1.0000   1.0000   1.0000   1.0000   1.0000   1.0000   1.0000
     1.0000   1.0000   1.0000   1.0000   1.0000   1.0000   1.0000   1.0000
     1.0000   1.0000   1.0000   1.0000   1.0000   1.0000   1.0000   1.0000
     1.0000   1.0000   1.0000   1.0000   1.0000   1.0000   1.0000   1.0000
     1.0000   1.0000   1.0000   1.0000   1.0000   1.0000   1.0000   1.0000
     1.0000   1.0000   1.0000   1.0000   1.0000   1.0000   1.0000   1.0000
     1.0000   1.0000   1.0000   1.0000   1.0000   1.0000   1.0000   1.0000
     1.0000   1.0000   1.0000   1.0000   1.0000   1.0000   1.0000   1.0000
     1.0000   1.0000   1.0000   1.0000   1.0000   1.0000   1.0000   1.0000
     1.0000   1.0000   1.0000   1.0000   1.0000   1.0000   1.0000   1.0000
     1.0000   1.0000   1.0000   1.0000   1.0000   1.0000   1.0000   1.0000
     1.0000   1.0000   1.0000   1.0000   1.0000   1.0000   1.0000   1.0000
     1.0000   1.0000   1.0000   1.0000   1.0000   1.0000   1.0000   1.0000
     1.0000   1.0000   1.0000   1.0000   1.0000   1.0000   1.0000   1.0000
     1.0000   1.0000   1.0000   1.0000   1.0000   1.0000   1.0000   1.0000
     1.0000   1.0000   1.0000   1.0000   1.0000   1.0000   1.0000   1.0000
     1.0000   1.0000   1.0000   1.0000   1.0000   1.0000   1.0000   1.0000
     1.0000   1.0000   1.0000   1.0000   1.0001   1.0001   1.0019   1.0209
     1.0832   0.9363   0.5742   0.1403   0.0426   0.0044   0.0010   0.0003
     0.0000   0.0000   0.0000   0.0000   0.0000   0.0000   0.0000   0.0000
     0.0000   0.0000   0.0000   0.0000   0.0000   0.0000   0.0000   0.0000
     0.0000   0.0000   0.0000   0.0000   0.0000   0.0000   0.0000   0.0000
     0.0000   0.0000   0.0000   0.0000   0.0000   0.0000   0.0000   0.0000
     0.0000   0.0000   0.0000   0.0000   0.0000   0.0000   0.0000   0.0000
     0.0000   0.0000   0.0000   0.0000   0.0000   0.0000   0.0000   0.0000
     0.0000   0.0000   0.0000   0.0000   0.0000   0.0000   0.0000   0.0000
     0.0000   0.0000   0.0000   0.0000   0.0000   0.0000   0.0000   0.0000
     0.0000   0.0000   0.0000   0.0000   0.0000   0.0000   0.0000   0.0000
     0.0000   0.0000   0.0000   0.0000   0.0000   0.0000   0.0000   0.0000
     0.0000   0.0000   0.0000   0.0000   0.0000   0.0000   0.0000   0.0000
     0.0000   0.0000

          k =-0.4000 0.4619 0.0000 ( 76936 PWs)   bands (ev):

   -60.0692 -31.4649 -31.4615 -31.4100 -25.9284 -25.9277 -25.9254 -25.9249
   -25.8922 -25.8920 -25.8906 -25.8882 -25.8880 -25.8849 -25.8836 -25.8829
   -25.8826 -25.8820 -25.8818 -25.8775 -25.8753 -25.8733 -25.8717 -25.8713
   -25.8692 -25.8680 -25.8669 -25.8667 -25.8662 -25.8648 -25.8647 -25.8624
   -25.8623 -25.8611 -25.8610 -25.8594 -25.8587 -25.8582 -25.8581 -25.8557
   -25.8556 -25.8463 -25.8446 -25.8423 -25.8417 -25.8412 -25.8399 -25.8397
   -25.8395 -25.8369 -25.8368 -25.8324 -25.8298 -25.8293 -25.8290 -25.8282
   -25.8243 -25.8173 -25.8172 -25.8171 -25.8170 -25.8167 -25.8165 -25.8160
   -25.8154 -25.8145 -25.8094 -25.8090 -25.8086 -25.8082 -25.7945 -25.7937
   -25.7936 -25.7811 -25.7783 -25.7777 -25.7770 -25.7769 -25.7757 -25.7735
   -25.7705 -25.7696 -25.7684 -25.7675 -25.7660 -25.7619 -25.7615 -25.7607
   -25.7599 -25.7591 -25.7541 -25.7540 -25.7536 -25.7533 -25.7526 -25.7518
   -25.7515 -25.7505 -25.7502 -25.7491 -25.7465 -25.7455 -25.7453 -25.7435
   -25.7429 -25.7423 -25.7412 -25.7411 -25.7403 -25.7400 -25.7397 -25.7383
   -25.7309 -25.7271 -25.7267 -25.7234 -25.7229 -25.7219 -25.7209 -25.7179
   -25.7167 -25.7015 -25.7009 -25.6994 -25.6991 -25.6974 -25.6973 -25.6973
   -25.6968 -25.6964 -25.6950 -25.6949 -25.6937 -25.6936 -25.6934 -25.6859
   -25.6858 -25.6803 -25.6800 -25.6748 -25.6746 -25.6744 -25.6683 -25.6680
   -25.6670 -25.6667 -25.6662 -25.6661 -25.6657 -25.6652 -25.6651 -25.6647
   -25.6645 -25.6642 -25.6639 -25.6633 -25.6583 -25.6580 -25.6578 -25.6571
   -25.6453 -25.6449 -25.6413 -25.6400 -25.6374 -25.6373 -25.6299 -25.6286
   -25.6283 -25.6281 -25.6276 -25.6274 -25.6259 -25.6226 -25.6224 -25.6218
   -25.6214 -25.6213 -25.6195 -25.6113 -25.6103 -25.6098 -25.6050 -25.6045
   -18.6096 -18.6087 -18.6050 -18.6044 -18.6034 -18.6007 -18.5993 -18.5970
   -18.5962 -18.5952 -18.5919 -18.5894 -18.5881 -18.5871 -18.5869 -18.5859
   -18.5857 -18.5844 -18.5836 -18.5825 -18.5818 -18.5808 -18.5795 -18.5762
   -18.5748 -18.5747 -18.5740 -18.5734 -18.5730 -18.5695 -18.5651 -18.5645
   -18.5637 -18.5600 -18.5580 -18.5461 -18.5440 -18.5297 -18.5284 -18.5278
   -18.5262 -18.5258 -18.5231 -18.5227 -18.5221 -18.5190 -18.5157 -18.5144
   -18.5133 -18.5107 -18.5074 -18.5068 -18.5065 -18.5052 -18.5049 -18.5043
   -18.5040 -18.4954 -18.4927 -18.4916 -18.4874 -18.4859 -18.4846 -18.4831
   -18.4825 -18.4817 -18.4813 -18.4810 -18.4799 -18.4790 -18.4785 -18.4782
   -18.4779 -18.4778 -18.4771 -18.4767 -18.4753 -18.4748 -18.4729 -18.4723
   -18.4723 -18.4718 -18.4675 -18.4674 -18.4664 -18.4662 -18.4657 -18.4645
   -18.4644 -18.4635 -18.4626 -18.4624 -18.4620 -18.4617 -18.4611 -18.4607
   -18.4605 -18.4605 -18.4597 -18.4595 -18.4595 -18.4590 -18.4580 -18.4568
   -18.4560 -18.4559 -18.4545 -18.4540 -18.4537 -18.4534 -18.4515 -18.4483
   -18.4435 -18.4410 -18.4309 -18.2590 -18.2559 -18.1470 -18.1346 -18.1262
    -2.0176  -1.9862  -1.9618  -1.8599  -1.8489  -1.8227  -1.5385  -1.4692
    -1.3934  -1.3242  -1.2878  -1.1966  -1.1580  -1.1407  -1.1099  -0.8855
    -0.8040  -0.7468  -0.3972  -0.3866  -0.3357  -0.2828  -0.2752  -0.2063
    -0.1722  -0.1476  -0.1131  -0.0851  -0.0830  -0.0751  -0.0181   0.0091
     0.0193   0.0389   0.0466   0.0832   1.2017   1.2441   1.3197   1.3242
     1.3463   1.4073   1.9875   2.0294   2.1525   2.2499   2.3091   2.3527
     2.4073   2.4663   2.4844   2.5073   2.5133   2.5672   3.0785   3.1246
     3.1730   3.1904   3.3014   3.3185   5.5106   5.5597   5.6159   5.7223
     5.8404   5.9233   5.9510   5.9566   6.0387   6.1216   6.1334   6.1686
     6.2112   6.2423   6.2555   6.2786   6.2880   6.3511   6.3667   6.3696
     6.4197   6.6830   6.7702   6.7926   6.8123   6.8522   6.8818   6.9363
     6.9462   6.9801   7.0413   7.0908   7.2549   7.3134   7.3434   7.3737
     7.4161   7.4859   7.5226   7.5704   7.5907   7.6294   7.6597   7.6950
     7.7174   7.7620   7.8005   7.8105   7.8230   7.8575   7.8835   7.9029
     7.9083   7.9418   7.9507   7.9699   7.9840   8.0331   8.1291   8.1545
     8.1817   8.2133   8.2521   8.3051   8.5192   8.5828   8.6480   8.6745
     8.8394   8.8587   8.9052   9.0322   9.0546   9.1277   9.1980   9.2460
     9.2932   9.3251   9.4150   9.4451   9.4957   9.6130   9.7081   9.7716
     9.8164   9.8640   9.8696   9.9734   9.9962  10.0450  10.0474  10.0850
    10.0887  10.1856  10.2212  10.2547  10.2870  10.3769  10.4053  10.4226
    10.4314  10.5076  10.5587  10.6107  10.6913  10.8295  10.9027  10.9166
    11.1801  11.3651  11.4368  11.6105  11.6982  11.9485  11.9881  12.0486
    12.1061  12.2316  12.2572  12.3073  12.3375  12.4402  12.4626  12.5324
    12.5555  12.5918  12.6468  12.6803  12.6905  12.7189  12.7470  12.8179
    12.8582  12.9150  12.9392  12.9597  13.0218  13.0288  13.1104  13.1382
    13.2420  13.2733  13.3627  13.3978  13.4229  13.4434  13.4812  13.5376
    13.5815  13.6325  13.6566  13.7114  13.7592  13.7783  13.8249  13.9247
    14.0515  14.1123  14.1649  14.2581  14.3276  14.3737  14.4429  14.4914
    14.5019  14.5845  14.5887  14.6100  14.6831  14.7279  14.7536  14.7847
    14.8208  14.8576  14.8688  14.8865  14.9414  14.9732  15.0289  15.0389
    15.0514  15.0739  15.1302  15.1631  15.1841  15.2654  15.3049  15.3853
    15.4153  15.4587  15.5308  15.5673  15.6199  15.6364  15.7109  15.7348
    15.7942  15.8236  15.8521  15.8958  15.9484  16.0395  16.0855  16.1170
    16.1343  16.1787

     occupation numbers 
     1.0000   1.0000   1.0000   1.0000   1.0000   1.0000   1.0000   1.0000
     1.0000   1.0000   1.0000   1.0000   1.0000   1.0000   1.0000   1.0000
     1.0000   1.0000   1.0000   1.0000   1.0000   1.0000   1.0000   1.0000
     1.0000   1.0000   1.0000   1.0000   1.0000   1.0000   1.0000   1.0000
     1.0000   1.0000   1.0000   1.0000   1.0000   1.0000   1.0000   1.0000
     1.0000   1.0000   1.0000   1.0000   1.0000   1.0000   1.0000   1.0000
     1.0000   1.0000   1.0000   1.0000   1.0000   1.0000   1.0000   1.0000
     1.0000   1.0000   1.0000   1.0000   1.0000   1.0000   1.0000   1.0000
     1.0000   1.0000   1.0000   1.0000   1.0000   1.0000   1.0000   1.0000
     1.0000   1.0000   1.0000   1.0000   1.0000   1.0000   1.0000   1.0000
     1.0000   1.0000   1.0000   1.0000   1.0000   1.0000   1.0000   1.0000
     1.0000   1.0000   1.0000   1.0000   1.0000   1.0000   1.0000   1.0000
     1.0000   1.0000   1.0000   1.0000   1.0000   1.0000   1.0000   1.0000
     1.0000   1.0000   1.0000   1.0000   1.0000   1.0000   1.0000   1.0000
     1.0000   1.0000   1.0000   1.0000   1.0000   1.0000   1.0000   1.0000
     1.0000   1.0000   1.0000   1.0000   1.0000   1.0000   1.0000   1.0000
     1.0000   1.0000   1.0000   1.0000   1.0000   1.0000   1.0000   1.0000
     1.0000   1.0000   1.0000   1.0000   1.0000   1.0000   1.0000   1.0000
     1.0000   1.0000   1.0000   1.0000   1.0000   1.0000   1.0000   1.0000
     1.0000   1.0000   1.0000   1.0000   1.0000   1.0000   1.0000   1.0000
     1.0000   1.0000   1.0000   1.0000   1.0000   1.0000   1.0000   1.0000
     1.0000   1.0000   1.0000   1.0000   1.0000   1.0000   1.0000   1.0000
     1.0000   1.0000   1.0000   1.0000   1.0000   1.0000   1.0000   1.0000
     1.0000   1.0000   1.0000   1.0000   1.0000   1.0000   1.0000   1.0000
     1.0000   1.0000   1.0000   1.0000   1.0000   1.0000   1.0000   1.0000
     1.0000   1.0000   1.0000   1.0000   1.0000   1.0000   1.0000   1.0000
     1.0000   1.0000   1.0000   1.0000   1.0000   1.0000   1.0000   1.0000
     1.0000   1.0000   1.0000   1.0000   1.0000   1.0000   1.0000   1.0000
     1.0000   1.0000   1.0000   1.0000   1.0000   1.0000   1.0000   1.0000
     1.0000   1.0000   1.0000   1.0000   1.0000   1.0000   1.0000   1.0000
     1.0000   1.0000   1.0000   1.0000   1.0000   1.0000   1.0000   1.0000
     1.0000   1.0000   1.0000   1.0000   1.0000   1.0000   1.0000   1.0000
     1.0000   1.0000   1.0000   1.0000   1.0000   1.0000   1.0000   1.0000
     1.0000   1.0000   1.0000   1.0000   1.0000   1.0000   1.0000   1.0000
     1.0000   1.0000   1.0000   1.0000   1.0000   1.0000   1.0000   1.0000
     1.0000   1.0000   1.0000   1.0000   1.0000   1.0000   1.0000   1.0000
     1.0000   1.0000   1.0000   1.0000   1.0000   1.0000   1.0000   1.0000
     1.0000   1.0000   1.0000   1.0000   1.0000   1.0000   1.0000   1.0000
     1.0000   1.0000   1.0000   1.0000   1.0000   1.0000   1.0000   1.0000
     1.0000   1.0000   1.0000   1.0000   1.0000   1.0000   1.0000   1.0000
     1.0000   1.0000   1.0000   1.0000   1.0000   1.0000   1.0000   1.0000
     1.0000   1.0000   1.0000   1.0000   1.0000   1.0000   1.0000   1.0000
     1.0000   1.0000   1.0000   1.0000   1.0000   1.0000   1.0000   1.0000
     1.0000   1.0000   1.0000   1.0000   1.0000   1.0000   1.0000   1.0000
     1.0000   1.0000   1.0000   1.0000   1.0000   1.0000   1.0000   1.0000
     1.0000   1.0000   1.0000   1.0000   1.0000   1.0000   1.0000   1.0000
     1.0000   1.0000   1.0000   1.0000   1.0000   1.0000   1.0000   1.0000
     1.0000   1.0000   1.0000   1.0000   1.0000   1.0000   1.0000   1.0000
     1.0000   1.0000   1.0000   1.0000   1.0000   1.0000   1.0000   1.0000
     1.0000   1.0000   1.0000   1.0000   1.0000   1.0000   1.0000   1.0000
     1.0000   1.0000   1.0000   1.0000   1.0000   1.0000   1.0000   1.0000
     1.0000   1.0000   1.0000   1.0000   1.0000   1.0000   1.0000   1.0000
     1.0000   1.0000   1.0000   1.0000   1.0000   1.0000   1.0000   1.0000
     1.0000   1.0000   1.0000   1.0000   1.0000   1.0000   1.0000   1.0000
     1.0000   1.0000   1.0000   1.0000   1.0000   1.0000   1.0000   1.0000
     1.0000   1.0000   1.0000   1.0000   1.0000   1.0000   1.0000   1.0000
     1.0000   1.0000   1.0000   1.0000   1.0000   1.0000   1.0000   1.0000
     1.0000   1.0000   1.0000   1.0000   1.0000   1.0000   1.0000   1.0000
     1.0000   1.0000   1.0000   1.0000   1.0000   1.0014   1.0064   1.0082
     1.0762   0.6420   0.3804   0.0420   0.0080   0.0000   0.0000   0.0000
     0.0000   0.0000   0.0000   0.0000   0.0000   0.0000   0.0000   0.0000
     0.0000   0.0000   0.0000   0.0000   0.0000   0.0000   0.0000   0.0000
     0.0000   0.0000   0.0000   0.0000   0.0000   0.0000   0.0000   0.0000
     0.0000   0.0000   0.0000   0.0000   0.0000   0.0000   0.0000   0.0000
     0.0000   0.0000   0.0000   0.0000   0.0000   0.0000   0.0000   0.0000
     0.0000   0.0000   0.0000   0.0000   0.0000   0.0000   0.0000   0.0000
     0.0000   0.0000   0.0000   0.0000   0.0000   0.0000   0.0000   0.0000
     0.0000   0.0000   0.0000   0.0000   0.0000   0.0000   0.0000   0.0000
     0.0000   0.0000   0.0000   0.0000   0.0000   0.0000   0.0000   0.0000
     0.0000   0.0000   0.0000   0.0000   0.0000   0.0000   0.0000   0.0000
     0.0000   0.0000   0.0000   0.0000   0.0000   0.0000   0.0000   0.0000
     0.0000   0.0000

     the Fermi energy is    11.4309 ev

!    total energy              =   -9819.97968609 Ry
     estimated scf accuracy    <       0.00000081 Ry
     smearing contrib. (-TS)   =      -0.00075048 Ry
     internal energy E=F+TS    =   -9819.97893561 Ry

     The total energy is F=E-TS. E is the sum of the following terms:
     one-electron contribution =   -4963.56164801 Ry
     hartree contribution      =    2729.48214172 Ry
     xc contribution           =   -1066.36042347 Ry
     ewald contribution        =   -6518.39362213 Ry
     DFT-D3 Dispersion         =      -1.14538371 Ry

     convergence has been achieved in  21 iterations

     Writing all to output data dir ./out/sb2te3.save/ :
     XML data file, charge density, pseudopotentials, collected wavefunctions
 
     init_run     :     87.28s CPU     88.86s WALL (       1 calls)
     electrons    :   6033.40s CPU   6082.08s WALL (       1 calls)

     Called by init_run:
     wfcinit      :     85.90s CPU     87.33s WALL (       1 calls)
     wfcinit:atom :      0.63s CPU      0.87s WALL (       2 calls)
     wfcinit:wfcr :     83.42s CPU     84.12s WALL (       2 calls)
     potinit      :      0.72s CPU      0.80s WALL (       1 calls)
     hinit0       :      0.36s CPU      0.39s WALL (       1 calls)

     Called by electrons:
     c_bands      :   5414.35s CPU   5453.59s WALL (      21 calls)
     sum_band     :    563.58s CPU    565.74s WALL (      21 calls)
     v_of_rho     :     15.06s CPU     15.27s WALL (      22 calls)
     v_h          :      1.00s CPU      1.02s WALL (      22 calls)
     v_xc         :     14.06s CPU     14.25s WALL (      22 calls)
     mix_rho      :     39.70s CPU     40.89s WALL (      21 calls)
     energy_dftd3 :      0.39s CPU      0.39s WALL (       1 calls)

     Called by c_bands:
     init_us_2    :     68.75s CPU     69.30s WALL (      86 calls)
     cegterg      :   5076.95s CPU   5115.25s WALL (      42 calls)

     Called by sum_band:
     sum_band:wei :      0.04s CPU      0.04s WALL (      21 calls)
     sum_band:loo :    557.47s CPU    559.51s WALL (      21 calls)
     sum_band:buf :     10.72s CPU     10.79s WALL (      42 calls)
     sum_band:ini :     33.70s CPU     33.86s WALL (      42 calls)

     Called by *egterg:
     cdiaghg      :    151.10s CPU    151.68s WALL (     264 calls)
     cegterg:over :    614.10s CPU    616.20s WALL (     222 calls)
     cegterg:upda :    357.88s CPU    364.22s WALL (     222 calls)
     cegterg:last :    571.71s CPU    573.62s WALL (      80 calls)
     h_psi        :   3190.39s CPU   3211.84s WALL (     266 calls)
     g_psi        :      9.57s CPU      9.61s WALL (     222 calls)

     Called by h_psi:
     h_psi:calbec :    531.83s CPU    533.76s WALL (     266 calls)
     vloc_psi     :   2101.60s CPU   2108.92s WALL (     266 calls)
     add_vuspsi   :    541.27s CPU    543.08s WALL (     266 calls)

     General routines
     calbec       :    531.82s CPU    533.76s WALL (     266 calls)
     fft          :      3.17s CPU      3.18s WALL (     219 calls)
     ffts         :      7.38s CPU      7.41s WALL (     675 calls)
     fftw         :   1763.26s CPU   1769.17s WALL (  131088 calls)
 
     Parallel routines
 
     PWSCF        :      1h42m CPU      1h43m WALL

 
   This run was terminated on:  21:35:22  13Sep2026            

=------------------------------------------------------------------------------=
   JOB DONE.
=------------------------------------------------------------------------------=
