61
Properties=species:S:1:pos:R:3:forces:R:3 repair_mode=unwrap repair_image_index=0 migrant_element=Cr energy=-199.94432686527367 mlff_rel_energy_eV=0.0 mlff_fmax_eV_A=1.7759272846392213 calculator_label=/home/ycao73/.cache/mace/20231203mace128L1_epoch199model neb_image=0 neb_protocol=mlff_pre_neb pbc="F F F"
Te       2.10710960       1.21626748       3.59502237       0.20668726       0.31695566      -0.14139756
Te       4.21445409       4.86629521       3.59502237      -0.72203901       0.25264128      -0.44842478
Te       6.32132606       1.21654029       3.59454265      -0.86813127       0.28828853      -0.21589867
Te      -0.00023626       4.86629600       3.59502239      -0.30421953       0.80397286      -0.00459605
Te      -0.00091566       0.00052866       6.74933386       0.29739167       0.89963179       0.34181164
Te       2.10710848       3.64961994       6.75037367      -0.24609301       0.52093577      -0.03059240
Te       4.21513349       0.00052816       6.74933367      -0.13830478       0.96204611       0.13894913
Te      -2.10710848       3.64856263       6.74933367       0.23029729       0.95457602       0.65920688
Te       0.00000000       0.00000000      -0.00000000       0.21816976       0.83997658       0.58964232
Te       2.10710891       3.64961970       0.00000000      -0.42361888       0.42936657       1.12221547
Te       4.21421783       0.00000000      -0.00000000      -0.23109803       0.74668215       0.58199148
Te      -2.10710891       3.64961970       0.00000000       0.45248308       0.89830001       1.22649763
Te       0.00853734       2.43800909      13.95271096      -0.60768572      -0.58807029       0.34671861
Te       2.10710870       6.07284129      13.95271096      -0.19086933      -0.87982663       0.20988705
Te       4.20568048       2.43800884      13.95271135       0.10292398      -0.49862565       0.03232298
Te      -2.10710870       6.08269937      13.93702124       0.32867475      -1.45027343      -0.78207870
Te       2.10710913       1.22639810      17.08072626      -0.13218222      -0.82515633      -0.37610176
Te       4.20568048       4.86123030      17.08072626       0.39124881      -0.16450881       0.06335684
Te       6.32132652       1.21654002      17.09641599      -0.68530083       0.40380342       0.87408135
Te       0.00853734       4.86123055      17.08072588       0.60397588      -0.39897363      -0.35801022
Te       2.10710868       1.21532339      10.34626835       0.16137292      -0.74453546       0.25746202
Te       4.21527124       4.86676805      10.34626835      -0.63445807       0.20911027      -0.68079679
Te       6.32132698       1.21653976      10.34347047      -1.25264906      -0.27792897       0.48279189
Te      -0.00105341       4.86676778      10.34626878      -0.62362744       0.66052507      -0.25037647
Te       0.00091566      -0.00052866      24.28410336       0.63583295       0.69370570      -0.30377064
Te       2.10710934       3.64961945      24.28306356       0.60161759       0.02132749       0.08595977
Te       4.21330216      -0.00052816      24.28410355       0.67645985       0.66999706      -0.62490002
Te      -2.10710934       3.65067676      24.28410355       0.87569266       0.36043965      -0.08441513
Te      -0.00023626       2.43294418      27.43841485       0.69277889       0.22165872       0.65287690
Te       2.10710823       6.08297191      27.43841485       0.14632278      -0.84477358       0.89937530
Te       4.21445409       2.43294339      27.43841484       0.34991623      -0.18984209       0.58784303
Te      -2.10710823       6.08269910      27.43889457       1.17770290      -0.87035537       0.55201439
Te      -0.00105341       2.43247134      20.68716887      -0.09325183      -0.31695499      -0.06761758
Te       2.10710915       6.08391600      20.68716887       0.56137807      -0.45690727       0.68223231
Te       4.21527124       2.43247161      20.68716845       0.95758866      -0.11545180       0.11685667
Te      -2.10710915       6.08269963      20.68996676       0.76276082      -0.45806854       0.51342196
Sb      -0.00256829       2.43159530       8.41286590      -0.27363860      -0.60850958      -0.74970329
Sb       2.10711038       6.08566595       8.41286590       0.22480455      -1.22182940       0.47538678
Sb       4.21678612       2.43159699       8.41286629       0.41903449      -0.90504008       0.32480875
Sb      -2.10711038       6.08270034       8.40751439       0.57025997      -1.32393041      -0.37849661
Sb      -0.00005462       2.43304569       1.93206324       0.45933887      -0.70924395      -1.34365055
Sb       2.10711114       6.08276385       1.93206324       0.19857811      -1.52642958       0.02536542
Sb       4.21427245       2.43304826       1.93206353      -0.06991267      -1.09473987       0.21883542
Sb      -2.10711114       6.08270078       1.93179050       0.76386294      -1.51004712      -0.53869179
Sb      -0.01025543       0.00592098      18.75704518       0.59830868       0.83759668       0.28850453
Sb       2.10710819       3.64962011      18.74714310      -0.85373236       1.00845010       0.22166433
Sb       4.22447325       0.00592014      18.75704543       0.40127559       0.62870290      -0.34692829
Sb       6.32132747       3.63777816      18.75704543      -0.73841664      -0.65572374      -0.81750761
Sb       0.01025543      -0.00592098      12.27639204       0.54661100       0.87559973      -0.11048427
Sb       2.10710964       3.64961928      12.28629413       0.73829320       0.66705516      -0.20167268
Sb       4.20396240      -0.00592014      12.27639180       0.27215879       1.40812909      -0.56616585
Sb      -2.10710964       3.66146123      12.27639180       0.44310213       1.28007140       0.59670356
Sb       2.10710669       1.21647554      29.10137398      -0.23757655       1.07211884      -0.86165898
Sb       4.21427245       4.86619370      29.10137398      -1.01036747      -0.40346645      -0.75773749
Sb       6.32132897       1.21653861      29.10164672      -1.02873172       0.56606969      -0.47597469
Sb      -0.00005462       4.86619113      29.10137369      -0.16786038       0.03273024      -1.74900391
Sb       2.10710745       1.21357345      22.62057133      -0.98426116      -0.52389620       0.69678865
Sb       4.21678612       4.86764409      22.62057133      -1.09264769      -0.18257677      -0.43490527
Sb       6.32132821       1.21653905      22.62592284      -1.19048799      -0.18707891       0.43441601
Sb      -0.00256829       4.86764240      22.62057094      -1.23529067      -0.04122566      -0.59809911
Cr       2.10710891       3.64961970      15.51671861      -0.03045219       0.44352604      -0.00033195
61
Properties=species:S:1:pos:R:3:forces:R:3 repair_mode=unwrap repair_image_index=1 migrant_element=Cr energy=-215.64839736139203 mlff_rel_energy_eV=-15.704070496118362 mlff_fmax_eV_A=0.07834385259125264 calculator_label=/home/ycao73/.cache/mace/20231203mace128L1_epoch199model neb_image=1 neb_protocol=mlff_pre_neb pbc="F F F"
Te       2.14142407       0.89263795       4.15501599      -0.00113309      -0.01456601       0.00390118
Te       3.74756515       5.02137961       4.17092771      -0.02580823      -0.00569480      -0.01044571
Te       6.02252758       1.88156321       4.93170786      -0.02974993      -0.00060036       0.01846085
Te      -0.54218902       4.97043566       3.95786396      -0.00987313      -0.00140259       0.02508556
Te      -0.18025570       0.41011621       6.63694613       0.03358417       0.01373143       0.03727028
Te       1.89858112       3.66414029       6.49173157      -0.01393965       0.00295744       0.01718957
Te       4.55421278      -0.01481817       6.20083747       0.01549568       0.03289449      -0.03590504
Te      -2.24983501       3.93864879       7.04876510       0.00391740      -0.02615114      -0.00637523
Te       1.00299243       0.32686208       0.16562062      -0.00189999       0.00130549      -0.03657314
Te       2.13486991       3.71780273       0.59856319      -0.00667950       0.02774105       0.01313760
Te       3.16753546      -0.27896205       1.75132939      -0.00369825      -0.01576348       0.07665243
Te      -1.68820016       3.55061095       0.18992481       0.00702326       0.01850582      -0.00921713
Te      -0.33852670       2.02042367      14.44769087      -0.02938790      -0.00807631       0.03574434
Te       1.57371294       5.61018834      14.03952024      -0.01314283      -0.04134901      -0.01473618
Te       3.91898734       2.54009555      13.74710729      -0.00879423      -0.00586041      -0.00781019
Te      -1.22064579       5.73772145      13.63230278       0.03889566      -0.00246926       0.01981892
Te       2.02936753       0.72327612      16.52575624      -0.00061364       0.00004039      -0.01296788
Te       3.88181626       4.83696255      16.70874394      -0.01203036      -0.00305766      -0.01269613
Te       5.81955568       1.11092966      16.38021932      -0.02174782      -0.00700365      -0.01130880
Te      -0.06159147       4.36087069      17.04056285      -0.01185772       0.00306898      -0.01906128
Te       2.14158894       0.14219618       9.23377386       0.01017029      -0.02431549      -0.00828933
Te       4.08496608       4.74930055       9.86997503      -0.02412907      -0.00699850      -0.00233627
Te       5.72640407       1.18399354      10.49042359      -0.01762813      -0.00472725      -0.00165906
Te      -0.14110025       5.65836988      10.07681362      -0.01058848       0.02385956      -0.01456264
Te      -0.31890430       0.85202486      23.87039924       0.00568134       0.03678830      -0.00013850
Te       2.98594685       4.01240066      24.39161152       0.00672097       0.03037341       0.00425390
Te       3.88340379       0.12168602      23.28165921      -0.03740846       0.00296157      -0.00180380
Te      -2.00183770       3.14384568      24.02375157      -0.00061084      -0.02729790       0.01289412
Te       0.99574098       1.82847651      26.74142557       0.03259544      -0.02619099      -0.00223911
Te       2.22746963       5.79352864      27.27390484      -0.00545057      -0.02588139       0.02000865
Te       4.88125175       2.17138144      27.35092460       0.00894605       0.00052660       0.01729335
Te      -1.29370462       5.36107391      25.52970262       0.02709968      -0.04474759      -0.05377358
Te      -1.01485246       2.93749195      20.20867158      -0.03756831       0.02921637      -0.01516281
Te       2.25122304       5.90745830      20.65043053       0.00719797      -0.00607941      -0.00095747
Te       4.92351539       2.34800302      20.28440188       0.01089298      -0.00111483      -0.00490723
Te      -1.81410626       5.59839630      20.49205714       0.02882557      -0.02907384       0.00384191
Sb      -0.06012792       2.56334312       8.36513839      -0.00909331       0.01602375      -0.00417264
Sb       1.92261896       6.00297681       8.12086040      -0.01322532      -0.00403319       0.00620945
Sb       4.08124202       2.09208909       8.28081401      -0.00363290       0.01744878       0.02743199
Sb      -0.94187068       6.33259069       7.45164580       0.04309630       0.01044066       0.01474942
Sb       0.09632015       2.27857807       2.06381178       0.00608837      -0.00548761       0.01637888
Sb       1.61086953       5.91637719       2.30593387       0.00728887      -0.02150170      -0.00563007
Sb       4.14687637       2.51238354       2.78861045       0.00596815      -0.00167049       0.02170780
Sb      -1.21288118       5.94666113       1.45338967       0.03216949      -0.01696634      -0.02628981
Sb       1.29181841       0.69793567      19.41969090       0.03141665       0.03191759       0.03365426
Sb       2.01437015       3.54916139      18.76638644      -0.00764798       0.00653451      -0.00254586
Sb       4.05231328       0.08193181      18.43805336      -0.01039580      -0.00091314      -0.01075988
Sb       5.99952133       3.43009418      17.88295569       0.00262539      -0.00580917      -0.02321120
Sb       0.36389611       1.36351408      11.75455241      -0.01603480       0.05510602      -0.01408560
Sb       2.11023365       3.71402278      11.79920685      -0.00657489      -0.01062246      -0.03993434
Sb       3.50746643       0.26686309      11.86996310      -0.00678782       0.02107629      -0.01127233
Sb      -1.74179506       3.36666594      12.31187692       0.02982207      -0.00902568       0.00234931
Sb       2.58564288       1.87868829      29.22704445       0.03141539       0.03479608       0.01484567
Sb       4.04509132       4.25150815      29.14128976       0.00085427      -0.02770353       0.00438572
Sb       5.25197139       1.89252502      30.06225190      -0.03852418       0.01053990       0.00773003
Sb       0.01079537       4.22397151      27.78196109       0.01247724      -0.02057072      -0.02480260
Sb       1.83792625       1.80973155      22.24880679      -0.00521433       0.00963546      -0.01022415
Sb       4.53009422       4.72230250      22.10480192       0.00298823      -0.00169782      -0.01576552
Sb       5.30775253       2.41984839      23.90095153       0.01150392       0.02475003       0.05977134
Sb       0.05361027       4.68909679      22.33199813      -0.02311200       0.00644099      -0.03727901
Cr       1.89832476       3.29723124      15.49030866       0.00922263      -0.01425727      -0.00586704
61
Properties=species:S:1:pos:R:3:forces:R:3 repair_mode=unwrap repair_image_index=2 migrant_element=Cr energy=-215.99788377362674 mlff_rel_energy_eV=-16.053556908353073 mlff_fmax_eV_A=0.08653800050963958 calculator_label=/home/ycao73/.cache/mace/20231203mace128L1_epoch199model neb_image=2 neb_protocol=mlff_pre_neb pbc="F F F"
Te       1.95683921       0.86519236       4.26740847      -0.05157714      -0.00870824      -0.00432430
Te       3.75382601       4.97265648       4.34527505      -0.01186942       0.01659233       0.00158148
Te       5.76271783       1.59235841       5.37822761       0.00545660      -0.02383607       0.02450085
Te      -0.56669230       5.09369880       3.87436485       0.00091724      -0.00802115      -0.02359992
Te      -0.16738816       0.50074758       6.87420953      -0.00999468       0.00315328       0.05212682
Te       1.77991202       3.73378003       6.54977042       0.00119949       0.04043964      -0.01142200
Te       3.98552051      -0.04683759       6.67488190      -0.02504639       0.01235974      -0.05605765
Te      -2.28188237       4.22792195       6.89851857      -0.01064691      -0.02885012      -0.00010692
Te       1.02267284       0.37471261       0.17193333       0.00009141       0.02282293       0.02579048
Te       2.25404600       3.68148266       0.74335694       0.01258320      -0.01015916      -0.00677766
Te       3.02067567      -0.34253193       1.91699664       0.00578551       0.01183125       0.03851959
Te      -1.63513079       3.60553883       0.13271632       0.03647746       0.01546575      -0.01286389
Te      -1.26780783       2.00492292      14.69157459       0.04467139      -0.03468277       0.03276761
Te       1.94122933       5.51068636      13.25440045      -0.05193917       0.06570913      -0.02175909
Te       4.73521194       3.02896172      13.01681982      -0.02630522       0.00844068      -0.01729775
Te      -0.85188272       5.42476639      13.62231357       0.05563442       0.05451314      -0.02400534
Te       1.30732554       0.54908527      17.94022575      -0.00488479      -0.00868490      -0.02595928
Te       3.84244625       5.23316069      17.01815028       0.02499421       0.00961214       0.03120860
Te       4.76068357       1.18779113      16.06231295       0.00859570      -0.02263807       0.00936917
Te      -0.04983458       4.24791763      16.67455316      -0.00453173      -0.01898861      -0.01126074
Te       2.15473610       1.10065279      10.15294727      -0.02054017       0.04832777      -0.01490542
Te       3.55117954       4.74366943      10.23300904      -0.03757909      -0.04199551       0.01044180
Te       6.27596171       1.17600229       9.81220534       0.01741683       0.02051226      -0.01706546
Te      -0.36637449       6.05972018       9.94745918      -0.00141471      -0.01812828       0.04041764
Te      -0.40213229       0.87488949      23.85259966      -0.00252873      -0.01161347       0.01934182
Te       2.86182587       4.03470685      24.33148089       0.02871748       0.00546297      -0.07518850
Te       3.70657419       0.01635711      23.21633159       0.02628596       0.03128071       0.05286110
Te      -2.07728143       3.14349740      23.95903980      -0.01995635      -0.01500511       0.00654777
Te       0.94188512       1.77195160      26.70744318       0.06000613       0.00207363      -0.02072938
Te       2.24802602       5.76840436      27.16431745      -0.01178028      -0.01635570       0.02361257
Te       4.88240512       2.14143938      27.13251337      -0.00090420      -0.00386202       0.03243215
Te      -1.34174948       5.32562938      25.52111182       0.00413094      -0.01780385      -0.01571519
Te      -0.82143659       2.72563686      20.23242490      -0.05380101       0.02141493      -0.00869667
Te       2.09801722       6.02091570      20.61464738      -0.00766381      -0.00193402      -0.01836262
Te       4.73004589       2.48226276      20.14236552       0.00972717      -0.03672321      -0.00898280
Te      -1.73021670       5.37409855      20.21806793      -0.01953487       0.01765926       0.02873047
Sb      -0.25319656       2.78752786       8.37934552      -0.01821727      -0.00870893      -0.00202813
Sb       1.84207480       6.10072479       8.16890930      -0.02621512       0.02701813       0.00983866
Sb       4.12082273       2.39366498       8.32390492      -0.00893992      -0.00649277      -0.04774962
Sb      -0.91191051       6.62280948       7.29704262      -0.04122543      -0.00345077      -0.04235757
Sb       0.07452306       2.33058067       2.06601325       0.00726972      -0.00153682      -0.02130381
Sb       1.71084283       5.92942968       2.34987759       0.02109525      -0.00804918       0.01018010
Sb       4.11653726       2.42237823       3.08311045      -0.00247966      -0.03314710      -0.01246329
Sb      -1.03386342       6.02298760       1.29876483       0.01756418      -0.01694609      -0.00187621
Sb       1.77403937      -0.68001614      20.45963852      -0.01459598       0.02514030       0.01726383
Sb       1.79353778       3.59885049      18.82183321      -0.00084278       0.00374527       0.00267535
Sb       3.97935584      -0.00418220      18.72841216      -0.02461399      -0.01986503      -0.01308978
Sb       5.77768639       3.32421672      17.57321237      -0.01609886       0.01085597       0.00649623
Sb       1.09832051       1.10679568      13.49897885       0.05196540      -0.02869788      -0.01610691
Sb       2.38716939       3.24221734      15.19148443       0.03090299       0.00368682       0.01804417
Sb       4.47597881       0.50497861      11.82560752      -0.02508492      -0.01775426      -0.03532101
Sb      -0.57399895       3.08389915      12.02738890       0.07962871      -0.00210243      -0.02573831
Sb       2.67426055       1.88050840      29.11262237       0.00582249       0.00998516       0.00757098
Sb       4.15324020       4.23108521      28.96113993       0.00310223      -0.00928049      -0.00885742
Sb       5.37064370       1.86053164      29.82613663      -0.01600363       0.00327329       0.01809664
Sb       0.03979134       4.19971449      27.73747855       0.00810816      -0.01904290      -0.01916253
Sb       1.66774295       1.74425047      22.04343512      -0.00840168       0.02763493       0.03051761
Sb       4.36285337       4.87066077      22.07597409       0.00085791      -0.03498050       0.03777912
Sb       5.11568715       2.38115617      23.69317586      -0.03628148       0.01428386      -0.00874895
Sb      -0.05291733       4.80349434      22.34709471      -0.00383545       0.01515598      -0.00099269
Cr       2.16781429       3.16649420      11.95983967       0.04632668      -0.01040586       0.06216418
61
Properties=species:S:1:pos:R:3:forces:R:3 repair_mode=unwrap repair_image_index=3 migrant_element=Cr energy=-215.61106035097964 mlff_rel_energy_eV=-15.666733485705976 mlff_fmax_eV_A=0.051562244110335574 calculator_label=/home/ycao73/.cache/mace/20231203mace128L1_epoch199model neb_image=3 neb_protocol=mlff_pre_neb pbc="F F F"
Te       1.66581854       0.93084092       3.82868503      -0.03929491       0.01643544       0.02905945
Te       3.74390047       4.87163265       4.03618407       0.00330779      -0.01162903      -0.00357982
Te       5.32757352       1.53611539       5.21875008      -0.03304641      -0.00940006       0.00357159
Te      -0.31919845       4.98546643       3.77277826      -0.00391700       0.00498953      -0.01097620
Te       1.00820255      -0.01459531       7.03029558       0.00269628       0.01546567       0.01203230
Te       2.00650375       3.59880051       6.74564656      -0.00588863       0.00117619       0.02723277
Te       3.89915429       0.08732960       7.10804656      -0.00891083       0.00445674       0.00112958
Te      -1.86125478       3.78210317       6.69422986       0.00972515      -0.01726561      -0.00540601
Te       0.79770662       0.56846516      -0.34549058      -0.00481022       0.00384318      -0.01796515
Te       2.22316715       3.70802701       0.38138866       0.01986361       0.00563396       0.00391798
Te       2.60305464      -0.35324125       1.48809492      -0.00122121      -0.02056047       0.04054865
Te      -1.63162842       4.05203766      -0.17440518       0.02189291       0.02700741       0.00373416
Te       0.00633658       1.79661101      14.14779759      -0.00183276       0.00600670       0.00681475
Te       1.44762051       5.86097120      14.50034823       0.00213733      -0.00228738       0.01067373
Te       4.26295229       2.82551833      14.26121016       0.00387740       0.00275164      -0.00094301
Te      -1.29200116       5.69980529      14.15247648       0.00579068       0.00112909       0.00833411
Te       1.99381439       0.87979477      17.30766099       0.01161209       0.01111889      -0.02030435
Te       4.07478221       4.98309164      16.89054459      -0.00320241       0.00440423      -0.01078950
Te       5.88971236       1.14297082      16.63506447       0.00506245       0.00151501      -0.00132088
Te      -0.13616583       4.76343916      17.31296592      -0.00865458      -0.01144746      -0.00971111
Te       2.05453311       0.98540568      10.56955890      -0.00160030       0.00765360       0.01305063
Te       3.89402292       5.04461825      10.61087447       0.00812999      -0.00125828      -0.01899017
Te       5.93895221       1.31413849      10.93729471       0.00249220      -0.00876830       0.00008484
Te      -0.37052979       4.93023353      10.52254700      -0.00585195      -0.00987366       0.00415477
Te      -0.38338483       0.85606445      24.03055017       0.00871715      -0.00061577       0.00507129
Te       2.10136599       3.92383669      24.32706135      -0.00373073      -0.00242497      -0.00343081
Te       3.99525496       0.14109263      23.91191074       0.00378046       0.00801644       0.00002051
Te      -1.95602141       3.21401608      23.86047045      -0.00703569      -0.00872926      -0.01081820
Te       0.56605671       1.74061173      27.04180715       0.01650696      -0.01515985      -0.00332648
Te       2.22798582       5.75002572      27.11764579      -0.01741840      -0.00717067       0.00963455
Te       4.61009837       2.20475060      26.90454515      -0.00967083       0.00634905       0.00508690
Te      -1.35702686       5.25337848      25.61835441      -0.00764568      -0.02100443      -0.01108678
Te      -0.21386383       2.42584613      20.39279305      -0.00746411      -0.02039175      -0.01479564
Te       2.46253190       5.94739062      20.74446972       0.00102956      -0.02043544      -0.00789889
Te       4.82942852       2.42750345      20.46035041      -0.00532986       0.01118846      -0.00362008
Te      -1.39047794       5.84504333      19.56512761       0.03503396       0.00406379      -0.00989085
Sb      -0.15839423       2.20204413       8.53469149       0.00977452      -0.01150742      -0.00447490
Sb       1.84389348       5.93698543       8.25815239      -0.00601141      -0.01038721       0.00968760
Sb       4.29874392       2.53680933       8.87139561      -0.00088652       0.00275922      -0.00733438
Sb      -0.99821819       6.09085988       7.87374072      -0.01009166      -0.00935165      -0.00106100
Sb      -0.05026263       2.48087462       1.65829274      -0.00684229       0.00006765       0.00049863
Sb       1.84560421       5.91196933       2.09536828      -0.00332713       0.00945131      -0.00092345
Sb       3.95645787       2.31332336       2.77166893       0.00863230      -0.00809628       0.01557952
Sb      -0.99495947       6.22308022       1.37623372       0.02257118       0.00081633       0.00730111
Sb       1.49891016      -0.18586355      19.90799795      -0.01541790       0.00433966       0.01251323
Sb       2.14169382       3.70219708      18.78947172       0.00426861       0.02336316      -0.01197900
Sb       4.22328678       0.05315991      18.87709164      -0.01209076      -0.00203196      -0.01515932
Sb       6.12463210       3.51004995      18.04561188      -0.00094645       0.01019767       0.00342137
Sb      -0.72996979       0.84264722      11.60684399      -0.02466641       0.01352931       0.00007050
Sb       2.01323338       3.67925777      12.59736119      -0.00854985       0.01378844       0.00723164
Sb       4.03221040       0.51018195      12.76113121       0.02031185      -0.00314019       0.00446447
Sb      -1.86388326       3.33142286      12.57573718       0.01644993      -0.00736860      -0.00052984
Sb       2.71436900       1.83089859      29.10529585       0.01405204       0.01425254       0.00714377
Sb       4.11414585       4.22176583      28.87516325      -0.00320532       0.00988901      -0.00664780
Sb       5.47641941       1.86149930      29.50628236      -0.01496273       0.00281166      -0.01479303
Sb      -0.02817446       4.31729823      27.92047095       0.00284638      -0.01004780      -0.00942545
Sb       1.91592512       1.56666452      22.42042343       0.00657981       0.01305746       0.00097085
Sb       4.27067879       4.74325771      22.86761232       0.01523638      -0.01222877      -0.00143680
Sb       5.68663747       2.23806715      23.40052363      -0.01013963       0.02258938      -0.00486658
Sb      -0.04835574       4.91280183      21.91682866       0.01873003      -0.01651338      -0.01497035
Cr       1.88738943       3.59021173       9.58832786      -0.00744442      -0.00502219       0.00542060
61
Properties=species:S:1:pos:R:3:forces:R:3 repair_mode=unwrap repair_image_index=4 migrant_element=Cr energy=-199.04203415664497 mlff_rel_energy_eV=0.9022927086286927 mlff_fmax_eV_A=1.8787432888577487 calculator_label=/home/ycao73/.cache/mace/20231203mace128L1_epoch199model neb_image=4 neb_protocol=mlff_pre_neb pbc="F F F"
Te       2.10710960       1.18408157       3.67157898       0.18432895       0.30815729      -0.09899437
Te       4.24232791       4.88238817       3.67157898      -0.77226322       0.17460415      -0.53206001
Te       6.32132606       1.21654029       3.68124484      -0.97021259       0.26218857      -0.16609879
Te      -0.02811008       4.88238896       3.67157899      -0.37107885       0.81161514      -0.28121144
Te       0.03530565      -0.02038372       6.61797966       0.35417244       0.91809290       0.30215459
Te       2.10710848       3.64961994       6.24819520       0.14619340       0.22659499      -0.66159547
Te       4.17891218      -0.02038422       6.61797947      -0.07453678       0.98972284       0.05302233
Te      -2.10710848       3.69038739       6.61797947       0.31972933       0.96803431       0.81003121
Te      -0.01158614       0.00668926      -0.00504885       0.20772198       0.87250078       0.62623192
Te       2.10710891       3.64961970       0.01065370      -0.41206937       0.39651765       1.31137365
Te       4.22580397       0.00668926      -0.00504885      -0.22990060       0.77572036       0.62031555
Te      -2.10710891       3.63624117      -0.00504885       0.50686794       0.89401399       1.30430995
Te      -0.01879063       2.42223127      14.10729535      -0.64393520      -0.49824322      -0.26797620
Te       2.10710870       6.10439692      14.10729535      -0.26170125      -0.90507331       0.07170745
Te       4.23300846       2.42223102      14.10729574      -0.04702589      -0.79103463      -0.34417844
Te      -2.10710870       6.08269937      14.20453021       0.49388150      -1.54216774      -0.70690099
Te       2.10710913       1.21214448      17.02071185      -0.09862857      -0.85824036       0.29602914
Te       4.21802448       4.86835712      17.02071185       0.54491945      -0.54141956       0.42446790
Te       6.32132652       1.21654002      17.03927420      -0.77064639       0.44076537       0.92701414
Te      -0.00380665       4.86835737      17.02071146       0.45114328      -0.15787825      -0.32590982
Te       2.10710868       1.26418388      10.36252263       0.01982901      -0.34031233       0.06222071
Te       4.17295681       4.84233781      10.36252263      -0.72486051       0.08183796      -0.69434204
Te       6.32132698       1.21653976      10.61834592      -1.39225146      -0.27528617       0.32080924
Te       0.04126102       4.84233754      10.36252305      -0.40279702       0.50223142      -0.20838813
Te      -0.00106873       0.00061703      24.36451834       0.66127041       0.73162071      -0.28475058
Te       2.10710934       3.64961945      24.37136313       0.56106804       0.06046945      -0.07701562
Te       4.21528655       0.00061753      24.36451852       0.64381340       0.72151959      -0.69428215
Te      -2.10710934       3.64838539      24.36451852       0.90736756       0.42311434      -0.00898836
Te       0.00611286       2.43660985      27.35474563       0.66163553       0.20490053       0.69378698
Te       2.10710823       6.07564058      27.35474563       0.13782472      -0.86334294       0.97832244
Te       4.20810497       2.43660906      27.35474562       0.37540069      -0.19371245       0.74282597
Te      -2.10710823       6.08269910      27.37097275       1.18401649      -0.93364738       0.50496832
Te       0.00124786       2.43379998      20.69657298       0.02343183      -0.30155257      -0.06738308
Te       2.10710915       6.08125873      20.69657298       0.52750629      -0.58526120       0.72123519
Te       4.21296997       2.43380025      20.69657256       0.92360485      -0.12224342       0.11169507
Te      -2.10710915       6.08269963      20.70103878       0.77012933      -0.45793610       0.56051557
Sb      -0.14468480       2.34954430       8.36480494      -0.35428519      -0.69597356      -0.90733055
Sb       2.10711038       6.24976795       8.36480494       0.07995437      -1.22383740       0.27687605
Sb       4.35890262       2.34954599       8.36480533       0.39312855      -0.92788277      -0.08081377
Sb      -2.10711038       6.08270034       8.36862078       0.61636312      -1.37487407      -0.51782420
Sb       0.00087587       2.43358291       1.98390355       0.48883501      -0.59279389      -1.37303561
Sb       2.10711114       6.08168942       1.98390355       0.15365901      -1.59832859       0.07382560
Sb       4.21334196       2.43358548       1.98390384      -0.11668470      -1.04744983       0.25143575
Sb      -2.10711114       6.08270078       1.92670502       0.81698949      -1.56896775      -0.48777611
Sb       0.00310543      -0.00179292      18.73015904       0.89409032       0.98902818       0.08156616
Sb       2.10710819       3.64962011      18.71028061      -0.80585551       0.99327119      -0.26128165
Sb       4.21111240      -0.00179376      18.73015929       0.16150223       0.82765373      -0.55802429
Sb       6.32132747       3.65320596      18.73015929      -1.05666237      -0.46951606      -1.03072731
Sb      -0.00553097       0.00319331      12.41249793       0.43087363       1.18584666       0.15698194
Sb       2.10710964       3.64961928      12.46477605       0.61730195       0.65574300       0.36948007
Sb       4.21974880       0.00319415      12.41249769       0.48757012       1.71019483      -0.35862719
Sb      -2.10710964       3.64323266      12.41249769       0.71126034       1.05286073       0.88073141
Sb       2.10710669       1.22043185      29.06062256      -0.20045591       1.11995954      -0.97010289
Sb       4.21084619       4.86421555      29.06062256      -1.04369326      -0.46784399      -0.86511243
Sb       6.32132897       1.21653861      29.04963399      -1.07027023       0.58453095      -0.51785810
Sb       0.00337164       4.86421298      29.06062227      -0.13277008       0.01886615      -1.87395105
Sb       2.10710745       1.21920845      22.67212449      -0.92226898      -0.44514729       0.71018520
Sb       4.21190606       4.86482659      22.67212449      -1.14900648      -0.25028062      -0.48390091
Sb       6.32132821       1.21653905      22.65597063      -1.27018530      -0.16264349       0.44723902
Sb       0.00231176       4.86482490      22.67212411      -1.15195521      -0.09375355      -0.65393688
Cr       2.10710912       3.64961958       8.65062336      -0.01138366       0.38446721       1.66901989
