61
Lattice="8.42843558953 0 0 -4.21421779477 7.29923593142 0 0 0 31.0334408416" Properties=species:S:1:pos:R:3:forces:R:3 energy=-133590.012957 ionic_step=0 pbc="T T T"
Te 2.1071096 1.20594071 3.61833428 -2.57110337382e-07 0.00271534227309 -0.0335562414627
Te 4.22339733 4.8714586 3.61833428 -0.00235153114569 -0.00135754258138 -0.0335562414627
Te 6.32132606 1.21654029 3.62124101 2.57110337382e-07 0 -0.0330355930295
Te -0.0091795 4.87145938 3.61833429 0.00235153114569 -0.00135779969171 -0.0335562414627
Te 0.01105576 -0.00638305 6.70506499 -0.00548442060669 0.00316682802553 0.0414780680678
Te 2.10710848 3.64961994 6.60451276 2.57110337382e-07 -5.14220674763e-07 0.0440879951025
Te 4.20316207 -0.00638354 6.70506481 0.00548442060669 0.00316682802553 0.0414780680678
Te -2.10710848 3.66238604 6.70506481 -2.57110337382e-07 -0.00633339894072 0.0414783251781
Te -0.00345289 0.00199353 -0.00159504 0.000916341242428 -0.000528875963994 0.00049982249587
Te 2.10710891 3.6496197 0.0026983 -0 -2.57110337382e-07 0.000947708703589
Te 4.21767072 0.00199353 -0.00159504 -0.000916341242428 -0.000528875963994 0.00049982249587
Te -2.10710891 3.64563264 -0.00159504 0 0.00105775192799 0.00049982249587
Te -0.07064656 2.39229222 13.99409729 -5.42502811875e-05 -3.11103508232e-05 -0.0124793644455
Te 2.1071087 6.16427502 13.99409729 0 6.24778119837e-05 -0.0124793644455
Te 4.28486438 2.39229197 13.99409767 5.42502811875e-05 -3.11103508232e-05 -0.0124793644455
Te -2.1071087 6.08269937 14.01947914 -0 -2.57110337382e-07 -0.0459589870276
Te 2.10710913 1.21405327 17.07487814 -0 -0.00242095093679 0.0347502618695
Te 4.21637142 4.86740272 17.07487814 0.00209673480135 0.00121047546839 0.0347502618695
Te 6.32132652 1.21654002 17.07476327 0 2.57110337382e-07 0.0258588721822
Te -0.0021536 4.86740297 17.07487775 -0.00209673480135 0.00121047546839 0.0347502618695
Te 2.10710868 1.2350753 10.35289339 0 -0.0215982967814 -0.017424881785
Te 4.19816558 4.8568921 10.35289339 0.0187050341549 0.0107988912804 -0.0174246246747
Te 6.32132698 1.21653976 10.42009798 -0 2.57110337382e-07 -0.00872709618174
Te 0.01605224 4.85689183 10.35289381 -0.0187050341549 0.0107991483907 -0.0174246246747
Te -0.00092316 0.00053299 24.30808958 0.00028770646753 -0.000165836167611 -0.0330034542373
Te 2.10710934 3.64961945 24.30962223 -2.57110337382e-07 -2.57110337382e-07 -0.033152578233
Te 4.21514099 0.00053349 24.30808977 -0.00028770646753 -0.000166093277949 -0.0330034542373
Te -2.10710934 3.64855347 24.30808977 2.57110337382e-07 0.00033192944556 -0.0330034542373
Te 0.00195004 2.43420644 27.4137621 -0.00047822522753 -0.000276136502348 0.0331044985999
Te 2.10710823 6.08044738 27.4137621 2.57110337382e-07 0.000552015894358 0.0331042414896
Te 4.21226778 2.43420566 27.41376209 0.00047822522753 -0.00027587939201 0.0331044985999
Te -2.10710823 6.0826991 27.41840441 -2.57110337382e-07 -0 0.0330600185115
Te 0.00087062 2.43358218 20.6912233 -7.66188805397e-05 -4.37087573549e-05 -0.00123927182618
Te 2.10710915 6.08169432 20.6912233 -0 8.79317353845e-05 -0.00123927182618
Te 4.21334721 2.43358245 20.69122287 7.66188805397e-05 -4.39658676923e-05 -0.00123927182618
Te -2.10710915 6.08269963 20.69200182 0 -2.57110337382e-07 -0.000634805422995
Sb -0.03589726 2.41235281 8.39320475 -0.00134751527822 -0.000777758770579 -0.0106487388433
Sb 2.10711038 6.12415092 8.39320475 -2.57110337382e-07 0.0015557746515 -0.0106489959537
Sb 4.25011509 2.41235451 8.39320514 0.00134751527822 -0.000777758770579 -0.0106489959537
Sb -2.10711038 6.08270034 8.40817674 2.57110337382e-07 -0 0.00015709441614
Sb -2.97e-06 2.43307551 1.94979603 5.6564274224e-05 3.31672335222e-05 0.00956630432296
Sb 2.10711114 6.08270421 1.94979603 -2.57110337382e-07 -6.55631360323e-05 0.00956630432296
Sb 4.2142208 2.43307808 1.94979632 -5.6564274224e-05 3.29101231848e-05 0.00956604721262
Sb -2.10711114 6.08270078 1.93075765 2.57110337382e-07 -2.57110337382e-07 0.00965860693408
Sb 0.0023052 -0.00133091 18.74665891 -0.000410348098461 0.000237055731066 -0.0139055554869
Sb 2.10710819 3.64962011 18.74146521 0 -2.57110337382e-07 -0.0155605747287
Sb 4.21191263 -0.00133174 18.74665915 0.000410348098461 0.000237055731066 -0.0139055554869
Sb 6.32132747 3.65228193 18.74665915 -0 -0.000474111462132 -0.0139052983766
Sb -0.0007561 0.00043654 12.32439006 -0.00112665749841 0.000650746263913 0.0051784593052
Sb 2.10710964 3.64961928 13.50118643 -2.57110337382e-07 -2.57110337382e-07 0.0623322875328
Sb 4.21497393 0.00043737 12.32438982 0.00112691460874 0.000650489153576 0.0051784593052
Sb -2.10710964 3.6487462 12.32438982 2.57110337382e-07 -0.00130123541749 0.00517820219487
Sb 2.10710669 1.21798629 29.08809145 2.57110337382e-07 0.000192575642699 -0.0089929482706
Sb 4.21296411 4.86543833 29.08809145 -0.000166607498623 -9.64163765181e-05 -0.00899269116026
Sb 6.32132897 1.21653861 29.08261735 -2.57110337382e-07 2.57110337382e-07 -0.00830286412506
Sb 0.00125372 4.86543576 29.08809116 0.000166607498623 -9.61592661807e-05 -0.00899269116026
Sb 2.10710745 1.21779362 22.63786536 2.57110337382e-07 -1.31126272065e-05 0.00869521449991
Sb 4.21313134 4.865534 22.63786536 1.13128548448e-05 6.42775843454e-06 0.00869521449991
Sb 6.32132821 1.21653905 22.63388219 -2.57110337382e-07 2.57110337382e-07 0.00865741928031
Sb 0.00108649 4.86553231 22.63786497 -1.13128548448e-05 6.42775843454e-06 0.00869547161025
Cr 2.1071088 3.64961976 11.70118643 -2.57110337382e-07 -2.57110337382e-07 -0.0454550507664
61
Lattice="8.42843558953 0 0 -4.21421779477 7.29923593142 0 0 0 31.0334408416" Properties=species:S:1:pos:R:3:forces:R:3 energy=-133595.213223 ionic_step=1 pbc="T T T"
Te 2.1071096 1.2063112163 3.6085954618 -2.57110337382e-07 0.00260272794531 -0.0327136908871
Te 4.2230764623 4.8712733468 3.6085954618 -0.00225382921749 -0.00130123541749 -0.0327136908871
Te 6.32132606 1.21654029 3.6116646058 2.57110337382e-07 0 -0.0319544440608
Te -0.0088586323 4.8712741268 3.6085954718 0.00225382921749 -0.00130149252783 -0.0327136908871
Te 0.0147648511 -0.0085244958 6.7161149817 -0.00637582214639 0.00368130581063 0.0421540111447
Te 2.10710848 3.64961994 6.6229796212 2.57110337382e-07 -5.14220674763e-07 0.0459571872553
Te 4.1994529789 -0.0085249858 6.7161148017 0.00637582214639 0.00368156292097 0.0421540111447
Te -2.10710848 3.6666689315 6.7161148017 -2.57110337382e-07 -0.00736261162126 0.0421540111447
Te -0.0033051003 0.0019082035 -0.0016679258 0.000874175147098 -0.000504450481943 0.000483624544615
Te 2.10710891 3.6496197 0.0031908618 -0 -2.57110337382e-07 0.000799098928582
Te 4.2175229303 0.0019082035 -0.0016679258 -0.000874175147098 -0.000504450481943 0.000483624544615
Te -2.10710891 3.6458032929 -0.0016679258 0 0.00100915807422 0.000483624544615
Te -0.1259546788 2.3603600478 13.9917077799 0.0113300812374 0.006541658314 -0.00862322360544
Te 2.1071087 6.2281393644 13.9917077799 0 -0.0130830595177 -0.00862296649511
Te 4.3401724988 2.3603597978 13.9917081599 -0.0113300812374 0.006541658314 -0.00862322360544
Te -2.1071087 6.08269937 14.0100184744 -0 -2.57110337382e-07 -0.0435619473522
Te 2.10710913 1.2139584035 17.0852587168 -0 -0.0106451392986 0.0451424045961
Te 4.2164535768 4.8674501533 17.0852587168 0.00921920536749 0.00532244109414 0.0451424045961
Te 6.32132652 1.21654002 17.0848170528 0 2.57110337382e-07 0.025934205511
Te -0.0022357568 4.8674504033 17.0852583268 -0.00921920536749 0.00532244109414 0.0451424045961
Te 2.10710868 1.2435328555 10.3571306699 0 -0.0158822197607 -0.00710241595983
Te 4.1908411255 4.8526633222 10.3571306699 0.0137546317189 0.00794085277003 -0.00710215884949
Te 6.32132698 1.21653976 10.4145393104 -0 2.57110337382e-07 -0.0153366316248
Te 0.0233766945 4.8526630522 10.3571310899 -0.0137546317189 0.00794110988037 -0.00710215884949
Te -0.0007993674 0.0004615183 24.2987082586 0.000242197937813 -0.000139610913198 -0.0319914679494
Te 2.10710934 3.64961945 24.2996225445 -2.57110337382e-07 -2.57110337382e-07 -0.0321693883029
Te 4.2150171974 0.0004620183 24.2987084486 -0.000242197937813 -0.000139868023536 -0.0319917250597
Te -2.10710934 3.6486964135 24.2987084486 2.57110337382e-07 0.000279478936734 -0.0319917250597
Te 0.0021274407 2.4343088624 27.4234842409 -0.000523990867584 -0.000302618867098 0.0321989559917
Te 2.10710823 6.0802425352 27.4234842409 2.57110337382e-07 0.000604980623859 0.0321989559917
Te 4.2120903793 2.4343080824 27.4234842309 0.000523990867584 -0.000302361756761 0.0321989559917
Te -2.10710823 6.0826991 27.428202272 -2.57110337382e-07 -0 0.0320752859194
Te 0.000834514 2.4335613342 20.6915503468 -3.26530128475e-05 -1.85119442915e-05 -0.00166093277949
Te 2.10710915 6.0817360116 20.6915503468 -0 3.75381092577e-05 -0.00166093277949
Te 4.213383316 2.4335616042 20.6915499168 3.26530128475e-05 -1.85119442915e-05 -0.00166093277949
Te -2.10710915 6.08269963 20.6926734282 0 -2.57110337382e-07 -0.000861062519891
Sb -0.0305701231 2.4154284354 8.3877299185 -0.00911687545322 -0.00526330571654 -0.0195781808606
Sb 2.10711038 6.1179996693 8.3877299185 -2.57110337382e-07 0.0105273827641 -0.0195781808606
Sb 4.2447879531 2.4154301354 8.3877303085 0.00911687545322 -0.00526356282688 -0.0195781808606
Sb -2.10711038 6.08270034 8.395919306 2.57110337382e-07 -0 -4.83367434277e-05
Sb 0.000295867 2.4332480437 1.9516302507 2.85392474494e-05 1.69692822672e-05 0.00916804041035
Sb 2.10711114 6.0823591426 1.9516302507 -2.57110337382e-07 -3.31672335222e-05 0.00916804041035
Sb 4.213921963 2.4332506137 1.9516305407 -2.85392474494e-05 1.67121719298e-05 0.00916778330002
Sb -2.10711114 6.08270078 1.9322996573 2.57110337382e-07 -2.57110337382e-07 0.0093300199229
Sb 0.0019166378 -0.0011065734 18.7439014566 -0.000613465264993 0.000354298044912 -0.0146056669356
Sb 2.10710819 3.64962011 18.7388949356 0 -2.57110337382e-07 -0.0156091685824
Sb 4.2123011922 -0.0011074034 18.7439016966 0.000613465264993 0.000354298044912 -0.0146056669356
Sb 6.32132747 3.6518332568 18.7439016966 -0 -0.000708596089824 -0.0146054098253
Sb -0.0039451557 0.002277743 12.3289914809 -0.00114388389101 0.000660773567071 0.00448657538731
Sb 2.10710964 3.64961928 13.7382232886 -2.57110337382e-07 -0 0.017062099099
Sb 4.2181629857 0.002278573 12.3289912409 0.00114388389101 0.000660516456733 0.00448657538731
Sb -2.10710964 3.645063794 12.3289912409 2.57110337382e-07 -0.00132103291347 0.00448631827697
Sb 2.10710669 1.2176670732 29.0864041392 2.57110337382e-07 0.000223171772847 -0.00866616103179
Sb 4.2132405598 4.8655979384 29.0864041392 -0.000193089863374 -0.000111842996761 -0.00866616103179
Sb 6.32132897 1.21653861 29.0802829456 -2.57110337382e-07 2.57110337382e-07 -0.00795036585251
Sb 0.0009772702 4.8655953684 29.0864038492 0.000193089863374 -0.000111585886424 -0.00866590392145
Sb 2.10710745 1.2177301035 22.6394195461 2.57110337382e-07 -8.99886180836e-06 0.00820284820382
Sb 4.2131863469 4.8655657583 22.6394195461 7.97042045883e-06 4.37087573549e-06 0.00820310531416
Sb 6.32132821 1.21653905 22.6355525934 -2.57110337382e-07 2.57110337382e-07 0.00820361953484
Sb 0.0010314831 4.8655640683 22.6394191561 -7.97042045883e-06 4.62798607287e-06 0.00820310531416
Cr 2.1071088 3.64961976 11.4365978245 -2.57110337382e-07 -2.57110337382e-07 -0.0425548461607
61
Lattice="8.42843558953 0 0 -4.21421779477 7.29923593142 0 0 0 31.0334408416" Properties=species:S:1:pos:R:3:forces:R:3 energy=-133596.411758 ionic_step=2 pbc="T T T"
Te 2.1071096 1.2072330677 3.5925390171 -2.57110337382e-07 0.00227156983077 -0.0311602302286
Te 4.222278116 4.8708124212 3.5925390171 -0.00196715119131 -0.00113565636021 -0.0311602302286
Te 6.32132606 1.21654029 3.5964838501 2.57110337382e-07 0 -0.0300315158475
Te -0.008060286 4.8708132012 3.5925390271 0.00196715119131 -0.00113617058089 -0.0311602302286
Te 0.0177339468 -0.0102387047 6.7323730639 -0.00690032723465 0.00398418178807 0.0416431329044
Te 2.10710848 3.64961994 6.6514011184 2.57110337382e-07 -5.14220674763e-07 0.0468156786718
Te 4.1964838832 -0.0102391947 6.7323728839 0.00690032723465 0.0039844388984 0.0416431329044
Te -2.10710848 3.6700973494 6.7323728839 -2.57110337382e-07 -0.00796836357613 0.0416433900147
Te -0.0031817703 0.0018369989 -0.001439262 0.000812725776463 -0.000468969255384 0.000344270741754
Te 2.10710891 3.6496197 0.004246739 -0 -2.57110337382e-07 0.000362011355033
Te 4.2173996003 0.0018369989 -0.001439262 -0.000812725776463 -0.000468969255384 0.000344270741754
Te -2.10710891 3.6459457022 -0.001439262 0 0.000937938510768 0.000344270741754
Te -0.2021050372 2.3163945974 13.9953488434 0.0216096096363 0.0124762791214 -0.0116368138699
Te 2.1071087 6.3160702652 13.9953488434 0 -0.0249525582429 -0.0116368138699
Te 4.4163228572 2.3163943474 13.9953492234 -0.0216096096363 0.0124765362318 -0.0116368138699
Te -2.1071087 6.08269937 13.9951881732 -0 -2.57110337382e-07 -0.0415991670367
Te 2.10710913 1.2140145694 17.1010943687 -0 -0.0117172894055 0.0448585547836
Te 4.2164049357 4.8674220703 17.1010943687 0.0101476307958 0.00585877325792 0.044858811894
Te 6.32132652 1.21654002 17.1045315263 0 2.57110337382e-07 0.0254505809664
Te -0.0021871157 4.8674223203 17.1010939787 -0.0101476307958 0.00585851614758 0.044858811894
Te 2.10710868 1.2508990634 10.363304661 0 -0.0147236805805 6.89055704183e-05
Te 4.1844618053 4.8489802183 10.363304661 0.0127513871824 0.00736158317991 6.91626807557e-05
Te 6.32132698 1.21653976 10.4063869252 -0 2.57110337382e-07 -0.0202260989108
Te 0.0297560147 4.8489799483 10.363305081 -0.0127513871824 0.00736158317991 6.91626807557e-05
Te -0.0004155787 0.0002399377 24.2846034142 8.51035216733e-05 -4.88509641025e-05 -0.0302958252744
Te 2.10710934 3.64961945 24.2856473453 -2.57110337382e-07 -2.57110337382e-07 -0.0306015294655
Te 4.2146334087 0.0002404377 24.2846036042 -8.51035216733e-05 -4.91080744399e-05 -0.0302958252744
Te -2.10710934 3.6491395747 24.2846036042 2.57110337382e-07 9.79590385424e-05 -0.0302958252744
Te 0.0022705077 2.4343914622 27.4385157843 -0.000562814528528 -0.00032498746645 0.0306534657537
Te 2.10710823 6.0800773355 27.4385157843 2.57110337382e-07 0.000649974932901 0.0306534657537
Te 4.2119473123 2.4343906822 27.4385157743 0.000562814528528 -0.000324730356113 0.0306534657537
Te -2.10710823 6.0826991 27.443630286 -2.57110337382e-07 -0 0.0304048400574
Te 0.000729879 2.4335009231 20.6917893707 5.3221839838e-05 3.11103508232e-05 -0.00152440719034
Te 2.10710915 6.0818568338 20.6917893707 -0 -6.1963591309e-05 -0.00152440719034
Te 4.213487951 2.4335011931 20.6917889407 -5.3221839838e-05 3.11103508232e-05 -0.00152440719034
Te -2.10710915 6.08269963 20.6942314275 0 -2.57110337382e-07 -0.00096724908923
Sb -0.0227893784 2.4199206525 8.3780720641 -0.0114051574559 -0.00658459574034 -0.0214103491248
Sb 2.10711038 6.1090152351 8.3780720641 -2.57110337382e-07 0.013169448591 -0.0214103491248
Sb 4.2370072084 2.4199223525 8.3780724541 0.0114051574559 -0.00658459574034 -0.0214103491248
Sb -2.10711038 6.08270034 8.3784894108 2.57110337382e-07 -0 -0.00137862562904
Sb 0.0006842133 2.4334722556 1.9535022158 -1.90261649662e-05 -1.05415238326e-05 0.00868390164506
Sb 2.10711114 6.0819107187 1.9535022158 -2.57110337382e-07 2.18543786774e-05 0.00868390164506
Sb 4.2135336167 2.4334748256 1.9535025058 1.90261649662e-05 -1.079863417e-05 0.00868364453473
Sb -2.10711114 6.08270078 1.9342318645 2.57110337382e-07 -2.57110337382e-07 0.00893638399637
Sb 0.000296574 -0.0001712287 18.7406957535 -0.000848721223697 0.000490052303049 -0.0149455668017
Sb 2.10710819 3.64962011 18.7369750345 0 -2.57110337382e-07 -0.0146825429265
Sb 4.213921256 -0.0001720587 18.7406959935 0.000848721223697 0.000490309413387 -0.0149455668017
Sb 6.32132747 3.6499625674 18.7406959935 -0 -0.000980361716436 -0.0149453096913
Sb -0.0029017483 0.0016753312 12.321597018 -0.00166710342758 0.000962878213494 0.00327147193284
Sb 2.10710964 3.64961928 13.8061206959 -2.57110337382e-07 -0 0.00443026822342
Sb 4.2171195783 0.0016761612 12.321596778 0.00166710342758 0.000962621103157 0.00327121482251
Sb -2.10710964 3.6462686176 12.321596778 2.57110337382e-07 -0.00192524220631 0.00327121482251
Sb 2.10710669 1.2173567332 29.0849064884 2.57110337382e-07 0.000246311703212 -0.00821416105867
Sb 4.2135093219 4.8657531084 29.0849064884 -0.000213144469689 -0.000123412961943 -0.00821416105867
Sb 6.32132897 1.21653861 29.0780400216 -2.57110337382e-07 2.57110337382e-07 -0.00746905530094
Sb 0.0007085081 4.8657505384 29.0849061984 0.000213144469689 -0.000123155851606 -0.00821390394833
Sb 2.10710745 1.2172578277 22.6397684283 2.57110337382e-07 -4.37087573549e-06 0.00755775836733
Sb 4.2135953495 4.8658018961 22.6397684283 3.85665506072e-06 2.05688269905e-06 0.00755801547767
Sb 6.32132821 1.21653905 22.636841199 -2.57110337382e-07 2.57110337382e-07 0.00767500068118
Sb 0.0006224805 4.8658002061 22.6397680383 -3.85665506072e-06 2.05688269905e-06 0.00755801547767
Cr 2.1071088 3.64961976 11.3498973845 -0 -2.57110337382e-07 -0.0308043895217
61
Lattice="8.42843558953 0 0 -4.21421779477 7.29923593142 0 0 0 31.0334408416" Properties=species:S:1:pos:R:3:forces:R:3 energy=-133597.177683 ionic_step=3 pbc="T T T"
Te 2.1071096 1.2084973127 3.5705981867 -2.57110337382e-07 0.00193012730272 -0.0284996524574
Te 4.2211832481 4.8701802986 3.5705981867 -0.00167147430332 -0.000965192206531 -0.0284996524574
Te 6.32132606 1.21654029 3.5760764196 2.57110337382e-07 0 -0.0269868152323
Te -0.0069654181 4.8701810786 3.5705981967 0.00167147430332 -0.000965449316868 -0.0284996524574
Te 0.0210482182 -0.0121522011 6.7525977248 -0.00738189489656 0.00426211806278 0.0401048417558
Te 2.10710848 3.64961994 6.6908856492 2.57110337382e-07 -5.14220674763e-07 0.0462927162456
Te 4.1931696118 -0.0121526911 6.7525975448 0.00738189489656 0.00426237517311 0.0401048417558
Te -2.10710848 3.6739243422 6.7525975448 -2.57110337382e-07 -0.00852423612555 0.0401048417558
Te -0.0030651395 0.0017696621 -0.001005967 0.0007325073512 -0.000422689394655 0.000107729231363
Te 2.10710891 3.6496197 0.005688769 -0 -2.57110337382e-07 -0.000292334453603
Te 4.2172829695 0.0017696621 -0.001005967 -0.0007325073512 -0.000422689394655 0.000107729231363
Te -2.10710891 3.6460803759 -0.001005967 0 0.000845635899648 0.000107729231363
Te -0.2857023101 2.2681296669 14.0026671588 0.0251615889472 0.0145269911724 -0.0181131661582
Te 2.1071087 6.4126001262 14.0026671588 0 -0.0290539823448 -0.0181131661582
Te 4.4999201301 2.2681294169 14.0026675388 -0.0251615889472 0.0145272482827 -0.0181134232685
Te -2.1071087 6.08269937 13.9730229367 -0 -2.57110337382e-07 -0.0386963913276
Te 2.10710913 1.214215299 17.1222124627 -0 -0.0122824179271 0.0426000975801
Te 4.2162310988 4.8673217055 17.1222124627 0.0106371688782 0.0061413375187 0.0426000975801
Te 6.32132652 1.21654002 17.1338308341 0 2.57110337382e-07 0.0241899689822
Te -0.0020132788 4.8673219555 17.1222120727 -0.0106371688782 0.00614108040836 0.0426003546904
Te 2.10710868 1.2585990191 10.3694814924 0 -0.0138307363788 0.00837074125413
Te 4.1777934512 4.8451302405 10.3694814924 0.0119782563979 0.00691523963422 0.00837099836447
Te 6.32132698 1.21653976 10.3942623089 -0 2.57110337382e-07 -0.0233564172684
Te 0.0364243688 4.8451299705 10.3694819124 -0.0119779992876 0.00691523963422 0.00837099836447
Te -1.11109e-05 6.418e-06 24.265603328 -0.000104643907314 6.06780396221e-05 -0.027650417013
Te 2.10710934 3.64961945 24.2671362228 -2.57110337382e-07 -2.57110337382e-07 -0.0281890631698
Te 4.2142289409 6.918e-06 24.265603518 0.000104643907314 6.04209292847e-05 -0.0276506741234
Te -2.10710934 3.6496066141 24.265603518 2.57110337382e-07 -0.000121098968907 -0.0276506741234
Te 0.0024542693 2.434497557 27.4586298986 -0.000619121692415 -0.000357640479298 0.028220430631
Te 2.10710823 6.0798651459 27.4586298986 2.57110337382e-07 0.000715023848258 0.028220430631
Te 4.2117635507 2.434496777 27.4586298886 0.000619121692415 -0.000357126258623 0.028220430631
Te -2.10710823 6.0826991 27.4642628612 -2.57110337382e-07 -0 0.0277969699053
Te 0.0005384141 2.4333903807 20.6919508845 0.000280250267746 0.000162236622888 -0.001164452718
Te 2.10710915 6.0820779186 20.6919508845 -0 -0.000323959025101 -0.001164452718
Te 4.2136794159 2.4333906507 20.6919504545 -0.000280250267746 0.000162236622888 -0.001164452718
Te -2.10710915 6.08269963 20.6965838978 0 -2.57110337382e-07 -0.00116625249036
Sb -0.0117950997 2.4262682052 8.3662963415 -0.0132848911325 -0.00766960136409 -0.0228139144565
Sb 2.10711038 6.0963201296 8.3662963415 -2.57110337382e-07 0.0153399740592 -0.0228139144565
Sb 4.2260129297 2.4262699052 8.3662967315 0.0132848911325 -0.00766985847443 -0.0228139144565
Sb -2.10711038 6.08270034 8.3579832037 2.57110337382e-07 -0 -0.00360828647481
Sb 0.0011839609 2.4337607852 1.9533199879 -8.71604043724e-05 -4.9879405452e-05 0.00827792442234
Sb 2.10711114 6.0813336596 1.9533199879 -2.57110337382e-07 0.000100273031579 0.00827818153268
Sb 4.2130338691 2.4337633552 1.9533202779 8.71604043724e-05 -5.01365157894e-05 0.00827792442234
Sb -2.10711114 6.08270078 1.9343217528 2.57110337382e-07 -2.57110337382e-07 0.00864584931513
Sb -0.0018807287 0.0010858382 18.7392237691 -0.00111868707795 0.000645861167503 -0.0154672436762
Sb 2.10710819 3.64962011 18.7369086821 0 -2.57110337382e-07 -0.0135684838346
Sb 4.2160985587 0.0010850082 18.7392240091 0.00111868707795 0.00064611827784 -0.0154672436762
Sb 6.32132747 3.6474484336 18.7392240091 -0 -0.00129197944534 -0.0154669865659
Sb 0.0012141581 -0.0007009896 12.3050577481 -0.00234176095287 0.00135240037463 0.00191161535843
Sb 2.10710964 3.64961928 13.8686683869 -2.57110337382e-07 -0 -0.00709213154633
Sb 4.2130036719 -0.0007001596 12.3050575081 0.00234201806321 0.00135214326429 0.00191161535843
Sb -2.10710964 3.6510212591 12.3050575081 2.57110337382e-07 -0.00270428652858 0.00191161535843
Sb 2.10710669 1.2170941506 29.0855688974 2.57110337382e-07 0.000264052316491 -0.00781306893235
Sb 4.213736725 4.8658843997 29.0855688974 -0.000228313979595 -0.000132154713414 -0.00781281182202
Sb 6.32132897 1.21653861 29.0777660384 -2.57110337382e-07 2.57110337382e-07 -0.00702091198288
Sb 0.000481105 4.8658818297 29.0855686074 0.000228313979595 -0.000131897603077 -0.00781255471168
Sb 2.10710745 1.2164343256 22.6376497676 2.57110337382e-07 2.77679164372e-05 0.00689955590364
Sb 4.214308523 4.8662136472 22.6376497676 -2.39112613765e-05 -1.4141068556e-05 0.00689981301397
Sb 6.32132821 1.21653905 22.6360772108 -2.57110337382e-07 2.57110337382e-07 0.00719317590893
Sb -9.0693e-05 4.8662119572 22.6376493776 2.39112613765e-05 -1.38839582186e-05 0.00689981301397
Cr 2.1071088 3.64961976 11.2793264726 -0 -2.57110337382e-07 -0.00905491186191
61
Lattice="8.42843558953 0 0 -4.21421779477 7.29923593142 0 0 0 31.0334408416" Properties=species:S:1:pos:R:3:forces:R:3 energy=-133597.587371 ionic_step=4 pbc="T T T"
Te 2.1071096 1.2103956331 3.5403841734 -2.57110337382e-07 0.00165476213139 -0.0237845059802
Te 4.2195392552 4.8692311384 3.5403841734 -0.00143313302057 -0.000827381065694 -0.0237845059802
Te 6.32132606 1.21654029 3.5483780369 2.57110337382e-07 0 -0.022014044197
Te -0.0053214252 4.8692319184 3.5403841834 0.00143313302057 -0.000827638176031 -0.0237845059802
Te 0.0257351406 -0.0148581983 6.7781632559 -0.00813908484015 0.00469946274666 0.0366014562986
Te 2.10710848 3.64961994 6.7454104754 2.57110337382e-07 -5.14220674763e-07 0.0420583660992
Te 4.1884826894 -0.0148586883 6.7781630759 0.00813908484015 0.00469946274666 0.0366014562986
Te -2.10710848 3.6793363366 6.7781630759 -2.57110337382e-07 -0.00939841127265 0.0366014562986
Te -0.0029043051 0.0016768042 -0.00024797 0.000613465264993 -0.000354040934575 -0.000230370862294
Te 2.10710891 3.6496197 0.0077782879 -0 -2.57110337382e-07 -0.00123027296437
Te 4.2171221351 0.0016768042 -0.00024797 -0.000613465264993 -0.000354040934575 -0.000230370862294
Te -2.10710891 3.6462660915 -0.00024797 0 0.000708081869149 -0.000230370862294
Te -0.3776652988 2.2150347859 14.0166292827 0.0239523990305 0.0138289366064 -0.0257267174687
Te 2.1071087 6.5187898882 14.0166292827 0 -0.0276576161025 -0.0257267174687
Te 4.5918831188 2.2150345359 14.0166296627 -0.0239523990305 0.0138289366064 -0.0257269745791
Te -2.1071087 6.08269937 13.9411213414 -0 -2.57110337382e-07 -0.0340498933105
Te 2.10710913 1.2144786306 17.1505846149 -0 -0.0126570276886 0.0380800978489
Te 4.2160030471 4.8671900397 17.1505846149 0.0109616421239 0.00632851384431 0.0380800978489
Te 6.32132652 1.21654002 17.1761676436 0 2.57110337382e-07 0.0221734526061
Te -0.0017852271 4.8671902897 17.1505842249 -0.0109616421239 0.00632851384431 0.0380803549593
Te 2.10710868 1.2655925425 10.3737991991 0 -0.0127148775145 0.0187202036648
Te 4.171736885 4.8416334787 10.3737991991 0.0110115215294 0.00635705309176 0.0187204607751
Te 6.32132698 1.21653976 10.3765860891 -0 2.57110337382e-07 -0.023798132828
Te 0.042480935 4.8416332087 10.3737996191 -0.0110115215294 0.0063573102021 0.0187204607751
Te 0.0003611346 -0.0002084982 24.2398079558 -0.000310075066882 0.000179205905155 -0.0233430475309
Te 2.10710934 3.64961945 24.2423014071 -2.57110337382e-07 -2.57110337382e-07 -0.0242557892286
Te 4.2138566954 -0.0002079982 24.2398081458 0.000310075066882 0.000178948794818 -0.0233430475309
Te -2.10710934 3.6500364464 24.2398081458 2.57110337382e-07 -0.000358154699973 -0.0233433046412
Te 0.0026016574 2.4345826517 27.4860948751 -0.000676457297651 -0.000390550602483 0.0242275070915
Te 2.10710823 6.0796949567 27.4860948751 2.57110337382e-07 0.000781101204965 0.0242275070915
Te 4.2116161626 2.4345818717 27.4860948651 0.000676457297651 -0.000390293492145 0.0242275070915
Te -2.10710823 6.0826991 27.4922919242 -2.57110337382e-07 -0 0.0235525924558
Te 0.0002827021 2.4332427453 20.6921475691 0.000697540345316 0.000403149009014 -0.000591610886315
Te 2.10710915 6.0823731894 20.6921475691 -0 -0.000805783797354 -0.000591610886315
Te 4.2139351279 2.4332430153 20.6921471391 -0.000697540345316 0.000403149009014 -0.000591353775978
Te -2.10710915 6.08269963 20.7000757882 0 -2.57110337382e-07 -0.00152517852135
Sb 0.0034874252 2.4350915792 8.351949573 -0.0150111299377 -0.00866641814212 -0.0243462920673
Sb 2.10711038 6.0786733816 8.351949573 -2.57110337382e-07 0.0173333505049 -0.0243462920673
Sb 4.2107304048 2.4350932792 8.351949963 0.0150111299377 -0.00866641814212 -0.0243462920673
Sb -2.10711038 6.08270034 8.3340478138 2.57110337382e-07 -0 -0.00695894839157
Sb 0.0018850395 2.4341655533 1.9482849432 -0.000175349250094 -0.000100787252254 0.00813959906083
Sb 2.10711114 6.0805241235 1.9482849432 -2.57110337382e-07 0.000202345835519 0.00813985617117
Sb 4.2123327905 2.4341681233 1.9482852332 0.000175349250094 -0.000101044362591 0.00813959906083
Sb -2.10711114 6.08270078 1.9299582685 2.57110337382e-07 -2.57110337382e-07 0.00868004499
Sb -0.0039830306 0.0022996033 18.741994921 -0.00151206589414 0.000873146705748 -0.0164226656899
Sb 2.10710819 3.64962011 18.7407677464 0 -2.57110337382e-07 -0.0124932484037
Sb 4.2182008606 0.0022987733 18.741995161 0.00151206589414 0.000873146705748 -0.0164226656899
Sb 6.32132747 3.6450209034 18.741995161 -0 -0.00174603630116 -0.0164224085796
Sb 0.0080115474 -0.0046254659 12.2747045333 -0.002942370701 0.00169898510942 0.000520905543535
Sb 2.10710964 3.64961928 13.9311181428 -2.57110337382e-07 -0 -0.0192729908901
Sb 4.2062062826 -0.0046246359 12.2747042933 0.002942370701 0.00169872799908 0.000520905543535
Sb -2.10710964 3.6588702119 12.2747042933 2.57110337382e-07 -0.0033977131085 0.000520648433198
Sb 2.10710669 1.2167986242 29.09081283 2.57110337382e-07 0.000283849812469 -0.00765751717824
Sb 4.2139926583 4.8660321629 29.09081283 -0.000245540372199 -0.000142182016572 -0.00765751717824
Sb 6.32132897 1.21653861 29.0817628164 -2.57110337382e-07 2.57110337382e-07 -0.00678899845856
Sb 0.0002251717 4.8660295929 29.09081254 0.000245540372199 -0.000141924906235 -0.0076572600679
Sb 2.10710745 1.21517902 22.6303708475 2.57110337382e-07 0.000100787252254 0.00638302123584
Sb 4.215395649 4.8668413 22.6303708475 -8.71604043724e-05 -5.06507364642e-05 0.00638302123584
Sb 6.32132821 1.21653905 22.630833461 -2.57110337382e-07 2.57110337382e-07 0.00688104395934
Sb -0.001177819 4.86683961 22.6303704575 8.71604043724e-05 -5.03936261268e-05 0.00638327834617
Cr 2.1071088 3.64961976 11.2273156361 -0 -2.57110337382e-07 0.0173312936222
61
Lattice="8.42843558953 0 0 -4.21421779477 7.29923593142 0 0 0 31.0334408416" Properties=species:S:1:pos:R:3:forces:R:3 energy=-133597.712235 ionic_step=5 pbc="T T T"
Te 2.1071096 1.2115378605 3.5244927925 -2.57110337382e-07 0.00155885997554 -0.0209025562085
Te 4.2185500578 4.8686600248 3.5244927925 -0.00135008638159 -0.000779558542941 -0.0209025562085
Te 6.32132606 1.21654029 3.5341448738 2.57110337382e-07 0 -0.0191565199073
Te -0.0043322278 4.8686608048 3.5244928025 0.00135008638159 -0.000779815653278 -0.0209025562085
Te 0.0282180972 -0.0162917346 6.7902846128 -0.00862425204679 0.00497945590407 0.0340149263046
Te 2.10710848 3.64961994 6.7722921174 2.57110337382e-07 -5.14220674763e-07 0.0384084277498
Te 4.1859997328 -0.0162922246 6.7902844328 0.00862425204679 0.00497971301441 0.0340151834149
Te -2.10710848 3.6822034093 6.7902844328 -2.57110337382e-07 -0.0099586546978 0.0340151834149
Te -0.002794844 0.0016136068 0.0002630538 0.000534275281079 -0.000308275294521 -0.000404691671039
Te 2.10710891 3.6496197 0.0089343331 -0 -2.57110337382e-07 -0.00175169272858
Te 4.217012674 0.0016136068 0.0002630538 -0.000534275281079 -0.000308275294521 -0.000404691671039
Te -2.10710891 3.6463924865 0.0002630538 0 0.000616550589041 -0.000404691671039
Te -0.4064623539 2.1984087906 14.0261689812 0.0225133524721 0.0129982131063 -0.0273902213516
Te 2.1071087 6.5520418789 14.0261689812 0 -0.025995911992 -0.0273902213516
Te 4.6206801739 2.1984085406 14.0261693612 -0.0225133524721 0.0129982131063 -0.0273902213516
Te -2.1071087 6.08269937 13.924175785 -0 -2.57110337382e-07 -0.0315214702527
Te 2.10710913 1.2143933287 17.1651105651 -0 -0.0127387887759 0.0357157111864
Te 4.2160769207 4.8672326907 17.1651105651 0.0110323474667 0.00636939438796 0.0357157111864
Te 6.32132652 1.21654002 17.1995070624 0 2.57110337382e-07 0.0213319304719
Te -0.0018591007 4.8672329407 17.1651101751 -0.0110323474667 0.00636939438796 0.0357157111864
Te 2.10710868 1.2667217276 10.3726000692 0 -0.0120713303401 0.023268485533
Te 4.1707589825 4.8410688862 10.3726000692 0.0104543634283 0.0060354080597 0.0232687426434
Te 6.32132698 1.21653976 10.3666288338 -0 2.57110337382e-07 -0.0215247632249
Te 0.0434588375 4.8410686162 10.3726004892 -0.0104543634283 0.0060354080597 0.0232687426434
Te 0.0003655128 -0.0002110259 24.226697167 -0.000347356065803 0.000200803173495 -0.0208861011469
Te 2.10710934 3.64961945 24.2298583213 -2.57110337382e-07 -2.57110337382e-07 -0.0220029884524
Te 4.2138523172 -0.0002105259 24.226697357 0.000347356065803 0.000200546063158 -0.0208863582572
Te -2.10710934 3.6500415019 24.226697357 2.57110337382e-07 -0.000401092126315 -0.0208863582572
Te 0.0025810984 2.4345707819 27.5002840272 -0.000677228628663 -0.000391064823157 0.0219477097299
Te 2.10710823 6.0797186962 27.5002840272 2.57110337382e-07 0.000781872535978 0.0219477097299
Te 4.2116367216 2.4345700019 27.5002840172 0.000677228628663 -0.00039080771282 0.0219477097299
Te -2.10710823 6.0826991 27.5068180532 -2.57110337382e-07 -0 0.0211115869127
Te 0.0002190994 2.4332060242 20.6922706424 0.000954136462023 0.000551244563346 -0.000226771317571
Te 2.10710915 6.0824466315 20.6922706424 -0 -0.00110197490602 -0.000226771317571
Te 4.2139987306 2.4332062942 20.6922702124 -0.000954136462023 0.000551244563346 -0.000226771317571
Te -2.10710915 6.08269963 20.7019147799 0 -2.57110337382e-07 -0.00171621150202
Sb 0.010904822 2.4393740172 8.3461552194 -0.0154831845171 -0.00893895509975 -0.0253119984945
Sb 2.10711038 6.0701085056 8.3461552194 -2.57110337382e-07 0.0178784244202 -0.0253122556049
Sb 4.203313008 2.4393757172 8.3461556094 0.0154831845171 -0.00893921221008 -0.0253119984945
Sb -2.10711038 6.08270034 8.3254632711 2.57110337382e-07 -0 -0.00876077763594
Sb 0.0022126716 2.4343547118 1.9407564589 -0.00021700112475 -0.000124955623967 0.00850032486417
Sb 2.10711114 6.0801458063 1.9407564589 -2.57110337382e-07 0.00025042546861 0.00850058197451
Sb 4.2120051584 2.4343572818 1.9407567489 0.00021700112475 -0.000125212734305 0.00850032486417
Sb -2.10711114 6.08270078 1.9231049025 2.57110337382e-07 -2.57110337382e-07 0.00914875713505
Sb -0.0036195529 0.0020897493 18.7481789181 -0.0017930874929 0.00103538332864 -0.0172179079634
Sb 2.10710819 3.64962011 18.7464387517 0 -2.57110337382e-07 -0.0127233621557
Sb 4.2178373829 0.0020889193 18.7481791581 0.0017930874929 0.00103538332864 -0.0172176508531
Sb 6.32132747 3.6454406115 18.7481791581 -0 -0.00207050954693 -0.0172176508531
Sb 0.0100281779 -0.0057897686 12.2535045142 -0.00299867786488 0.00173138101193 0.000251453909959
Sb 2.10710964 3.64961928 13.9487802883 -2.57110337382e-07 -0 -0.0234649178308
Sb 4.2041896521 -0.0057889386 12.2535042742 0.00299867786488 0.00173138101193 0.000251196799622
Sb -2.10710964 3.6611988173 12.2535042742 2.57110337382e-07 -0.00346250491352 0.000251196799622
Sb 2.10710669 1.2166324362 29.0977174499 2.57110337382e-07 0.000295162667314 -0.00801567187821
Sb 4.2141365813 4.8661152569 29.0977174499 -0.00025531056502 -0.000147838443994 -0.00801541476787
Sb 6.32132897 1.21653861 29.0880379569 -2.57110337382e-07 2.57110337382e-07 -0.00710138751848
Sb 8.12487e-05 4.8661126869 29.0977171599 0.00025531056502 -0.000147581333657 -0.00801515765753
Sb 2.10710745 1.214580377 22.6221813919 2.57110337382e-07 0.000165064836599 0.0065396014313
Sb 4.2159140888 4.8671406215 22.6221813919 -0.000142953347584 -8.27895286369e-05 0.0065396014313
Sb 6.32132821 1.21653905 22.6238903787 -2.57110337382e-07 2.57110337382e-07 0.00704688012696
Sb -0.0016962588 4.8671389315 22.6221810019 0.000142953347584 -8.25324182995e-05 0.0065396014313
Cr 2.1071088 3.64961976 11.2323693899 -0 -2.57110337382e-07 0.0230286015883
61
Lattice="8.42843558953 0 0 -4.21421779477 7.29923593142 0 0 0 31.0334408416" Properties=species:S:1:pos:R:3:forces:R:3 energy=-133597.894721 ionic_step=6 pbc="T T T"
Te 2.1071096 1.2134049432 3.4999093588 -2.57110337382e-07 0.00144650275811 -0.0159999762953
Te 4.2169331174 4.8677264834 3.4999093588 -0.00125264156372 -0.000723251379055 -0.0159997191849
Te 6.32132606 1.21654029 3.512231819 2.57110337382e-07 0 -0.0144519149539
Te -0.0027152874 4.8677272634 3.4999093688 0.00125264156372 -0.000723508489392 -0.0159999762953
Te 0.0317375178 -0.018323674 6.8078100305 -0.00933104836425 0.00538749000949 0.029362000529
Te 2.10710848 3.64961994 6.8103448161 2.57110337382e-07 -5.14220674763e-07 0.0316883348616
Te 4.1824803122 -0.018324164 6.8078098505 0.00933104836425 0.00538774711983 0.0293622576393
Te -2.10710848 3.686267288 6.8078098505 -2.57110337382e-07 -0.010774980019 0.0293622576393
Te -0.0025940148 0.001497658 0.0011465802 0.000397235471255 -0.000229085310607 -0.000650232043238
Te 2.10710891 3.6496197 0.0106968237 -0 -2.57110337382e-07 -0.0025214810787
Te 4.2168118448 0.001497658 0.0011465802 -0.000397235471255 -0.000229085310607 -0.000650232043238
Te -2.10710891 3.6466243841 0.0011465802 0 0.000458427731551 -0.000650232043238
Te -0.4331830058 2.1829816078 14.0405201951 0.0201098850383 0.0116105886155 -0.0279512361078
Te 2.1071087 6.5828962444 14.0405201951 0 -0.0232206630103 -0.0279512361078
Te 4.6474008258 2.1829813578 14.0405205751 -0.0201098850383 0.0116105886155 -0.0279514932181
Te -2.1071087 6.08269937 13.8974367749 -0 -2.57110337382e-07 -0.0273601394421
Te 2.10710913 1.2138638914 17.1872079289 -0 -0.0128102654497 0.0321717022959
Te 4.2165354266 4.8674974093 17.1872079289 0.011094311058 0.00640513272485 0.0321717022959
Te 6.32132652 1.21654002 17.2357004154 0 2.57110337382e-07 0.0205202331368
Te -0.0023176066 4.8674976593 17.1872075389 -0.011094311058 0.00640513272485 0.0321719594062
Te 2.10710868 1.268299787 10.3682086719 0 -0.0115473394725 0.0290658094203
Te 4.1693923437 4.8402798565 10.3682086719 0.0100005636828 0.0057734126259 0.0290660665307
Te 6.32132698 1.21653976 10.3505403126 -0 2.57110337382e-07 -0.0161138761747
Te 0.0448254763 4.8402795865 10.3682090919 -0.0100005636828 0.00577366973624 0.0290660665307
Te 0.0001790022 -0.0001033439 24.2068389461 -0.000323959025101 0.000187433435951 -0.0167864768173
Te 2.10710934 3.64961945 24.2111119148 -2.57110337382e-07 -2.57110337382e-07 -0.0182077827624
Te 4.2140388278 -0.0001028439 24.2068391361 0.000323959025101 0.000187176325614 -0.0167867339276
Te -2.10710934 3.6498261379 24.2068391361 2.57110337382e-07 -0.000374352651228 -0.0167867339276
Te 0.0024604361 2.4345011175 27.5221425548 -0.000655631360323 -0.000378723526963 0.0181347634265
Te 2.10710823 6.0798580251 27.5221425548 2.57110337382e-07 0.000757189943589 0.0181345063162
Te 4.2117573839 2.4345003375 27.5221425448 0.000655631360323 -0.000378209306288 0.0181347634265
Te -2.10710823 6.0826991 27.5292282502 -2.57110337382e-07 -0 0.0170073345971
Te 0.0002370423 2.4332163836 20.6926014987 0.0013398019681 0.000773902115519 0.000307761073846
Te 2.10710915 6.0824259129 20.6926014987 -0 -0.00154729001036 0.000307761073846
Te 4.2139807877 2.4332166536 20.6926010687 -0.0013398019681 0.000773902115519 0.000307761073846
Te -2.10710915 6.08269963 20.7046752267 0 -2.57110337382e-07 -0.00198643446661
Sb 0.0208730561 2.4451291826 8.3393083801 -0.0157462083923 -0.0090906501988 -0.0269006832692
Sb 2.10711038 6.0585981749 8.3393083801 -2.57110337382e-07 0.0181820717286 -0.0269009403796
Sb 4.1933447739 2.4451308826 8.3393087701 0.0157462083923 -0.00909090730914 -0.0269006832692
Sb -2.10711038 6.08270034 8.3167277848 2.57110337382e-07 -0 -0.0114218696278
Sb 0.0025825482 2.4345682603 1.9246092401 -0.000264823647503 -0.000152466430067 0.00954136462023
Sb 2.10711114 6.0797187093 1.9246092401 -2.57110337382e-07 0.000305704191147 0.00954136462023
Sb 4.2116352818 2.4345708303 1.9246095301 0.000264823647503 -0.000152723540405 0.00954110750989
Sb -2.10711114 6.08270078 1.9082887361 2.57110337382e-07 -2.57110337382e-07 0.0103561472794
Sb -0.0013546518 0.0007821074 18.7621875979 -0.00232042079487 0.0013398019681 -0.0187600557671
Sb 2.10710819 3.64962011 18.7583408264 0 -2.57110337382e-07 -0.0139371800584
Sb 4.2155724818 0.0007812774 18.7621878379 0.00232042079487 0.0013398019681 -0.0187597986567
Sb 6.32132747 3.6480558951 18.7621878379 -0 -0.00267960393619 -0.0187597986567
Sb 0.0096639032 -0.0055794545 12.2178492911 -0.00271739915579 0.00156914438904 0.000360982913684
Sb 2.10710964 3.64961928 13.9645351625 -2.57110337382e-07 -0 -0.0280571655668
Sb 4.2045539268 -0.0055786245 12.2178490511 0.00271739915579 0.0015688872787 0.000360725803346
Sb -2.10710964 3.6607781889 12.2178490511 2.57110337382e-07 -0.00313803166774 0.000360725803346
Sb 2.10710669 1.2163683893 29.1120538911 2.57110337382e-07 0.00031418883228 -0.00906879582012
Sb 4.2143652525 4.8662472804 29.1120538911 -0.000271765626612 -0.000157351526478 -0.00906879582012
Sb 6.32132897 1.21653861 29.1014404388 -2.57110337382e-07 2.57110337382e-07 -0.00809280497942
Sb -0.0001474225 4.8662447104 29.1120536011 0.000271765626612 -0.00015709441614 -0.00906853870979
Sb 2.10710745 1.2139353052 22.6057279111 2.57110337382e-07 0.000279478936734 0.00728727829241
Sb 4.2164727371 4.8674631574 22.6057279111 -0.000241940827476 -0.000139868023536 0.00728753540274
Sb 6.32132821 1.21653905 22.6094196103 -2.57110337382e-07 2.57110337382e-07 0.00766265938498
Sb -0.0022549071 4.8674614674 22.6057275211 0.000241940827476 -0.000139610913198 0.00728753540274
Cr 2.1071088 3.64961976 11.2672715488 -0 -2.57110337382e-07 0.0245730633849
61
Lattice="8.42843558953 0 0 -4.21421779477 7.29923593142 0 0 0 31.0334408416" Properties=species:S:1:pos:R:3:forces:R:3 energy=-133598.059745 ionic_step=7 pbc="T T T"
Te 2.1071096 1.2153510915 3.4753061694 -2.57110337382e-07 0.00130329230019 -0.0107022177935
Te 4.2152477044 4.8667534093 3.4753061694 -0.00112845727077 -0.000651517594925 -0.0107022177935
Te 6.32132606 1.21654029 3.4901059142 2.57110337382e-07 0 -0.00946783106374
Te -0.0010298744 4.8667541893 3.4753061794 0.00112845727077 -0.0006520318156 -0.0107022177935
Te 0.0345072887 -0.0199228027 6.8243349003 -0.00980618826774 0.00566182673948 0.0241961396303
Te 2.10710848 3.64961994 6.8433277776 2.57110337382e-07 -5.14220674763e-07 0.0242038529404
Te 4.1797105413 -0.0199232927 6.8243347203 0.00980618826774 0.00566208384982 0.0241963967406
Te -2.10710848 3.6894655454 6.8243347203 -2.57110337382e-07 -0.0113233963686 0.0241963967406
Te -0.0023594769 0.0013622473 0.002107073 0.00026122410278 -0.000150666657706 -0.000854120540782
Te 2.10710891 3.6496197 0.0123370501 -0 -2.57110337382e-07 -0.00319253905927
Te 4.2165773069 0.0013622473 0.002107073 -0.00026122410278 -0.000150666657706 -0.000854120540782
Te -2.10710891 3.6468952053 0.002107073 0 0.000301333315411 -0.000854120540782
Te -0.4438161608 2.1768425501 14.0523701206 0.0175004722242 0.0101039220384 -0.0268078664374
Te 2.1071087 6.5951743598 14.0523701206 0 -0.0202075869665 -0.0268078664374
Te 4.6580339808 2.1768423001 14.0523705006 -0.0175004722242 0.0101039220384 -0.0268081235478
Te -2.1071087 6.08269937 13.8691424032 -0 -2.57110337382e-07 -0.0227295822659
Te 2.10710913 1.2128492537 17.2089685889 -0 -0.0128467751176 0.0286467195704
Te 4.2174141282 4.8680047281 17.2089685889 0.0111259356295 0.00642338755881 0.0286467195704
Te 6.32132652 1.21654002 17.2726178222 0 2.57110337382e-07 0.0203693093687
Te -0.0031963082 4.8680049781 17.2089681989 -0.0111259356295 0.00642338755881 0.0286469766807
Te 2.10710868 1.2722326772 10.3624894206 0 -0.0120389344376 0.033344639655
Te 4.1659863624 4.8383134114 10.3624894206 0.0104260812912 0.00601921010844 0.0333448967654
Te 6.32132698 1.21653976 10.3333988149 -0 2.57110337382e-07 -0.00915852732787
Te 0.0482314576 4.8383131414 10.3624898406 -0.0104260812912 0.00601921010844 0.0333448967654
Te -0.0001807072 0.0001043345 24.1870737711 -0.000223943103859 0.00012958361004 -0.0122834463684
Te 2.10710934 3.64961945 24.1923767539 -2.57110337382e-07 -2.57110337382e-07 -0.0139541493407
Te 4.2143985372 0.0001048345 24.1870739611 0.000223943103859 0.000129326499703 -0.0122834463684
Te -2.10710934 3.649410781 24.1870739611 2.57110337382e-07 -0.000258652999406 -0.0122834463684
Te 0.0022459688 2.4343772946 27.5440939852 -0.000606009065209 -0.000349927169176 0.0139271527553
Te 2.10710823 6.0801056708 27.5440939852 2.57110337382e-07 0.000699854338353 0.0139271527553
Te 4.2119718512 2.4343765146 27.5440939752 0.000606009065209 -0.000349670058839 0.0139274098656
Te -2.10710823 6.0826991 27.5516741082 -2.57110337382e-07 -0 0.0124989048311
Te 0.0004114814 2.4333170961 20.6930993833 0.00170489864718 0.000984732592172 0.000762846371011
Te 2.10710915 6.0822244878 20.6930993833 -0 -0.00196895096367 0.000762846371011
Te 4.2138063486 2.4333173661 20.6930989533 -0.00170489864718 0.000984732592172 0.000762846371011
Te -2.10710915 6.08269963 20.7073031793 0 -2.57110337382e-07 -0.00224380191433
Sb 0.0286366033 2.4496114707 8.3348269138 -0.0153816259339 -0.00888033394282 -0.0283163327869
Sb 2.10711038 6.0496335986 8.3348269138 -2.57110337382e-07 0.0177611821063 -0.0283163327869
Sb 4.1855812267 2.4496131707 8.3348273038 0.0153816259339 -0.00888033394282 -0.0283163327869
Sb -2.10711038 6.08270034 8.3129524413 2.57110337382e-07 -0 -0.0138819013359
Sb 0.0027299571 2.434653367 1.9042293049 -0.000291306012253 -0.000167635939973 0.0111246500778
Sb 2.10711114 6.0795484961 1.9042293049 -2.57110337382e-07 0.000336043210958 0.0111246500778
Sb 4.2114878729 2.434655937 1.9042295949 0.000291306012253 -0.000168150160648 0.0111243929675
Sb -2.10711114 6.08270078 1.8896013496 2.57110337382e-07 -2.57110337382e-07 0.0120672165747
Sb 0.0026156992 -0.0015101769 18.7804094906 -0.0029382569356 0.00169641400604 -0.0206585584983
Sb 2.10710819 3.64962011 18.7729675151 0 -2.57110337382e-07 -0.0159606384136
Sb 4.2116021308 -0.0015110069 18.7804097306 0.0029382569356 0.00169641400604 -0.0206583013879
Sb 6.32132747 3.6526404638 18.7804097306 -0 -0.00339282801209 -0.0206583013879
Sb 0.0050059675 -0.0028901928 12.1812888765 -0.00200546063158 0.00115802495957 0.000963392434169
Sb 2.10710964 3.64961928 13.9719949848 -2.57110337382e-07 -0 -0.0308272723417
Sb 4.2092118625 -0.0028893628 12.1812886365 0.00200546063158 0.00115802495957 0.000963135323832
Sb -2.10710964 3.6553996656 12.1812886365 2.57110337382e-07 -0.0023157928088 0.000963135323832
Sb 2.10710669 1.2161272386 29.1297214344 2.57110337382e-07 0.000321645032064 -0.0106633941326
Sb 4.214574095 4.8663678557 29.1297214344 -0.000278450495384 -0.000161208181538 -0.0106633941326
Sb 6.32132897 1.21653861 29.1181688471 -2.57110337382e-07 2.57110337382e-07 -0.00966657735454
Sb -0.000356265 4.8663652857 29.1297211444 0.000278450495384 -0.000160693960864 -0.0106631370222
Sb 2.10710745 1.213769094 22.5858740698 2.57110337382e-07 0.000400577905641 0.0086016263371
Sb 4.2166166801 4.867546263 22.5858740698 -0.000346841845128 -0.000200546063158 0.0086016263371
Sb 6.32132821 1.21653905 22.591456624 -2.57110337382e-07 2.57110337382e-07 0.00866153304571
Sb -0.0023988501 4.867544573 22.5858736798 0.000346841845128 -0.00020028895282 0.00860188344744
Cr 2.1071088 3.64961976 11.3243505969 -0 -2.57110337382e-07 0.0194354846234
61
Lattice="8.42843558953 0 0 -4.21421779477 7.29923593142 0 0 0 31.0334408416" Properties=species:S:1:pos:R:3:forces:R:3 energy=-133598.207365 ionic_step=8 pbc="T T T"
Te 2.1071096 1.2175951074 3.4465582942 -2.57110337382e-07 0.000933567635033 -0.00448426139427
Te 4.2133043305 4.8656314013 3.4465582942 -0.000808354900728 -0.000466912372685 -0.00448426139427
Te 6.32132606 1.21654029 3.4640705128 2.57110337382e-07 0 -0.00356971992421
Te 0.0009134995 4.8656321813 3.4465583042 0.000808354900728 -0.000467169483022 -0.00448426139427
Te 0.0362560864 -0.020932472 6.8418802179 -0.00979950339896 0.00565797008442 0.0180342332846
Te 2.10710848 3.64961994 6.8711618675 2.57110337382e-07 -5.14220674763e-07 0.0154389615391
Te 4.1779617436 -0.020932962 6.8418800379 0.00979950339896 0.00565822719476 0.018034490395
Te -2.10710848 3.6914848841 6.8418800379 -2.57110337382e-07 -0.0113159401688 0.018034490395
Te -0.0020485592 0.0011827389 0.0032525134 9.35881628069e-05 -5.37360605128e-05 -0.0010412968664
Te 2.10710891 3.6496197 0.0138471659 -0 -2.57110337382e-07 -0.00380111922785
Te 4.2162663892 0.0011827389 0.0032525134 -9.35881628069e-05 -5.37360605128e-05 -0.0010412968664
Te -2.10710891 3.6472542223 0.0032525134 0 0.000107729231363 -0.0010412968664
Te -0.4370534552 2.1807470018 14.0592130293 0.0140842471714 0.00813162864037 -0.0233990975844
Te 2.1071087 6.5873654565 14.0592130293 0 -0.0162630001704 -0.0233990975844
Te 4.6512712752 2.1807467518 14.0592134093 -0.0140842471714 0.00813162864037 -0.0233990975844
Te -2.1071087 6.08269937 13.8321643569 -0 -2.57110337382e-07 -0.0165188249561
Te 2.10710913 1.2109232572 17.2336952744 -0 -0.0128760856961 0.0244241964996
Te 4.2190820894 4.8689677264 17.2336952744 0.0111513895529 0.00643804284804 0.0244241964996
Te 6.32132652 1.21654002 17.3159119896 0 2.57110337382e-07 0.0210542513075
Te -0.0048642694 4.8689679764 17.2336948844 -0.0111513895529 0.00643804284804 0.0244241964996
Te 2.10710868 1.2832530137 10.3562468293 0 -0.0144668273535 0.0358856611194
Te 4.1564424755 4.8328032432 10.3562468293 0.0125289867406 0.00723328512156 0.0358859182297
Te 6.32132698 1.21653976 10.3112929951 -0 2.57110337382e-07 0.00020028895282
Te 0.0577753445 4.8328029732 10.3562472493 -0.0125289867406 0.00723328512156 0.0358859182297
Te -0.0007945585 0.0004587419 24.1643146686 -1.79977236167e-05 1.05415238326e-05 -0.00665504397279
Te 2.10710934 3.64961945 24.1707032746 -2.57110337382e-07 -2.57110337382e-07 -0.00852603589791
Te 4.2150123885 0.0004592419 24.1643148586 1.79977236167e-05 1.05415238326e-05 -0.00665504397279
Te -2.10710934 3.6487019662 24.1643148586 2.57110337382e-07 -2.08259373279e-05 -0.00665504397279
Te 0.0019055161 2.4341807341 27.5695792839 -0.000523219536572 -0.000302104646423 0.00864044999805
Te 2.10710823 6.0804987918 27.5695792839 2.57110337382e-07 0.000603952182509 0.00864044999805
Te 4.2123123039 2.4341799541 27.5695792739 0.000522962426234 -0.000301847536086 0.00864070710838
Te -2.10710823 6.0826991 27.5778365039 -2.57110337382e-07 -0 0.00684299162941
Te 0.0008693653 2.4335814556 20.6938752077 0.00206845266424 0.00119479173781 0.00115905340092
Te 2.10710915 6.0816957688 20.6938752077 -0 -0.00238881214461 0.00115905340092
Te 4.2133484647 2.4335817256 20.6938747777 -0.00206845266424 0.00119453462748 0.00115905340092
Te -2.10710915 6.08269963 20.7101055419 0 -2.57110337382e-07 -0.00250476890677
Sb 0.033483486 2.4524098211 8.3334876134 -0.0139009275009 -0.00802544207103 -0.0291203168118
Sb 2.10711038 6.0440368979 8.3334876134 -2.57110337382e-07 0.0160511412524 -0.0291203168118
Sb 4.180734344 2.4524115211 8.3334880034 0.0139009275009 -0.00802544207103 -0.0291203168118
Sb -2.10711038 6.08270034 8.3162432858 2.57110337382e-07 -0 -0.0161894666139
Sb 0.0024722899 2.4345046026 1.8757521048 -0.000275365171336 -0.000158379967827 0.0136052506129
Sb 2.10711114 6.0798460247 1.8757521048 -2.57110337382e-07 0.000317531266666 0.0136055077232
Sb 4.2117455401 2.4345071726 1.8757523948 0.000275365171336 -0.000158894188502 0.0136052506129
Sb -2.10711114 6.08270078 1.8637230548 2.57110337382e-07 -2.57110337382e-07 0.0146133802458
Sb 0.0093773497 -0.0054140195 18.8065369266 -0.00374789738801 0.0021638405994 -0.023221177231
Sb 2.10710819 3.64962011 18.792735037 0 -2.57110337382e-07 -0.0191138395913
Sb 4.2048404803 -0.0054148495 18.8065371666 0.00374789738801 0.00216409770974 -0.023221177231
Sb 6.32132747 3.6604481489 18.8065371666 -0 -0.00432793830914 -0.0232209201206
Sb -0.0064048258 0.0036978349 12.1419949306 -0.000567185404264 0.000327815680162 0.00224071659028
Sb 2.10710964 3.64961928 13.9757592693 -0 -0 -0.032008694342
Sb 4.2206226558 0.0036986649 12.1419946906 0.000567185404264 0.000327558569824 0.00224071659028
Sb -2.10710964 3.6422236102 12.1419946906 2.57110337382e-07 -0.000655117139648 0.00224045947994
Sb 2.10710669 1.2159419577 29.1536949377 2.57110337382e-07 0.00030441863946 -0.0131375669092
Sb 4.2147345529 4.8664604961 29.1536949377 -0.000263280985479 -0.000152466430067 -0.0131375669092
Sb 6.32132897 1.21653861 29.1412151595 -2.57110337382e-07 2.57110337382e-07 -0.0122248252115
Sb -0.0005167229 4.8664579261 29.1536946477 0.000263280985479 -0.00015220931973 -0.0131373097989
Sb 2.10710745 1.214535551 22.5595245824 2.57110337382e-07 0.000529647295006 0.010815346342
Sb 4.2159529092 4.8671630345 22.5595245824 -0.000458684841889 -0.00026508075784 0.010815346342
Sb 6.32132821 1.21653905 22.5667982639 -2.57110337382e-07 2.57110337382e-07 0.0102702724267
Sb -0.0017350792 4.8671613445 22.5595241924 0.000458684841889 -0.000264823647503 0.0108156034523
Cr 2.1071088 3.64961976 11.4099691691 -0 -2.57110337382e-07 0.00479639334385
61
Lattice="8.42843558953 0 0 -4.21421779477 7.29923593142 0 0 0 31.0334408416" Properties=species:S:1:pos:R:3:forces:R:3 energy=-133598.289111 ionic_step=9 pbc="T T T"
Te 2.1071096 1.2186498382 3.4309596056 -2.57110337382e-07 0.000466655262348 -0.00162056645652
Te 4.2123909072 4.8651040359 3.4309596056 -0.000403920340027 -0.000233199076005 -0.00162056645652
Te 6.32132606 1.21654029 3.4492033265 2.57110337382e-07 0 -0.000514734895438
Te 0.0018269228 4.8651048159 3.4309596156 0.000403920340027 -0.00023371329668 -0.00162082356685
Te 0.0359892971 -0.020778441 6.8496120169 -0.00924105974617 0.00533581083168 0.0152008773667
Te 2.10710848 3.64961994 6.8742855012 2.57110337382e-07 -5.14220674763e-07 0.0117193462882
Te 4.1782285329 -0.020778931 6.8496118369 0.00924105974617 0.00533581083168 0.015201134477
Te -2.10710848 3.6911768221 6.8496118369 -2.57110337382e-07 -0.0106711074427 0.015201134477
Te -0.0018572602 0.0010722923 0.003729676 8.74175147098e-06 -4.88509641025e-06 -0.0010626370244
Te 2.10710891 3.6496197 0.0140108523 -0 -2.57110337382e-07 -0.00389753560437
Te 4.2160750902 0.0010722923 0.003729676 -8.74175147098e-06 -4.88509641025e-06 -0.0010626370244
Te -2.10710891 3.6474751155 0.003729676 0 9.7701928205e-06 -0.0010626370244
Te -0.4218762828 2.1895095504 14.0532894235 0.0124330845848 0.00717826350936 -0.0201862468085
Te 2.1071087 6.5698403591 14.0532894235 0 -0.0143565270187 -0.0201862468085
Te 4.6360941028 2.1895093004 14.0532898035 -0.0124330845848 0.00717826350936 -0.0201862468085
Te -2.1071087 6.08269937 13.8073297176 -0 -2.57110337382e-07 -0.0125289867406
Te 2.10710913 1.209172797 17.2466006831 -0 -0.0129966704443 0.0219592796951
Te 4.2205980317 4.8698429565 17.2466006831 0.0112557763499 0.00649846377732 0.0219592796951
Te 6.32132652 1.21654002 17.3384003656 0 2.57110337382e-07 0.0217589907423
Te -0.0063802117 4.8698432065 17.2466002931 -0.0112557763499 0.00649820666698 0.0219592796951
Te 2.10710868 1.2976129006 10.3558782641 0 -0.0175596076018 0.0350809057634
Te 4.1440064544 4.8256232997 10.3558782641 0.0152075622354 0.00877954669057 0.0350811628737
Te 6.32132698 1.21653976 10.2964262839 -0 2.57110337382e-07 0.00516663222968
Te 0.0702113656 4.8256230297 10.3558786841 -0.0152073051251 0.00877980380091 0.035081419984
Te -0.0012576676 0.0007261182 24.1518258142 0.000150409547368 -8.66461836976e-05 -0.00341468239077
Te 2.10710934 3.64961945 24.1588979931 -2.57110337382e-07 -2.57110337382e-07 -0.00535509410698
Te 4.2154754976 0.0007266182 24.1518260042 -0.000150409547368 -8.66461836976e-05 -0.0034149395011
Te -2.10710934 3.6481672137 24.1518260042 2.57110337382e-07 0.000173549477733 -0.0034149395011
Te 0.0016672776 2.434043187 27.5836437394 -0.000471797469095 -0.000272536957625 0.00555229773576
Te 2.10710823 6.080773886 27.5836437394 2.57110337382e-07 0.000544816804912 0.00555229773576
Te 4.2125505424 2.434042407 27.5836437294 0.000471797469095 -0.00027202273695 0.00555229773576
Te -2.10710823 6.0826991 27.5922723582 -2.57110337382e-07 -0 0.00356123528307
Te 0.001388933 2.4338814283 20.6943934985 0.00219263695719 0.0012662684116 0.00123618650213
Te 2.10710915 6.0810958234 20.6943934985 -0 -0.00253202260253 0.00123618650213
Te 4.212828897 2.4338816983 20.6943930685 -0.00219263695719 0.0012662684116 0.00123618650213
Te -2.10710915 6.08269963 20.7114911824 0 -2.57110337382e-07 -0.0026631488746
Sb 0.0318063329 2.4514415158 8.3366570631 -0.0125356716094 -0.00723714177662 -0.0287832451595
Sb 2.10711038 6.0459735084 8.3366570631 -2.57110337382e-07 0.0144747977739 -0.0287832451595
Sb 4.1824114971 2.4514432158 8.3366574531 0.0125356716094 -0.00723714177662 -0.0287832451595
Sb -2.10711038 6.08270034 8.3254347914 2.57110337382e-07 -0 -0.01665895009
Sb 0.001853525 2.4341473584 1.8578718864 -0.00021211602834 -0.000122127410256 0.0152021629184
Sb 2.10711114 6.0805605132 1.8578718864 -2.57110337382e-07 0.000244769041187 0.0152021629184
Sb 4.212364305 2.4341499284 1.8578721764 0.00021211602834 -0.000122384520594 0.015201905808
Sb -2.10711114 6.08270078 1.8478406132 2.57110337382e-07 -2.57110337382e-07 0.0161717260006
Sb 0.0144223816 -0.0083267713 18.8235603285 -0.0042106959953 0.00243097823994 -0.0246193432456
Sb 2.10710819 3.64962011 18.8043668498 0 -2.57110337382e-07 -0.0209573207103
Sb 4.1997954484 -0.0083276013 18.8235605685 0.0042106959953 0.00243123535028 -0.0246190861353
Sb 6.32132747 3.6662736526 18.8235605685 -0 -0.00486221359022 -0.0246190861353
Sb -0.0172055436 0.0099336351 12.1278683779 0.000683656387098 -0.000394407257543 0.00348821594726
Sb 2.10710964 3.64961928 13.9843086197 -0 -0 -0.0326548126198
Sb 4.2314233736 0.0099344651 12.1278681379 -0.000683656387098 -0.000394664367881 0.00348795883692
Sb -2.10710964 3.6297520098 12.1278681379 2.57110337382e-07 0.000789328735762 0.00348795883692
Sb 2.10710669 1.2160126436 29.1679102391 2.57110337382e-07 0.000264823647503 -0.0147208523668
Sb 4.2146733371 4.8664251532 29.1679102391 -0.000229085310607 -0.000132668934089 -0.0147208523668
Sb 6.32132897 1.21653861 29.1552128175 -2.57110337382e-07 2.57110337382e-07 -0.0139649479749
Sb -0.0004555071 4.8664225832 29.1679099491 0.000229085310607 -0.000132411823752 -0.0147205952564
Sb 2.10710745 1.2160968092 22.5445519936 2.57110337382e-07 0.000544302584237 0.0123253553534
Sb 4.2146008206 4.8663824054 22.5445519936 -0.000471283248421 -0.000272279847287 0.0123256124637
Sb 6.32132821 1.21653905 22.5518178003 -2.57110337382e-07 2.57110337382e-07 0.0113583633745
Sb -0.0003829906 4.8663807154 22.5445516036 0.000471283248421 -0.00027202273695 0.0123256124637
Cr 2.1071088 3.64961976 11.4559997875 -0 -2.57110337382e-07 -0.00745594267373
61
Lattice="8.42843558953 0 0 -4.21421779477 7.29923593142 0 0 0 31.0334408416" Properties=species:S:1:pos:R:3:forces:R:3 energy=-133598.405476 ionic_step=10 pbc="T T T"
Te 2.1071096 1.2198676801 3.4076724912 -2.57110337382e-07 -0.000488252530688 0.00192112844092
Te 4.2113362258 4.864495115 3.4076724912 0.000422946504993 0.000243997710175 0.00192112844092
Te 6.32132606 1.21654029 3.4259943229 2.57110337382e-07 0 0.00398495311908
Te 0.0028816042 4.864495895 3.4076725012 -0.000422946504993 0.000243740599838 0.00192112844092
Te 0.035496233 -0.0204937703 6.8593397768 -0.0081167162408 0.00468660722979 0.011834274609
Te 2.10710848 3.64961994 6.8654461343 2.57110337382e-07 -5.14220674763e-07 0.00790382888145
Te 4.178721597 -0.0204942603 6.8593395968 0.0081167162408 0.00468660722979 0.0118345317193
Te -2.10710848 3.6906074805 6.8593395968 -2.57110337382e-07 -0.00937270023891 0.011834274609
Te -0.0015561573 0.0008984504 0.0040580601 -0.000102844134953 5.96495982725e-05 -0.000983961261159
Te 2.10710891 3.6496197 0.0132721096 -0 -2.57110337382e-07 -0.0037175583682
Te 4.2157739873 0.0008984504 0.0040580601 0.000102844134953 5.96495982725e-05 -0.000983961261159
Te -2.10710891 3.6478227993 0.0040580601 0 -0.000119042086208 -0.000983961261159
Te -0.3961436801 2.2043662825 14.0321098497 0.0107703520329 0.00621847061991 -0.0143585839014
Te 2.1071087 6.5401268951 14.0321098497 0 -0.0124364270191 -0.0143585839014
Te 4.6103615001 2.2043660325 14.0321102297 -0.0107703520329 0.00621847061991 -0.0143588410118
Te -2.1071087 6.08269937 13.7633624545 -0 -2.57110337382e-07 -0.00528670275724
Te 2.10710913 1.2057136395 17.2653788571 -0 -0.0135162904362 0.017743441493
Te 4.2235937485 4.8715725352 17.2653788571 0.0117057194403 0.00675814521808 0.017743441493
Te 6.32132652 1.21654002 17.3706820344 0 2.57110337382e-07 0.0223750271106
Te -0.0093759285 4.8715727852 17.2653784671 -0.0117057194403 0.00675814521808 0.0177436986034
Te 2.10710868 1.3292684632 10.3613688622 0 -0.0230651112562 0.0315939753678
Te 4.1165919459 4.8097955184 10.3613688622 0.0199751592215 0.0115324270729 0.0315942324781
Te 6.32132698 1.21653976 10.2705403085 -0 2.57110337382e-07 0.0109683269927
Te 0.0976258741 4.8097952484 10.3613692822 -0.0199751592215 0.0115324270729 0.0315942324781
Te -0.00206501 0.0011922377 24.1324124505 0.00042423205668 -0.000244769041187 0.00176480535579
Te 2.10710934 3.64961945 24.14071336 -2.57110337382e-07 -2.57110337382e-07 -0.000272536957625
Te 4.21628284 0.0011927377 24.1324126405 -0.00042423205668 -0.000244769041187 0.00176480535579
Te -2.10710934 3.6472349745 24.1324126405 2.57110337382e-07 0.000489538082375 0.00176480535579
Te 0.001337928 2.4338530368 27.6049898005 -0.000419089849932 -0.000241940827476 0.000551758784021
Te 2.10710823 6.0811541864 27.6049898005 2.57110337382e-07 0.000483624544615 0.000551758784021
Te 4.212879892 2.4338522568 27.6049897905 0.000419089849932 -0.000241683717139 0.000551758784021
Te -2.10710823 6.0826991 27.6141129093 -2.57110337382e-07 -0 -0.00170669841954
Te 0.0025148435 2.4345314733 20.6950410878 0.00226642762402 0.00130894872761 0.00114156989797
Te 2.10710915 6.0797957333 20.6950410878 -0 -0.00261712612421 0.00114156989797
Te 4.2117029865 2.4345317433 20.6950406578 -0.00226642762402 0.00130869161727 0.00114156989797
Te -2.10710915 6.08269963 20.7138360425 0 -2.57110337382e-07 -0.003006391175
Sb 0.0256877771 2.4479089643 8.3449759805 -0.0105163270196 -0.00607140350693 -0.0277180370318
Sb 2.10711038 6.0530386113 8.3449759805 -2.57110337382e-07 0.0121430641242 -0.0277180370318
Sb 4.1885300529 2.4479106643 8.3449763705 0.0105163270196 -0.00607140350693 -0.0277180370318
Sb -2.10711038 6.08270034 8.3463133894 2.57110337382e-07 -0 -0.0164630320129
Sb 0.0004540077 2.4333393463 1.8313550963 -5.03936261268e-05 -2.87963577867e-05 0.0174593345702
Sb 2.10711114 6.0821765374 1.8313550963 -2.57110337382e-07 5.81069362482e-05 0.0174593345702
Sb 4.2137638223 2.4333419163 1.8313553863 5.03936261268e-05 -2.90534681241e-05 0.0174590774599
Sb -2.10711114 6.08270078 1.8249719684 2.57110337382e-07 -2.57110337382e-07 0.0182867156359
Sb 0.0223063319 -0.0128785743 18.8495569833 -0.00483187457041 0.00278964716059 -0.0263602373401
Sb 2.10710819 3.64962011 18.8205480846 0 -2.57110337382e-07 -0.0231090771239
Sb 4.1919114981 -0.0128794043 18.8495572233 0.00483187457041 0.00278990427093 -0.0263602373401
Sb 6.32132747 3.6753772585 18.8495572233 -0 -0.00557955143152 -0.0263599802297
Sb -0.0360849445 0.0208336674 12.117539518 0.00281561530467 -0.00162519444259 0.00590993821505
Sb 2.10710964 3.64961928 14.0165879959 -0 -0 -0.0361813380074
Sb 4.2503027745 0.0208344974 12.117539278 -0.00281561530467 -0.00162545155293 0.00590993821505
Sb -2.10710964 3.6079519452 12.117539278 2.57110337382e-07 0.00325090310585 0.00590968110472
Sb 2.10710669 1.2164092836 29.1878699219 2.57110337382e-07 0.0001630079539 -0.0169299443856
Sb 4.214329837 4.8662268332 29.1878699219 -0.000140896464885 -8.17610872874e-05 -0.0169299443856
Sb 6.32132897 1.21653861 29.1753422116 -2.57110337382e-07 2.57110337382e-07 -0.0165293664799
Sb -0.000112007 4.8662242632 29.1878696319 0.000140896464885 -8.150397695e-05 -0.0169296872752
Sb 2.10710745 1.2198452428 22.5246529565 2.57110337382e-07 0.000462027276275 0.0145138785452
Sb 4.2113545833 4.8645081886 22.5246529565 -0.000400063684966 -0.000231142193306 0.0145138785452
Sb 6.32132821 1.21653905 22.5303021371 -2.57110337382e-07 2.57110337382e-07 0.0129514190249
Sb 0.0028632467 4.8645064986 22.5246525665 0.000400063684966 -0.000231142193306 0.0145141356555
Cr 2.1071088 3.64961976 11.5053661496 -2.57110337382e-07 -2.57110337382e-07 -0.024449650423
61
Lattice="8.42843558953 0 0 -4.21421779477 7.29923593142 0 0 0 31.0334408416" Properties=species:S:1:pos:R:3:forces:R:3 energy=-133598.474639 ionic_step=11 pbc="T T T"
Te 2.1071096 1.2202870485 3.3919002606 -2.57110337382e-07 -0.00124569958461 0.0036707642868
Te 4.2109730422 4.8642854308 3.3919002606 0.00107883497565 0.000622721237138 0.0036707642868
Te 6.32132606 1.21654029 3.4094278327 2.57110337382e-07 0 0.00719240457791
Te 0.0032447878 4.8642862108 3.3919002706 -0.00107883497565 0.000622464126801 0.0036707642868
Te 0.0371522125 -0.0214498509 6.8647822415 -0.00778530101592 0.00449506002844 0.0103075534256
Te 2.10710848 3.64961994 6.8494805948 2.57110337382e-07 -5.14220674763e-07 0.00709521687038
Te 4.1770656175 -0.0214503409 6.8647820615 0.00778530101592 0.00449531713878 0.010307810536
Te -2.10710848 3.6925196418 6.8647820615 -2.57110337382e-07 -0.00898986294655 0.010307810536
Te -0.0013370614 0.0007719552 0.0036538185 -0.000166607498623 9.64163765181e-05 -0.000821981748609
Te 2.10710891 3.6496197 0.0117429646 -0 -2.57110337382e-07 -0.00332006578661
Te 4.2155548914 0.0007719552 0.0036538185 0.000166607498623 9.64163765181e-05 -0.000821981748609
Te -2.10710891 3.6480757896 0.0036538185 0 -0.000192575642699 -0.000821981748609
Te -0.3825012751 2.2122427323 14.0092019779 0.0100609846121 0.00580863674213 -0.00947297327049
Te 2.1071087 6.5243739954 14.0092019779 0 -0.0116172734843 -0.00947297327049
Te 4.5967190951 2.2122424823 14.0092023579 -0.0100609846121 0.00580889385246 -0.00947297327049
Te -2.1071087 6.08269937 13.727536865 -0 -2.57110337382e-07 0.000839979472226
Te 2.10710913 1.2025913604 17.27781877 -0 -0.0140924747022 0.0141780924446
Te 4.2262977203 4.8731336748 17.27781877 0.0122047706052 0.00704636590628 0.0141780924446
Te 6.32132652 1.21654002 17.3911040433 0 2.57110337382e-07 0.0220204719554
Te -0.0120799003 4.8731339248 17.27781838 -0.0122047706052 0.00704610879594 0.0141780924446
Te 2.10710868 1.3570859694 10.3710404914 0 -0.0262226833096 0.0275599141743
Te 4.09250129 4.7958867653 10.3710404914 0.0227097847699 0.0131110845444 0.0275604283949
Te 6.32132698 1.21653976 10.2500918552 -0 2.57110337382e-07 0.0129190231224
Te 0.12171653 4.7958864953 10.3710409114 -0.0227095276596 0.0131110845444 0.0275604283949
Te -0.0027742058 0.0016016923 24.1182814451 0.000620150133764 -0.000357897589635 0.00557440922477
Te 2.10710934 3.64961945 24.1282592666 -2.57110337382e-07 -2.57110337382e-07 0.00332623643471
Te 4.2169920358 0.0016021923 24.1182816351 -0.000620150133764 -0.000357897589635 0.00557415211443
Te -2.10710934 3.6464160654 24.1182816351 2.57110337382e-07 0.00071579517927 0.00557415211443
Te 0.0012147725 2.4337819329 27.6196224609 -0.000442229780296 -0.00025531056502 -0.00317659821835
Te 2.10710823 6.0812963942 27.6196224609 2.57110337382e-07 0.00051062113004 -0.00317659821835
Te 4.2130030475 2.4337811529 27.6196224509 0.000442229780296 -0.000255053454683 -0.00317659821835
Te -2.10710823 6.0826991 27.6290668213 -2.57110337382e-07 -0 -0.00564434323654
Te 0.0036369012 2.4351792939 20.6950263717 0.00220446403271 0.00127321039071 0.000924568773224
Te 2.10710915 6.0785000921 20.6950263717 -0 -0.00254590656075 0.000924568773224
Te 4.2105809288 2.4351795639 20.6950259417 -0.00220446403271 0.00127321039071 0.000924568773224
Te -2.10710915 6.08269963 20.7164008074 0 -2.57110337382e-07 -0.00341313972874
Sb 0.0207175181 2.4450393826 8.3522110443 -0.00967429066466 -0.00558520785894 -0.026906596807
Sb 2.10711038 6.0587777748 8.3522110443 -2.57110337382e-07 0.0111706728282 -0.026906596807
Sb 4.1935003119 2.4450410826 8.3522114343 0.00967429066466 -0.00558520785894 -0.026906596807
Sb -2.10711038 6.08270034 8.3646929912 2.57110337382e-07 -0 -0.0159087021255
Sb -0.0007147638 2.4326645555 1.8157498371 0.000107215010688 6.24778119837e-05 0.0186333003707
Sb 2.10711114 6.0835261191 1.8157498371 -2.57110337382e-07 -0.000124184292955 0.0186333003707
Sb 4.2149325938 2.4326671255 1.8157501271 -0.000107215010688 6.1963591309e-05 0.0186330432604
Sb -2.10711114 6.08270078 1.8121439778 2.57110337382e-07 -2.57110337382e-07 0.0193251842886
Sb 0.0267917873 -0.0154682544 18.8657198787 -0.00511135350715 0.00295111245247 -0.027033095093
Sb 2.10710819 3.64962011 18.8291348553 0 -2.57110337382e-07 -0.023560305766
Sb 4.1874260427 -0.0154690844 18.8657201187 0.00511135350715 0.00295111245247 -0.0270328379826
Sb 6.32132747 3.6805566188 18.8657201187 -0 -0.00590222490493 -0.0270328379826
Sb -0.0480235763 0.0277264429 12.1185151372 0.00413767665948 -0.00238855503428 0.00786114856544
Sb 2.10710964 3.64961928 14.057056521 -0 -0 -0.0413358860512
Sb 4.2622414063 0.0277272729 12.1185148972 -0.00413767665948 -0.00238881214461 0.00786089145511
Sb -2.10710964 3.5941663942 12.1185148972 2.57110337382e-07 0.00477762428923 0.00786089145511
Sb 2.10710669 1.2169781227 29.1984859018 2.57110337382e-07 6.01638189473e-05 -0.0180424608154
Sb 4.2138372081 4.8659424136 29.1984859018 -5.19362881511e-05 -3.0339019811e-05 -0.0180424608154
Sb 6.32132897 1.21653861 29.1867668603 -2.57110337382e-07 2.57110337382e-07 -0.0179247042809
Sb 0.0003806219 4.8659398436 29.1984856118 5.19362881511e-05 -3.00819094737e-05 -0.0180422037051
Sb 2.10710745 1.2234272864 22.5155301306 2.57110337382e-07 0.000299790653387 0.0156747317185
Sb 4.2082524441 4.8627171668 22.5155301306 -0.000259424330418 -0.000150152437031 0.0156749888288
Sb 6.32132821 1.21653905 22.5184090353 -2.57110337382e-07 2.57110337382e-07 0.0138801015635
Sb 0.0059653859 4.8627154768 22.5155297406 0.000259424330418 -0.000149895326693 0.0156749888288
Cr 2.1071088 3.64961976 11.5184220963 -2.57110337382e-07 -2.57110337382e-07 -0.0322848308443
61
Lattice="8.42843558953 0 0 -4.21421779477 7.29923593142 0 0 0 31.0334408416" Properties=species:S:1:pos:R:3:forces:R:3 energy=-133598.502725 ionic_step=12 pbc="T T T"
Te 2.1071096 1.2201850677 3.3841075436 -2.57110337382e-07 -0.00156451640297 0.00424489167017
Te 4.2110613601 4.8643364211 3.3841075436 0.001354971478 0.000782129646315 0.00424489167017
Te 6.32132606 1.21654029 3.4005867988 2.57110337382e-07 0 0.0092536581527
Te 0.0031564699 4.8643372011 3.3841075536 -0.001354971478 0.000781872535978 0.00424489167017
Te 0.0416260053 -0.0240327976 6.8676006523 -0.00869084362417 0.00501802245468 0.00976890726882
Te 2.10710848 3.64961994 6.8381805526 2.57110337382e-07 -5.14220674763e-07 0.00764646143373
Te 4.1725918247 -0.0240332876 6.8676004723 0.00869084362417 0.00501827956501 0.00976916437915
Te -2.10710848 3.6976855352 6.8676004723 -2.57110337382e-07 -0.010035787799 0.00976916437915
Te -0.0012082893 0.0006976086 0.0027745688 -0.000186404994602 0.000107729231363 -0.000652288925937
Te 2.10710891 3.6496197 0.0102503164 -0 -2.57110337382e-07 -0.00293697138391
Te 4.2154261193 0.0006976086 0.0027745688 0.000186404994602 0.000107729231363 -0.000652288925937
Te -2.10710891 3.6482244828 0.0027745688 0 -0.000215458462726 -0.000652288925937
Te -0.3842069594 2.2112579546 13.9964877865 0.00941769454795 0.00543736941495 -0.00688978571082
Te 2.1071087 6.5263435508 13.9964877865 0 -0.0108747388299 -0.00688978571082
Te 4.5984247794 2.2112577046 13.9964881665 -0.00941769454795 0.00543736941495 -0.00688978571082
Te -2.1071087 6.08269937 13.7061291157 -0 -2.57110337382e-07 0.00478945136474
Te 2.10710913 1.2005129144 17.2841375006 -0 -0.0144069206448 0.0117993076031
Te 4.2280977064 4.8741728978 17.2841375006 0.0124770504525 0.00720346032242 0.0117993076031
Te 6.32132652 1.21654002 17.4007725467 0 2.57110337382e-07 0.0217119395505
Te -0.0138798864 4.8741731478 17.2841371106 -0.0124770504525 0.00720346032242 0.0117995647135
Te 2.10710868 1.371592069 10.3792040191 0 -0.0269168812205 0.0253240826804
Te 4.0799386451 4.7886337155 10.3792040191 0.0233109087387 0.0134581834999 0.0253243397907
Te 6.32132698 1.21653976 10.2382835356 -0 2.57110337382e-07 0.0126151187036
Te 0.1342791749 4.7886334455 10.3792044391 -0.0233106516284 0.0134581834999 0.0253245969011
Te -0.0033492719 0.001933707 24.1101843839 0.000724794041079 -0.00041831851892 0.00771588122482
Te 2.10710934 3.64961945 24.1223650084 -2.57110337382e-07 -2.57110337382e-07 0.00510955373479
Te 4.2175671019 0.001934207 24.1101845739 -0.000724794041079 -0.000418575629257 0.00771562411449
Te -2.10710934 3.6457520359 24.1101845739 2.57110337382e-07 0.000836894148177 0.00771562411449
Te 0.0012817594 2.4338206078 27.6270384102 -0.000528875963994 -0.000305447080809 -0.00529235918466
Te 2.10710823 6.0812190444 27.6270384102 2.57110337382e-07 0.000610637051281 -0.00529235918466
Te 4.2129360606 2.4338198278 27.6270384002 0.000528875963994 -0.000305189970472 -0.00529235918466
Te -2.10710823 6.0826991 27.6364652071 -2.57110337382e-07 -0 -0.00792696881181
Te 0.004517214 2.435687543 20.6943898601 0.00208490772583 0.00120404770996 0.000759761046963
Te 2.10710915 6.077483594 20.6943898601 -0 -0.00240758119924 0.000759761046963
Te 4.209700616 2.435687813 20.6943894301 -0.00208490772583 0.00120404770996 0.000759761046963
Te -2.10710915 6.08269963 20.7191534053 0 -2.57110337382e-07 -0.00383505779238
Sb 0.0204121407 2.4448630728 8.3547255284 -0.00977816324096 -0.00564511456755 -0.0265641258376
Sb 2.10711038 6.0591303944 8.3547255284 -2.57110337382e-07 0.0112907433558 -0.0265641258376
Sb 4.1938056893 2.4448647728 8.3547259184 0.00977816324096 -0.00564537167789 -0.0265641258376
Sb -2.10711038 6.08270034 8.3742461198 2.57110337382e-07 -0 -0.0160025473986
Sb -0.001177593 2.4323973408 1.8108251117 0.000199517621808 0.000115699651822 0.0189022377836
Sb 2.10711114 6.0840605484 1.8108251117 -2.57110337382e-07 -0.000230627972631 0.0189022377836
Sb 4.215395423 2.4323999108 1.8108254017 -0.000199517621808 0.000115442541484 0.0189019806733
Sb -2.10711114 6.08270078 1.8085971019 2.57110337382e-07 -2.57110337382e-07 0.019517502821
Sb 0.0274641198 -0.0158564259 18.8716341482 -0.00510029776264 0.00294468469403 -0.0269816730255
Sb 2.10710819 3.64962011 18.831081769 0 -2.57110337382e-07 -0.0229103308331
Sb 4.1867537102 -0.0158572559 18.8716343882 0.00510029776264 0.00294494180437 -0.0269814159152
Sb 6.32132747 3.6813329618 18.8716343882 -0 -0.00588936938806 -0.0269814159152
Sb -0.0498565067 0.0287846863 12.1201906865 0.00433308051589 -0.00250142647239 0.00881914168253
Sb 2.10710964 3.64961928 14.08630756 -0 -0 -0.0454175126571
Sb 4.2640743367 0.0287855163 12.1201904465 -0.00433308051589 -0.00250168358272 0.00881914168253
Sb -2.10710964 3.5920499075 12.1201904465 2.57110337382e-07 0.00500336716545 0.00881888457219
Sb 2.10710669 1.2174704025 29.2008616483 2.57110337382e-07 -9.7701928205e-06 -0.0182592048298
Sb 4.2134108814 4.8656962737 29.2008616483 8.74175147098e-06 4.62798607287e-06 -0.0182592048298
Sb 6.32132897 1.21653861 29.190103762 -2.57110337382e-07 2.57110337382e-07 -0.0182592048298
Sb 0.0008069486 4.8656937037 29.2008613583 -8.74175147098e-06 4.88509641025e-06 -0.0182589477195
Sb 2.10710745 1.2255237003 22.5151168624 2.57110337382e-07 0.000159922629851 0.0159251571871
Sb 4.2064368972 4.8616689598 22.5151168624 -0.000138325361511 -8.02184252631e-05 0.0159251571871
Sb 6.32132821 1.21653905 22.5153978337 -2.57110337382e-07 2.57110337382e-07 0.0142372278222
Sb 0.0077809328 4.8616672698 22.5151164724 0.000138325361511 -7.99613149257e-05 0.0159254142974
Cr 2.1071088 3.64961976 11.5165999253 -2.57110337382e-07 -2.57110337382e-07 -0.0334533973277
61
Lattice="8.42843558953 0 0 -4.21421779477 7.29923593142 0 0 0 31.0334408416" Properties=species:S:1:pos:R:3:forces:R:3 energy=-133598.520293 ionic_step=13 pbc="T T T"
Te 2.1071096 1.2198861983 3.3792065864 -2.57110337382e-07 -0.00171749705371 0.00433847983298
Te 4.2113201885 4.8644858558 3.3792065864 0.00148738330175 0.000858748526855 0.00433847983298
Te 6.32132606 1.21654029 3.3946695509 2.57110337382e-07 0 0.0110724566793
Te 0.0028976415 4.8644866358 3.3792065964 -0.00148738330175 0.000858491416517 0.00433847983298
Te 0.0486296952 -0.0280763817 6.8697390942 -0.0105155556886 0.00607166061727 0.00944109158865
Te 2.10710848 3.64961994 6.8281765744 2.57110337382e-07 -5.14220674763e-07 0.00870729868577
Te 4.1655881348 -0.0280768717 6.8697389142 0.0105155556886 0.00607166061727 0.00944134869899
Te -2.10710848 3.7057727034 6.8697389142 -2.57110337382e-07 -0.0121428070139 0.00944134869899
Te -0.0010965487 0.0006330951 0.0015273418 -0.000197203628772 0.000114156989797 -0.00047231168977
Te 2.10710891 3.6496197 0.0086180712 -0 -2.57110337382e-07 -0.00255644808459
Te 4.2153143787 0.0006330951 0.0015273418 0.000197203628772 0.000114156989797 -0.00047231168977
Te -2.10710891 3.6483535098 0.0015273418 0 -0.000228056869258 -0.00047231168977
Te -0.3902324945 2.2077791087 13.9894015665 0.00848258425089 0.00489743770645 -0.0051949143668
Te 2.1071087 6.5333012427 13.9894015665 0 -0.00979487541289 -0.00519465725646
Te 4.6044503145 2.2077788587 13.9894019465 -0.00848258425089 0.00489769481678 -0.0051949143668
Te -2.1071087 6.08269937 13.6892071472 -0 -2.57110337382e-07 0.00804318268431
Te 2.10710913 1.1985826138 17.2881800261 -0 -0.0145506453234 0.00992934411934
Te 4.229769395 4.8751380481 17.2881800261 0.0126014918557 0.00727545121689 0.00992934411934
Te 6.32132652 1.21654002 17.4066072247 0 2.57110337382e-07 0.0216252933668
Te -0.015551575 4.8751382981 17.2881796361 -0.0126014918557 0.00727519410655 0.00992960122968
Te 2.10710868 1.3799741511 10.3862363699 0 -0.0267569585906 0.0238801510257
Te 4.0726795524 4.7844426744 10.3862363699 0.0231723262669 0.013378222185 0.023880408136
Te 6.32132698 1.21653976 10.2294102108 -0 2.57110337382e-07 0.0119890550321
Te 0.1415382676 4.7844424044 10.3862367899 -0.0231723262669 0.013378222185 0.023880408136
Te -0.0040924168 0.0023627621 24.1040766219 0.00085334920977 -0.000492366296086 0.0092323179947
Te 2.10710934 3.64961945 24.1194819727 -2.57110337382e-07 -2.57110337382e-07 0.00609351499594
Te 4.2183102468 0.0023632621 24.1040768119 -0.00085334920977 -0.000492623406423 0.00923206088436
Te -2.10710934 3.6448939257 24.1040768119 2.57110337382e-07 0.000985246812846 0.00923206088436
Te 0.0014154704 2.433897806 27.6316512151 -0.000656659801673 -0.000379237747638 -0.00677331472798
Te 2.10710823 6.0810646481 27.6316512151 2.57110337382e-07 0.000758218384938 -0.00677331472798
Te 4.2128023496 2.433897026 27.6316512051 0.000656659801673 -0.000378980637301 -0.00677331472798
Te -2.10710823 6.0826991 27.6409072177 -2.57110337382e-07 -0 -0.00963212456933
Te 0.0055064639 2.436258687 20.6933769747 0.00191084402742 0.00110377467838 0.000619893023427
Te 2.10710915 6.076341306 20.6933769747 -0 -0.00220677802575 0.000619893023427
Te 4.2087113661 2.436258957 20.6933765447 -0.00191084402742 0.00110351756804 0.000619893023427
Te -2.10710915 6.08269963 20.7225220483 0 -2.57110337382e-07 -0.0043248529851
Sb 0.0226674183 2.4461651586 8.3546929555 -0.010011362317 -0.005779583274 -0.0262689631703
Sb 2.10711038 6.0565262229 8.3546929555 -2.57110337382e-07 0.011559937879 -0.0262689631703
Sb 4.1915504117 2.4461668586 8.3546933455 0.010011362317 -0.00577984038434 -0.0262689631703
Sb -2.10711038 6.08270034 8.3815421554 2.57110337382e-07 -0 -0.0166980308612
Sb -0.0012695052 2.4323442752 1.8091833696 0.000265852088853 0.000153751981754 0.0189287201484
Sb 2.10711114 6.0841666796 1.8091833696 -2.57110337382e-07 -0.000306989742834 0.0189287201484
Sb 4.2154873352 2.4323468452 1.8091836596 -0.000265852088853 0.000153494871417 0.018928463038
Sb -2.10711114 6.08270078 1.8078822478 2.57110337382e-07 -2.57110337382e-07 0.0194930773389
Sb 0.0266986528 -0.0154144831 18.874695866 -0.00497097126294 0.00286986558585 -0.0267204489227
Sb 2.10710819 3.64962011 18.8310008901 0 -2.57110337382e-07 -0.0219757347567
Sb 4.1875191772 -0.0154153131 18.874696106 0.00497097126294 0.00287012269619 -0.0267201918124
Sb 6.32132747 3.6804490762 18.874696106 -0 -0.00573998828204 -0.0267201918124
Sb -0.046986072 0.0271274392 12.1190542871 0.00395435698893 -0.00228288268561 0.00946628840172
Sb 2.10710964 3.64961928 14.1081573396 -0 -0 -0.048651703591
Sb 4.261203902 0.0271282692 12.1190540471 -0.00395435698893 -0.00228288268561 0.00946628840172
Sb -2.10710964 3.5953644015 12.1190540471 2.57110337382e-07 0.00456576537122 0.00946603129138
Sb 2.10710669 1.2179395981 29.2007404532 2.57110337382e-07 -7.04482324426e-05 -0.018228094479
Sb 4.2130045464 4.865461676 29.2007404532 6.11922602968e-05 3.49670058839e-05 -0.018228094479
Sb 6.32132897 1.21653861 29.1911227443 -2.57110337382e-07 2.57110337382e-07 -0.0182741172294
Sb 0.0012132836 4.865459106 29.2007401632 -6.11922602968e-05 3.52241162213e-05 -0.0182278373687
Sb 2.10710745 1.2270161411 22.5176022594 2.57110337382e-07 4.16518746558e-05 0.0159233574147
Sb 4.2051444062 4.8609227394 22.5176022594 -3.59954472334e-05 -2.10830476653e-05 0.0159233574147
Sb 6.32132821 1.21653905 22.5150501693 -2.57110337382e-07 2.57110337382e-07 0.0145066794557
Sb 0.0090734238 4.8609210494 22.5176018694 3.59954472334e-05 -2.08259373279e-05 0.0159236145251
Cr 2.1071088 3.64961976 11.5199061633 -2.57110337382e-07 -2.57110337382e-07 -0.033724134513
61
Lattice="8.42843558953 0 0 -4.21421779477 7.29923593142 0 0 0 31.0334408416" Properties=species:S:1:pos:R:3:forces:R:3 energy=-133598.541103 ionic_step=14 pbc="T T T"
Te 2.1071096 1.2193315054 3.374807642 -2.57110337382e-07 -0.00188230477997 0.00389059362526
Te 4.2118005664 4.8647632023 3.374807642 0.00163033664934 0.000941280945154 0.00389059362526
Te 6.32132606 1.21654029 3.3888881161 2.57110337382e-07 0 0.0133509684892
Te 0.0024172636 4.8647639823 3.374807652 -0.00163033664934 0.000940766724479 0.00389059362526
Te 0.0605088605 -0.0349348242 6.8718521751 -0.0137083518582 0.00791488462596 0.00927628386239
Te 2.10710848 3.64961994 6.8121723252 2.57110337382e-07 -5.14220674763e-07 0.0109063634014
Te 4.1537089695 -0.0349353142 6.8718519951 0.0137083518582 0.00791514173629 0.00927628386239
Te -2.10710848 3.7194895884 6.8718519951 -2.57110337382e-07 -0.0158295121416 0.00927628386239
Te -0.0009417129 0.0005437006 -0.0005573773 -0.000210830476653 0.000121870299919 -0.000213658690364
Te 2.10710891 3.6496197 0.0060670387 -0 -2.57110337382e-07 -0.00202217280351
Te 4.2151595429 0.0005437006 -0.0005573773 0.000210830476653 0.000121870299919 -0.000213658690364
Te -2.10710891 3.6485322989 -0.0005573773 0 -0.000243740599838 -0.000213658690364
Te -0.3968261321 2.2039722685 13.982319065 0.00691421119287 0.00399189509819 -0.00303287353975
Te 2.1071087 6.5409149231 13.982319065 0 -0.00798379019637 -0.00303287353975
Te 4.6110439521 2.2039720185 13.982319445 -0.00691421119287 0.00399215220852 -0.00303313065009
Te -2.1071087 6.08269937 13.6684468671 -0 -2.57110337382e-07 0.01185792876
Te 2.10710913 1.1956743037 17.2916378513 -0 -0.0145377898066 0.00787194719961
Te 4.2322880643 4.8765922032 17.2916378513 0.0125901790009 0.00726902345845 0.00787194719961
Te 6.32132652 1.21654002 17.4112394144 0 2.57110337382e-07 0.0215718144167
Te -0.0180702443 4.8765924532 17.2916374613 -0.0125901790009 0.00726876634812 0.00787220430995
Te 2.10710868 1.3885300701 10.3952540079 0 -0.0262301395093 0.0218651773116
Te 4.0652699127 4.780164715 10.3952540079 0.0227162125283 0.0131146840892 0.0218654344219
Te 6.32132698 1.21653976 10.2188425632 -0 2.57110337382e-07 0.0112241517784
Te 0.1489479073 4.780164445 10.3952544279 -0.022715955418 0.0131149411995 0.0218654344219
Te -0.0054499135 0.0031465136 24.0974049525 0.00112305795368 -0.000648175160539 0.0107289572686
Te 2.10710934 3.64961945 24.1184247257 -2.57110337382e-07 -2.57110337382e-07 0.00669900984048
Te 4.2196677435 0.0031470136 24.0974051425 -0.00112305795368 -0.000648175160539 0.0107287001583
Te -2.10710934 3.6433264228 24.0974051425 2.57110337382e-07 0.00129660743142 0.0107287001583
Te 0.0016028366 2.434005982 27.6355504547 -0.000857462975168 -0.000495194509797 -0.00820284820382
Te 2.10710823 6.0808482961 27.6355504547 2.57110337382e-07 0.000990131909257 -0.00820284820382
Te 4.2126149834 2.434005202 27.6355504447 0.000857462975168 -0.00049493739946 -0.00820259109349
Te -2.10710823 6.0826991 27.6444836946 -2.57110337382e-07 -0 -0.0114619788405
Te 0.0071650257 2.4372162585 20.6917479612 0.00159125587805 0.000919169456139 0.000440172897597
Te 2.10710915 6.074426163 20.6917479612 -0 -0.0018378246916 0.000440172897597
Te 4.2070528043 2.4372165285 20.6917475312 -0.00159125587805 0.000919169456139 0.000440172897597
Te -2.10710915 6.08269963 20.7276685483 0 -2.57110337382e-07 -0.00503859128167
Sb 0.0267784412 2.4485386598 8.3532124928 -0.0101584294299 -0.00586468679567 -0.0257244034757
Sb 2.10711038 6.0517792204 8.3532124928 -2.57110337382e-07 0.0117296307017 -0.025724660586
Sb 4.1874393888 2.4485403598 8.3532128828 0.0101581723196 -0.00586468679567 -0.025724660586
Sb -2.10711038 6.08270034 8.3931305918 2.57110337382e-07 -0 -0.0180031229338
Sb -0.0011655693 2.4324042827 1.8081203441 0.000347098955465 0.000200803173495 0.0189130364178
Sb 2.10711114 6.0840466647 1.8081203441 -2.57110337382e-07 -0.000401092126315 0.0189130364178
Sb 4.2153833993 2.4324068527 1.8081206341 -0.000347098955465 0.000200546063158 0.0189127793075
Sb -2.10711114 6.08270078 1.8078821458 2.57110337382e-07 -2.57110337382e-07 0.0194205722238
Sb 0.0252033251 -0.0145511548 18.8782836964 -0.00473417264221 0.0027333399967 -0.0262787333631
Sb 2.10710819 3.64962011 18.8299889912 0 -2.57110337382e-07 -0.020643903209
Sb 4.1890145049 -0.0145519848 18.8782839364 0.00473417264221 0.00273359710704 -0.0262784762528
Sb 6.32132747 3.6787224197 18.8782839364 -0 -0.00546667999341 -0.0262784762528
Sb -0.0410599896 0.0237060124 12.1154516932 0.00310280755152 -0.0017910306102 0.0103340357904
Sb 2.10710964 3.64961928 14.1321920972 -0 -0 -0.0522229661773
Sb 4.2552778196 0.0237068424 12.1154514532 -0.00310280755152 -0.00179128772054 0.01033377868
Sb -2.10710964 3.6022072552 12.1154514532 2.57110337382e-07 0.00358257544108 0.01033377868
Sb 2.10710669 1.2185549164 29.1996139588 2.57110337382e-07 -0.000146038671633 -0.0181273072268
Sb 4.2124716654 4.8651540168 29.1996139588 0.000126755396329 7.2762225479e-05 -0.0181273072268
Sb 6.32132897 1.21653861 29.1917872385 -2.57110337382e-07 2.57110337382e-07 -0.0182010978936
Sb 0.0017461646 4.8651514468 29.1996136688 -0.000126755396329 7.30193358164e-05 -0.0181270501164
Sb 2.10710745 1.2288505231 22.5223629131 2.57110337382e-07 -9.79590385424e-05 0.0158819626504
Sb 4.2035557855 4.8600055484 22.5223629131 8.51035216733e-05 4.88509641025e-05 0.0158822197607
Sb 6.32132821 1.21653905 22.5153528594 -2.57110337382e-07 2.57110337382e-07 0.0149316828434
Sb 0.0106620445 4.8600038584 22.5223625231 -8.51035216733e-05 4.91080744399e-05 0.0158822197607
Cr 2.1071088 3.64961976 11.5346039805 -2.57110337382e-07 -2.57110337382e-07 -0.0352362004071
61
Lattice="8.42843558953 0 0 -4.21421779477 7.29923593142 0 0 0 31.0334408416" Properties=species:S:1:pos:R:3:forces:R:3 energy=-133598.571458 ionic_step=15 pbc="T T T"
Te 2.1071096 1.2183425167 3.3703322721 -2.57110337382e-07 -0.00215587017894 0.00249114205889
Te 4.2126570553 4.8652576966 3.3703322721 0.00186713527007 0.0010778065343 0.00249114205889
Te 6.32132606 1.21654029 3.3823282922 2.57110337382e-07 0 0.0167335120878
Te 0.0015607747 4.8652584766 3.3703322821 -0.00186713527007 0.00107754942397 0.00249114205889
Te 0.0820256196 -0.0473575366 6.8742790915 -0.0192017713267 0.0110863406376 0.00942926451313
Te 2.10710848 3.64961994 6.7822464809 2.57110337382e-07 -5.14220674763e-07 0.0154348477737
Te 4.1321922104 -0.0473580266 6.8742789115 0.0192017713267 0.0110865977479 0.00942952162347
Te -2.10710848 3.7443350132 6.8742789115 -2.57110337382e-07 -0.0221724241648 0.00942926451313
Te -0.00068157 0.0003935069 -0.0042436036 -0.000237312841403 0.000137296920162 0.000199260511471
Te 2.10710891 3.6496197 0.0016186308 -0 -2.57110337382e-07 -0.00117525135217
Te 4.2148994 0.0003935069 -0.0042436036 0.000237312841403 0.000137296920162 0.000199260511471
Te -2.10710891 3.6488326862 -0.0042436036 0 -0.000274336729986 0.000199260511471
Te -0.4028864944 2.200473315 13.9720285962 0.00418241385819 0.00241478028869 0.000543788363562
Te 2.1071087 6.54791283 13.9720285962 0 -0.00482930346704 0.000543788363562
Te 4.6171043144 2.200473065 13.9720289762 -0.00418241385819 0.00241478028869 0.000543531253225
Te -2.1071087 6.08269937 13.6380552197 -0 -2.57110337382e-07 0.016830442685
Te 2.10710913 1.1904319632 17.2947398825 -0 -0.0141636942657 0.00517665953284
Te 4.2368280622 4.8792133734 17.2947398825 0.0122664770861 0.00708184713284 0.00517665953284
Te 6.32132652 1.21654002 17.4146984423 0 2.57110337382e-07 0.0214453161307
Te -0.0226102422 4.8792136234 17.2947394925 -0.0122664770861 0.00708184713284 0.00517665953284
Te 2.10710868 1.4011310638 10.4090803961 0 -0.0252924581089 0.018205211659
Te 4.0543571372 4.7738642181 10.4090803961 0.0219042580829 0.0126459719441 0.0182054687693
Te 6.32132698 1.21653976 10.2031887866 -0 2.57110337382e-07 0.0101831120223
Te 0.1598606828 4.7738639481 10.4090808161 -0.0219042580829 0.0126462290545 0.0182054687693
Te -0.0081694086 0.0047166156 24.0890158409 0.00173318078429 -0.00100041632275 0.0123680356694
Te 2.10710934 3.64961945 24.120374486 -2.57110337382e-07 -2.57110337382e-07 0.0067789711554
Te 4.2223872386 0.0047171156 24.0890160309 -0.00173318078429 -0.00100067343309 0.0123677785591
Te -2.10710934 3.6401862189 24.0890160309 2.57110337382e-07 0.00200108975584 0.0123677785591
Te 0.0018434778 2.4341449163 27.6389536088 -0.0011878497587 -0.000685970380134 -0.00971131455324
Te 2.10710823 6.0805704275 27.6389536088 2.57110337382e-07 0.00137168364993 -0.00971131455324
Te 4.2123743422 2.4341441363 27.6389535988 0.0011878497587 -0.000685456159459 -0.00971131455324
Te -2.10710823 6.0826991 27.6472889792 -2.57110337382e-07 -0 -0.0137376624366
Te 0.0103173417 2.4390362499 20.6891048242 0.000960049999783 0.000554586997732 0.000164293505587
Te 2.10710915 6.0707861803 20.6891048242 -0 -0.00110891688513 0.000164036395249
Te 4.2039004883 2.4390365199 20.6891043942 -0.000960049999783 0.000554586997732 0.000164293505587
Te -2.10710915 6.08269963 20.736318051 0 -2.57110337382e-07 -0.00613619531195
Sb 0.033567422 2.4524582816 8.3493024038 -0.0100190756271 -0.00578421126007 -0.0245499234545
Sb 2.10711038 6.0439399769 8.3493024038 -2.57110337382e-07 0.0115689367408 -0.0245501805649
Sb 4.180650408 2.4524599816 8.3493027938 0.0100190756271 -0.00578446837041 -0.0245499234545
Sb -2.10711038 6.08270034 8.4159718198 2.57110337382e-07 -0 -0.0202659510131
Sb -0.0007817193 2.4326258987 1.8068945008 0.000472568800107 0.000273308288637 0.0189127793075
Sb 2.10711114 6.0836034327 1.8068945008 -2.57110337382e-07 -0.000545845246261 0.0189127793075
Sb 4.2149995493 2.4326284687 1.8068947908 -0.000472568800107 0.000273051178299 0.0189125221971
Sb -2.10711114 6.08270078 1.8081302422 2.57110337382e-07 -2.57110337382e-07 0.0193457531156
Sb 0.022939611 -0.0132441983 18.8843851491 -0.00432588142645 0.00249756981733 -0.0255480257843
Sb 2.10710819 3.64962011 18.8277160049 0 -2.57110337382e-07 -0.0185011456573
Sb 4.191278219 -0.0132450283 18.8843853891 0.00432588142645 0.00249756981733 -0.0255480257843
Sb 6.32132747 3.6761085066 18.8843853891 -0 -0.00499513963465 -0.0255477686739
Sb -0.0314390051 0.0181513318 12.1079867183 0.0015413764726 -0.00088960176734 0.0118229617542
Sb 2.10710964 3.64961928 14.1653613597 -0 -0 -0.0570167884178
Sb 4.2456568351 0.0181521618 12.1079864783 -0.0015413764726 -0.000889858877678 0.0118227046438
Sb -2.10710964 3.6133166165 12.1079864783 2.57110337382e-07 0.00177971775536 0.0118227046438
Sb 2.10710669 1.2194462702 29.197400629 2.57110337382e-07 -0.00025042546861 -0.0179928385203
Sb 4.2116997306 4.8647083399 29.197400629 0.000217258235087 0.000124955623967 -0.01799258141
Sb 6.32132897 1.21653861 29.1926615049 -2.57110337382e-07 2.57110337382e-07 -0.018082570028
Sb 0.0025180994 4.8647057699 29.197400339 -0.000217258235087 0.000125212734305 -0.0179923242996
Sb 2.10710745 1.2317421535 22.5307559075 2.57110337382e-07 -0.00029259156394 0.0158714211266
Sb 4.2010515613 4.8585597333 22.5307559075 0.000253510792658 0.000146038671633 0.0158716782369
Sb 6.32132821 1.21653905 22.5156936215 -2.57110337382e-07 2.57110337382e-07 0.015730781772
Sb 0.0131662687 4.8585580433 22.5307555175 -0.000253510792658 0.00014629578197 0.0158716782369
Cr 2.1071088 3.64961976 11.5706561169 -2.57110337382e-07 -2.57110337382e-07 -0.0397145482637
61
Lattice="8.42843558953 0 0 -4.21421779477 7.29923593142 0 0 0 31.0334408416" Properties=species:S:1:pos:R:3:forces:R:3 energy=-133598.605239 ionic_step=16 pbc="T T T"
Te 2.1071096 1.2171999955 3.3673178119 -2.57110337382e-07 -0.00250579734812 0.000347870286477
Te 4.2136465073 4.8658289573 3.3673178119 0.0021700112475 0.00125289867406 0.000347870286477
Te 6.32132606 1.21654029 3.3773113813 2.57110337382e-07 0 0.0204258736429
Te 0.0005713227 4.8658297373 3.3673178219 -0.0021700112475 0.00125238445339 0.000347870286477
Te 0.1092785974 -0.063092058 6.8765913822 -0.0252052977045 0.0145524450958 0.0100031347862
Te 2.10710848 3.64961994 6.7428594757 2.57110337382e-07 -5.14220674763e-07 0.0215748997407
Te 4.1049392326 -0.063092548 6.8765912022 0.0252052977045 0.0145527022061 0.0100033918965
Te -2.10710848 3.7758040561 6.8765912022 -2.57110337382e-07 -0.0291046330813 0.0100033918965
Te -0.0003469468 0.000200312 -0.0087770047 -0.000281535819433 0.000162750843563 0.000655631360323
Te 2.10710891 3.6496197 -0.0038580792 -0 -2.57110337382e-07 -0.00023268485533
Te 4.2145647768 0.000200312 -0.0087770047 0.000281535819433 0.000162750843563 0.000655631360323
Te -2.10710891 3.6492190759 -0.0087770047 0 -0.000325501687125 0.000655631360323
Te -0.4044863502 2.1995496374 13.9597097787 0.00104978150753 0.000606009065209 0.00479793600588
Te 2.1071087 6.5497601852 13.9597097787 0 -0.00121201813042 0.00479793600588
Te 4.6187041702 2.1995493874 13.9597101587 -0.00104978150753 0.000606266175546 0.00479767889554
Te -2.1071087 6.08269937 13.6059810598 -0 -2.57110337382e-07 0.0211378121672
Te 2.10710913 1.1834640438 17.296113036 -0 -0.0132553234437 0.00260889859341
Te 4.2428624546 4.8826973331 17.296113036 0.0114797194538 0.00662779027702 0.00260889859341
Te 6.32132652 1.21654002 17.4150991304 0 2.57110337382e-07 0.0211781784901
Te -0.0286446346 4.8826975831 17.296112646 -0.0114797194538 0.00662753316669 0.00260889859341
Te 2.10710868 1.4168596834 10.4245779009 0 -0.0242282784225 0.0133635668957
Te 4.0407357594 4.7659999083 10.4245779009 0.0209825175234 0.0121140106561 0.0133638240061
Te 6.32132698 1.21653976 10.1857105854 -0 2.57110337382e-07 0.00920994939535
Te 0.1734820606 4.7659996383 10.4245783209 -0.0209825175234 0.0121140106561 0.0133640811164
Te -0.0120495281 0.0069568046 24.0817271682 0.00269503055643 -0.0015557746515 0.013488008299
Te 2.10710934 3.64961945 24.1263728753 -2.57110337382e-07 -2.57110337382e-07 0.00600764014326
Te 4.2262673581 0.0069573046 24.0817273582 -0.00269503055643 -0.0015557746515 0.0134877511887
Te -2.10710934 3.6357058408 24.0817273582 2.57110337382e-07 0.00311154930299 0.0134877511887
Te 0.0019916781 2.4342304798 27.6402168844 -0.00155088955509 -0.0008955153051 -0.0106518241674
Te 2.10710823 6.0803993004 27.6402168844 2.57110337382e-07 0.00179077349986 -0.0106518241674
Te 4.2122261419 2.4342296998 27.6402168744 0.00155088955509 -0.000895258194763 -0.0106518241674
Te -2.10710823 6.0826991 27.6477765852 -2.57110337382e-07 -0 -0.0157220400205
Te 0.0146337729 2.4415283437 20.6862207472 7.50762185154e-05 4.37087573549e-05 -0.000125469844642
Te 2.10710915 6.0658019926 20.6862207472 -0 -8.6903294035e-05 -0.000125469844642
Te 4.1995840571 2.4415286137 20.6862203172 -7.50762185154e-05 4.37087573549e-05 -0.000125469844642
Te -2.10710915 6.08269963 20.7464578791 0 -2.57110337382e-07 -0.00726439547238
Sb 0.0410066121 2.456753302 8.3429007866 -0.00931767862671 -0.0053792624787 -0.022693843929
Sb 2.10711038 6.0353499361 8.3429007866 -2.57110337382e-07 0.0107590391781 -0.0226941010393
Sb 4.1732112179 2.456755002 8.3429011766 0.00931767862671 -0.00537951958904 -0.022693843929
Sb -2.10711038 6.08270034 8.4489416323 2.57110337382e-07 -0 -0.0227686630372
Sb -0.0001315698 2.4330012629 1.8052822619 0.000611408382294 0.000353269603562 0.0189965972774
Sb 2.10711114 6.0828527043 1.8052822619 -2.57110337382e-07 -0.00070602498645 0.0189965972774
Sb 4.2143493998 2.4330038329 1.8052825519 -0.000611408382294 0.000353012493225 0.0189963401671
Sb -2.10711114 6.08270078 1.807909232 2.57110337382e-07 -2.57110337382e-07 0.0193650363909
Sb 0.0209465485 -0.0120935026 18.8925290726 -0.00386282570882 0.00223017506645 -0.0247648676966
Sb 2.10710819 3.64962011 18.8245517561 0 -2.57110337382e-07 -0.0160323721978
Sb 4.1932712815 -0.0120943326 18.8925293126 0.00386282570882 0.00223043217679 -0.0247648676966
Sb 6.32132747 3.6738071152 18.8925293126 -0 -0.00446060724323 -0.0247646105863
Sb -0.0221574618 0.0127926278 12.0978100788 -0.000261481213117 0.00015118087838 0.0136787841694
Sb 2.10710964 3.64961928 14.2006683469 -0 -0 -0.0618684604841
Sb 4.2363752918 0.0127934578 12.0978098388 0.000261481213117 0.000150923768043 0.0136787841694
Sb -2.10710964 3.6240340245 12.0978098388 2.57110337382e-07 -0.000301847536086 0.013678527059
Sb 2.10710669 1.2202776316 29.1949979224 2.57110337382e-07 -0.000340928307368 -0.0179275324946
Sb 4.2109797509 4.8642926592 29.1949979224 0.000295419777651 0.000170207043347 -0.0179275324946
Sb 6.32132897 1.21653861 29.1939536999 -2.57110337382e-07 2.57110337382e-07 -0.0180110933543
Sb 0.0032380791 4.8642900892 29.1949976324 -0.000295419777651 0.000170464153684 -0.0179272753843
Sb 2.10710745 1.2351741725 22.5404521781 2.57110337382e-07 -0.000476425455168 0.0159747794822
Sb 4.198079347 4.8568437237 22.5404521781 0.000412662091498 0.000238084172415 0.0159750365925
Sb 6.32132821 1.21653905 22.5148767929 -2.57110337382e-07 2.57110337382e-07 0.0167954756791
Sb 0.016138483 4.8568420337 22.5404517881 -0.000412662091498 0.000238084172415 0.0159750365925
Cr 2.1071088 3.64961976 11.6247343215 -2.57110337382e-07 -2.57110337382e-07 -0.0470499061892
61
Lattice="8.42843558953 0 0 -4.21421779477 7.29923593142 0 0 0 31.0334408416" Properties=species:S:1:pos:R:3:forces:R:3 energy=-133598.651761 ionic_step=17 pbc="T T T"
Te 2.1071096 1.2157840135 3.3667810434 -2.57110337382e-07 -0.00292848674278 -0.00299430698915
Te 4.214872783 4.8665369482 3.3667810434 0.00253613636793 0.00146424337139 -0.00299430698915
Te 6.32132606 1.21654029 3.3749893789 2.57110337382e-07 0 0.0248589700801
Te -0.000654953 4.8665377282 3.3667810534 -0.00253613636793 0.00146398626105 -0.00299430698915
Te 0.1482008028 -0.0855638143 6.8792424125 -0.0315052723014 0.0181897850387 0.0113825317462
Te 2.10710848 3.64961994 6.6857665377 2.57110337382e-07 -5.14220674763e-07 0.0303408195834
Te 4.0660170272 -0.0855643043 6.8792422325 0.0315052723014 0.0181900421491 0.0113825317462
Te -2.10710848 3.8207475686 6.8792422325 -2.57110337382e-07 -0.0363793129671 0.0113825317462
Te 0.000134207 -7.74824e-05 -0.0149372154 -0.000358154699973 0.000206973821592 0.00120456193063
Te 2.10710891 3.6496197 -0.0113356777 -0 -2.57110337382e-07 0.000897829298137
Te 4.214083623 -7.74824e-05 -0.0149372154 0.000358154699973 0.000206973821592 0.00120456193063
Te -2.10710891 3.6497746648 -0.0149372154 0 -0.000413690532847 0.00120456193063
Te -0.4008311062 2.2016599945 13.9424828897 -0.00232993387735 -0.00134520128518 0.00984784014239
Te 2.1071087 6.5455394711 13.9424828897 0 0.00269040257036 0.00984784014239
Te 4.6150489262 2.2016597445 13.9424832697 0.00232993387735 -0.00134494417484 0.00984784014239
Te -2.1071087 6.08269937 13.5714014327 -0 -2.57110337382e-07 0.0243678893357
Te 2.10710913 1.1729295844 17.2944022636 -0 -0.0112933144592 0.000123155851606
Te 4.2519855598 4.8879645628 17.2944022636 0.009780477234 0.00564665722958 0.000123155851606
Te 6.32132652 1.21654002 17.4099410193 0 2.57110337382e-07 0.020706381021
Te -0.0377677398 4.8879648128 17.2944018736 -0.009780477234 0.00564665722958 0.000123155851606
Te 2.10710868 1.4399254182 10.4441068828 0 -0.0227596641754 0.0064550121303
Te 4.0207602564 4.7544670409 10.4441068828 0.0197105926844 0.0113797035325 0.00645526924064
Te 6.32132698 1.21653976 10.1640478256 -0 2.57110337382e-07 0.00792594037046
Te 0.1934575636 4.7544667709 10.4441073028 -0.0197105926844 0.0113797035325 0.00645526924064
Te -0.0183019671 0.0105666536 24.0763827916 0.00436239109435 -0.00251839575465 0.0136957534516
Te 2.10710934 3.64961945 24.1399503675 -2.57110337382e-07 -2.57110337382e-07 0.00368156292097
Te 4.2325197971 0.0105671536 24.0763829816 -0.00436239109435 -0.00251839575465 0.0136954963413
Te -2.10710934 3.6284861427 24.0763829816 2.57110337382e-07 0.00503679150931 0.0136954963413
Te 0.0019464964 2.4342043941 27.6375213221 -0.00196869385333 -0.00113668480156 -0.0105872894727
Te 2.10710823 6.0804514718 27.6375213221 2.57110337382e-07 0.00227311249279 -0.0105872894727
Te 4.2122713236 2.4342036141 27.6375213121 0.00196869385333 -0.00113642769123 -0.0105872894727
Te -2.10710823 6.0826991 27.6438733993 -2.57110337382e-07 -0 -0.0172248499425
Te 0.0213108529 2.4453833595 20.6829556189 -0.00132668934089 -0.000765674584722 -0.000466655262348
Te 2.10710915 6.058091961 20.6829556189 -0 0.00153186339012 -0.000466655262348
Te 4.1929069771 2.4453836295 20.6829551889 0.00132668934089 -0.000765674584722 -0.000466655262348
Te -2.10710915 6.08269963 20.7595131642 0 -2.57110337382e-07 -0.00848515535427
Sb 0.0498359708 2.4618509369 8.3309930646 -0.00772770830034 -0.00446137857425 -0.01951673149
Sb 2.10711038 6.0251546661 8.3309930646 -2.57110337382e-07 0.00892301425883 -0.0195169886003
Sb 4.1643818592 2.4618526369 8.3309934546 0.00772770830034 -0.00446137857425 -0.01951673149
Sb -2.10711038 6.08270034 8.502043831 2.57110337382e-07 -0 -0.0253559643622
Sb 0.0010297594 2.4336717569 1.8038707342 0.00078161542564 0.00045174286278 0.0191359510803
Sb 2.10711114 6.0815117163 1.8038707342 -2.57110337382e-07 -0.000902714394547 0.0191359510803
Sb 4.2131880706 2.4336743269 1.8038710242 -0.00078161542564 0.000451485752442 0.01913569397
Sb -2.10711114 6.08270078 1.8075526015 2.57110337382e-07 -2.57110337382e-07 0.0194609385468
Sb 0.0191722648 -0.011069119 18.9036051303 -0.003260159078 0.00188230477997 -0.0238045605865
Sb 2.10710819 3.64962011 18.8186094824 0 -2.57110337382e-07 -0.0125937785456
Sb 4.1950455652 -0.011069949 18.9036053703 0.003260159078 0.00188256189031 -0.0238043034761
Sb 6.32132747 3.6717583479 18.9036053703 -0 -0.00376460955994 -0.0238043034761
Sb -0.0134389189 0.0077589723 12.0833902688 -0.0024623457011 0.00142182016572 0.0160789091688
Sb 2.10710964 3.64961928 14.2453959846 -0 -0 -0.0676341597999
Sb 4.2276567489 0.0077598023 12.0833900288 0.0024623457011 0.00142156305538 0.0160786520585
Sb -2.10710964 3.6341013353 12.0833900288 2.57110337382e-07 -0.0028433832211 0.0160786520585
Sb 2.10710669 1.2209708098 29.1913077758 2.57110337382e-07 -0.000399806574628 -0.0178946223714
Sb 4.2103794413 4.8639460701 29.1913077758 0.00034658473479 0.000199774732146 -0.0178946223714
Sb 6.32132897 1.21653861 29.1950791667 -2.57110337382e-07 2.57110337382e-07 -0.0179265040533
Sb 0.0038383887 4.8639435001 29.1913074858 -0.00034658473479 0.000200031842483 -0.0178943652611
Sb 2.10710745 1.2397542065 22.5536495517 2.57110337382e-07 -0.000657431132685 0.0161868955105
Sb 4.1941129231 4.8545537067 22.5536495517 0.0005694993973 0.000328329900836 0.0161868955105
Sb 6.32132821 1.21653905 22.5124129436 -2.57110337382e-07 2.57110337382e-07 0.018288258298
Sb 0.0201049069 4.8545520167 22.5536491617 -0.0005694993973 0.000328587011174 0.0161871526209
Cr 2.1071088 3.64961976 11.7058516283 -2.57110337382e-07 -2.57110337382e-07 -0.0578477690282
61
Lattice="8.42843558953 0 0 -4.21421779477 7.29923593142 0 0 0 31.0334408416" Properties=species:S:1:pos:R:3:forces:R:3 energy=-133598.710212 ionic_step=18 pbc="T T T"
Te 2.1071096 1.2142269431 3.3655669424 -2.57110337382e-07 -0.00337894405387 -0.00695920550191
Te 4.216221245 4.8673154834 3.3655669424 0.00292617274974 0.00168947202693 -0.00695920550191
Te 6.32132606 1.21654029 3.3725816637 2.57110337382e-07 0 0.03156517901
Te -0.002003415 4.8673162634 3.3655669524 -0.00292617274974 0.0016892149166 -0.00695920550191
Te 0.2081736319 -0.1201891595 6.8857550664 -0.0355143937922 0.0205042922958 0.0133262858968
Te 2.10710848 3.64961994 6.6038367185 2.57110337382e-07 -5.14220674763e-07 0.0407453036062
Te 4.0060441981 -0.1201896495 6.8857548864 0.0355141366818 0.0205045494062 0.0133265430072
Te -2.10710848 3.889998259 6.8857548864 -0 -0.0410083274814 0.0133265430072
Te 0.0009037704 -0.0005217902 -0.0235846022 -0.000501365157894 0.000289763350229 0.00188153344896
Te 2.10710891 3.6496197 -0.0220134858 -0 -2.57110337382e-07 0.00230036618855
Te 4.2133140596 -0.0005217902 -0.0235846022 0.000501365157894 0.000289763350229 0.00188153344896
Te -2.10710891 3.6506632805 -0.0235846022 0 -0.000579269590121 0.00188153344896
Te -0.3923157477 2.2065763413 13.914824172 -0.00528593142623 -0.00305189970472 0.015877848885
Te 2.1071087 6.5357067774 13.914824172 0 0.00610379940944 0.015877848885
Te 4.6065335677 2.2065760913 13.914824552 0.00528618853657 -0.00305189970472 0.0158775917747
Te -2.1071087 6.08269937 13.525676349 -0 -2.57110337382e-07 0.0271282259178
Te 2.10710913 1.1557945679 17.2916874695 -0 -0.00756521456712 -0.00352446850483
Te 4.2668249125 4.8965320711 17.2916874695 0.0065519427275 0.00378260728356 -0.00352446850483
Te 6.32132652 1.21654002 17.4025198718 0 2.57110337382e-07 0.0197789840341
Te -0.0526070925 4.8965323211 17.2916870795 -0.0065519427275 0.00378260728356 -0.00352446850483
Te 2.10710868 1.4801175149 10.4716797763 0 -0.019537300317 -0.00335220457878
Te 3.9859528958 4.7343709925 10.4716797763 0.0169199170824 0.00976839304814 -0.00335194746844
Te 6.32132698 1.21653976 10.131197691 -0 2.57110337382e-07 0.00625086652242
Te 0.2282649242 4.7343707225 10.4716801963 -0.0169196599721 0.00976839304814 -0.00335194746844
Te -0.0287388296 0.0165923818 24.0704677084 0.00725436816922 -0.00418807028561 0.0134913507334
Te 2.10710934 3.64961945 24.1620326298 -2.57110337382e-07 -2.57110337382e-07 1.90261649662e-05
Te 4.2429566596 0.0165928818 24.0704678984 -0.00725436816922 -0.00418832739595 0.0134910936231
Te -2.10710934 3.6164346863 24.0704678984 2.57110337382e-07 0.00837639768156 0.0134910936231
Te 0.0015277313 2.4339626199 27.6325774717 -0.0024492330739 -0.0014141068556 -0.0099545409324
Te 2.10710823 6.0809350203 27.6325774717 2.57110337382e-07 0.0028282137112 -0.0099545409324
Te 4.2126900887 2.4339618399 27.6325774617 0.0024492330739 -0.00141384974526 -0.0099545409324
Te -2.10710823 6.0826991 27.6369440533 -2.57110337382e-07 -0 -0.0190259078559
Te 0.0321799756 2.4516586533 20.6792626075 -0.00358566076512 -0.00206973821592 -0.000947194482914
Te 2.10710915 6.0455413733 20.6792626075 -0 0.00413999065252 -0.000947194482914
Te 4.1820378544 2.4516589233 20.6792621775 0.00358566076512 -0.00206973821592 -0.000947194482914
Te -2.10710915 6.08269963 20.7776885639 0 -2.57110337382e-07 -0.00977507791691
Sb 0.0610462387 2.4683231912 8.3094994131 -0.00495657308404 -0.00286138094472 -0.0142871072276
Sb 2.10711038 6.0122101577 8.3094994131 -2.57110337382e-07 0.00572327611012 -0.0142871072276
Sb 4.1531715913 2.4683248912 8.3094998031 0.00495657308404 -0.00286163805506 -0.0142871072276
Sb -2.10711038 6.08270034 8.5891565692 2.57110337382e-07 -0 -0.0268279210437
Sb 0.0028440869 2.4347192599 1.8002542117 0.00103229800459 0.000596495982725 0.01951673149
Sb 2.10711114 6.0794167103 1.8002542117 -2.57110337382e-07 -0.00119222063444 0.0195169886003
Sb 4.2113737431 2.4347218299 1.8002545017 -0.00103229800459 0.000596238872388 0.0195164743796
Sb -2.10711114 6.08270078 1.8046097625 2.57110337382e-07 -2.57110337382e-07 0.0198409476254
Sb 0.0183153866 -0.0105743998 18.9215788337 -0.00250579734812 0.00144675986845 -0.0227141556456
Sb 2.10710819 3.64962011 18.8091313042 0 -2.57110337382e-07 -0.00713095520728
Sb 4.1959024434 -0.0105752298 18.9215790737 0.00250579734812 0.00144675986845 -0.0227141556456
Sb 6.32132747 3.6707689097 18.9215790737 -0 -0.00289351973689 -0.0227138985353
Sb -0.0071419363 0.004123406 12.0597922733 -0.00485218628707 0.00280173134645 0.0189171501832
Sb 2.10710964 3.64961928 14.3171013492 -0 -0 -0.0761036314236
Sb 4.2213597663 0.004124236 12.0597920333 0.0048524433974 0.00280147423611 0.0189168930729
Sb -2.10710964 3.641372468 12.0597920333 2.57110337382e-07 -0.00560320558256 0.0189168930729
Sb 2.10710669 1.2214268466 29.1874216461 2.57110337382e-07 -0.000391579043832 -0.0180491456842
Sb 4.209984502 4.8637180517 29.1874216461 0.000339385645344 0.000195660966747 -0.0180491456842
Sb 6.32132897 1.21653861 29.1976654635 -2.57110337382e-07 2.57110337382e-07 -0.0179902674169
Sb 0.004233328 4.8637154817 29.1874213561 -0.000339385645344 0.000195918077085 -0.0180488885739
Sb 2.10710745 1.2466530797 22.5705750355 2.57110337382e-07 -0.000843579016949 0.0166396668147
Sb 4.1881383264 4.8511042702 22.5705750355 0.000730707578839 0.000421403842968 0.0166396668147
Sb 6.32132821 1.21653905 22.5046265214 -2.57110337382e-07 2.57110337382e-07 0.0204448998079
Sb 0.0260795036 4.8511025802 22.5705746455 -0.000730707578839 0.000421660953306 0.016639923925
Cr 2.1071088 3.64961976 11.8275275887 -2.57110337382e-07 -2.57110337382e-07 -0.0708087011356
61
Lattice="8.42843558953 0 0 -4.21421779477 7.29923593142 0 0 0 31.0334408416" Properties=species:S:1:pos:R:3:forces:R:3 energy=-133598.809637 ionic_step=19 pbc="T T T"
Te 2.1071096 1.2125899136 3.3630310162 -2.57110337382e-07 -0.00355480752464 -0.0109912098127
Te 4.2176389534 4.8681339982 3.3630310162 0.00307863917981 0.00177740376232 -0.0109912098127
Te 6.32132606 1.21654029 3.3702026921 2.57110337382e-07 0 0.0412016744551
Te -0.0034211234 4.8681347782 3.3630310262 -0.00307838206947 0.00177714665198 -0.0109912098127
Te 0.3036132752 -0.1752912889 6.9006819376 -0.0308270152314 0.0177982059949 0.0163265064237
Te 2.10710848 3.64961994 6.4818343978 2.57110337382e-07 -2.57110337382e-07 0.0491566682937
Te 3.9106045548 -0.1752917789 6.9006817576 0.0308270152314 0.0177982059949 0.0163265064237
Te -2.10710848 4.0002025179 6.9006817576 -0 -0.0355961548795 0.0163265064237
Te 0.0021676034 -0.0012514649 -0.0362223965 -0.000762075039999 0.000440172897597 0.00273411132772
Te 2.10710891 3.6496197 -0.0379704561 -0 -2.57110337382e-07 0.00408754014369
Te 4.2120502266 -0.0012514649 -0.0362223965 0.000762075039999 0.000440172897597 0.00273411132772
Te -2.10710891 3.6521226298 -0.0362223965 0 -0.000880088684857 0.00273411132772
Te -0.3753606228 2.2163653918 13.868418456 -0.00607037506558 -0.00350467100885 0.0225385492852
Te 2.1071087 6.5161286765 13.868418456 0 0.00700959912804 0.0225385492852
Te 4.5895784428 2.2163651418 13.868418836 0.00607063217592 -0.00350467100885 0.0225382921749
Te -2.1071087 6.08269937 13.4626512634 -0 -2.57110337382e-07 0.0299798366697
Te 2.10710913 1.1266917827 17.2872826868 -0 -0.000680828173387 -0.00949277076647
Te 4.292028652 4.9110834636 17.2872826868 0.000589811113953 0.000340414086693 -0.00949277076647
Te 6.32132652 1.21654002 17.3920015339 0 2.57110337382e-07 0.0176603948541
Te -0.077810832 4.9110837136 17.2872822968 -0.000589811113953 0.000340414086693 -0.00949277076647
Te 2.10710868 1.5520425707 10.512052302 0 -0.0109690983237 -0.016810645189
Te 3.9236639994 4.6984084647 10.512052302 0.00949945563524 0.00548416349635 -0.0168103880787
Te 6.32132698 1.21653976 10.0780010559 -0 2.57110337382e-07 0.00405720112388
Te 0.2905538206 4.6984081947 10.512052722 -0.00949945563524 0.00548416349635 -0.0168103880787
Te -0.0469089716 0.0270829231 24.0642382748 0.0122857603614 -0.00709290287735 0.0124747364594
Te 2.10710934 3.64961945 24.1985108806 -2.57110337382e-07 -2.57110337382e-07 -0.00568059579411
Te 4.2611268016 0.0270834231 24.0642384648 -0.0122857603614 -0.00709315998768 0.0124744793491
Te -2.10710934 3.5954536038 24.0642384648 2.57110337382e-07 0.0141863199754 0.0124747364594
Te 0.0003991136 2.4333110118 27.623625243 -0.0029575402109 -0.00170746975055 -0.00832369006239
Te 2.10710823 6.0822382364 27.623625243 2.57110337382e-07 0.0034149395011 -0.00832369006239
Te 4.2138187064 2.4333102318 27.623625233 0.0029575402109 -0.00170721264021 -0.00832369006239
Te -2.10710823 6.0826991 27.624405577 -2.57110337382e-07 -0 -0.0212411705228
Te 0.0507423753 2.4623756648 20.6753452802 -0.00729936247826 -0.00421378131935 -0.00173215234294
Te 2.10710915 6.0241073505 20.6753452802 -0 0.00842833396971 -0.00173240945328
Te 4.1634754547 2.4623759348 20.6753448503 0.00729936247826 -0.00421403842968 -0.00173215234294
Te -2.10710915 6.08269963 20.8044439378 0 -2.57110337382e-07 -0.0110387752251
Sb 0.0753017212 2.4765536017 8.2706539635 -0.00200314663854 -0.00115622518721 -0.00791025663988
Sb 2.10711038 5.9957493366 8.2706539635 -2.57110337382e-07 0.00231270748475 -0.00791025663988
Sb 4.1389161088 2.4765553017 8.2706543535 0.00200314663854 -0.00115622518721 -0.00791025663988
Sb -2.10711038 6.08270034 8.7355979213 2.57110337382e-07 -0 -0.0231910953215
Sb 0.0056144429 2.4363187264 1.7938522782 0.00144033211001 0.000832009051767 0.020262094358
Sb 2.10711114 6.0762177773 1.7938522782 -2.57110337382e-07 -0.00166324677252 0.020262094358
Sb 4.2086033871 2.4363212964 1.7938525682 -0.00144033211001 0.00083175194143 0.0202618372477
Sb -2.10711114 6.08270078 1.7977074383 2.57110337382e-07 -2.57110337382e-07 0.0206305334715
Sb 0.0191287023 -0.0110439681 18.9499980171 -0.00150409547368 0.000868518719675 -0.0213581557263
Sb 2.10710819 3.64962011 18.792183409 0 -2.57110337382e-07 0.00196200898456
Sb 4.1950891277 -0.0110447981 18.9499982571 0.00150409547368 0.000868518719675 -0.021357898616
Sb 6.32132747 3.6717080462 18.9499982571 -0 -0.00173678032901 -0.021357898616
Sb -0.0052540682 0.0030334444 12.0215505512 -0.00665915773818 0.0038448279852 0.0206822126493
Sb 2.10710964 3.64961928 14.4401354247 0 -0 -0.0876347729448
Sb 4.2194718982 0.0030342744 12.0215503112 0.00665941484852 0.0038448279852 0.0206822126493
Sb -2.10710964 3.6435523913 12.0215503112 2.57110337382e-07 -0.00768965597041 0.0206822126493
Sb 2.10710669 1.2213521185 29.1825742571 2.57110337382e-07 -0.000253510792658 -0.0184317258662
Sb 4.2100492184 4.8637554158 29.1825742571 0.000219829338461 0.000126498285992 -0.0184314687559
Sb 6.32132897 1.21653861 29.2017509771 -2.57110337382e-07 2.57110337382e-07 -0.0182157531828
Sb 0.0041686116 4.8637528458 29.1825739671 -0.000219829338461 0.000126755396329 -0.0184312116455
Sb 2.10710745 1.2574197308 22.5941293643 2.57110337382e-07 -0.00101687138434 0.01736008998
Sb 4.1788141374 4.8457209446 22.5941293643 0.000880860015869 0.000508307137003 0.01736008998
Sb 6.32132821 1.21653905 22.4872254128 -2.57110337382e-07 2.57110337382e-07 0.0233844422952
Sb 0.0354036926 4.8457192546 22.5941289743 -0.000880860015869 0.000508564247341 0.0173603470903
Cr 2.1071088 3.64961976 12.0100415292 -2.57110337382e-07 -2.57110337382e-07 -0.0771012195327
61
Lattice="8.42843558953 0 0 -4.21421779477 7.29923593142 0 0 0 31.0334408416" Properties=species:S:1:pos:R:3:forces:R:3 energy=-133598.887432 ionic_step=20 pbc="T T T"
Te 2.1071096 1.2104514646 3.3583158496 -2.57110337382e-07 -0.00245694638402 -0.0136474167082
Te 4.2194909038 4.8692032227 3.3583158496 0.00212784515217 0.00122847319201 -0.0136474167082
Te 6.32132606 1.21654029 3.3669676435 2.57110337382e-07 0 0.0516470390215
Te -0.0052730738 4.8692040027 3.3583158596 -0.00212784515217 0.00122821608167 -0.0136474167082
Te 0.4566930953 -0.2636720055 6.9298381668 -0.0133545680339 0.00771048190774 0.0215913548023
Te 2.10710848 3.64961994 6.2992339404 2.57110337382e-07 -2.57110337382e-07 0.0461898721106
Te 3.7575247347 -0.2636724955 6.9298379868 0.0133543109236 0.00771048190774 0.0215913548023
Te -2.10710848 4.1769639509 6.9298379868 -0 -0.0154204495948 0.0215913548023
Te 0.0041059522 -0.0023705716 -0.055354243 -0.00117293735913 0.000677485739001 0.00393044572755
Te 2.10710891 3.6496197 -0.0624388563 -0 -2.57110337382e-07 0.006647587773
Te 4.2101118778 -0.0023705716 -0.055354243 0.00117293735913 0.000677485739001 0.00393044572755
Te -2.10710891 3.6543608433 -0.055354243 0 -0.00135471436766 0.00393044572755
Te -0.3466984841 2.232913493 13.7940344155 -0.00323753336831 -0.00186919215276 0.0287709038633
Te 2.1071087 6.4830324741 13.7940344155 0 0.00373838430553 0.0287709038633
Te 4.5609163041 2.232913243 13.7940347955 0.00323753336831 -0.00186893504243 0.0287709038633
Te -2.1071087 6.08269937 13.3698578928 -0 -2.57110337382e-07 0.0438128870415
Te 2.10710913 1.0794004832 17.2806926256 -0 0.00981801534325 -0.019644001107
Te 4.3329840997 4.9347291134 17.2806926256 -0.00850263885721 -0.00490900767163 -0.019644001107
Te 6.32132652 1.21654002 17.3777322797 0 2.57110337382e-07 0.0125852939045
Te -0.1187662797 4.9347293634 17.2806922356 0.00850263885721 -0.00490900767163 -0.0196437439966
Te 2.10710868 1.6679901876 10.5717015919 0 0.00657405421651 -0.0315587512516
Te 3.8232504645 4.6404346562 10.5717015919 -0.00569319420064 -0.00328741277376 -0.0315584941412
Te 6.32132698 1.21653976 9.9921628131 -0 2.57110337382e-07 0.000782129646315
Te 0.3909673555 4.6404343862 10.5717020119 0.00569345131098 -0.00328741277376 -0.0315584941412
Te -0.0774584961 0.0447207075 24.0565922286 0.0200530636537 -0.011577421382 0.0104193964224
Te 2.10710934 3.64961945 24.2560455331 -2.57110337382e-07 -2.57110337382e-07 -0.0137960264832
Te 4.2916763261 0.0447212075 24.0565924186 -0.0200530636537 -0.011577421382 0.0104191393121
Te -2.10710934 3.560178035 24.0565924186 2.57110337382e-07 0.0231548427639 0.0104191393121
Te -0.0016130406 2.4321492935 27.6089843107 -0.00345170627935 -0.00199286222505 -0.0056929370903
Te 2.10710823 6.084561673 27.6089843107 2.57110337382e-07 0.00398572445009 -0.0056929370903
Te 4.2158308606 2.4321485135 27.6089843007 0.00345170627935 -0.00199260511471 -0.0056929370903
Te -2.10710823 6.0826991 27.6034635364 -2.57110337382e-07 -0 -0.024412369424
Te 0.081326998 2.4800337131 20.6707396758 -0.0126264315585 -0.00728933517511 -0.00314317387449
Te 2.10710915 5.9887912537 20.6707396758 -0 0.0145794416812 -0.00314317387449
Te 4.132890832 2.4800339831 20.6707392458 0.0126261744481 -0.00728959228544 -0.00314291676415
Te -2.10710915 6.08269963 20.8451997735 0 -2.57110337382e-07 -0.0124616238322
Sb 0.0954754629 2.4882009223 8.2060101289 -0.00339488489479 -0.00195969499152 -0.00645732612334
Sb 2.10711038 5.9724546954 8.2060101289 -2.57110337382e-07 0.00391990420372 -0.00645758323368
Sb 4.1187423671 2.4882026223 8.2060105189 0.00339488489479 -0.00195995210186 -0.00645732612334
Sb -2.10711038 6.08270034 8.9700243718 2.57110337382e-07 -0 -0.01566830396
Sb 0.0096058707 2.4386231793 1.7852208622 0.00220446403271 0.00127321039071 0.0215648724375
Sb 2.10711114 6.0716088713 1.7852208622 -2.57110337382e-07 -0.00254590656075 0.0215648724375
Sb 4.2046119593 2.4386257493 1.7852211522 -0.00220446403271 0.00127295328038 0.0215646153272
Sb -2.10711114 6.08270078 1.7868096135 2.57110337382e-07 -2.57110337382e-07 0.0219191704825
Sb 0.0213556646 -0.012329706 18.9922733164 -0.000125984065317 7.2762225479e-05 -0.0191398077354
Sb 2.10710819 3.64962011 18.762219454 0 -2.57110337382e-07 0.012826463401
Sb 4.1928621654 -0.012330536 18.9922735564 0.000125984065317 7.30193358164e-05 -0.0191398077354
Sb 6.32132747 3.674279522 18.9922735564 -0 -0.000145781561295 -0.019139550625
Sb -0.0047321328 0.0027321047 11.9602338466 -0.00602563786688 0.00347895997511 0.0174701332044
Sb 2.10710964 3.64961928 14.6455223752 0 -0 -0.0946358874317
Sb 4.2189499628 0.0027329347 11.9602336066 0.00602563786688 0.00347895997511 0.0174701332044
Sb -2.10710964 3.6441550707 11.9602336066 0 -0.00695791995022 0.0174701332044
Sb 2.10710669 1.2207474343 29.1745607563 2.57110337382e-07 7.8161542564e-05 -0.0189310341414
Sb 4.21057289 4.8640577578 29.1745607563 -6.76200187314e-05 -3.93378816194e-05 -0.0189307770311
Sb 6.32132897 1.21653861 29.2067237136 -2.57110337382e-07 2.57110337382e-07 -0.0184929181265
Sb 0.00364494 4.8640551878 29.1745604663 6.76200187314e-05 -3.9080771282e-05 -0.0189305199207
Sb 2.10710745 1.2740493027 22.6302989915 2.57110337382e-07 -0.00122898741268 0.018207525652
Sb 4.1644125124 4.8374061586 22.6302989915 0.00106443679676 0.000614236596005 0.018207525652
Sb 6.32132821 1.21653905 22.4565925954 -2.57110337382e-07 2.57110337382e-07 0.0268063237754
Sb 0.0498053176 4.8374044686 22.6302986015 -0.00106443679676 0.000614493706342 0.018207525652
Cr 2.1071088 3.64961976 12.2838124399 -2.57110337382e-07 -2.57110337382e-07 -0.0549719899046
61
Lattice="8.42843558953 0 0 -4.21421779477 7.29923593142 0 0 0 31.0334408416" Properties=species:S:1:pos:R:3:forces:R:3 energy=-133599.007106 ionic_step=21 pbc="T T T"
Te 2.1071096 1.2116841478 3.3664262288 -2.57110337382e-07 -0.00305704191147 -0.0131751050184
Te 4.2184233692 4.8685868811 3.3664262288 0.00264746514402 0.00152852095573 -0.0131751050184
Te 6.32132606 1.21654029 3.3780290339 2.57110337382e-07 0 0.0495333349379
Te -0.0042055392 4.8685876611 3.3664262388 -0.00264746514402 0.0015282638454 -0.0131751050184
Te 0.41782653 -0.241232373 6.9294835628 -0.0180956826553 0.0104476785595 0.0189433754376
Te 2.10710848 3.64961994 6.361269915 2.57110337382e-07 -2.57110337382e-07 0.0486491324877
Te 3.7963913 -0.241232863 6.9294833828 0.0180954255449 0.0104476785595 0.0189436325479
Te -2.10710848 4.1320846861 6.9294833828 -0 -0.0208951000087 0.0189436325479
Te 0.0033808154 -0.0019519135 -0.048477279 -0.00101867115671 0.000588268451929 0.00305292814607
Te 2.10710891 3.6496197 -0.0540380928 -0 -2.57110337382e-07 0.00511521016221
Te 4.2108370146 -0.0019519135 -0.048477279 0.00101867115671 0.000588268451929 0.00305292814607
Te -2.10710891 3.653523527 -0.048477279 0 -0.00117653690386 0.00305292814607
Te -0.3416291832 2.2358402566 13.8147257288 -0.00230627972631 -0.00133131732696 0.0264098596352
Te 2.1071087 6.4771789468 13.8147257288 0 0.00266289176426 0.0264098596352
Te 4.5558470032 2.2358400066 13.8147261088 0.00230627972631 -0.00133131732696 0.0264096025248
Te -2.1071087 6.08269937 13.4250164025 -0 -2.57110337382e-07 0.0340606919446
Te 2.10710913 1.0887295195 17.27558062 -0 0.00857874351708 -0.0141045588881
Te 4.324904921 4.9300645953 17.27558062 -0.00742920319864 -0.00428937175854 -0.0141043017777
Te 6.32132652 1.21654002 17.3735056457 0 2.57110337382e-07 0.0147535053796
Te -0.110687101 4.9300648453 17.27558023 0.00742920319864 -0.00428937175854 -0.0141043017777
Te 2.10710868 1.638339068 10.5449808123 0 0.00203348565835 -0.0257549996059
Te 3.8489290753 4.655260216 10.5449808123 -0.00176094870073 -0.00101712849468 -0.0257547424955
Te 6.32132698 1.21653976 10.0196308935 -0 2.57110337382e-07 0.00309612268275
Te 0.3652887447 4.655259946 10.5449812323 0.00176120581106 -0.00101687138434 -0.0257547424955
Te -0.0735381438 0.04245729 24.0715666797 0.0194046313829 -0.0112030687307 0.00796630669343
Te 2.10710934 3.64961945 24.2509459528 -2.57110337382e-07 -2.57110337382e-07 -0.0132748638294
Te 4.2877559738 0.04245779 24.0715668697 -0.0194046313829 -0.0112030687307 0.0079660495831
Te -2.10710934 3.56470487 24.0715668697 2.57110337382e-07 0.0224063945718 0.0079660495831
Te -0.0017601068 2.4320643847 27.6028816673 -0.00288092133036 -0.00166350388286 -0.00320179503141
Te 2.10710823 6.0847314905 27.6028816673 2.57110337382e-07 0.00332649354504 -0.00320179503141
Te 4.2159779268 2.4320636047 27.6028816573 0.00288092133036 -0.00166298966218 -0.00320179503141
Te -2.10710823 6.0826991 27.5978136464 -2.57110337382e-07 -0 -0.0205176620334
Te 0.0762376406 2.4770953699 20.6756859312 -0.0121170959801 -0.00699545805948 -0.00273488265873
Te 2.10710915 5.9946679401 20.6756859312 -0 0.0139914303396 -0.00273488265873
Te 4.1379801894 2.4770956399 20.6756855012 0.0121170959801 -0.00699545805948 -0.00273488265873
Te -2.10710915 6.08269963 20.830079714 0 -2.57110337382e-07 -0.0108019766044
Sb 0.0845055151 2.481867417 8.2120149343 -0.00189438896583 -0.00109323315455 -0.00716489377181
Sb 2.10711038 5.985121706 8.2120149343 -2.57110337382e-07 0.00218723764011 -0.00716489377181
Sb 4.1297123149 2.481869117 8.2120153243 0.00189438896583 -0.00109349026488 -0.00716489377181
Sb -2.10711038 6.08270034 8.9230642727 2.57110337382e-07 -0 -0.0141446681007
Sb 0.0083017723 2.4378702574 1.7926656956 0.0019622660949 0.00113334236718 0.0208228520039
Sb 2.10711114 6.0731147151 1.7926656956 -2.57110337382e-07 -0.00226617051368 0.0208231091142
Sb 4.2059160577 2.4378728274 1.7926659856 -0.0019622660949 0.00113308525684 0.0208225948935
Sb -2.10711114 6.08270078 1.7908471505 2.57110337382e-07 -2.57110337382e-07 0.0214188337659
Sb 0.02358352 -0.0136159595 18.9750067186 -0.000546102356599 0.000315474383967 -0.0203173730806
Sb 2.10710819 3.64962011 18.7614828484 0 -2.57110337382e-07 0.0109657558893
Sb 4.19063431 -0.0136167895 18.9750069586 0.000546102356599 0.000315474383967 -0.0203171159702
Sb 6.32132747 3.676852029 18.9750069586 -0 -0.000630691657597 -0.0203171159702
Sb -0.015130691 0.0087357179 11.9736715989 -0.00555769705284 0.00320899412086 0.0182262947066
Sb 2.10710964 3.64961928 14.5973103703 0 -0 -0.0957242354899
Sb 4.229348521 0.0087365479 11.9736713589 0.00555795416318 0.00320873701052 0.0182260375963
Sb -2.10710964 3.6321478443 11.9736713589 0 -0.00641773113138 0.0182260375963
Sb 2.10710669 1.2193082897 29.1746183004 2.57110337382e-07 0.000275108060998 -0.0186343288121
Sb 4.2118192252 4.8647773301 29.1746183004 -0.000238084172415 -0.000137811140837 -0.0186340717017
Sb 6.32132897 1.21653861 29.2010982477 -2.57110337382e-07 2.57110337382e-07 -0.0182268089273
Sb 0.0023986048 4.8647747601 29.1746180104 0.000238084172415 -0.000137554030499 -0.0186338145914
Sb 2.10710745 1.2683071581 22.6192400361 2.57110337382e-07 -0.000871604043724 0.0176148863244
Sb 4.1693853532 4.840277231 22.6192400361 0.000754875950552 0.000435544911524 0.0176148863244
Sb 6.32132821 1.21653905 22.458413923 -2.57110337382e-07 2.57110337382e-07 0.0254870906343
Sb 0.0448324768 4.840275541 22.6192396461 -0.000754875950552 0.000435802021862 0.0176151434347
Cr 2.1071088 3.64961976 12.1976730593 -2.57110337382e-07 -2.57110337382e-07 -0.0642361895811
61
Lattice="8.42843558953 0 0 -4.21421779477 7.29923593142 0 0 0 31.0334408416" Properties=species:S:1:pos:R:3:forces:R:3 energy=-133599.203807 ionic_step=22 pbc="T T T"
Te 2.1071096 1.2128120133 3.3755111762 -2.57110337382e-07 -0.00371575859584 -0.0117813098795
Te 4.2174466096 4.8680229484 3.3755111762 0.00321799298267 0.00185787929792 -0.0117813098795
Te 6.32132606 1.21654029 3.3962643527 2.57110337382e-07 0 0.0522743882447
Te -0.0032287796 4.8680237284 3.3755111862 -0.00321799298267 0.00185762218758 -0.0117815669898
Te 0.4562870876 -0.2634375967 6.9637397263 -0.0139446362582 0.00805115310477 0.0148908022998
Te 2.10710848 3.64961994 6.3729237591 2.57110337382e-07 -2.57110337382e-07 0.0479330801981
Te 3.7579307424 -0.2634380867 6.9637395463 0.0139446362582 0.00805115310477 0.0148910594101
Te -2.10710848 4.1764951333 6.9637395463 -0 -0.0161017919889 0.0148910594101
Te 0.003005337 -0.0017351308 -0.0473565567 -0.00091814101479 0.000530418626018 0.00155294643779
Te 2.10710891 3.6496197 -0.0536202849 -0 -2.57110337382e-07 0.0031480589709
Te 4.211212493 -0.0017351308 -0.0473565567 0.00091814101479 0.000530418626018 0.00155294643779
Te -2.10710891 3.6530899617 -0.0473565567 0 -0.0010605801417 0.00155294643779
Te -0.3124384175 2.2526935609 13.802986661 0.00180697145112 0.00104335374909 0.0251384490168
Te 2.1071087 6.4434723382 13.802986661 0 -0.00208645038785 0.0251384490168
Te 4.5266562375 2.2526933109 13.802987041 -0.00180697145112 0.00104335374909 0.0251381919065
Te -2.1071087 6.08269937 13.4696908535 -0 -2.57110337382e-07 0.0271364534486
Te 2.10710913 1.069928172 17.2636897034 -0 0.0139592915475 -0.0105224976677
Te 4.341187358 4.939465269 17.2636897034 -0.012088813843 -0.00697951721856 -0.0105224976677
Te 6.32132652 1.21654002 17.3631328281 0 2.57110337382e-07 0.0150900628113
Te -0.126969538 4.939465519 17.2636893134 0.012088813843 -0.0069797743289 -0.0105222405573
Te 2.10710868 1.6622998276 10.5259936132 0 0.00607911681705 -0.0194005176175
Te 3.8281784585 4.6432798362 10.5259936132 -0.00526459126823 -0.00303981551886 -0.0194002605071
Te 6.32132698 1.21653976 10.0073846059 -0 2.57110337382e-07 0.00696331926731
Te 0.3860393615 4.6432795662 10.5259940332 0.00526459126823 -0.00303981551886 -0.0194002605071
Te -0.0924184605 0.053357851 24.0967734678 0.0243740599838 -0.0140721629856 0.00164062106283
Te 2.10710934 3.64961945 24.2810697239 -2.57110337382e-07 -2.57110337382e-07 -0.0164553187028
Te 4.3066362905 0.053358351 24.0967736578 -0.0243740599838 -0.0140721629856 0.00164062106283
Te -2.10710934 3.542903748 24.0967736578 2.57110337382e-07 0.0281443259711 0.00164062106283
Te -0.0035333208 2.4310406187 27.5811538918 -0.00184348111903 -0.00106443679676 0.0034740748787
Te 2.10710823 6.0867790226 27.5811538918 2.57110337382e-07 0.00212861648318 0.0034740748787
Te 4.2177511408 2.4310398387 27.5811538818 0.00184348111903 -0.00106392257609 0.0034740748787
Te -2.10710823 6.0826991 27.5707676945 -2.57110337382e-07 -0 -0.0151070320935
Te 0.090979167 2.4856063981 20.6841235858 -0.0150291276613 -0.00867670255562 -0.00306398389058
Te 2.10710915 5.9776458837 20.6841235858 -0 0.0173539193319 -0.00306398389058
Te 4.123238663 2.4856066681 20.6841231558 0.0150291276613 -0.00867670255562 -0.00306398389058
Te -2.10710915 6.08269963 20.8290023878 0 -2.57110337382e-07 -0.00707181982968
Sb 0.0763867849 2.4771800638 8.1683324997 -0.00144881675115 -0.000836122817165 -0.0103355784524
Sb 2.10711038 5.9944964124 8.1683324997 -2.57110337382e-07 0.001672759855 -0.0103358355627
Sb 4.1378310451 2.4771817638 8.1683328897 0.00144855964081 -0.000836122817165 -0.0103358355627
Sb -2.10711038 6.08270034 9.0078612174 2.57110337382e-07 -0 -0.00716463666148
Sb 0.0078371561 2.437602011 1.8034724722 0.00208233662245 0.00120276215827 0.0199797872076
Sb 2.10711114 6.073651208 1.8034724722 -2.57110337382e-07 -0.00240475298553 0.0199797872076
Sb 4.2063806739 2.437604581 1.8034727622 -0.00208233662245 0.0012022479376 0.0199795300973
Sb -2.10711114 6.08270078 1.7906038577 2.57110337382e-07 -2.57110337382e-07 0.0211820351452
Sb 0.0302716378 -0.0174773479 18.9678425045 -0.000406748553738 0.000234998848367 -0.0212792228527
Sb 2.10710819 3.64962011 18.7317370171 0 -2.57110337382e-07 0.0129151664674
Sb 4.1839461922 -0.0174781779 18.9678427445 0.000406748553738 0.000234998848367 -0.0212792228527
Sb 6.32132747 3.6845748059 18.9678427445 -0 -0.000469997696734 -0.0212789657424
Sb -0.0341178523 0.0196979656 11.947544559 -0.00330361072502 0.00190750159303 0.0148820605483
Sb 2.10710964 3.64961928 14.6682326781 0 -0 -0.0978191705189
Sb 4.2483356823 0.0196987956 11.947544319 0.00330361072502 0.00190750159303 0.0148820605483
Sb -2.10710964 3.6102233487 11.947544319 0 -0.00381500318607 0.014881803438
Sb 2.10710669 1.2154818063 29.1686943107 2.57110337382e-07 0.00106366546575 -0.0181653595567
Sb 4.2151330555 4.8666905718 29.1686943107 -0.000920969228501 -0.000531961288043 -0.0181653595567
Sb 6.32132897 1.21653861 29.1917777971 -2.57110337382e-07 2.57110337382e-07 -0.0176717077089
Sb -0.0009152255 4.8666880018 29.1686940207 0.000920969228501 -0.000531704177705 -0.0181651024463
Sb 2.10710745 1.2678409346 22.6220974659 2.57110337382e-07 -0.000118527865533 0.0165602197204
Sb 4.1697891144 4.8405103427 22.6220974659 0.000102844134953 5.91353775978e-05 0.0165604768308
Sb 6.32132821 1.21653905 22.4326548356 -2.57110337382e-07 2.57110337382e-07 0.0244799894428
Sb 0.0444287156 4.8405086527 22.6220970759 -0.000102844134953 5.91353775978e-05 0.0165604768308
Cr 2.1071088 3.64961976 12.2190761239 -2.57110337382e-07 -2.57110337382e-07 -0.0605448564673
61
Lattice="8.42843558953 0 0 -4.21421779477 7.29923593142 0 0 0 31.0334408416" Properties=species:S:1:pos:R:3:forces:R:3 energy=-133599.338111 ionic_step=23 pbc="T T T"
Te 2.1071096 1.2127876771 3.3723658736 -2.57110337382e-07 -0.00484755830099 -0.00827303932593
Te 4.2174676853 4.8680351165 3.3723658736 0.00419809758877 0.0024237791505 -0.00827303932593
Te 6.32132606 1.21654029 3.4016894395 2.57110337382e-07 0 0.0559436098695
Te -0.0032498553 4.8680358965 3.3723658836 -0.00419809758877 0.00242326492982 -0.00827303932593
Te 0.5087446244 -0.2937239838 7.0100498262 -0.00775804732015 0.00447937629786 0.00881065704139
Te 2.10710848 3.64961994 6.3779284935 2.57110337382e-07 -2.57110337382e-07 0.0470586479406
Te 3.7054732056 -0.2937244738 7.0100496462 0.00775779020982 0.00447937629786 0.00881091415173
Te -2.10710848 4.2370679076 7.0100496462 -0 -0.00895798126471 0.00881091415173
Te 0.0024307903 -0.001403416 -0.0481556123 -0.000733792902887 0.000423974946342 4.96222951147e-05
Te 2.10710891 3.6496197 -0.0555574743 -0 -2.57110337382e-07 0.00155397487913
Te 4.2117870397 -0.001403416 -0.0481556123 0.000733792902887 0.000423974946342 4.96222951147e-05
Te -2.10710891 3.652426532 -0.0481556123 0 -0.000847692782347 4.96222951147e-05
Te -0.2903549259 2.2654434766 13.7812195488 0.00455419540604 0.0026294674204 0.0258850974366
Te 2.1071087 6.4179725067 13.7812195488 0 -0.00525867773047 0.0258848403262
Te 4.5045727459 2.2654432266 13.7812199288 -0.00455419540604 0.0026294674204 0.0258848403262
Te -2.1071087 6.08269937 13.4747402802 -0 -2.57110337382e-07 0.0283109334698
Te 2.10710913 1.0455388512 17.2619093897 -0 0.018945946541 -0.0114694350403
Te 4.3623091195 4.9516599294 17.2619093897 -0.0164077532903 -0.00947297327049 -0.0114694350403
Te 6.32132652 1.21654002 17.3716320641 0 2.57110337382e-07 0.0127907250641
Te -0.1480912995 4.9516601794 17.2619089997 0.01640749618 -0.00947297327049 -0.0114694350403
Te 2.10710868 1.6939108521 10.5122189374 0 0.0119605157847 -0.0141279559288
Te 3.8008025209 4.6274743239 10.5122189374 -0.0103579470518 -0.0059803864475 -0.0141276988184
Te 6.32132698 1.21653976 9.976104307 -0 2.57110337382e-07 0.011346536299
Te 0.4134152991 4.6274740539 10.5122193574 0.0103582041621 -0.0059803864475 -0.0141276988184
Te -0.1157682422 0.0668388601 24.1082230884 0.0293879686731 -0.0169669682742 -0.00142670526213
Te 2.10710934 3.64961945 24.3024442226 -2.57110337382e-07 -2.57110337382e-07 -0.0172554460727
Te 4.3299860722 0.0668393601 24.1082232784 -0.0293879686731 -0.0169669682742 -0.00142696237247
Te -2.10710934 3.5159417299 24.1082232784 2.57110337382e-07 0.0339339365483 -0.00142696237247
Te -0.0045035281 2.430480469 27.5704368373 -0.00122898741268 -0.000709624531173 0.00697257523945
Te 2.10710823 6.0878993221 27.5704368373 2.57110337382e-07 0.00141899195201 0.00697257523945
Te 4.2187213481 2.430479689 27.5704368273 0.00122898741268 -0.000709367420836 0.00697257523945
Te -2.10710823 6.0826991 27.5530351886 -2.57110337382e-07 -0 -0.0135402016975
Te 0.1083868148 2.4956567129 20.6899677307 -0.0176238851862 -0.0101746273812 -0.00355403619363
Te 2.10710915 5.9575452541 20.6899677307 -0 0.0203500260934 -0.00355403619363
Te 4.1058310152 2.4956569829 20.6899673007 0.0176238851862 -0.0101748844915 -0.00355403619363
Te -2.10710915 6.08269963 20.8357927629 0 -2.57110337382e-07 -0.00333317841382
Sb 0.0727892002 2.4751029963 8.1224709528 -0.00198592024594 -0.00114619788405 -0.0130648046837
Sb 2.10711038 5.9986505474 8.1224709528 -2.57110337382e-07 0.00229290998877 -0.0130648046837
Sb 4.1414286298 2.4751046963 8.1224713428 0.00198592024594 -0.00114645499438 -0.0130648046837
Sb -2.10711038 6.08270034 9.1108182144 2.57110337382e-07 -0 -0.00264695092334
Sb 0.0066229219 2.4369009723 1.8108758695 0.00235050270434 0.00135754258138 0.0191392935147
Sb 2.10711114 6.0750532855 1.8108758695 -2.57110337382e-07 -0.00271431383174 0.0191392935147
Sb 4.2075949081 2.4369035423 1.8108761595 -0.00235050270434 0.00135728547104 0.0191390364044
Sb -2.10711114 6.08270078 1.7876776933 2.57110337382e-07 -2.57110337382e-07 0.0209076984152
Sb 0.0342617538 -0.0197810435 18.9667583103 4.31945366801e-05 -2.4939702726e-05 -0.0217211955227
Sb 2.10710819 3.64962011 18.6992712256 0 -2.57110337382e-07 0.0138582471849
Sb 4.1799560762 -0.0197818735 18.9667585503 -4.31945366801e-05 -2.46825923886e-05 -0.0217209384123
Sb 6.32132747 3.6891821971 18.9667585503 -0 4.9879405452e-05 -0.0217209384123
Sb -0.03952185 0.0228179666 11.9120409487 -0.00169769955773 0.000980361716436 0.0101178059966
Sb 2.10710964 3.64961928 14.7672697194 0 -0 -0.0941805450242
Sb 4.25373968 0.0228187966 11.9120407087 0.00169795666807 0.000980361716436 0.0101178059966
Sb -2.10710964 3.6039833467 11.9120407087 0 -0.00196072343287 0.0101178059966
Sb 2.10710669 1.2129771758 29.1636425595 2.57110337382e-07 0.00173652321868 -0.017635198041
Sb 4.2173021281 4.8679428871 29.1636425595 -0.00150358125301 -0.000868518719675 -0.0176349409307
Sb 6.32132897 1.21653861 29.1849640834 -2.57110337382e-07 2.57110337382e-07 -0.0171379466485
Sb -0.0030842981 4.8679403171 29.1636422695 0.00150358125301 -0.000868261609338 -0.0176346838203
Sb 2.10710745 1.2685620073 22.6289393004 2.57110337382e-07 0.000589296893279 0.0153674848653
Sb 4.1691646474 4.8401498064 22.6289393004 -0.000510106909365 -0.000294905556977 0.0153677419756
Sb 6.32132821 1.21653905 22.4013933269 -2.57110337382e-07 2.57110337382e-07 0.0235168541189
Sb 0.0450531826 4.8401481164 22.6289389104 0.000510106909365 -0.000294648446639 0.0153677419756
Cr 2.1071088 3.64961976 12.2742624601 -2.57110337382e-07 -2.57110337382e-07 -0.0524042289651
61
Lattice="8.42843558953 0 0 -4.21421779477 7.29923593142 0 0 0 31.0334408416" Properties=species:S:1:pos:R:3:forces:R:3 energy=-133599.468975 ionic_step=24 pbc="T T T"
Te 2.1071096 1.2111057011 3.3613965814 -2.57110337382e-07 -0.00647943761235 -0.00219083718483
Te 4.2189243186 4.8688761045 3.3613965814 0.00561117600302 0.00323959025101 -0.00219083718483
Te 6.32132606 1.21654029 3.3998841349 2.57110337382e-07 0 0.0587543400778
Te -0.0047064886 4.8688768845 3.3613965914 -0.00561117600302 0.00323933314067 -0.00219083718483
Te 0.5589310916 -0.3226991676 7.0703544906 -0.00135779969171 0.000784186529014 -0.000507792916329
Te 2.10710848 3.64961994 6.394105015 2.57110337382e-07 -2.57110337382e-07 0.0450148778688
Te 3.6552867384 -0.3226996576 7.0703543106 0.00135779969171 0.000784186529014 -0.000507792916329
Te -2.10710848 4.2950182753 7.0703543106 -0 -0.00156785883735 -0.000507792916329
Te 0.0010919031 -0.0006304088 -0.0482270232 -0.000311360618569 0.000179977236167 -0.0017717473349
Te 2.10710891 3.6496197 -0.0566680383 -0 -2.57110337382e-07 -3.31672335222e-05
Te 4.2131259269 -0.0006304088 -0.0482270232 0.000311360618569 0.000179977236167 -0.0017717473349
Te -2.10710891 3.6508805175 -0.0482270232 0 -0.000359697361997 -0.0017717473349
Te -0.2588895366 2.2836100361 13.7487580972 0.0074220041092 0.00428525799314 0.0285330768013
Te 2.1071087 6.3816393878 13.7487580972 0 -0.00857025887594 0.0285328196909
Te 4.4731073566 2.2836097861 13.7487584772 -0.0074220041092 0.00428525799314 0.0285328196909
Te -2.1071087 6.08269937 13.4579919932 -0 -2.57110337382e-07 0.0355974404312
Te 2.10710913 1.0168506668 17.2664400237 -0 0.0228092864705 -0.0148532641905
Te 4.3871538044 4.9660040216 17.2664400237 -0.0197535301107 -0.0114046432352 -0.0148532641905
Te 6.32132652 1.21654002 17.3978724931 0 2.57110337382e-07 0.005271276137
Te -0.1729359844 4.9660042716 17.2664396337 0.0197532730004 -0.0114046432352 -0.0148532641905
Te 2.10710868 1.7252534074 10.4921556943 0 0.0182005836729 -0.00892687091389
Te 3.7736590845 4.6118030463 10.4921556943 -0.0157621492332 -0.00910042039162 -0.00892661380355
Te 6.32132698 1.21653976 9.9340649315 -0 2.57110337382e-07 0.0175135848514
Te 0.4405587355 4.6118027763 10.4921561143 0.0157621492332 -0.00910042039162 -0.00892661380355
Te -0.1450401606 0.0837390179 24.1120370294 0.0340961731712 -0.0196851387609 -0.00261584057252
Te 2.10710934 3.64961945 24.3133826217 -2.57110337382e-07 -2.57110337382e-07 -0.016149871622
Te 4.3592579906 0.0837395179 24.1120372194 -0.0340959160609 -0.0196851387609 -0.00261584057252
Te -2.10710934 3.4821414142 24.1120372194 2.57110337382e-07 0.0393705346322 -0.00261584057252
Te -0.0043749451 2.4305547064 27.5673208366 -0.000959278668771 -0.00055381566672 0.00878777422137
Te 2.10710823 6.0877508472 27.5673208366 2.57110337382e-07 0.00110763133344 0.00878777422137
Te 4.2185927651 2.4305539264 27.5673208266 0.000959278668771 -0.000553558556383 0.00878777422137
Te -2.10710823 6.0826991 27.5404528836 -2.57110337382e-07 -0 -0.0142793939175
Te 0.1278415982 2.5068889427 20.6941597195 -0.0196416871139 -0.0113395943199 -0.00405360157916
Te 2.10710915 5.9350807947 20.6941597195 -0 0.0226799599708 -0.00405360157916
Te 4.0863762318 2.5068892126 20.6941592895 0.0196416871139 -0.0113398514302 -0.00405360157916
Te -2.10710915 6.08269963 20.8455019271 0 -2.57110337382e-07 0.0011135448712
Sb 0.06512232 2.4706765189 8.0796854404 -0.00240475298553 -0.00138788160119 -0.0149985315312
Sb 2.10711038 6.0075035022 8.0796854404 -2.57110337382e-07 0.00277653453338 -0.0149985315312
Sb 4.14909551 2.4706782189 8.0796858304 0.00240475298553 -0.00138813871152 -0.0149985315312
Sb -2.10711038 6.08270034 9.2270404784 2.57110337382e-07 -2.57110337382e-07 -0.00140459377312
Sb 0.0034527757 2.4350706867 1.8178020055 0.00274465285155 0.00158508522996 0.0179858965412
Sb 2.10711114 6.0787138567 1.8178020055 -2.57110337382e-07 -0.0031693991289 0.0179858965412
Sb 4.2107650543 2.4350732567 1.8178022955 -0.00274465285155 0.00158482811962 0.0179856394309
Sb -2.10711114 6.08270078 1.7831141292 2.57110337382e-07 -2.57110337382e-07 0.0203158304185
Sb 0.0358401535 -0.0206923335 18.9666653549 0.000782129646315 -0.000451485752442 -0.0218402376089
Sb 2.10710819 3.64962011 18.6602170445 0 -2.57110337382e-07 0.0132740924983
Sb 4.1783776765 -0.0206931635 18.9666655949 -0.000782129646315 -0.000451228642105 -0.0218402376089
Sb 6.32132747 3.6910047769 18.9666655949 -0 0.000902714394547 -0.0218402376089
Sb -0.0344786892 0.019906295 11.8755235465 -0.000579526700458 0.000334757659271 0.00484395875627
Sb 2.10710964 3.64961928 14.8748131982 0 -0 -0.0844656309263
Sb 4.2486965192 0.019907125 11.8755233065 0.000579783810796 0.000334757659271 0.00484395875627
Sb -2.10710964 3.6098066899 11.8755233065 0 -0.000669515318542 0.00484395875627
Sb 2.10710669 1.2115688941 29.1590129887 2.57110337382e-07 0.00235975867649 -0.016934058151
Sb 4.2185217353 4.8686470279 29.1590129887 -0.00204351296151 -0.00118013644858 -0.016934058151
Sb 6.32132897 1.21653861 29.178091633 -2.57110337382e-07 2.57110337382e-07 -0.016621669091
Sb -0.0043039053 4.8686444579 29.1590126987 0.00204351296151 -0.00117987933824 -0.0169338010406
Sb 2.10710745 1.2679178062 22.6374122005 2.57110337382e-07 0.00148609775007 0.0138749593568
Sb 4.1697225416 4.8404719069 22.6374122005 -0.0012868372386 -0.00074330598537 0.0138752164671
Sb 6.32132821 1.21653905 22.3626488724 -2.57110337382e-07 2.57110337382e-07 0.0220652091541
Sb 0.0444952884 4.8404702169 22.6374118105 0.0012868372386 -0.000743048875033 0.0138752164671
Cr 2.1071088 3.64961976 12.3383524152 -2.57110337382e-07 -2.57110337382e-07 -0.0419647779364
61
Lattice="8.42843558953 0 0 -4.21421779477 7.29923593142 0 0 0 31.0334408416" Properties=species:S:1:pos:R:3:forces:R:3 energy=-133599.647085 ionic_step=25 pbc="T T T"
Te 2.1071096 1.2076021324 3.3406709522 -2.57110337382e-07 -0.00853580609073 0.00871192667184
Te 4.2219584966 4.8706278888 3.3406709522 0.00739217931006 0.0042677744902 0.00871192667184
Te 6.32132606 1.21654029 3.3908529556 2.57110337382e-07 0 0.0610243672465
Te -0.0077406666 4.8706286688 3.3406709622 -0.00739217931006 0.00426751737986 0.00871192667184
Te 0.5655815909 -0.326538837 7.1501273588 0.0023247916706 -0.00134185885079 -0.0170227612174
Te 2.10710848 3.64961994 6.4775841319 2.57110337382e-07 -2.57110337382e-07 0.0338143802414
Te 3.6486362391 -0.326539327 7.1501271788 -0.00232504878094 -0.00134185885079 -0.0170227612174
Te -2.10710848 4.302697614 7.1501271788 -0 0.0026844890326 -0.0170227612174
Te -0.0019993897 0.0011543508 -0.0419584126 0.000584411796868 -0.000337071652307 -0.00439530121754
Te 2.10710891 3.6496197 -0.0496117174 -0 -2.57110337382e-07 -0.00242815002623
Te 4.2162172197 0.0011543508 -0.0419584126 -0.000584411796868 -0.000337071652307 -0.00439530121754
Te -2.10710891 3.6473109984 -0.0419584126 0 0.000674400414952 -0.00439530121754
Te -0.2151916404 2.30883904 13.716147576 0.00919092323038 0.00530650025322 0.0330499912084
Te 2.1071087 6.33118138 13.716147576 0 -0.0106127433961 0.033049734098
Te 4.4294094604 2.30883879 13.716147956 -0.00919092323038 0.00530650025322 0.033049734098
Te -2.1071087 6.08269937 13.4375269307 -0 -2.57110337382e-07 0.0415449167555
Te 2.10710913 0.9919437212 17.2805792035 -0 0.0244509359747 -0.0186201877435
Te 4.408723842 4.9784574944 17.2805792035 -0.0211750931661 -0.0122253394322 -0.0186201877435
Te 6.32132652 1.21654002 17.4546363093 0 2.57110337382e-07 -0.00946628840172
Te -0.194506022 4.9784577444 17.2805788135 0.0211750931661 -0.0122255965425 -0.0186201877435
Te 2.10710868 1.7300158498 10.4432012081 0 0.0205276893365 0.0028179292977
Te 3.7695346903 4.6094218251 10.4432012081 -0.0177773800576 -0.0102641017786 0.00281818640804
Te 6.32132698 1.21653976 9.8981160358 -0 2.57110337382e-07 0.0274272452402
Te 0.4446831297 4.6094215551 10.4432016281 0.0177776371679 -0.0102641017786 0.00281818640804
Te -0.1787267277 0.1031879755 24.108432874 0.0376440387167 -0.0217335368189 -0.00130226385884
Te 2.10710934 3.64961945 24.2965475822 -2.57110337382e-07 -2.57110337382e-07 -0.0111945840896
Te 4.3929445577 0.1031884755 24.108433064 -0.0376440387167 -0.0217337939292 -0.00130226385884
Te -2.10710934 3.443243499 24.108433064 2.57110337382e-07 0.0434675878584 -0.00130226385884
Te -0.0021348167 2.4318480458 27.5776456151 -0.00115519674586 -0.000666944215168 0.00857180153797
Te 2.10710823 6.0851641684 27.5776456151 2.57110337382e-07 0.00133363132 0.00857180153797
Te 4.2163526367 2.4318472658 27.5776456051 0.00115493963552 -0.000666687104831 0.00857180153797
Te -2.10710823 6.0826991 27.5389197766 -2.57110337382e-07 -0 -0.0173014688231
Te 0.1447257675 2.5166370269 20.6974661772 -0.0206403036643 -0.0119162928066 -0.00417958564448
Te 2.10710915 5.9155846263 20.6974661772 -0 0.0238330998339 -0.00417958564448
Te 4.0694920625 2.5166372969 20.6974657472 0.0206403036643 -0.0119162928066 -0.00417958564448
Te -2.10710915 6.08269963 20.8487083705 0 -2.57110337382e-07 0.00758964004917
Sb 0.0439535234 2.4584547028 8.0545040521 -0.000369981775492 -0.000213144469689 -0.0152510138825
Sb 2.10711038 6.0319471344 8.0545040521 -2.57110337382e-07 0.000427060270391 -0.0152512709928
Sb 4.1702643066 2.4584564028 8.0545044421 0.000369981775492 -0.000213401580027 -0.0152510138825
Sb -2.10711038 6.08270034 9.313966146 2.57110337382e-07 -2.57110337382e-07 -0.00113617058089
Sb -0.0035209317 2.4310444129 1.8255697401 0.00314008855044 0.00181339920955 0.0160542265764
Sb 2.10711114 6.0867664041 1.8255697401 -2.57110337382e-07 -0.00362602708809 0.0160542265764
Sb 4.2177387617 2.4310469829 1.8255700301 -0.00314008855044 0.00181314209922 0.0160539694661
Sb -2.10711114 6.08270078 1.7767638309 2.57110337382e-07 -2.57110337382e-07 0.0189888839673
Sb 0.0340909189 -0.0196824119 18.9594615775 0.00166504654488 -0.00096133555147 -0.0222966084577
Sb 2.10710819 3.64962011 18.6154648076 0 -2.57110337382e-07 0.0121392074691
Sb 4.1801269111 -0.0196832419 18.9594618175 -0.00166504654488 -0.000961078441133 -0.0222966084577
Sb 6.32132747 3.6889849338 18.9594618175 -0 0.00192267110294 -0.0222963513474
Sb -0.0174399392 0.0100689635 11.8484086542 -0.000873403816085 0.000504450481943 0.00083175194143
Sb 2.10710964 3.64961928 14.9476765845 0 -0 -0.074771799876
Sb 4.2316577692 0.0100697935 11.8484084142 0.000873660926423 0.000504450481943 0.00083175194143
Sb -2.10710964 3.629481353 11.8484084142 0 -0.00100890096389 0.00083175194143
Sb 2.10710669 1.2114828159 29.1580496682 2.57110337382e-07 0.0029128030122 -0.016005118502
Sb 4.2185962812 4.8686900671 29.1580496682 -0.00252225240971 -0.00145653006127 -0.0160048613917
Sb 6.32132897 1.21653861 29.1700586338 -2.57110337382e-07 2.57110337382e-07 -0.0161601560354
Sb -0.0043784512 4.8686874971 29.1580493782 0.00252225240971 -0.00145627295093 -0.0160046042813
Sb 2.10710745 1.2600820366 22.6380167714 2.57110337382e-07 0.00306192700788 0.0117815669898
Sb 4.176508514 4.8443897917 22.6380167714 -0.00265157890942 -0.00153109205911 0.0117818241002
Sb 6.32132821 1.21653905 22.3146983427 -2.57110337382e-07 2.57110337382e-07 0.0193732639217
Sb 0.037709316 4.8443881017 22.6380163814 0.00265157890942 -0.00153109205911 0.0117818241002
Cr 2.1071088 3.64961976 12.3514789216 -2.57110337382e-07 -2.57110337382e-07 -0.037683890819
61
Lattice="8.42843558953 0 0 -4.21421779477 7.29923593142 0 0 0 31.0334408416" Properties=species:S:1:pos:R:3:forces:R:3 energy=-133599.788418 ionic_step=26 pbc="T T T"
Te 2.1071096 1.2003496844 3.3209426687 -2.57110337382e-07 -0.00956193344722 0.0181111092755
Te 4.228239298 4.8742541128 3.3209426687 0.00828075263605 0.00478096672361 0.0181111092755
Te 6.32132606 1.21654029 3.3828832191 2.57110337382e-07 0 0.0610943012583
Te -0.014021468 4.8742548928 3.3209426787 -0.00828075263605 0.00478070961327 0.0181111092755
Te 0.6225859633 -0.3594503421 7.2465478628 0.0107253577239 -0.00619198825516 -0.029405452176
Te 2.10710848 3.64961994 6.4809708873 2.57110337382e-07 -2.57110337382e-07 0.0262440234676
Te 3.5916318667 -0.3594508321 7.2465476828 -0.0107256148342 -0.00619198825516 -0.0294051950657
Te -2.10710848 4.3685206242 7.2465476828 -0 0.0123847478413 -0.029405452176
Te -0.0053347364 0.003080015 -0.0433514775 0.00157248682343 -0.000907599490957 -0.00626320781862
Te 2.10710891 3.6496197 -0.0514167419 -0 -2.57110337382e-07 -0.0031012648895
Te 4.2195525664 0.003080015 -0.0433514775 -0.00157248682343 -0.000907599490957 -0.00626320781862
Te -2.10710891 3.6434596699 -0.0433514775 0 0.00181519898191 -0.00626320781862
Te -0.1334420649 2.3560372015 13.6367525824 -0.0136831550451 -0.00789997222639 0.048753005064
Te 2.1071087 6.2367850571 13.6367525824 0 0.0157999444528 0.048753005064
Te 4.3476598849 2.3560369515 13.6367529624 0.0136834121555 -0.00789997222639 0.048753005064
Te -2.1071087 6.08269937 13.3705881922 -0 -2.57110337382e-07 0.0510515714802
Te 2.10710913 0.9462690415 17.288410955 -0 0.0252227812075 -0.0266942236683
Te 4.4482792565 5.0012948342 17.288410955 -0.0218433229329 -0.0126112620486 -0.0266942236683
Te 6.32132652 1.21654002 17.508224502 0 2.57110337382e-07 -0.0316579958418
Te -0.2340614365 5.0012950842 17.288410565 0.0218433229329 -0.0126112620486 -0.026693966558
Te 2.10710868 1.7783190928 10.4134979741 0 0.0167255416673 -0.0103402064385
Te 3.7277028743 4.5852702036 10.4134979741 -0.0144845679667 -0.00836302794401 -0.0103399493281
Te 6.32132698 1.21653976 9.8288824192 -0 2.57110337382e-07 0.0339575906993
Te 0.4865149457 4.5852699336 10.4134983941 0.0144848250771 -0.00836302794401 -0.0103399493281
Te -0.2295666569 0.132540436 24.0990630338 0.0384354243352 -0.0221906789987 -0.000646889608852
Te 2.10710934 3.64961945 24.2991836432 -2.57110337382e-07 -2.57110337382e-07 -0.0086628185974
Te 4.4437844869 0.132540936 24.0990632238 -0.0384354243352 -0.0221906789987 -0.00064714671919
Te -2.10710934 3.384538578 24.0990632238 0 0.0443813579975 -0.00064714671919
Te 0.0009200457 2.4336117722 27.5822585021 -0.00184965176712 -0.00106777923115 0.00866358992841
Te 2.10710823 6.0816367156 27.5822585021 2.57110337382e-07 0.00213555846229 0.00866358992841
Te 4.2132977743 2.4336109922 27.5822584921 0.00184939465679 -0.00106752212081 0.00866358992841
Te -2.10710823 6.0826991 27.5281090528 -2.57110337382e-07 -0 -0.0223282330292
Te 0.1756883775 2.5345133064 20.6950157286 -0.0209843172957 -0.0121150390974 -0.00516688934002
Te 2.10710915 5.8798320672 20.6950157286 -0 0.0242303353052 -0.00516688934002
Te 4.0385294525 2.5345135764 20.6950152986 0.0209843172957 -0.0121150390974 -0.00516663222968
Te -2.10710915 6.08269963 20.8701294265 0 -2.57110337382e-07 0.0128071801257
Sb 0.0231756891 2.446458609 8.018287414 0.000539417487827 0.000311874839244 -0.0147043973052
Sb 2.10711038 6.0559393221 8.018287414 -2.57110337382e-07 -0.000622978347476 -0.0147043973052
Sb 4.1910421409 2.446460309 8.018287804 -0.000539417487827 0.000311617728907 -0.0147043973052
Sb -2.10711038 6.08270034 9.5052026147 2.57110337382e-07 -2.57110337382e-07 0.000799613149257
Sb -0.0103398831 2.4271074877 1.830346787 0.00391373355562 0.00225999986558 0.0144156623963
Sb 2.10711114 6.0946402546 1.830346787 -2.57110337382e-07 -0.00451948551049 0.0144156623963
Sb 4.2245577131 2.4271100577 1.830347077 -0.00391373355562 0.00225974275525 0.014415405286
Sb -2.10711114 6.08270078 1.7660905943 2.57110337382e-07 -2.57110337382e-07 0.0178339443318
Sb 0.0302452159 -0.0174620932 18.9726493791 0.00307452541441 -0.00177508976928 -0.0205248611228
Sb 2.10710819 3.64962011 18.5514736073 0 -2.57110337382e-07 0.00926419967653
Sb 4.1839726141 -0.0174629232 18.9726496191 -0.00307452541441 -0.00177483265895 -0.0205248611228
Sb 6.32132747 3.6845442964 18.9726496191 -0 0.00354992242823 -0.0205248611228
Sb 0.0077303855 -0.004463137 11.8038399814 -0.000718880503319 0.000415233194871 -0.00223788837657
Sb 2.10710964 3.64961928 15.0949070805 0 -0 -0.0476142633797
Sb 4.2064874445 -0.004462307 11.8038397414 0.000718880503319 0.000414976084534 -0.00223814548691
Sb -2.10710964 3.6585455539 11.8038397414 0 -0.000830209279405 -0.00223814548691
Sb 2.10710669 1.2124644613 29.1527624485 2.57110337382e-07 0.00349515792637 -0.0152304450555
Sb 4.2177461517 4.8681992443 29.1527624485 -0.00302670289166 -0.00174783607352 -0.0152304450555
Sb 6.32132897 1.21653861 29.1631002083 -2.57110337382e-07 2.57110337382e-07 -0.0158950752776
Sb -0.0035283217 4.8681966743 29.1527621585 0.00302670289166 -0.00174757896318 -0.0152301879451
Sb 2.10710745 1.2565575455 22.6580765259 2.57110337382e-07 0.00440507141036 0.0106590232568
Sb 4.1795608114 4.8461520372 22.6580765259 -0.00381474607573 -0.00220266426035 0.0106590232568
Sb 6.32132821 1.21653905 22.249751421 -2.57110337382e-07 2.57110337382e-07 0.0171124927251
Sb 0.0346570186 4.8461503472 22.6580761359 0.00381474607573 -0.00220266426035 0.0106592803672
Cr 2.1071088 3.64961976 12.4789754656 -2.57110337382e-07 -2.57110337382e-07 -0.00907033848215
61
Lattice="8.42843558953 0 0 -4.21421779477 7.29923593142 0 0 0 31.0334408416" Properties=species:S:1:pos:R:3:forces:R:3 energy=-133599.963323 ionic_step=27 pbc="T T T"
Te 2.1071096 1.1949371246 3.3218308542 -2.57110337382e-07 -0.00820593352787 0.0205256324539
Te 4.2329267101 4.8769603927 3.3218308542 0.00710652972523 0.00410296676394 0.0205256324539
Te 6.32132606 1.21654029 3.3862732468 2.57110337382e-07 0 0.0613989770081
Te -0.0187088801 4.8769611727 3.3218308642 -0.00710652972523 0.0041027096536 0.0205256324539
Te 0.5811223445 -0.3355112995 7.2697054072 0.00816608142558 -0.00471437514623 -0.0341650787416
Te 2.10710848 3.64961994 6.5183822017 2.57110337382e-07 -2.57110337382e-07 0.0174948157968
Te 3.6330954855 -0.3355117895 7.2697052272 -0.00816608142558 -0.00471437514623 -0.0341648216313
Te -2.10710848 4.3206425389 7.2697052272 -0 0.00942952162347 -0.0341648216313
Te -0.0080255937 0.004633583 -0.0400472165 0.00224688723838 -0.00129712165209 -0.00643650018601
Te 2.10710891 3.6496197 -0.044711437 -0 -2.57110337382e-07 -0.00274516707222
Te 4.2222434237 0.004633583 -0.0400472165 -0.00224688723838 -0.00129712165209 -0.00643650018601
Te -2.10710891 3.6403525341 -0.0400472165 0 0.00259424330418 -0.00643650018601
Te -0.0998724389 2.3754186431 13.6183362823 -0.472960636262 -0.273063776706 0.291252533303
Te 2.1071087 6.1980221739 13.6183362823 0 0.546127810522 0.291252790414
Te 4.3140902589 2.3754183931 13.6183366623 0.472961407593 -0.273064290926 0.291253047524
Te -2.1071087 6.08269937 13.3614811408 -0 -2.57110337382e-07 0.0532560355129
Te 2.10710913 0.9448220916 17.2863199818 -0 0.0238518688886 -0.0257819961913
Te 4.4495323513 5.0020183092 17.2863199818 -0.0206562445052 -0.0119258058891 -0.0257819961913
Te 6.32132652 1.21654002 17.5267680361 0 2.57110337382e-07 -0.0379451149218
Te -0.2353145313 5.0020185592 17.2863195918 0.0206562445052 -0.0119260629994 -0.0257817390809
Te 2.10710868 1.7548131498 10.3868916532 0 -0.376010241573 -0.431115928853
Te 3.7480596086 4.5970231751 10.3868916532 0.32563487028 0.188004992231 -0.431115671742
Te 6.32132698 1.21653976 9.8403245465 -0 2.57110337382e-07 0.0337503597674
Te 0.4661582114 4.5970229051 10.3868920732 -0.325634098949 0.188004735121 -0.431114900411
Te -0.2406520583 0.1389405985 24.0909626808 0.0380934675865 -0.0219932182596 0.000724794041079
Te 2.10710934 3.64961945 24.279885916 -2.57110337382e-07 -2.57110337382e-07 -0.00684556273279
Te 4.4548698883 0.1389410985 24.0909628708 -0.0380934675865 -0.0219932182596 0.000724794041079
Te -2.10710934 3.371738253 24.0909628708 0 0.0439864365192 0.000724794041079
Te 0.0049278815 2.4359256984 27.5885256792 -0.00288940597149 -0.00166838897927 0.00735078454574
Te 2.10710823 6.0770088632 27.5885256792 2.57110337382e-07 0.0033365208482 0.00735078454574
Te 4.2092899385 2.4359249184 27.5885256692 0.00288940597149 -0.00166787475859 0.00735078454574
Te -2.10710823 6.0826991 27.5315963655 -2.57110337382e-07 -0 -0.0245434956961
Te 0.1770675145 2.5353095519 20.6868977884 -0.020998972585 -0.0121232666282 -0.00502419310277
Te 2.10710915 5.8782395762 20.6868977884 -0 0.0242473045874 -0.00502419310277
Te 4.0371503155 2.5353098219 20.6868973584 0.020998972585 -0.0121235237386 -0.00502419310277
Te -2.10710915 6.08269963 20.8693854758 0 -2.57110337382e-07 0.0135808251308
Sb 0.0071632107 2.4372137959 8.0475100629 0.00216744014413 0.00125187023271 -0.0165689614719
Sb 2.10711038 6.0744289482 8.0475100629 -2.57110337382e-07 -0.00250296913441 -0.0165689614719
Sb 4.2070546193 2.4372154959 8.0475104529 -0.00216769725446 0.00125161312237 -0.0165689614719
Sb -2.10711038 6.08270034 9.5008611963 2.57110337382e-07 -2.57110337382e-07 0.000619893023427
Sb -0.013587307 2.4252325857 1.8343177483 0.00399240931886 0.0023055083953 0.0132843769118
Sb 2.10711114 6.0983900586 1.8343177483 -2.57110337382e-07 -0.00461024545959 0.0132843769118
Sb 4.227805137 2.4252351557 1.8343180383 -0.00399240931886 0.00230525128496 0.0132841198015
Sb -2.10711114 6.08270078 1.7665986191 2.57110337382e-07 -2.57110337382e-07 0.0165352800177
Sb 0.0219807599 -0.0126906051 18.9733158694 0.00403123297981 -0.00232736277398 -0.01945579634
Sb 2.10710819 3.64962011 18.5336328787 0 -2.57110337382e-07 0.0107834646601
Sb 4.1922370701 -0.0126914351 18.9733161094 -0.00403149009014 -0.00232736277398 -0.0194555392297
Sb 6.32132747 3.6750013202 18.9733161094 -0 0.00465472554796 -0.0194555392297
Sb 0.0315228751 -0.0181997437 11.8139188959 -0.00244974729457 0.00141487818661 -0.0092109778367
Sb 2.10710964 3.64961928 15.0547009166 2.57110337382e-07 -0 0.125080836702
Sb 4.1826949549 -0.0181989137 11.8139186559 0.00245000440491 0.00141462107627 -0.0092109778367
Sb -2.10710964 3.6860187673 11.8139186559 2.57110337382e-07 -0.00282924215255 -0.0092109778367
Sb 2.10710669 1.2150279649 29.1512582187 2.57110337382e-07 0.00334089172394 -0.0148668910384
Sb 4.2155260935 4.8669174925 29.1512582187 -0.00289300551622 -0.00167070297231 -0.0148666339281
Sb 6.32132897 1.21653861 29.158560552 -2.57110337382e-07 2.57110337382e-07 -0.0156721606151
Sb -0.0013082635 4.8669149225 29.1512579287 0.00289300551622 -0.00167044586197 -0.0148663768177
Sb 2.10710745 1.2468669086 22.6640083358 2.57110337382e-07 0.00545742402126 0.0105394669499
Sb 4.1879531453 4.8509973557 22.6640083358 -0.00472620222175 -0.00272896912097 0.0105394669499
Sb 6.32132821 1.21653905 22.2376213685 -2.57110337382e-07 2.57110337382e-07 0.0170692981884
Sb 0.0262646847 4.8509956657 22.6640079458 0.00472620222175 -0.00272871201063 0.0105394669499
Cr 2.1071088 3.64961976 12.4497389429 -1.79977236167e-06 -0 0.395023551022
61
Lattice="8.42843558953 0 0 -4.21421779477 7.29923593142 0 0 0 31.0334408416" Properties=species:S:1:pos:R:3:forces:R:3 energy=-133599.99711 ionic_step=28 pbc="T T T"
Te 2.1071096 1.1915593351 3.3434253987 -2.57110337382e-07 -0.00610019986472 0.0159076736841
Te 4.2358519602 4.8786492874 3.3434253987 0.00528310321252 0.00305009993236 0.0159076736841
Te 6.32132606 1.21654029 3.4033342478 2.57110337382e-07 0 0.0607613433714
Te -0.0216341302 4.8786500674 3.3434254087 -0.00528284610218 0.00304984282202 0.0159076736841
Te 0.529704251 -0.3058250355 7.2363216026 0.00150692368739 -0.000869804271362 -0.0312928991627
Te 2.10710848 3.64961994 6.5233125775 2.57110337382e-07 -2.57110337382e-07 0.0198481467148
Te 3.684513579 -0.3058255255 7.2363214226 -0.00150692368739 -0.000869547161025 -0.0312926420524
Te -2.10710848 4.261270011 7.2363214226 -0 0.00173986565306 -0.0312928991627
Te -0.009058947 0.00523019 -0.0407954144 0.00236232977986 -0.00136371322947 -0.00469869141565
Te 2.10710891 3.6496197 -0.0400243482 -0 -2.57110337382e-07 -0.00091119903568
Te 4.223276777 0.00523019 -0.0407954144 -0.00236232977986 -0.00136371322947 -0.00469869141565
Te -2.10710891 3.63915932 -0.0407954144 0 0.00272768356928 -0.00469869141565
Te -0.1362457952 2.3544184662 13.6494255666 0.00656994045111 0.00379314880739 0.0389707280576
Te 2.1071087 6.2400225275 13.6494255666 0 -0.00758629761478 0.0389707280576
Te 4.3504636152 2.3544182162 13.6494259466 -0.00656994045111 0.00379340591773 0.0389707280576
Te -2.1071087 6.08269937 13.3940241372 -0 -2.57110337382e-07 0.046933178096
Te 2.10710913 0.9649298177 17.271298025 -0 0.02373102703 -0.022271668755
Te 4.4321185578 4.9919644461 17.271298025 -0.0205516005979 -0.0118653849598 -0.022271668755
Te 6.32132652 1.21654002 17.4969584005 0 2.57110337382e-07 -0.0310525009973
Te -0.2179007378 4.9919646961 17.271297635 0.0205516005979 -0.0118656420702 -0.0222714116447
Te 2.10710868 1.6984779647 10.3769345657 0 0.0165869591955 0.00756778567049
Te 3.7968472873 4.6251907676 10.3769345657 -0.0143644974392 -0.00829360815292 0.00756804278083
Te 6.32132698 1.21653976 9.8988621236 -0 2.57110337382e-07 0.0310265328532
Te 0.4173705327 4.6251904976 10.3769349857 0.0143647545495 -0.00829360815292 0.00756804278083
Te -0.2262559144 0.1306289771 24.0868281081 0.0382832150154 -0.022102490153 0.000799613149257
Te 2.10710934 3.64961945 24.2735832248 -2.57110337382e-07 -2.57110337382e-07 -0.00938247043173
Te 4.4404737444 0.1306294771 24.0868282981 -0.0382832150154 -0.0221027472633 0.000799356038919
Te -2.10710934 3.3883614959 24.0868282981 0 0.0442054945267 0.000799356038919
Te 0.0083095472 2.4378781049 27.5846769387 -0.00402609077306 -0.00232453456027 0.00673397684636
Te 2.10710823 6.0731040502 27.5846769387 2.57110337382e-07 0.0046488120102 0.00673397684636
Te 4.2059082728 2.4378773249 27.5846769287 0.00402609077306 -0.00232427744993 0.00673397684636
Te -2.10710823 6.0826991 27.5352549821 -2.57110337382e-07 -0 -0.0242539894562
Te 0.1647194493 2.5281803898 20.6741872647 -0.0213036483348 -0.0122993872093 -0.00450765843497
Te 2.10710915 5.8924979004 20.6741872647 -0 0.0245992886393 -0.00450765843497
Te 4.0494983807 2.5281806598 20.6741868347 0.0213036483348 -0.0122993872093 -0.00450765843497
Te -2.10710915 6.08269963 20.8637178023 0 -2.57110337382e-07 0.00955859101284
Sb 0.0158867416 2.4422503312 8.0971198232 0.00458324887416 0.00264669381301 -0.0125829799115
Sb 2.10711038 6.0643558776 8.0971198232 -2.57110337382e-07 -0.005292616295 -0.0125829799115
Sb 4.1983310884 2.4422520312 8.0971202132 -0.00458324887416 0.00264643670267 -0.0125829799115
Sb -2.10711038 6.08270034 9.3994786016 2.57110337382e-07 -2.57110337382e-07 0.00187124903546
Sb -0.0100430439 2.4272788679 1.8376466148 0.00352678249786 0.0020365709824 0.0130362654363
Sb 2.10711114 6.0942974941 1.8376466148 -2.57110337382e-07 -0.00407237063379 0.0130365225466
Sb 4.2242608739 2.4272814379 1.8376469048 -0.00352678249786 0.00203631387206 0.0130360083259
Sb -2.10711114 6.08270078 1.775277546 2.57110337382e-07 -2.57110337382e-07 0.0159138443322
Sb 0.0129965437 -0.007503563 18.9755367712 0.0046130736733 -0.0026631488746 -0.0189791137745
Sb 2.10710819 3.64962011 18.5468855418 0 -2.57110337382e-07 0.0135106340087
Sb 4.2012212863 -0.007504393 18.9755370112 -0.0046130736733 -0.0026631488746 -0.0189788566642
Sb 6.32132747 3.6646272361 18.9755370112 -0 0.00532655485954 -0.0189788566642
Sb 0.0486945143 -0.0281137988 11.8306408909 -0.00527718967476 0.00304675749797 0.00201343105204
Sb 2.10710964 3.64961928 14.9376951847 0 -0 -0.0741753038933
Sb 4.1655233157 -0.0281129688 11.8306406509 0.00527718967476 0.00304675749797 0.0020131739417
Sb -2.10710964 3.7058468776 11.8306406509 0 -0.00609377210628 0.0020131739417
Sb 2.10710669 1.2172687155 29.1487716475 2.57110337382e-07 0.00283618413166 -0.0149249979747
Sb 4.2135855475 4.8657971173 29.1487716475 -0.00245617505301 -0.00141847773133 -0.0149247408643
Sb 6.32132897 1.21653861 29.156994547 -2.57110337382e-07 2.57110337382e-07 -0.0151975349323
Sb 0.0006322825 4.8657945473 29.1487713575 0.00245617505301 -0.00141796351066 -0.0149247408643
Sb 2.10710745 1.2385773719 22.670085008 2.57110337382e-07 0.00594721921397 0.0115252279835
Sb 4.1951320912 4.855142124 22.670085008 -0.00515043427843 -0.00297399527249 0.0115252279835
Sb 6.32132821 1.21653905 22.263255627 -2.57110337382e-07 2.57110337382e-07 0.0189153504108
Sb 0.0190857388 4.855140434 22.670084618 0.00515043427843 -0.00297373816216 0.0115252279835
Cr 2.1071088 3.64961976 12.3974380603 -2.57110337382e-07 -2.57110337382e-07 -0.0252580053237
61
Lattice="8.42843558953 0 0 -4.21421779477 7.29923593142 0 0 0 31.0334408416" Properties=species:S:1:pos:R:3:forces:R:3 energy=-133600.162974 ionic_step=29 pbc="T T T"
Te 2.1071096 1.1873090045 3.3462845705 -2.57110337382e-07 -0.00574770159217 0.0157714052053
Te 4.2395328528 4.8807744528 3.3462845705 0.00497765613171 0.00287372224091 0.0157714052053
Te 6.32132606 1.21654029 3.4083569568 2.57110337382e-07 0 0.0597305880288
Te -0.0253150228 4.8807752328 3.3462845805 -0.00497765613171 0.00287346513058 0.0157714052053
Te 0.5551591952 -0.3205214612 7.2589619321 0.00456319426785 -0.00263435251681 -0.0324920617763
Te 2.10710848 3.64961994 6.4877660005 2.57110337382e-07 -2.57110337382e-07 0.0226010270972
Te 3.6590586348 -0.3205219512 7.2589617521 -0.00456345137819 -0.00263435251681 -0.0324920617763
Te -2.10710848 4.2906628624 7.2589617521 -0 0.0052692192543 -0.0324920617763
Te -0.0104198214 0.0060158916 -0.0457016882 0.00266083488156 -0.00153597715552 -0.00408085527492
Te 2.10710891 3.6496197 -0.0429294866 -0 -2.57110337382e-07 0.000258138778731
Te 4.2246376514 0.0060158916 -0.0457016882 -0.00266083488156 -0.00153597715552 -0.00408085527492
Te -2.10710891 3.6375879168 -0.0457016882 0 0.00307221142137 -0.00408085527492
Te -0.116440465 2.3658530843 13.6189622752 0.00393995881004 0.00227491226515 0.0406661136223
Te 2.1071087 6.2171532914 13.6189622752 0 -0.00454956741997 0.0406661136223
Te 4.330658285 2.3658528343 13.6189626552 -0.00393995881004 0.00227491226515 0.040665856512
Te -2.1071087 6.08269937 13.3792015117 -0 -2.57110337382e-07 0.0472903043546
Te 2.10710913 0.9480346864 17.2661581229 -0 0.0240087061944 -0.0245075002489
Te 4.4467501639 5.0004120118 17.2661581229 -0.0207919987634 -0.012004224542 -0.0245075002489
Te 6.32132652 1.21654002 17.4943102836 0 2.57110337382e-07 -0.0351706372711
Te -0.2325323439 5.0004122618 17.2661577329 0.0207919987634 -0.0120044816523 -0.0245075002489
Te 2.10710868 1.7228266519 10.3766033628 0 0.0209022990981 0.00385074152296
Te 3.7757607155 4.613016424 10.3766033628 -0.0181018533034 -0.0104512781042 0.0038509986333
Te 6.32132698 1.21653976 9.8903360641 -0 2.57110337382e-07 0.0298461392943
Te 0.4384571045 4.613016154 10.3766037828 0.0181018533034 -0.0104512781042 0.0038509986333
Te -0.2425235195 0.1400210876 24.0799057481 0.0376065006075 -0.0217119395505 0.000519619991848
Te 2.10710934 3.64961945 24.2850040869 -2.57110337382e-07 -2.57110337382e-07 -0.0112128389236
Te 4.4567413495 0.1400215876 24.0799059381 -0.0376065006075 -0.0217119395505 0.000519362881511
Te -2.10710934 3.3695772748 24.0799059381 0 0.0434241362114 0.000519362881511
Te 0.0105469094 2.4391698472 27.581499239 -0.00486658446596 -0.00280970176691 0.00692655248906
Te 2.10710823 6.0705205657 27.581499239 2.57110337382e-07 0.00561940353381 0.00692655248906
Te 4.2036709106 2.4391690672 27.581499229 0.00486658446596 -0.00280944465657 0.00692655248906
Te -2.10710823 6.0826991 27.5309318595 -2.57110337382e-07 -0 -0.0265638687273
Te 0.1768361618 2.5351759803 20.666964081 -0.0213147040793 -0.0123055578574 -0.00502265044075
Te 2.10710915 5.8785067194 20.666964081 -0 0.0246118870459 -0.00502265044075
Te 4.0373816682 2.5351762503 20.666963651 0.0213147040793 -0.0123058149678 -0.00502265044075
Te -2.10710915 6.08269963 20.8744832228 0 -2.57110337382e-07 0.00914747158336
Sb 0.0197876487 2.444502522 8.0979951454 0.00419989736113 0.00242532181252 -0.013167134598
Sb 2.10711038 6.059851496 8.0979951454 -2.57110337382e-07 -0.00484987229403 -0.013167134598
Sb 4.1944301813 2.444504222 8.0979955354 -0.00419989736113 0.00242506470218 -0.013167134598
Sb -2.10711038 6.08270034 9.4593540399 2.57110337382e-07 -2.57110337382e-07 0.00367616360388
Sb -0.0091678707 2.4277841496 1.8336244913 0.0036177995573 0.00208927860156 0.0131856465423
Sb 2.10711114 6.0932869308 1.8336244913 -2.57110337382e-07 -0.00417778587211 0.0131859036526
Sb 4.2233857007 2.4277867196 1.8336247813 -0.0036177995573 0.00208902149123 0.0131856465423
Sb -2.10711114 6.08270078 1.7679200547 2.57110337382e-07 -2.57110337382e-07 0.01613315945
Sb 0.0127273499 -0.0073481439 18.9963945666 0.00477942406159 -0.00275930814078 -0.017616171876
Sb 2.10710819 3.64962011 18.5287378024 0 -2.57110337382e-07 0.0123071005194
Sb 4.2014904801 -0.0073489739 18.9963948066 -0.00477942406159 -0.00275930814078 -0.017616171876
Sb 6.32132747 3.6643163977 18.9963948066 -0 0.00551861628156 -0.017616171876
Sb 0.0517801946 -0.029895318 11.8036726995 -0.0044541794848 0.00257187470483 0.00279427514666
Sb 2.10710964 3.64961928 14.9834917084 0 -0 -0.0678714726413
Sb 4.1624376354 -0.029894488 11.8036724595 0.0044541794848 0.00257161759449 0.00279427514666
Sb -2.10710964 3.709409916 11.8036724595 0 -0.00514349229932 0.00279427514666
Sb 2.10710669 1.2177703313 29.1492103125 2.57110337382e-07 0.00293748560459 -0.0154333051117
Sb 4.2131511356 4.8655463093 29.1492103125 -0.00254384967805 -0.00146887135746 -0.0154330480013
Sb 6.32132897 1.21653861 29.1595812901 -2.57110337382e-07 2.57110337382e-07 -0.0155076099992
Sb 0.0010666944 4.8655437393 29.1492100225 0.00254384967805 -0.00146861424712 -0.015432790891
Sb 2.10710745 1.2379551288 22.6813647228 2.57110337382e-07 0.00643495752399 0.0127444452033
Sb 4.1956709693 4.8554532456 22.6813647228 -0.00557286656275 -0.00321773587233 0.0127447023137
Sb 6.32132821 1.21653905 22.2400550865 -2.57110337382e-07 2.57110337382e-07 0.0182448066509
Sb 0.0185468607 4.8554515556 22.6813643328 0.00557286656275 -0.00321747876199 0.0127447023137
Cr 2.1071088 3.64961976 12.4700574647 -2.57110337382e-07 -2.57110337382e-07 -0.0153273756527
61
Lattice="8.42843558953 0 0 -4.21421779477 7.29923593142 0 0 0 31.0334408416" Properties=species:S:1:pos:R:3:forces:R:3 energy=-133600.299507 ionic_step=30 pbc="T T T"
Te 2.1071096 1.1797398515 3.3501259152 -2.57110337382e-07 -0.00477145364113 0.0176110296693
Te 4.2460879284 4.8845590292 3.3501259152 0.0041322773424 0.00238572682056 0.0176112867796
Te 6.32132606 1.21654029 3.4175014738 2.57110337382e-07 0 0.0584491501073
Te -0.0318700984 4.8845598092 3.3501259252 -0.0041322773424 0.00238546971023 0.0176110296693
Te 0.5770413186 -0.333155117 7.3065026881 0.00779018611233 -0.00449737402148 -0.0371388169038
Te 2.10710848 3.64961994 6.4727576684 2.57110337382e-07 -2.57110337382e-07 0.0204058190366
Te 3.6371765114 -0.333155607 7.3065025081 -0.00779018611233 -0.00449737402148 -0.0371388169038
Te -2.10710848 4.3159301739 7.3065025081 -0 0.00899526226363 -0.0371388169038
Te -0.0136670767 0.0078906962 -0.0497924079 0.00344322163821 -0.0019877200183 -0.00373838430553
Te 2.10710891 3.6496197 -0.0427634502 -0 -2.57110337382e-07 0.00138685315984
Te 4.2278849067 0.0078906962 -0.0497924079 -0.00344322163821 -0.0019877200183 -0.00373838430553
Te -2.10710891 3.6338383077 -0.0497924079 0 0.00397569714693 -0.00373838430553
Te -0.0827675619 2.385294153 13.5742175974 -0.00259938551093 -0.0015007530393 0.0428847187236
Te 2.1071087 6.1782711539 13.5742175974 0 0.00300150607859 0.0428847187236
Te 4.2969853819 2.385293903 13.5742179774 0.00259938551093 -0.00150049592896 0.0428847187236
Te -2.1071087 6.08269937 13.3707625589 -0 -2.57110337382e-07 0.0430302431745
Te 2.10710913 0.9215461525 17.260010063 -0 0.0238791225843 -0.026761072356
Te 4.4696898964 5.0136562788 17.260010063 -0.0206798986563 -0.011939432737 -0.026761072356
Te 6.32132652 1.21654002 17.4985695163 0 2.57110337382e-07 -0.041131483333
Te -0.2554720764 5.0136565288 17.260009673 0.0206798986563 -0.0119396898473 -0.026761072356
Te 2.10710868 1.7486099108 10.3592400506 0 0.0234608040654 0.00143210457922
Te 3.7534317687 4.6001247946 10.3592400506 -0.0203176301909 -0.011730659143 0.00143236168955
Te 6.32132698 1.21653976 9.8854067298 -0 2.57110337382e-07 0.0289228560727
Te 0.4607860513 4.6001245246 10.3592404706 0.0203176301909 -0.011730659143 0.00143236168955
Te -0.2717919346 0.1569192228 24.0709512594 0.0358344961622 -0.0206888975181 1.97974959784e-05
Te 2.10710934 3.64961945 24.2943470337 -2.57110337382e-07 -2.57110337382e-07 -0.0125372142714
Te 4.4860097646 0.1569197228 24.0709514494 -0.0358342390519 -0.0206888975181 1.9540385641e-05
Te -2.10710934 3.3357810043 24.0709514494 0 0.0413777950362 1.9540385641e-05
Te 0.0150020114 2.4417420027 27.5781403208 -0.00622207016464 -0.0035923456339 0.0073394716909
Te 2.10710823 6.0653762546 27.5781403208 2.57110337382e-07 0.00718443415745 0.0073394716909
Te 4.1992158086 2.4417412227 27.5781403108 0.00622207016464 -0.00359208852356 0.0073394716909
Te -2.10710823 6.0826991 27.5245794075 -2.57110337382e-07 -0 -0.0298744214314
Te 0.1963223005 2.546426313 20.6567449228 -0.0209498645105 -0.0120949844911 -0.00571299169662
Te 2.10710915 5.8560060541 20.6567449228 -0 0.0241904832029 -0.00571299169662
Te 4.0178955295 2.546426583 20.6567444928 0.0209496074002 -0.0120949844911 -0.00571299169662
Te -2.10710915 6.08269963 20.8858387485 0 -2.57110337382e-07 0.010372602341
Sb 0.0198941735 2.4445640242 8.102911254 0.004784309158 0.00276265057517 -0.0137312346782
Sb 2.10711038 6.0597284917 8.102911254 -2.57110337382e-07 -0.00552478692966 -0.0137312346782
Sb 4.1943236565 2.4445657242 8.102911644 -0.00478456626833 0.00276239346483 -0.0137312346782
Sb -2.10711038 6.08270034 9.5392353848 2.57110337382e-07 -2.57110337382e-07 0.00716797909586
Sb -0.0094683588 2.4276106627 1.8329100278 0.00373915563654 0.00215921261333 0.0126290026618
Sb 2.10711114 6.0936339046 1.8329100278 -2.57110337382e-07 -0.00431791100599 0.0126290026618
Sb 4.2236861888 2.4276132327 1.8329103178 -0.00373915563654 0.00215895550299 0.0126287455515
Sb -2.10711114 6.08270078 1.758276541 2.57110337382e-07 -2.57110337382e-07 0.0158076577629
Sb 0.0117293525 -0.0067719495 19.0202293209 0.00503319196458 -0.00290586103309 -0.0155544040806
Sb 2.10710819 3.64962011 18.4917830418 0 -2.57110337382e-07 0.00993654320879
Sb 4.2024884775 -0.0067727795 19.0202295609 -0.00503319196458 -0.00290560392275 -0.0155541469702
Sb 6.32132747 3.663164009 19.0202295609 -0 0.00581172206617 -0.0155541469702
Sb 0.059224815 -0.0341934736 11.7646383787 -0.00382811581328 0.00221037757047 0.0055402135499
Sb 2.10710964 3.64961928 15.045632354 0 -0 -0.0582465471614
Sb 4.154993015 -0.0341926436 11.7646381387 0.00382837292361 0.00221012046013 0.0055402135499
Sb -2.10710964 3.7180062271 11.7646381387 0 -0.00442075514094 0.0055402135499
Sb 2.10710669 1.2184354836 29.1488198638 2.57110337382e-07 0.00321053678288 -0.0157675485503
Sb 4.2125750971 4.8652137332 29.1488198638 -0.00278013407811 -0.00160539694661 -0.0157675485503
Sb 6.32132897 1.21653861 29.1588698933 -2.57110337382e-07 2.57110337382e-07 -0.015557746515
Sb 0.0016427329 4.8652111632 29.1488195738 0.00278013407811 -0.00160513983627 -0.0157672914399
Sb 2.10710745 1.2337383933 22.6968887165 2.57110337382e-07 0.00737392447611 0.0141685793621
Sb 4.1993227677 4.8575616134 22.6968887165 -0.00638584944955 -0.00368721934839 0.0141688364724
Sb 6.32132821 1.21653905 22.1969540863 -2.57110337382e-07 2.57110337382e-07 0.0160678534243
Sb 0.0148950623 4.8575599234 22.6968883265 0.00638584944955 -0.00368696223805 0.0141688364724
Cr 2.1071088 3.64961976 12.5369917893 -2.57110337382e-07 -2.57110337382e-07 -0.00386179726747
61
Lattice="8.42843558953 0 0 -4.21421779477 7.29923593142 0 0 0 31.0334408416" Properties=species:S:1:pos:R:3:forces:R:3 energy=-133600.429326 ionic_step=31 pbc="T T T"
Te 2.1071096 1.1693879121 3.3637974024 -2.57110337382e-07 -0.00255439120189 0.0170685268574
Te 4.2550529668 4.889734999 3.3637974024 0.00221217734283 0.00127706704577 0.0170685268574
Te 6.32132606 1.21654029 3.4333709663 2.57110337382e-07 0 0.0565383060799
Te -0.0408351368 4.889735779 3.3637974124 -0.00221217734283 0.00127680993544 0.0170685268574
Te 0.5828013116 -0.336480652 7.3417810427 0.00888136238417 -0.00512729434806 -0.0402807052266
Te 2.10710848 3.64961994 6.4520269254 2.57110337382e-07 -2.57110337382e-07 0.0198417189564
Te 3.6314165184 -0.336481142 7.3417808627 -0.00888136238417 -0.00512729434806 -0.0402804481162
Te -2.10710848 4.322581244 7.3417808627 -0 0.0102551029168 -0.0402807052266
Te -0.0180841575 0.0104409002 -0.055188844 0.00448734671832 -0.00259064375946 -0.00231142193306
Te 2.10710891 3.6496197 -0.0410575434 -0 -2.57110337382e-07 0.00378235017322
Te 4.2323019875 0.0104409002 -0.055188844 -0.00448734671832 -0.00259064375946 -0.00231142193306
Te -2.10710891 3.6287378997 -0.055188844 0 0.00518128751891 -0.00231142193306
Te -0.0643316123 2.3959381585 13.5320305038 -0.0119448320541 -0.00689621346925 0.0473846638484
Te 2.1071087 6.1569831431 13.5320305038 0 0.0137924269385 0.0473846638484
Te 4.2785494323 2.3959379085 13.5320308838 0.0119448320541 -0.00689595635891 0.0473846638484
Te -2.1071087 6.08269937 13.3815434727 -0 -2.57110337382e-07 0.0349590354634
Te 2.10710913 0.8980688659 17.2491756552 -0 0.0233543603857 -0.027459126922
Te 4.4900218135 5.025394922 17.2491756552 -0.0202253275798 -0.0116771801929 -0.027459126922
Te 6.32132652 1.21654002 17.4852251403 0 2.57110337382e-07 -0.0439926071673
Te -0.2758039935 5.025395172 17.2491752652 0.0202253275798 -0.0116771801929 -0.027459126922
Te 2.10710868 1.7722456283 10.348783726 0 0.0147704746619 -0.0134481561967
Te 3.7329626465 4.5883069359 10.348783726 -0.0127914963951 -0.00738523733095 -0.0134478990864
Te 6.32132698 1.21653976 9.9087074375 -0 2.57110337382e-07 0.0241668290518
Te 0.4812551735 4.5883066659 10.348784146 0.0127914963951 -0.00738523733095 -0.0134478990864
Te -0.2980709441 0.1720914231 24.0572451136 0.033535929746 -0.0193616939565 -0.000263538095816
Te 2.10710934 3.64961945 24.3029135653 -2.57110337382e-07 -2.57110337382e-07 -0.0148779467829
Te 4.5122887741 0.1720919231 24.0572453036 -0.033535929746 -0.0193619510669 -0.000263795206154
Te -2.10710934 3.3054366037 24.0572453036 0 0.0387239021337 -0.000263795206154
Te 0.0216262918 2.4455665346 27.5734429693 -0.00832574694509 -0.00480693486769 0.00720371743276
Te 2.10710823 6.0577271908 27.5734429693 2.57110337382e-07 0.00961361262504 0.00720371743276
Te 4.1925915282 2.4455657546 27.5734429593 0.00832574694509 -0.00480667775735 0.00720371743276
Te -2.10710823 6.0826991 27.5217791784 -2.57110337382e-07 -0 -0.0338303210823
Te 0.2153099628 2.55738885 20.6404940091 -0.0203099168808 -0.0117255169363 -0.00640538983519
Te 2.10710915 5.83408098 20.6404940091 -0 0.0234518052036 -0.00640538983519
Te 3.9989078672 2.55738912 20.6404935791 0.0203099168808 -0.0117257740466 -0.00640538983519
Te -2.10710915 6.08269963 20.8942434747 0 -2.57110337382e-07 0.010312438522
Sb 0.0278042778 2.4491309272 8.1322563048 0.00537129205824 0.00310152199983 -0.0144195190514
Sb 2.10711038 6.0505946857 8.1322563048 -2.57110337382e-07 -0.00620227266866 -0.0144197761617
Sb 4.1864135522 2.4491326272 8.1322566948 -0.00537129205824 0.0031012648895 -0.0144195190514
Sb -2.10711038 6.08270034 9.5795348643 2.57110337382e-07 -2.57110337382e-07 0.00999516436571
Sb -0.0078163664 2.4285644414 1.8325549939 0.00362602708809 0.00209390658764 0.0120708161194
Sb 2.10711114 6.0917263472 1.8325549939 -2.57110337382e-07 -0.0041872989546 0.0120708161194
Sb 4.2220341964 2.4285670114 1.8325552839 -0.00362602708809 0.0020936494773 0.0120705590091
Sb -2.10711114 6.08270078 1.7491623954 2.57110337382e-07 -2.57110337382e-07 0.0154243062499
Sb 0.0108243263 -0.0062494322 19.0499286297 0.00503036375087 -0.00290406126073 -0.0126711687572
Sb 2.10710819 3.64962011 18.4560510851 0 -2.57110337382e-07 0.0079832759757
Sb 4.2033935037 -0.0062502622 19.0499288697 -0.00503036375087 -0.00290406126073 -0.0126711687572
Sb 6.32132747 3.6621189743 19.0499288697 -0 0.00580837963179 -0.0126711687572
Sb 0.0635688374 -0.0367014972 11.7269672611 -0.00318019776307 0.00183628202958 0.0103772303271
Sb 2.10710964 3.64961928 15.0826947949 0 -0 -0.0496495488104
Sb 4.1506489926 -0.0367006672 11.7269670211 0.00318019776307 0.00183602491924 0.0103772303271
Sb -2.10710964 3.7230222745 11.7269670211 0 -0.00367230694882 0.0103772303271
Sb 2.10710669 1.2195516225 29.1489577353 2.57110337382e-07 0.00338820002602 -0.0162964245143
Sb 4.2116084929 4.8646556638 29.1489577353 -0.00293388605986 -0.00169435712334 -0.0162964245143
Sb 6.32132897 1.21653861 29.1580202347 -2.57110337382e-07 2.57110337382e-07 -0.0154230206982
Sb 0.0026093371 4.8646530938 29.1489574453 0.00293388605986 -0.00169410001301 -0.0162961674039
Sb 2.10710745 1.2293643995 22.7158325273 2.57110337382e-07 0.00821441816901 0.0165152254114
Sb 4.2031107557 4.8597486102 22.7158325273 -0.00711372881467 -0.00410733763967 0.0165154825217
Sb 6.32132821 1.21653905 22.1532824914 -2.57110337382e-07 2.57110337382e-07 0.01316867726
Sb 0.0111070743 4.8597469202 22.7158321373 0.00711372881467 -0.00410733763967 0.0165154825217
Cr 2.1071088 3.64961976 12.5606811163 -2.57110337382e-07 -2.57110337382e-07 0.0304071540504
61
Lattice="8.42843558953 0 0 -4.21421779477 7.29923593142 0 0 0 31.0334408416" Properties=species:S:1:pos:R:3:forces:R:3 energy=-133600.505436 ionic_step=32 pbc="T T T"
Te 2.1071096 1.1569338718 3.3830638512 -2.57110337382e-07 0.000642261622779 0.0154829274068
Te 4.2658384771 4.8959620191 3.3830638512 -0.000556129659756 -0.00032113081139 0.0154829274068
Te 6.32132606 1.21654029 3.4525750458 2.57110337382e-07 0 0.054618720301
Te -0.0516206471 4.8959627991 3.3830638612 0.000556129659756 -0.000321387921727 0.0154829274068
Te 0.5697263672 -0.3289318258 7.3684269491 0.00795036585251 -0.00458993374294 -0.0438347414202
Te 2.10710848 3.64961994 6.4486780247 2.57110337382e-07 -2.57110337382e-07 0.0164149523798
Te 3.6444914628 -0.3289323158 7.3684267691 -0.00795036585251 -0.00458993374294 -0.0438344843099
Te -2.10710848 4.3074835917 7.3684267691 -0 0.00918012459621 -0.0438347414202
Te -0.0237473002 0.0137105186 -0.059349677 0.00588011341592 -0.00339462778445 -0.000477711006855
Te 2.10710891 3.6496197 -0.0363812602 -0 -2.57110337382e-07 0.00670929425397
Te 4.2379651302 0.0137105186 -0.059349677 -0.00588011341592 -0.00339462778445 -0.000477711006855
Te -2.10710891 3.6221986627 -0.059349677 0 0.0067892555689 -0.000477711006855
Te -0.0632316712 2.39657321 13.4979365145 -0.795513267817 -0.459289565402 0.402538114853
Te 2.1071087 6.15571304 13.4979365145 0 0.918579387915 0.402538114853
Te 4.2774494912 2.39657296 13.4979368945 0.795515067589 -0.459290593844 0.402538886184
Te -2.1071087 6.08269937 13.4084601136 -0 -2.57110337382e-07 0.0321457341518
Te 2.10710913 0.8788280041 17.2376409299 -0 0.0204279305256 -0.0222971226784
Te 4.5066848809 5.035015353 17.2376409299 -0.0176909909842 -0.0102139652628 -0.0222971226784
Te 6.32132652 1.21654002 17.4640602312 0 2.57110337382e-07 -0.0435411214149
Te -0.2924670609 5.035015603 17.2376405399 0.0176909909842 -0.0102139652628 -0.0222971226784
Te 2.10710868 1.7834443007 10.3419005517 -0 -1.29654418227 -1.54803897278
Te 3.7232643162 4.5827075997 10.3419005517 1.12284095256 0.648272348247 -1.54803922989
Te 6.32132698 1.21653976 9.953684965 -0 5.14220674763e-07 0.0104255670705
Te 0.4909535038 4.5827073297 10.3419009717 -1.12283915279 0.648271319805 -1.54803691589
Te -0.3223075649 0.1860844492 24.0406051528 0.0310432450251 -0.0179226473982 -2.00546063158e-05
Te 2.10710934 3.64961945 24.3058347465 -2.57110337382e-07 -2.57110337382e-07 -0.0168322424574
Te 4.5365253949 0.1860849492 24.0406053428 -0.0310432450251 -0.0179226473982 -2.00546063158e-05
Te -2.10710934 3.2774505517 24.0406053428 0 0.0358455519067 -2.00546063158e-05
Te 0.0299972111 2.4503994893 27.5693874826 -0.0109485294967 -0.00632131475486 0.0065141475079
Te 2.10710823 6.0480612813 27.5693874826 2.57110337382e-07 0.0126423723994 0.0065141475079
Te 4.1842206089 2.4503987093 27.5693874726 0.0109485294967 -0.00632080053419 0.0065141475079
Te -2.10710823 6.0826991 27.5227190835 -2.57110337382e-07 -0 -0.0379893378998
Te 0.2338837166 2.5681124168 20.6218006606 -0.019541156972 -0.011281744494 -0.00693709401289
Te 2.10710915 5.8126338464 20.6218006606 -0 0.0225640032086 -0.00693709401289
Te 3.9803341134 2.5681126868 20.6218002306 0.019541156972 -0.011281744494 -0.00693709401289
Te -2.10710915 6.08269963 20.8980321351 0 -2.57110337382e-07 0.0102545886961
Sb 0.0393911831 2.4558206331 8.1781935036 0.000710138751848 0.000410348098461 -0.0265371292522
Sb 2.10711038 6.0372152737 8.1781935036 -2.57110337382e-07 -0.000820181976247 -0.0265371292522
Sb 4.1748266469 2.4558223331 8.1781938936 -0.000710138751848 0.000410090988124 -0.0265371292522
Sb -2.10711038 6.08270034 9.5780406982 2.57110337382e-07 -2.57110337382e-07 0.00610894161619
Sb -0.0056855024 2.4297946969 1.8382144358 0.00332469377268 0.00192009999957 0.0108767957126
Sb 2.10711114 6.0892658362 1.8382144358 -2.57110337382e-07 -0.00383942866812 0.0108770528229
Sb 4.2199033324 2.4297972669 1.8382147258 -0.00332469377268 0.00191958577889 0.0108765386023
Sb -2.10711114 6.08270078 1.7444469906 2.57110337382e-07 -2.57110337382e-07 0.0145020514697
Sb 0.0083416286 -0.0048160453 19.0739022918 0.0051571191472 -0.00297733770688 -0.00904488455875
Sb 2.10710819 3.64962011 18.4175396544 0 -2.57110337382e-07 0.00871526910623
Sb 4.2058762014 -0.0048168753 19.0739025318 -0.00515737625754 -0.00297733770688 -0.00904488455875
Sb 6.32132747 3.6592522006 19.0739025318 -2.57110337382e-07 0.0059549325241 -0.00904462744841
Sb 0.0701759374 -0.04051611 11.6974254678 -0.000792928280485 0.000458427731551 -0.012893569199
Sb 2.10710964 3.64961928 15.0879065924 2.57110337382e-07 -0 0.335363668336
Sb 4.1440418926 -0.04051528 11.6974252278 0.000792928280485 0.000458170621214 -0.012893569199
Sb -2.10710964 3.7306515 11.6974252278 2.57110337382e-07 -0.000916084132091 -0.0128933120887
Sb 2.10710669 1.2209247211 29.1471088602 2.57110337382e-07 0.00355840706936 -0.016387698684
Sb 4.2104193552 4.8639691145 29.1471088602 -0.00308146739352 -0.00177946064502 -0.016387698684
Sb 6.32132897 1.21653861 29.1521066863 -2.57110337382e-07 2.57110337382e-07 -0.0145773847985
Sb 0.0037984748 4.8639665445 29.1471085702 0.00308146739352 -0.00177920353468 -0.0163874415737
Sb 2.10710745 1.2247427063 22.7370690439 2.57110337382e-07 0.00874432257435 0.0188896393771
Sb 4.2071132576 4.8620594569 22.7370690439 -0.0075726707669 -0.00437241839751 0.0188898964874
Sb 6.32132821 1.21653905 22.1100039059 -2.57110337382e-07 2.57110337382e-07 0.00983678439788
Sb 0.0071045724 4.8620577669 22.7370686539 0.0075726707669 -0.00437216128717 0.0188898964874
Cr 2.1071088 3.64961976 12.5246710216 -3.85665506072e-06 5.14220674763e-07 3.30434091837
61
Lattice="8.42843558953 0 0 -4.21421779477 7.29923593142 0 0 0 31.0334408416" Properties=species:S:1:pos:R:3:forces:R:3 energy=-133600.486931 ionic_step=33 pbc="T T T"
Te 2.1071096 1.1325932695 3.4016001709 -2.57110337382e-07 0.00615239326321 0.018484176375
Te 4.2869180471 4.9081323202 3.4016001709 -0.00532809752156 -0.00307632518677 0.0184844334854
Te 6.32132606 1.21654029 3.4789562237 2.57110337382e-07 0 0.0523299240776
Te -0.0727002171 4.9081331002 3.4016001809 0.00532809752156 -0.00307658229711 0.0184844334854
Te 0.5409363593 -0.3123098993 7.4636345807 0.00729422027152 -0.00421121021597 -0.053917580411
Te 2.10710848 3.64961994 6.5113592273 2.57110337382e-07 -2.57110337382e-07 0.00375561069813
Te 3.6732814707 -0.3123103893 7.4636344007 -0.00729422027152 -0.00421121021597 -0.0539173233006
Te -2.10710848 4.2742397386 7.4636344007 -0 0.00842267754228 -0.053917580411
Te -0.035810617 0.0206752811 -0.0622948958 0.00882736921332 -0.00509618399724 0.00134982927125
Te 2.10710891 3.6496197 -0.0221286631 -0 -2.57110337382e-07 0.0103854578579
Te 4.250028447 0.0206752811 -0.0622948958 -0.00882736921332 -0.00509618399724 0.00134982927125
Te -2.10710891 3.6082691378 -0.0622948958 0 0.0101926251048 0.00134982927125
Te -0.0554000697 2.4010947894 13.4362239377 -0.00150178148065 -0.000866718947313 0.0481670506051
Te 2.1071087 6.1466698813 13.4362239377 0 0.0017339521153 0.0481670506051
Te 4.2696178897 2.4010945394 13.4362243177 0.00150178148065 -0.000866718947313 0.0481670506051
Te -2.1071087 6.08269937 13.4400365469 -0 -2.57110337382e-07 0.0094737446015
Te 2.10710913 0.833483384 17.228545492 -0 0.0188829545083 -0.0263782350637
Te 4.5459544555 5.057687663 17.228545492 -0.0163532458988 -0.00944134869899 -0.0263782350637
Te 6.32132652 1.21654002 17.4686075049 0 2.57110337382e-07 -0.0498269549432
Te -0.3317366355 5.057687913 17.228545102 0.0163529887885 -0.00944160580933 -0.0263779779533
Te 2.10710868 1.7735283518 10.2802811939 0 0.020470096621 0.00577366973624
Te 3.7318517759 4.5876655741 10.2802811939 -0.0177272435418 -0.0102350483105 0.00577366973624
Te 6.32132698 1.21653976 10.014640361 -0 2.57110337382e-07 0.00938118488004
Te 0.4823660441 4.5876653041 10.2802816139 0.0177275006521 -0.0102350483105 0.00577366973624
Te -0.3841595003 0.2217946974 24.0029922501 0.0235546493385 -0.0135990799648 0.00187921945592
Te 2.10710934 3.64961945 24.2958916208 -2.57110337382e-07 -2.57110337382e-07 -0.0171004085393
Te 4.5983773303 0.2217951974 24.0029924401 -0.0235546493385 -0.0135990799648 0.00187896234558
Te -2.10710934 3.2060300552 24.0029924401 0 0.0271984170399 0.00187896234558
Te 0.0466411165 2.4600088571 27.5730725654 -0.016070681638 -0.00927834074509 0.00375098271206
Te 2.10710823 6.0288425458 27.5730725654 2.57110337382e-07 0.0185566814902 0.00375098271206
Te 4.1675767035 2.4600080771 27.5730725554 0.016070681638 -0.00927808363475 0.00375098271206
Te -2.10710823 6.0826991 27.5290312592 -2.57110337382e-07 -0 -0.0463461951957
Te 0.275485075 2.5921309834 20.588523354 -0.0154957829237 -0.00894615418919 -0.00810026117921
Te 2.10710915 5.7645967131 20.588523354 -0 0.0178928225991 -0.00810026117921
Te 3.938732755 2.5921312534 20.588522924 0.0154955258133 -0.00894615418919 -0.00810026117921
Te -2.10710915 6.08269963 20.9076612007 0 -2.57110337382e-07 0.0132589229884
Sb 0.0497452034 2.4617985324 8.2457630911 0.00789071625424 0.00455625228874 -0.0138381925786
Sb 2.10711038 6.0252594753 8.2457630911 -2.57110337382e-07 -0.00911147613613 -0.0138381925786
Sb 4.1644726266 2.4618002324 8.2457634811 -0.00789071625424 0.00455573806807 -0.0138381925786
Sb -2.10711038 6.08270034 9.6133914698 2.57110337382e-07 -2.57110337382e-07 0.0152682402751
Sb -0.0053650507 2.4299797098 1.8511445154 0.00289069152318 0.00166941742062 0.00779635676042
Sb 2.10711114 6.0888958104 1.8511445154 -2.57110337382e-07 -0.00333806351023 0.00779635676042
Sb 4.2195828807 2.4299822798 1.8511448054 -0.00289069152318 0.00166916031028 0.00779609965009
Sb -2.10711114 6.08270078 1.7309582537 2.57110337382e-07 -2.57110337382e-07 0.0120787865399
Sb -0.0007888529 0.0004554431 19.1137856154 0.00516046158159 -0.00297939458958 -0.00348178818882
Sb 2.10710819 3.64962011 18.325260906 0 -2.57110337382e-07 -0.000258910109743
Sb 4.2150066829 0.0004546131 19.1137858554 -0.00516071869192 -0.00297913747924 -0.00348153107848
Sb 6.32132747 3.6487092238 19.1137858554 -2.57110337382e-07 0.00595878917916 -0.00348153107848
Sb 0.1007240502 -0.0581530794 11.6189959585 -0.00495708730472 0.00286215227573 0.0283165898972
Sb 2.10710964 3.64961928 15.1166687866 0 -0 -0.0425844138495
Sb 4.1134937798 -0.0581522494 11.6189957185 0.00495708730472 0.00286189516539 0.0283165898972
Sb -2.10710964 3.7659254387 11.6189957185 0 -0.00572404744113 0.0283165898972
Sb 2.10710669 1.2235214824 29.1456817695 2.57110337382e-07 0.00410090988124 -0.0160997351062
Sb 4.208170495 4.8626707338 29.1456817695 -0.00355120797992 -0.00205071205096 -0.0160994779958
Sb 6.32132897 1.21653861 29.1379988044 -2.57110337382e-07 2.57110337382e-07 -0.0128200356425
Sb 0.006047335 4.8626681638 29.1456814795 0.00355120797992 -0.00205019783028 -0.0160992208855
Sb 2.10710745 1.2091300499 22.7725674184 2.57110337382e-07 0.010058670619 0.0227743194646
Sb 4.2206342083 4.8698657851 22.7725674184 -0.00871089823049 -0.00502959241986 0.0227743194646
Sb 6.32132821 1.21653905 22.0047428166 -2.57110337382e-07 2.57110337382e-07 0.00253330815422
Sb -0.0064163783 4.8698640951 22.7725670284 0.00871115534083 -0.00502933530952 0.0227743194646
Cr 2.1071088 3.64961976 12.5177293201 -2.57110337382e-07 -2.57110337382e-07 -0.0089592668164
61
Lattice="8.42843558953 0 0 -4.21421779477 7.29923593142 0 0 0 31.0334408416" Properties=species:S:1:pos:R:3:forces:R:3 energy=-133600.584784 ionic_step=34 pbc="T T T"
Te 2.1071096 1.1453453782 3.3918889418 -2.57110337382e-07 0.00323573359595 0.0170482151408
Te 4.2758744022 4.9017562659 3.3918889418 -0.00280224556712 -0.00161799535314 0.0170482151408
Te 6.32132606 1.21654029 3.4651350518 2.57110337382e-07 0 0.0535743381105
Te -0.0616565722 4.9017570459 3.3918889518 0.00280224556712 -0.00161825246348 0.0170482151408
Te 0.5560195239 -0.3210181725 7.4137550397 0.00765288919216 -0.00441818403757 -0.0486254783366
Te 2.10710848 3.64961994 6.4785203723 2.57110337382e-07 -2.57110337382e-07 0.011133134719
Te 3.6581983061 -0.3210186625 7.4137548597 -0.00765288919216 -0.00441818403757 -0.0486254783366
Te -2.10710848 4.291656285 7.4137548597 -0 0.00883688229581 -0.0486254783366
Te -0.029490612 0.0170264228 -0.0607518875 0.00729036361646 -0.00420889622294 0.00038489417506
Te 2.10710891 3.6496197 -0.0295956381 -0 -2.57110337382e-07 0.00845738743783
Te 4.243708442 0.0170264228 -0.0607518875 -0.00729036361646 -0.00420889622294 0.00038489417506
Te -2.10710891 3.6155668544 -0.0607518875 0 0.00841779244587 0.00038489417506
Te -0.0595030674 2.3987259215 13.468555327 -0.0619767039362 -0.0357820456534 0.0736258591023
Te 2.1071087 6.1514076171 13.468555327 0 0.0715643484171 0.0736258591023
Te 4.2737208874 2.3987256715 13.468555707 0.0619769610465 -0.0357820456534 0.0736258591023
Te -2.1071087 6.08269937 13.4234935663 -0 -2.57110337382e-07 0.0182995711528
Te 2.10710913 0.8572395556 17.233310617 -0 0.0208714458576 -0.0264052316491
Te 4.525381017 5.0458095772 17.233310617 -0.0180751138283 -0.0104355943736 -0.0264052316491
Te 6.32132652 1.21654002 17.4662251756 0 2.57110337382e-07 -0.0470175102866
Te -0.311163197 5.0458098272 17.233310227 0.0180751138283 -0.010435851484 -0.0264052316491
Te 2.10710868 1.7787233448 10.3125637455 0 -0.087451967495 -0.128209355287
Te 3.727352782 4.5850680776 10.3125637455 0.0757357065308 0.0437257266371 -0.128209098177
Te 6.32132698 1.21653976 9.9827056608 -0 2.57110337382e-07 0.0126284884412
Te 0.486865038 4.5850678076 10.3125641655 -0.0757354494205 0.0437257266371 -0.128208841066
Te -0.3517551006 0.2030859998 24.0226977536 0.0276280484137 -0.0159508682208 0.000944880489877
Te 2.10710934 3.64961945 24.3011008518 -2.57110337382e-07 -2.57110337382e-07 -0.0169481992195
Te 4.5659729306 0.2030864998 24.0226979436 -0.0276280484137 -0.0159508682208 0.00094462337954
Te -2.10710934 3.2434474504 24.0226979436 0 0.031901993552 0.00094462337954
Te 0.0379213285 2.4549744828 27.5711419404 -0.0133969912396 -0.00773465027945 0.00523682335179
Te 2.10710823 6.0389112944 27.5711419404 2.57110337382e-07 0.0154693005589 0.00523682335179
Te 4.1762964915 2.4549737028 27.5711419304 0.0133969912396 -0.00773439316911 0.00523682335179
Te -2.10710823 6.0826991 27.525724293 -2.57110337382e-07 -0 -0.0422684252449
Te 0.2536900085 2.5795475901 20.6059574268 -0.0178516849451 -0.0103062678739 -0.00755287327092
Te 2.10710915 5.7897634998 20.6059574268 -0 0.0206133070789 -0.00755287327092
Te 3.9605278215 2.5795478601 20.6059569968 0.0178516849451 -0.0103065249843 -0.00755287327092
Te -2.10710915 6.08269963 20.9026165066 0 -2.57110337382e-07 0.0116488980557
Sb 0.0443207036 2.4586666945 8.2103631977 0.00665298709009 0.00384148555082 -0.0154207067051
Sb 2.10711038 6.0315231511 8.2103631977 -2.57110337382e-07 -0.00768245688096 -0.0154209638155
Sb 4.1698971264 2.4586683945 8.2103635877 -0.00665324420042 0.00384122844048 -0.0154207067051
Sb -2.10711038 6.08270034 9.594871103 2.57110337382e-07 -2.57110337382e-07 0.0130640333527
Sb -0.0055329362 2.429882781 1.844370411 0.0031143775167 0.00179848680998 0.00941743743761
Sb 2.10711114 6.0890896679 1.844370411 -2.57110337382e-07 -0.00359645939929 0.00941743743761
Sb 4.2197507662 2.429885351 1.844370701 -0.0031143775167 0.00179822969965 0.00941718032728
Sb -2.10711114 6.08270078 1.7380250402 2.57110337382e-07 -2.57110337382e-07 0.0133669093301
Sb 0.0039946316 -0.0023063042 19.0928906321 0.00522062540053 -0.00301410448512 -0.00659770836755
Sb 2.10710819 3.64962011 18.373605997 0 -2.57110337382e-07 0.00338845713635
Sb 4.2102231984 -0.0023071342 19.0928908721 -0.00522062540053 -0.00301384737479 -0.00659770836755
Sb 6.32132747 3.6542327184 19.0928908721 -2.57110337382e-07 0.00602795185991 -0.00659770836755
Sb 0.0847198096 -0.0489130224 11.6600853949 -0.00378800660064 0.00218723764011 0.0197303901803
Sb 2.10710964 3.64961928 15.1016001937 0 -0 -0.0118651278495
Sb 4.1294980204 -0.0489121924 11.6600851549 0.00378800660064 0.00218698052977 0.0197303901803
Sb -2.10710964 3.7474453249 11.6600851549 0 -0.00437421816987 0.0197303901803
Sb 2.10710669 1.222161032 29.1464294262 2.57110337382e-07 0.00381911695147 -0.0162491162122
Sb 4.2093486791 4.863350959 29.1464294262 -0.00330721026974 -0.00190981558607 -0.0162491162122
Sb 6.32132897 1.21653861 29.1453899626 -2.57110337382e-07 2.57110337382e-07 -0.0137407477607
Sb 0.0048691509 4.863348389 29.1464291362 0.00330721026974 -0.00190955847573 -0.0162488591018
Sb 2.10710745 1.2173095637 22.753969722 2.57110337382e-07 0.00943826337494 0.0206608724913
Sb 4.2135505449 4.8657760282 22.753969722 -0.0081737947357 -0.00471951735298 0.0206608724913
Sb 6.32132821 1.21653905 22.0598893918 -2.57110337382e-07 2.57110337382e-07 0.00616602011109
Sb 0.0006672851 4.8657743382 22.753969332 0.0081737947357 -0.00471926024264 0.0206608724913
Cr 2.1071088 3.64961976 12.5213660967 -5.14220674763e-07 -2.57110337382e-07 0.286147093334
61
Lattice="8.42843558953 0 0 -4.21421779477 7.29923593142 0 0 0 31.0334408416" Properties=species:S:1:pos:R:3:forces:R:3 energy=-133600.642307 ionic_step=35 pbc="T T T"
Te 2.1071096 1.1468000862 3.3881251307 -2.57110337382e-07 0.0032835561187 0.0177485836998
Te 4.2746145887 4.9010289119 3.3881251307 -0.00284364033144 -0.00164164950418 0.0177485836998
Te 6.32132606 1.21654029 3.4603792201 2.57110337382e-07 0 0.0545189614901
Te -0.0603967587 4.9010296919 3.3881251407 0.00284364033144 -0.00164190661452 0.0177485836998
Te 0.5524984579 -0.3189852831 7.4051212051 0.00710807238725 -0.00410348098461 -0.0475880381253
Te 2.10710848 3.64961994 6.5027629953 2.57110337382e-07 -2.57110337382e-07 0.0099352576571
Te 3.6617193721 -0.3189857731 7.4051210251 -0.00710807238725 -0.00410348098461 -0.0475880381253
Te -2.10710848 4.2875905062 7.4051210251 -0 0.0082074761899 -0.0475882952356
Te -0.0293375865 0.0169380734 -0.0575275027 0.00732404507065 -0.00422817949824 -0.000446600656032
Te 2.10710891 3.6496197 -0.0283175973 -0 -2.57110337382e-07 0.0075135353893
Te 4.2435554165 0.0169380734 -0.0575275027 -0.00732404507065 -0.00422817949824 -0.000446600656032
Te -2.10710891 3.6157435531 -0.0575275027 0 0.00845661610682 -0.000446600656032
Te -0.073982587 2.390366163 13.4852378524 -0.0699954611384 -0.0404118314986 0.0802616197997
Te 2.1071087 6.168127134 13.4852378524 0 0.0808236629973 0.0802616197997
Te 4.288200407 2.390365913 13.4852382324 0.0699954611384 -0.0404118314986 0.0802616197997
Te -2.1071087 6.08269937 13.4264049013 -0 -2.57110337382e-07 0.0207431477993
Te 2.10710913 0.8616176306 17.2388502891 -0 0.020998972585 -0.026100298789
Te 4.5215894947 5.0436205397 17.2388502891 -0.0181856712733 -0.0104996148477 -0.026100298789
Te 6.32132652 1.21654002 17.4713180594 0 2.57110337382e-07 -0.0455018448478
Te -0.3073716747 5.0436207897 17.2388498991 0.0181856712733 -0.0104996148477 -0.0261000416786
Te 2.10710868 1.7652050193 10.3174740387 0 -0.0884570118038 -0.12289231351
Te 3.7390599899 4.5918272404 10.3174740387 0.0766062821332 0.0442283773467 -0.12289231351
Te 6.32132698 1.21653976 9.9774362351 -0 2.57110337382e-07 0.0132833484705
Te 0.4751578301 4.5918269704 10.3174744587 -0.0766060250229 0.0442283773467 -0.1228920564
Te -0.3475109378 0.2006356301 24.0251563018 0.0282728811398 -0.0163231639893 0.00138093962208
Te 2.10710934 3.64961945 24.2983713158 -2.57110337382e-07 -2.57110337382e-07 -0.0155659740458
Te 4.5617287678 0.2006361301 24.0251564918 -0.0282728811398 -0.0163231639893 0.00138068251174
Te -2.10710934 3.2483481898 24.0251564918 0 0.032646585089 0.00138068251174
Te 0.0367227434 2.454282479 27.572614341 -0.0130342085536 -0.00752536246482 0.00531652755638
Te 2.10710823 6.0402953019 27.572614341 2.57110337382e-07 0.0150504678193 0.00531652755638
Te 4.1774950766 2.454281699 27.572614331 0.0130342085536 -0.00752510535449 0.00531652755638
Te -2.10710823 6.0826991 27.5274481889 -2.57110337382e-07 -0 -0.0415917108369
Te 0.2523860243 2.5787947341 20.6116586939 -0.0180676576285 -0.0104309663876 -0.00742817475729
Te 2.10710915 5.7912692118 20.6116586939 -0 0.0208624469958 -0.00742817475729
Te 3.9618318057 2.5787950041 20.6116582639 0.0180674005181 -0.0104309663876 -0.00742817475729
Te -2.10710915 6.08269963 20.8985546738 0 -2.57110337382e-07 0.0127087068664
Sb 0.0409898899 2.4567436474 8.1978290704 0.00670389493689 0.00387105323962 -0.0157945451357
Sb 2.10711038 6.0353692452 8.1978290704 -2.57110337382e-07 -0.00774133514822 -0.0157945451357
Sb 4.1732279401 2.4567453474 8.1978294604 -0.00670389493689 0.00387079612928 -0.0157945451357
Sb -2.10711038 6.08270034 9.5771452596 2.57110337382e-07 -2.57110337382e-07 0.0119741426325
Sb -0.0064101056 2.4293763468 1.8509949251 0.00304341506359 0.00175760626634 0.00897752165035
Sb 2.10711114 6.0901025364 1.8509949251 -2.57110337382e-07 -0.00351444120167 0.00897752165035
Sb 4.2206279356 2.4293789168 1.8509952151 -0.00304341506359 0.001757349156 0.00897726454002
Sb -2.10711114 6.08270078 1.7431275198 2.57110337382e-07 -2.57110337382e-07 0.0131771619011
Sb 0.0036550836 -0.002110266 19.0768493802 0.00559677782412 -0.00323110560987 -0.00752896200955
Sb 2.10710819 3.64962011 18.3744245628 0 -2.57110337382e-07 0.00350261412615
Sb 4.2105627464 -0.002111096 19.0768496202 -0.00559677782412 -0.00323110560987 -0.00752896200955
Sb 6.32132747 3.653840642 19.0768496202 -2.57110337382e-07 0.00646221121975 -0.00752870489921
Sb 0.0835009936 -0.0482093384 11.672404655 -0.00401709191125 0.00231939235352 0.0177177304593
Sb 2.10710964 3.64961928 15.0866452991 0 -0 -0.0107325568133
Sb 4.1307168364 -0.0482085084 11.672404415 0.00401734902159 0.00231939235352 0.0177177304593
Sb -2.10710964 3.7460379567 11.672404415 0 -0.00463878470704 0.0177177304593
Sb 2.10710669 1.2212029624 29.1445895397 2.57110337382e-07 0.00395718520264 -0.0155443767774
Sb 4.2101783913 4.8638299938 29.1445895397 -0.00342676657662 -0.00197872115649 -0.0155443767774
Sb 6.32132897 1.21653861 29.139404804 -2.57110337382e-07 2.57110337382e-07 -0.0130534918289
Sb 0.0040394387 4.8638274238 29.1445892497 0.00342676657662 -0.00197846404615 -0.0155441196671
Sb 2.10710745 1.2197489414 22.7500108383 2.57110337382e-07 0.0089806069744 0.0193465244466
Sb 4.2114379828 4.8645563393 22.7500108383 -0.00777733059546 -0.00449068915271 0.019346781557
Sb 6.32132821 1.21653905 22.063907005 -2.57110337382e-07 2.57110337382e-07 0.0068525047119
Sb 0.0027798472 4.8645546493 22.7500104483 0.00777733059546 -0.00449043204237 0.019346781557
Cr 2.1071088 3.64961976 12.4951779714 -5.14220674763e-07 -2.57110337382e-07 0.249957013575
61
Lattice="8.42843558953 0 0 -4.21421779477 7.29923593142 0 0 0 31.0334408416" Properties=species:S:1:pos:R:3:forces:R:3 energy=-133600.697588 ionic_step=36 pbc="T T T"
Te 2.1071096 1.1400898899 3.3899179131 -2.57110337382e-07 0.00543325564955 0.0190120238977
Te 4.2804257865 4.9043840101 3.3899179131 -0.00470537628442 -0.00271662782477 0.0190120238977
Te 6.32132606 1.21654029 3.4621355339 2.57110337382e-07 0 0.055000529152
Te -0.0662079565 4.9043847901 3.3899179231 0.00470537628442 -0.00271688493511 0.0190120238977
Te 0.5485231882 -0.3166901591 7.4192099917 0.00707361960204 -0.00408394059897 -0.0489859470296
Te 2.10710848 3.64961994 6.5392275911 2.57110337382e-07 -2.57110337382e-07 0.00647995183303
Te 3.6656946418 -0.3166906491 7.4192098117 -0.00707387671238 -0.00408368348863 -0.0489859470296
Te -2.10710848 4.2830002581 7.4192098117 -0 0.00816813830828 -0.0489859470296
Te -0.033338748 0.0192481462 -0.0546414261 0.00844427481062 -0.00487506910709 -0.00101867115671
Te 2.10710891 3.6496197 -0.0235783413 -0 -2.57110337382e-07 0.00765905984026
Te 4.247556578 0.0192481462 -0.0546414261 -0.00844427481062 -0.00487506910709 -0.00101867115671
Te -2.10710891 3.6111234075 -0.0546414261 0 0.00975039532452 -0.00101867115671
Te -0.0858710932 2.3835023276 13.4835968228 -0.0920850957746 -0.0531652755638 0.0936267293575
Te 2.1071087 6.1818548049 13.4835968228 0 0.106330551128 0.0936269864679
Te 4.3000889132 2.3835020776 13.4835972028 0.0920853528849 -0.0531652755638 0.0936269864679
Te -2.1071087 6.08269937 13.4331627347 -0 -2.57110337382e-07 0.020387821313
Te 2.10710913 0.8495647466 17.2425725202 -0 0.0195085039592 -0.0259262350906
Te 4.5320275935 5.0496469817 17.2425725202 -0.0168949773797 -0.00975425197958 -0.0259262350906
Te 6.32132652 1.21654002 17.4753047607 0 2.57110337382e-07 -0.0452241656834
Te -0.3178097735 5.0496472317 17.2425721302 0.0168949773797 -0.00975425197958 -0.0259259779802
Te 2.10710868 1.7541415052 10.3187477898 0 -0.111230302827 -0.141576007507
Te 3.7486412696 4.5973589974 10.3187477898 0.0963284447827 0.0556150228583 -0.141576007507
Te 6.32132698 1.21653976 9.9818646111 -0 2.57110337382e-07 0.0116972347992
Te 0.4655765504 4.5973587274 10.3187482098 -0.0963281876724 0.0556150228583 -0.141575750396
Te -0.363901637 0.2100988091 24.0149356613 0.0264129449592 -0.0152492141101 0.00250142647239
Te 2.10710934 3.64961945 24.2983575797 -2.57110337382e-07 -2.57110337382e-07 -0.0143848091558
Te 4.578119467 0.2100993091 24.0149358513 -0.0264129449592 -0.0152494712204 0.00250116936205
Te -2.10710934 3.2294218318 24.0149358513 0 0.0304989424409 0.00250116936205
Te 0.0403951686 2.4564027557 27.5736313669 -0.0142868501173 -0.00824861384388 0.00477916695125
Te 2.10710823 6.0360547486 27.5736313669 2.57110337382e-07 0.0164969705774 0.00477916695125
Te 4.1738226514 2.4564019757 27.5736313569 0.0142868501173 -0.00824835673354 0.00477916695125
Te -2.10710823 6.0826991 27.5304058308 -2.57110337382e-07 -0 -0.0434755582789
Te 0.2671965111 2.5873455766 20.6090025884 -0.016574360789 -0.00956887542633 -0.00773182206574
Te 2.10710915 5.7741675268 20.6090025884 -0 0.0191382650733 -0.00773182206574
Te 3.9470213189 2.5873458466 20.6090021584 0.0165741036786 -0.00956887542633 -0.00773182206574
Te -2.10710915 6.08269963 20.898396617 0 -2.57110337382e-07 0.0149136851198
Sb 0.0386805714 2.4554103611 8.1967676882 0.00696151949494 0.00401966301462 -0.0163509319058
Sb 2.10711038 6.0380358177 8.1967676882 -2.57110337382e-07 -0.00803881180857 -0.0163511890161
Sb 4.1755372586 2.4554120611 8.1967680782 -0.00696177660528 0.00401940590429 -0.0163511890161
Sb -2.10711038 6.08270034 9.5791532677 2.57110337382e-07 -2.57110337382e-07 0.0118594714221
Sb -0.0072195902 2.4289089904 1.8650719441 0.00279067560194 0.00161156759471 0.00750479363783
Sb 2.10711114 6.0910372491 1.8650719441 -2.57110337382e-07 -0.00322262096874 0.00750505074817
Sb 4.2214374202 2.4289115604 1.8650722341 -0.00279067560194 0.00161131048437 0.00750479363783
Sb -2.10711114 6.08270078 1.7450309463 2.57110337382e-07 -2.57110337382e-07 0.0123726636555
Sb 0.0005042404 -0.000291125 19.069125329 0.00613568109128 -0.00354246622844 -0.0064845798191
Sb 2.10710819 3.64962011 18.3416031944 0 -2.57110337382e-07 0.00105698059698
Sb 4.2137135896 -0.000291955 19.069125569 -0.00613568109128 -0.00354220911811 -0.00648432270876
Sb 6.32132747 3.65020236 19.069125569 -2.57110337382e-07 0.00708467534655 -0.00648432270876
Sb 0.0885982029 -0.0511522149 11.6682222945 -0.00450200200755 0.00259938551093 0.0180278055262
Sb 2.10710964 3.64961928 15.0802378444 0 -0 0.00380266188987
Sb 4.1256196271 -0.0511513849 11.6682220545 0.00450200200755 0.00259938551093 0.0180278055262
Sb -2.10710964 3.7519237097 11.6682220545 0 -0.00519877102186 0.0180278055262
Sb 2.10710669 1.220387239 29.141455966 2.57110337382e-07 0.00441587004453 -0.0144449729748
Sb 4.2108848281 4.8642378555 29.141455966 -0.00382400204788 -0.00220806357743 -0.0144447158644
Sb 6.32132897 1.21653861 29.1250072053 -2.57110337382e-07 2.57110337382e-07 -0.0114195556348
Sb 0.0033330019 4.8642352855 29.141455676 0.00382400204788 -0.0022078064671 -0.0144444587541
Sb 2.10710745 1.2211586564 22.7584293025 2.57110337382e-07 0.00839465251551 0.0188634141227
Sb 4.2102171344 4.8638514818 22.7584293025 -0.00726979478947 -0.00419758336809 0.018863671233
Sb 6.32132821 1.21653905 22.0306053943 -2.57110337382e-07 2.57110337382e-07 0.00519234326342
Sb 0.0040006956 4.8638497918 22.7584289125 0.00726979478947 -0.00419732625776 0.018863671233
Cr 2.1071088 3.64961976 12.4673046628 -5.14220674763e-07 -2.57110337382e-07 0.258691565957
61
Lattice="8.42843558953 0 0 -4.21421779477 7.29923593142 0 0 0 31.0334408416" Properties=species:S:1:pos:R:3:forces:R:3 energy=-133600.765599 ionic_step=37 pbc="T T T"
Te 2.1071096 1.1291013626 3.3935351243 -2.57110337382e-07 0.00878957399373 0.0195095324005
Te 4.2899421258 4.9098782737 3.3935351243 -0.00761200864852 -0.00439478699686 0.0195097895109
Te 6.32132606 1.21654029 3.4637791111 2.57110337382e-07 0 0.0555651434529
Te -0.0757242958 4.9098790537 3.3935351343 0.00761200864852 -0.0043950441072 0.0195097895109
Te 0.5441126175 -0.3141437137 7.4280857558 0.00683682098131 -0.00394690078915 -0.0497289959047
Te 2.10710848 3.64961994 6.5690378536 2.57110337382e-07 -2.57110337382e-07 0.00476194055865
Te 3.6701052125 -0.3141442037 7.4280855758 -0.00683682098131 -0.00394690078915 -0.0497289959047
Te -2.10710848 4.2779073673 7.4280855758 -0 0.00789431579897 -0.0497289959047
Te -0.0396598069 0.022897613 -0.051839363 0.0101527730025 -0.00586134436129 -0.00122255965425
Te 2.10710891 3.6496197 -0.0177634279 -0 -2.57110337382e-07 0.00867670255562
Te 4.2538776369 0.022897613 -0.051839363 -0.0101527730025 -0.00586134436129 -0.00122255965425
Te -2.10710891 3.603824474 -0.051839363 0 0.0117232029433 -0.00122255965425
Te -0.1044488253 2.372776464 13.4807762838 -0.1645549868 -0.0950056120969 0.130842936473
Te 2.1071087 6.2033065321 13.4807762838 0 0.190011738414 0.130842936473
Te 4.3186666453 2.372776214 13.4807766638 0.16455524391 -0.0950058692072 0.130842936473
Te -2.1071087 6.08269937 13.4331024852 -0 -2.57110337382e-07 0.0222359304181
Te 2.10710913 0.8326523915 17.2473192125 -0 0.0168137305131 -0.0261188107333
Te 4.5466741158 5.0581031592 17.2473192125 -0.0145611868473 -0.00840673670137 -0.0261188107333
Te 6.32132652 1.21654002 17.4750969569 0 2.57110337382e-07 -0.0451521747889
Te -0.3324562958 5.0581034092 17.2473188225 0.0145611868473 -0.0084069938117 -0.0261185536229
Te 2.10710868 1.745491715 10.3332518956 0 -0.182719060805 -0.215852612873
Te 3.7561322042 4.6016838925 10.3332518956 0.158239585583 0.0913595304025 -0.215852612873
Te 6.32132698 1.21653976 9.9878529995 -0 2.57110337382e-07 0.0087962588625
Te 0.4580856158 4.6016836225 10.3332523156 -0.158239071362 0.0913592732922 -0.215852098652
Te -0.38578919 0.2227355996 23.9917872142 0.0236086425094 -0.0136301903156 0.0050828142597
Te 2.10710934 3.64961945 24.3022170525 -2.57110337382e-07 -2.57110337382e-07 -0.0137453757468
Te 4.60000702 0.2227360996 23.9917874042 -0.0236086425094 -0.0136304474259 0.0050828142597
Te -2.10710934 3.2041482508 23.9917874042 0 0.0272608948519 0.0050828142597
Te 0.0464764573 2.459913791 27.5764999589 -0.0167018875163 -0.0096429232035 0.00301564714715
Te 2.10710823 6.029032678 27.5764999589 2.57110337382e-07 0.0192855892967 0.00301590425749
Te 4.1677413627 2.459913011 27.5764999489 0.0167018875163 -0.00964266609316 0.00301590425749
Te -2.10710823 6.0826991 27.5392909243 -2.57110337382e-07 -0 -0.0467966525068
Te 0.2888513916 2.5998480336 20.6018333335 -0.0137854849594 -0.00795885049365 -0.00822033170677
Te 2.10710915 5.7491626129 20.6018333335 -0 0.0159179580976 -0.00822033170677
Te 3.9253664384 2.5998483036 20.6018329035 0.0137854849594 -0.00795885049365 -0.00822033170677
Te -2.10710915 6.08269963 20.9007709776 0 -2.57110337382e-07 0.0163586452159
Sb 0.037528653 2.4547453004 8.2030265768 0.00685301893257 0.0039569280923 -0.0176141149933
Sb 2.10711038 6.0393659393 8.2030265768 -2.57110337382e-07 -0.00791334196393 -0.0176141149933
Sb 4.176689177 2.4547470004 8.2030269668 -0.00685301893257 0.00395667098197 -0.0176141149933
Sb -2.10711038 6.08270034 9.5774008794 2.57110337382e-07 -2.57110337382e-07 0.0116103315051
Sb -0.0068515833 2.4291214594 1.8790530067 0.00228288268561 0.00131846181009 0.00620767198574
Sb 2.10711114 6.0906123112 1.8790530067 -2.57110337382e-07 -0.00263615228917 0.00620767198574
Sb 4.2210694133 2.4291240294 1.8790532967 -0.00228288268561 0.00131820469976 0.0062074148754
Sb -2.10711114 6.08270078 1.7418826838 2.57110337382e-07 -2.57110337382e-07 0.0120037103213
Sb -0.0037484388 0.0021641616 19.0699109792 0.00646761053683 -0.00373401342979 -0.00447809074618
Sb 2.10710819 3.64962011 18.2977419283 0 -2.57110337382e-07 -0.00208490772583
Sb 4.2179662688 0.0021633316 19.0699112192 -0.00646786764717 -0.00373401342979 -0.00447809074618
Sb 6.32132747 3.6452917867 19.0699112192 -2.57110337382e-07 0.00746802685959 -0.00447809074618
Sb 0.0902594928 -0.0521113615 11.6640621465 -0.00445957880188 0.00257496002888 0.0174061127304
Sb 2.10710964 3.64961928 15.0603517138 0 -0 0.0321333928556
Sb 4.1239583372 -0.0521105315 11.6640619065 0.00445957880188 0.00257470291854 0.0174061127304
Sb -2.10710964 3.753842003 11.6640619065 0 -0.00514966294742 0.0174061127304
Sb 2.10710669 1.219422911 29.1422736802 2.57110337382e-07 0.00503036375087 -0.0135381448148
Sb 4.2117199603 4.8647200195 29.1422736802 -0.00435622044626 -0.0025153104306 -0.0135378877045
Sb 6.32132897 1.21653861 29.1087008757 -2.57110337382e-07 2.57110337382e-07 -0.00959304379805
Sb 0.0024978697 4.8647174495 29.1422733902 0.00435622044626 -0.00251505332027 -0.0135376305942
Sb 2.10710745 1.2249883457 22.7690778533 2.57110337382e-07 0.00757858430466 0.0188808976256
Sb 4.2069005277 4.8619366372 22.7690778533 -0.006562998472 -0.00378954926267 0.0188808976256
Sb 6.32132821 1.21653905 21.9777365721 -2.57110337382e-07 2.57110337382e-07 0.00249885536901
Sb 0.0073173023 4.8619349472 22.7690774633 0.00656325558234 -0.00378929215233 0.0188808976256
Cr 2.1071088 3.64961976 12.4491961287 -7.71331012145e-07 -0 0.350213332982
61
Lattice="8.42843558953 0 0 -4.21421779477 7.29923593142 0 0 0 31.0334408416" Properties=species:S:1:pos:R:3:forces:R:3 energy=-133600.832849 ionic_step=38 pbc="T T T"
Te 2.1071096 1.1174508024 3.3974401925 -2.57110337382e-07 0.0120803292019 0.0196090341011
Te 4.3000318022 4.9157035538 3.3974401925 -0.0104618196281 -0.00604029315611 0.0196090341011
Te 6.32132606 1.21654029 3.4658896307 2.57110337382e-07 0 0.0560441400114
Te -0.0858139722 4.9157043338 3.3974402025 0.0104618196281 -0.00604055026644 0.0196090341011
Te 0.5418938637 -0.312862715 7.434988893 0.00679439777565 -0.00392247530709 -0.0502630140754
Te 2.10710848 3.64961994 6.5894351703 2.57110337382e-07 -2.57110337382e-07 0.0037705230977
Te 3.6723239663 -0.312863205 7.434988713 -0.00679465488598 -0.00392247530709 -0.0502630140754
Te -2.10710848 4.2753453699 7.434988713 -0 0.0078457219452 -0.0502632711857
Te -0.0464773732 0.0268337386 -0.049457825 0.0119319765372 -0.00688875726947 -0.0012683252943
Te 2.10710891 3.6496197 -0.0120128319 -0 -2.57110337382e-07 0.00992677301597
Te 4.2606952032 0.0268337386 -0.049457825 -0.0119319765372 -0.00688875726947 -0.0012683252943
Te -2.10710891 3.5959522229 -0.049457825 0 0.0137775145389 -0.0012683252943
Te -0.1206947329 2.3633968804 13.4765318823 -0.303453190143 -0.175198583437 0.197002054267
Te 2.1071087 6.2220656991 13.4765318823 0 0.350397681094 0.197002054267
Te 4.3349125529 2.3633966304 13.4765322623 0.303453704364 -0.175198840547 0.197002311378
Te -2.1071087 6.08269937 13.428785712 -0 -2.57110337382e-07 0.0246591953479
Te 2.10710913 0.814920701 17.2512693794 -0 0.0137332915609 -0.0262671633979
Te 4.562030203 5.0669690045 17.2512693794 -0.0118934099866 -0.00686664578045 -0.0262671633979
Te 6.32132652 1.21654002 17.4734528641 0 2.57110337382e-07 -0.0459049938568
Te -0.347812383 5.0669692545 17.2512689894 0.0118931528763 -0.00686664578045 -0.0262669062876
Te 2.10710868 1.7427619036 10.3506118508 0 -0.308076291119 -0.350534206683
Te 3.7584962891 4.6030487982 10.3506118508 0.266802111549 0.15403814556 -0.350534206683
Te 6.32132698 1.21653976 9.9923358658 -0 2.57110337382e-07 0.00580889385246
Te 0.4557215309 4.6030485282 10.3506122708 -0.266801597329 0.154037631339 -0.350533435352
Te -0.4087168936 0.2359729216 23.9648629822 0.0204315300704 -0.0117959651687 0.00783235220766
Te 2.10710934 3.64961945 24.3090458224 -2.57110337382e-07 -2.57110337382e-07 -0.0137538603879
Te 4.6229347236 0.2359734216 23.9648631722 -0.0204315300704 -0.0117959651687 0.00783209509732
Te -2.10710934 3.1776736067 23.9648631722 0 0.0235921874478 0.00783209509732
Te 0.0531534673 2.4637687663 27.5794407659 -0.0194519396849 -0.0112305795368 0.000911456146018
Te 2.10710823 6.0213227273 27.5794407659 2.57110337382e-07 0.0224609019633 0.000911456146018
Te 4.1610643527 2.4637679863 27.5794407559 0.0194516825746 -0.0112303224265 0.000911456146018
Te -2.10710823 6.0826991 27.5491861878 -2.57110337382e-07 -0 -0.0497264248013
Te 0.3114147323 2.6128749904 20.5931355294 -0.0103445773142 -0.0059721589167 -0.00870164225834
Te 2.10710915 5.7231086991 20.5931355294 -0 0.0119448320541 -0.00870164225834
Te 3.9028030977 2.6128752604 20.5931350994 0.0103445773142 -0.0059721589167 -0.00870164225834
Te -2.10710915 6.08269963 20.9048799104 0 -2.57110337382e-07 0.0171541445998
Sb 0.0367418104 2.4542910164 8.2119113277 0.00634265491287 0.003662536756 -0.019583837288
Sb 2.10711038 6.0402745071 8.2119113277 -2.57110337382e-07 -0.00732430218099 -0.019583837288
Sb 4.1774760196 2.4542927164 8.2119117177 -0.0063429120232 0.00366227964566 -0.019583837288
Sb -2.10711038 6.08270034 9.5788658236 2.57110337382e-07 -2.57110337382e-07 0.0112388070676
Sb -0.0058258441 2.4297136705 1.8898054426 0.0017208394881 0.000993988564317 0.00532989729392
Sb 2.10711114 6.089427889 1.8898054426 -2.57110337382e-07 -0.00198746290796 0.00533015440426
Sb 4.2200436741 2.4297162405 1.8898057326 -0.0017208394881 0.00099373145398 0.00532964018358
Sb -2.10711114 6.08270078 1.7347588699 2.57110337382e-07 -2.57110337382e-07 0.012021708045
Sb -0.0077410745 0.004469312 19.0774253002 0.0064652965438 -0.00373247076777 -0.00224765856939
Sb 2.10710819 3.64962011 18.2531041212 0 -2.57110337382e-07 -0.00525507818574
Sb 4.2219589045 0.004468482 19.0774255402 -0.0064652965438 -0.00373247076777 -0.00224740145905
Sb 6.32132747 3.640681486 19.0774255402 -2.57110337382e-07 0.00746519864588 -0.00224740145905
Sb 0.088794071 -0.0512652994 11.6593328974 -0.00394510101678 0.0022779975892 0.0155397487913
Sb 2.10710964 3.64961928 15.040798279 0 -0 0.0752127441046
Sb 4.125423759 -0.0512644694 11.6593326574 0.00394535812712 0.0022779975892 0.0155397487913
Sb -2.10710964 3.7521498788 11.6593326574 2.57110337382e-07 -0.00455573806807 0.0155397487913
Sb 2.10710669 1.2185723085 29.1461858646 2.57110337382e-07 0.00565514187071 -0.0130030982027
Sb 4.2124566033 4.8651453207 29.1461858646 -0.00489718059611 -0.00282769949052 -0.0130030982027
Sb 6.32132897 1.21653861 29.0947592943 -2.57110337382e-07 2.57110337382e-07 -0.00808200634525
Sb 0.0017612267 4.8651427507 29.1461855746 0.00489718059611 -0.00282744238019 -0.0130028410924
Sb 2.10710745 1.2288374467 22.7784254405 2.57110337382e-07 0.00686484600809 0.0192915028344
Sb 4.2035671099 4.8600120866 22.7784254405 -0.00594490522094 -0.00343268011438 0.0192915028344
Sb 6.32132821 1.21653905 21.9195808678 -2.57110337382e-07 2.57110337382e-07 -8.20181976247e-05
Sb 0.0106507201 4.8600103966 22.7784250505 0.00594516233128 -0.00343242300404 0.0192915028344
Cr 2.1071088 3.64961976 12.4437613328 -1.28555168691e-06 -0 0.526025381683
61
Lattice="8.42843558953 0 0 -4.21421779477 7.29923593142 0 0 0 31.0334408416" Properties=species:S:1:pos:R:3:forces:R:3 energy=-133600.926072 ionic_step=39 pbc="T T T"
Te 2.1071096 1.1001470826 3.4034184598 -2.57110337382e-07 0.016684918234 0.0189518600787
Te 4.3150172561 4.9243554137 3.4034184598 -0.0144496009608 -0.00834245911702 0.0189518600787
Te 6.32132606 1.21654029 3.4687315114 2.57110337382e-07 0 0.0569350273305
Te -0.1007994261 4.9243561937 3.4034184698 0.0144496009608 -0.00834271622736 0.0189518600787
Te 0.5383331733 -0.3108069484 7.4344510069 0.00637479370504 -0.00368027736928 -0.0493366455298
Te 2.10710848 3.64961994 6.6107344877 2.57110337382e-07 -2.57110337382e-07 0.00434593603276
Te 3.6758846567 -0.3108074384 7.4344508269 -0.00637479370504 -0.00368027736928 -0.0493363884195
Te -2.10710848 4.2712338369 7.4344508269 -0 0.0073608118489 -0.0493366455298
Te -0.0570966805 0.0329648013 -0.0457576643 0.014587669212 -0.00842190621127 -0.00120070527557
Te 2.10710891 3.6496197 -0.00321697 0 -2.57110337382e-07 0.0119049799518
Te 4.2713145105 0.0329648013 -0.0457576643 -0.014587669212 -0.00842190621127 -0.00120070527557
Te -2.10710891 3.5836900974 -0.0457576643 0 0.0168440695329 -0.00120070527557
Te -0.1514920018 2.3456160607 13.4772147418 -0.182317197348 -0.105260715014 0.142400560359
Te 2.1071087 6.2576273387 13.4772147418 0 0.210521687138 0.142400560359
Te 4.3657098218 2.3456158107 13.4772151218 0.182317454458 -0.105260972124 0.142400560359
Te -2.1071087 6.08269937 13.4185497528 -0 -2.57110337382e-07 0.0274005057651
Te 2.10710913 0.7922830337 17.2569246465 -0 0.0096663202442 -0.0273686240833
Te 4.5816349889 5.0782878382 17.2569246465 -0.00837125547481 -0.0048331601221 -0.0273688811936
Te 6.32132652 1.21654002 17.4679695129 0 2.57110337382e-07 -0.0471684340547
Te -0.3674171689 5.0782880882 17.2569242565 0.00837125547481 -0.0048331601221 -0.0273686240833
Te 2.10710868 1.7405951059 10.3823175701 0 -0.145246257573 -0.169677653162
Te 3.7603727901 4.604132197 10.3823175701 0.125787118799 0.0726231287865 -0.169677396052
Te 6.32132698 1.21653976 9.9986767927 -0 2.57110337382e-07 0.00313751744707
Te 0.4538450299 4.604131927 10.3823179901 -0.125786861688 0.0726228716761 -0.169677138941
Te -0.4401335399 0.2541113393 23.9200994329 0.0156976145385 -0.00906288228237 0.0122664770861
Te 2.10710934 3.64961945 24.3221083493 -2.57110337382e-07 -2.57110337382e-07 -0.0145012801387
Te 4.6543513699 0.2541118393 23.9200996229 -0.0156976145385 -0.00906288228237 0.0122662199758
Te -2.10710934 3.1413967714 23.9200996229 0 0.0181260216751 0.0122662199758
Te 0.06352723 2.4697580638 27.5841933232 -0.023879636805 -0.0137867705111 -0.00281278709096
Te 2.10710823 6.0093441324 27.5841933232 2.57110337382e-07 0.0275735410222 -0.00281278709096
Te 4.15069059 2.4697572838 27.5841933132 0.023879636805 -0.0137865134007 -0.00281278709096
Te -2.10710823 6.0826991 27.5663646772 -2.57110337382e-07 -0 -0.0527083904942
Te 0.343909481 2.6316358511 20.5794678042 -0.00475628413122 -0.0027456812929 -0.00933053414358
Te 2.10710915 5.6855869779 20.5794678042 -0 0.00549187680647 -0.00933053414358
Te 3.870308349 2.6316361211 20.5794673742 0.00475628413122 -0.0027456812929 -0.00933053414358
Te -2.10710915 6.08269963 20.9116937961 0 -2.57110337382e-07 0.0172071093293
Sb 0.0369392714 2.4544050206 8.228104412 0.00728522140971 0.0042065822299 -0.0184001012947
Sb 2.10711038 6.0400464988 8.228104412 -2.57110337382e-07 -0.00841265023913 -0.0184001012947
Sb 4.1772785586 2.4544067206 8.228104802 -0.00728547852005 0.00420632511956 -0.0184001012947
Sb -2.10711038 6.08270034 9.5706598475 2.57110337382e-07 -2.57110337382e-07 0.0117597126112
Sb -0.0032198394 2.4312182487 1.9024815839 0.000765674584722 0.000442486890634 0.00462618630051
Sb 2.10711114 6.0864187326 1.9024815839 -2.57110337382e-07 -0.000884459560593 0.00462644341085
Sb 4.2174376694 2.4312208187 1.9024818739 -0.000765674584722 0.000442229780296 0.00462618630051
Sb -2.10711114 6.08270078 1.7206451503 2.57110337382e-07 -2.57110337382e-07 0.0125755237117
Sb -0.0136476814 0.0078794947 19.0935537847 0.00612051158137 -0.00353346736664 0.000725565372091
Sb 2.10710819 3.64962011 18.1904497479 0 -2.57110337382e-07 -0.0102558742478
Sb 4.2278655114 0.0078786647 19.0935540247 -0.00612051158137 -0.00353346736664 0.000725565372091
Sb 6.32132747 3.6338611206 19.0935540247 -2.57110337382e-07 0.00706719184361 0.000725565372091
Sb 0.0819132055 -0.047292628 11.657792467 -0.00372912833338 0.00215329907557 0.0200687473843
Sb 2.10710964 3.64961928 15.0016726508 0 -0 -0.00385974038477
Sb 4.1323046245 -0.047291798 11.657792227 0.00372912833338 0.00215304196523 0.0200687473843
Sb -2.10710964 3.7442045361 11.657792227 0 -0.0043063410408 0.0200687473843
Sb 2.10710669 1.2173635325 29.1560857585 2.57110337382e-07 0.0065650553547 -0.0125585544294
Sb 4.2135034335 4.8657497087 29.1560857585 -0.00568522378018 -0.00328278478769 -0.0125585544294
Sb 6.32132897 1.21653861 29.076578794 -2.57110337382e-07 2.57110337382e-07 -0.00615393592523
Sb 0.0007143965 4.8657471387 29.1560854685 0.00568522378018 -0.00328252767735 -0.0125582973191
Sb 2.10710745 1.2351025265 22.7885636299 2.57110337382e-07 0.00587599965052 0.0200031842483
Sb 4.1981413942 4.8568795467 22.7885636299 -0.00508847068712 -0.0029382569356 0.0200034413586
Sb 6.32132821 1.21653905 21.8323473112 -2.57110337382e-07 2.57110337382e-07 -0.00299404987881
Sb 0.0160764358 4.8568778567 22.7885632399 0.00508847068712 -0.00293799982526 0.0200034413586
Cr 2.1071088 3.64961976 12.4416584068 -7.71331012145e-07 -2.57110337382e-07 0.207303179934
61
Lattice="8.42843558953 0 0 -4.21421779477 7.29923593142 0 0 0 31.0334408416" Properties=species:S:1:pos:R:3:forces:R:3 energy=-133601.013146 ionic_step=40 pbc="T T T"
Te 2.1071096 1.0754921743 3.4108030864 -2.57110337382e-07 0.0221336005038 0.0185191433809
Te 4.3363690231 4.9366828678 3.4108030864 -0.0191683469828 -0.0110668002519 0.0185191433809
Te 6.32132606 1.21654029 3.4753857038 2.57110337382e-07 0 0.0579742673142
Te -0.1221511931 4.9366836478 3.4108030964 0.0191683469828 -0.0110670573623 0.0185191433809
Te 0.5408886393 -0.3122823481 7.4443326455 0.00703428172042 -0.00406105777894 -0.0493433303986
Te 2.10710848 3.64961994 6.6338611667 2.57110337382e-07 -2.57110337382e-07 0.00285083942089
Te 3.6733291907 -0.3122828381 7.4443324655 -0.00703428172042 -0.00406105777894 -0.0493433303986
Te -2.10710848 4.2741846363 7.4443324655 -0 0.00812262977856 -0.0493433303986
Te -0.0728330765 0.042050218 -0.0404974615 0.018226551817 -0.010522754778 -0.0014292763655
Te 2.10710891 3.6496197 0.0096914688 0 -2.57110337382e-07 0.014351384812
Te 4.2870509065 0.042050218 -0.0404974615 -0.018226551817 -0.010522754778 -0.0014292763655
Te -2.10710891 3.5655192639 -0.0404974615 0 0.0210457666664 -0.0014292763655
Te -0.1747705874 2.3321761567 13.4684392733 -0.703102156135 -0.405936085072 0.371654535347
Te 2.1071087 6.2845071466 13.4684392733 0 0.811872427254 0.371654792458
Te 4.3889884074 2.3321759067 13.4684396533 0.703103184576 -0.405936599292 0.371655049568
Te -2.1071087 6.08269937 13.397611094 -0 -2.57110337382e-07 0.0330906146417
Te 2.10710913 0.7575363244 17.2624064784 -0 0.00290920346747 -0.0273102600367
Te 4.6117265078 5.0956611928 17.2624064784 -0.002519424196 -0.00145447317857 -0.0273102600367
Te 6.32132652 1.21654002 17.4653911475 0 2.57110337382e-07 -0.0523268387536
Te -0.3975086878 5.0956614428 17.2624060884 0.002519424196 -0.00145473028891 -0.0273100029263
Te 2.10710868 1.7500388062 10.4199419872 0 -0.50149911238 -0.554168422103
Te 3.7521943095 4.5994103469 10.4199419872 0.434311296126 0.250749684745 -0.554168679213
Te 6.32132698 1.21653976 9.9989436182 -0 2.57110337382e-07 -0.00207796574672
Te 0.4620235105 4.5994100769 10.4199424072 -0.434310267684 0.250748913414 -0.554167393662
Te -0.489347031 0.2825247749 23.8562719168 0.00832317584172 -0.00480513509533 0.0175850615252
Te 2.10710934 3.64961945 24.3444599453 -2.57110337382e-07 -2.57110337382e-07 -0.0163645587537
Te 4.703564861 0.2825252749 23.8562721068 -0.00832317584172 -0.00480513509533 0.0175850615252
Te -2.10710934 3.0845699003 23.8562721068 0 0.00961052730099 0.0175848044149
Te 0.078936343 2.4786545235 27.5888126607 -0.030125618231 -0.0173930001032 -0.00781923958045
Te 2.10710823 5.991551213 27.5888126607 2.57110337382e-07 0.034785743096 -0.00781923958045
Te 4.135281477 2.4786537435 27.5888126507 0.030125618231 -0.0173927429929 -0.00781898247011
Te -2.10710823 6.0826991 27.5865690971 -2.57110337382e-07 -0 -0.05377205596
Te 0.3913471591 2.6590240201 20.5597158594 0.00407185641311 0.00235127403536 -0.00993551476744
Te 2.10710915 5.6308106399 20.5597158594 -0 -0.00470203385004 -0.00993551476744
Te 3.8228706709 2.6590242901 20.5597154294 -0.00407211352345 0.00235127403536 -0.00993551476744
Te -2.10710915 6.08269963 20.9245150155 0 -2.57110337382e-07 0.0173194665467
Sb 0.0338742153 2.4526354088 8.2482751842 0.00519979946321 0.00300253451994 -0.0239927653534
Sb 2.10711038 6.0435857224 8.2482751842 -2.57110337382e-07 -0.00600429770887 -0.0239927653534
Sb 4.1803436147 2.4526371088 8.2482755742 -0.00519979946321 0.00300227740961 -0.0239927653534
Sb -2.10711038 6.08270034 9.5861471259 2.57110337382e-07 -2.57110337382e-07 0.0106474532916
Sb -3.11247e-05 2.4330592548 1.9183880347 -0.000441201338947 -0.00025428212367 0.00384817041959
Sb 2.10711114 6.0827367203 1.9183880347 -2.57110337382e-07 0.000509078468016 0.00384817041959
Sb 4.2142489547 2.4330618248 1.9183883247 0.000441201338947 -0.000254539234008 0.00384791330925
Sb -2.10711114 6.08270078 1.696610841 2.57110337382e-07 -2.57110337382e-07 0.0132535236713
Sb -0.0222387975 0.0128395802 19.1221604962 0.00536923517554 -0.00309997933781 0.00460227503913
Sb 2.10710819 3.64962011 18.0943625249 0 -2.57110337382e-07 -0.0164607180198
Sb 4.2364566275 0.0128387502 19.1221607362 -0.00536949228588 -0.00309972222747 0.00460227503913
Sb 6.32132747 3.6239409497 19.1221607362 -2.57110337382e-07 0.00619970156528 0.00460227503913
Sb 0.0726798221 -0.0419617291 11.653840937 -0.00184322400869 0.0010646939071 0.0120235078173
Sb 2.10710964 3.64961928 14.9669496423 0 -0 0.0731316930338
Sb 4.1415380079 -0.0419608991 11.653840697 0.00184322400869 0.00106443679676 0.0120235078173
Sb -2.10710964 3.7335427383 11.653840697 2.57110337382e-07 -0.00212861648318 0.0120235078173
Sb 2.10710669 1.2161029882 29.171772214 2.57110337382e-07 0.0078416081798 -0.0120936989394
Sb 4.2145950965 4.8663799809 29.171772214 -0.00679079823092 -0.00392093264507 -0.0120936989394
Sb 6.32132897 1.21653861 29.0527567585 -2.57110337382e-07 2.57110337382e-07 -0.00391938998305
Sb -0.0003772665 4.8663774109 29.171771924 0.00679079823092 -0.00392067553473 -0.0120934418291
Sb 2.10710745 1.2413933083 22.8024846717 2.57110337382e-07 0.00467040927854 0.0211542672287
Sb 4.1926934199 4.8537341558 22.8024846717 -0.00404434560701 -0.00233559030477 0.0211542672287
Sb 6.32132821 1.21653905 21.7014969764 -2.57110337382e-07 2.57110337382e-07 -0.00445237971244
Sb 0.0215244101 4.8537324658 22.8024842817 0.00404460271735 -0.00233533319444 0.0211542672287
Cr 2.1071088 3.64961976 12.456160612 -2.31399303643e-06 0 0.636869761894
61
Lattice="8.42843558953 0 0 -4.21421779477 7.29923593142 0 0 0 31.0334408416" Properties=species:S:1:pos:R:3:forces:R:3 energy=-133601.016646 ionic_step=41 pbc="T T T"
Te 2.1071096 1.0580019249 3.4163536492 -2.57110337382e-07 0.025744458082 0.0154813847448
Te 4.3515160163 4.9454279925 3.4163536492 -0.0222955800164 -0.012872229041 0.0154813847448
Te 6.32132606 1.21654029 3.4790157441 2.57110337382e-07 0 0.0594683354847
Te -0.1372981863 4.9454287725 3.4163536592 0.022295322906 -0.0128724861513 0.0154813847448
Te 0.5369707265 -0.3100203391 7.4152686155 0.00574873003352 -0.00331878023492 -0.0426422636754
Te 2.10710848 3.64961994 6.6339270269 2.57110337382e-07 -2.57110337382e-07 0.0081462839296
Te 3.6772471035 -0.3100208291 7.4152684355 -0.00574873003352 -0.00331878023492 -0.0426422636754
Te -2.10710848 4.2696606181 7.4152684355 -0 0.00663807469052 -0.0426422636754
Te -0.0852127342 0.04919762 -0.035270055 0.0207634595159 -0.0119875123701 -0.00137528319465
Te 2.10710891 3.6496197 0.0205123097 0 -2.57110337382e-07 0.0161768682074
Te 4.2994305642 0.04919762 -0.035270055 -0.0207634595159 -0.0119875123701 -0.00137528319465
Te -2.10710891 3.5512244599 -0.035270055 0 0.0239752818505 -0.00137528319465
Te -0.2177314764 2.3073726643 13.4897943515 0.00996045447016 0.00575078691621 0.0549766178906
Te 2.1071087 6.3341141313 13.4897943515 0 -0.0115010596118 0.0549766178906
Te 4.4319492964 2.3073724143 13.4897947315 -0.00996019735983 0.00575078691621 0.0549766178906
Te -2.1071087 6.08269937 13.3770307414 -0 -2.57110337382e-07 0.0351822072363
Te 2.10710913 0.7469022597 17.266806029 -0 0.000488509641025 -0.0298317411154
Te 4.6209358737 5.1009782252 17.266806029 -0.000422946504993 -0.000244254820513 -0.0298317411154
Te 6.32132652 1.21654002 17.4551338176 0 2.57110337382e-07 -0.0517177443643
Te -0.4067180537 5.1009784752 17.266805639 0.000422946504993 -0.000244254820513 -0.0298317411154
Te 2.10710868 1.7527467073 10.4639258578 0 0.0257768539845 0.00659693703654
Te 3.7498491995 4.5980563963 10.4639258578 -0.0223230908225 -0.0128884269923 0.00659719414688
Te 6.32132698 1.21653976 10.0018478045 -0 2.57110337382e-07 -0.0017462934115
Te 0.4643686205 4.5980561263 10.4639262778 0.0223233479328 -0.0128884269923 0.00659719414688
Te -0.5094797314 0.2941484003 23.7981679199 0.00425517608367 -0.00245643216334 0.0235880736824
Te 2.10710934 3.64961945 24.3650229504 -2.57110337382e-07 -2.57110337382e-07 -0.0192588498216
Te 4.7236975614 0.2941489003 23.7981681099 -0.00425491897333 -0.00245643216334 0.0235880736824
Te -2.10710934 3.0613226495 23.7981681099 0 0.00491312143703 0.0235880736824
Te 0.0908221395 2.4855167945 27.5933917036 -0.0351269285138 -0.0202806063023 -0.0125860652355
Te 2.10710823 5.977826671 27.5933917036 2.57110337382e-07 0.0405609554943 -0.0125860652355
Te 4.1233956805 2.4855160145 27.5933916936 0.0351269285138 -0.020280349192 -0.0125860652355
Te -2.10710823 6.0826991 27.6086978473 -2.57110337382e-07 -0 -0.052756213017
Te 0.4170924105 2.6738880548 20.5453814506 0.00942000854099 0.00543891207697 -0.0100324453646
Te 2.10710915 5.6010825704 20.5453814506 -0 -0.0108773099333 -0.0100324453646
Te 3.7971254195 2.6738883248 20.5453810206 -0.00942000854099 0.00543891207697 -0.0100324453646
Te -2.10710915 6.08269963 20.9330395692 0 -2.57110337382e-07 0.0142837647932
Sb 0.0362877425 2.4540288601 8.2706119914 0.0084427321486 0.00487481199676 -0.0165396508934
Sb 2.10711038 6.0407988199 8.2706119914 -2.57110337382e-07 -0.00974910977284 -0.0165396508934
Sb 4.1779300875 2.4540305601 8.2706123814 -0.00844298925894 0.00487455488642 -0.0165396508934
Sb -2.10711038 6.08270034 9.5526118697 2.57110337382e-07 -2.57110337382e-07 0.0116931210338
Sb 0.0047700935 2.4358312408 1.9246891806 -0.0016892149166 -0.000974962399351 0.00459353328766
Sb 2.10711114 6.0771927485 1.9246891806 -2.57110337382e-07 0.00195043901938 0.00459353328766
Sb 4.2094477365 2.4358338108 1.9246894706 0.0016892149166 -0.000975219509689 0.00459327617732
Sb -2.10711114 6.08270078 1.6742969191 2.57110337382e-07 -2.57110337382e-07 0.0146393483898
Sb -0.0292027319 0.0168602114 19.1480850572 0.00463904181738 -0.0026783183845 0.00538569023713
Sb 2.10710819 3.64962011 18.0367219507 2.57110337382e-07 -2.57110337382e-07 -0.0219255982409
Sb 4.2434205619 0.0168593814 19.1480852972 -0.00463929892771 -0.00267806127417 0.00538569023713
Sb 6.32132747 3.6158996871 19.1480852972 -2.57110337382e-07 0.00535663676901 0.00538569023713
Sb 0.0558140438 -0.032224263 11.6747348673 -0.00156065974791 0.000901171732523 0.0250728858808
Sb 2.10710964 3.64961928 14.904070729 0 -0 -0.0722927420029
Sb 4.1584037862 -0.032223433 11.6747346273 0.00156065974791 0.000900914622185 0.0250728858808
Sb -2.10710964 3.7140678059 11.6747346273 0 -0.00180208635471 0.0250728858808
Sb 2.10710669 1.2154116527 29.1921571995 2.57110337382e-07 0.00859776968204 -0.0122073417085
Sb 4.2151938103 4.8667256486 29.1921571995 -0.00744565826023 -0.00429914195136 -0.0122073417085
Sb 6.32132897 1.21653861 29.039772 -2.57110337382e-07 2.57110337382e-07 -0.00259707151789
Sb -0.0009759803 4.8667230786 29.1921569095 0.00744565826023 -0.00429888484102 -0.0122070845982
Sb 2.10710745 1.2476181836 22.8021499406 2.57110337382e-07 0.00402660499373 0.0217775026866
Sb 4.1873025223 4.8506217182 22.8021499406 -0.00348693039557 -0.00201368816237 0.0217777597969
Sb 6.32132821 1.21653905 21.6128126268 -2.57110337382e-07 2.57110337382e-07 -0.00534198147978
Sb 0.0269153077 4.8506200282 22.8021495506 0.00348693039557 -0.00201343105204 0.0217777597969
Cr 2.1071088 3.64961976 12.4590995069 -2.57110337382e-07 -2.57110337382e-07 -0.0287277093267
61
Lattice="8.42843558953 0 0 -4.21421779477 7.29923593142 0 0 0 31.0334408416" Properties=species:S:1:pos:R:3:forces:R:3 energy=-133601.08668 ionic_step=42 pbc="T T T"
Te 2.1071096 1.0639475622 3.4136586919 -2.57110337382e-07 0.0243882010523 0.0160580832315
Te 4.3463669458 4.9424551739 3.4136586919 -0.0211208428849 -0.012193971971 0.0160580832315
Te 6.32132606 1.21654029 3.4818304549 2.57110337382e-07 0 0.0591536324317
Te -0.1321491158 4.9424559539 3.4136587019 0.0211208428849 -0.0121942290813 0.0160580832315
Te 0.5427628707 -0.3133644366 7.4198867626 0.00649100757754 -0.00374738316734 -0.0436282818193
Te 2.10710848 3.64961994 6.6233792356 2.57110337382e-07 -2.57110337382e-07 0.00656865489943
Te 3.6714549593 -0.3133649266 7.4198865826 -0.00649126468787 -0.00374738316734 -0.0436282818193
Te -2.10710848 4.2763488132 7.4198865826 -0 0.00749528055535 -0.0436282818193
Te -0.0821141058 0.0474086253 -0.03581233 0.0200792889082 -0.0115925908919 -0.00178126041738
Te 2.10710891 3.6496197 0.018966098 0 -2.57110337382e-07 0.014923712423
Te 4.2963319358 0.0474086253 -0.03581233 -0.0200792889082 -0.0115925908919 -0.00178126041738
Te -2.10710891 3.5548024494 -0.03581233 0 0.0231851817837 -0.00178126041738
Te -0.1945912585 2.3207326816 13.4889061963 -0.14326239421 -0.0827123955357 0.123035523968
Te 2.1071087 6.3073940968 13.4889061963 0 0.165425305292 0.123035523968
Te 4.4088090785 2.3207324316 13.4889065763 0.14326265132 -0.082712652646 0.123035781078
Te -2.1071087 6.08269937 13.3797802789 -0 -2.57110337382e-07 0.0332785622983
Te 2.10710913 0.7554363488 17.2618199084 -0 0.00200314663854 -0.0291200597015
Te 4.6135451392 5.0967111806 17.2618199084 -0.00173472344631 -0.0010014447641 -0.0291200597015
Te 6.32132652 1.21654002 17.4604923665 0 2.57110337382e-07 -0.0531817306254
Te -0.3993273192 5.0967114306 17.2618195184 0.00173472344631 -0.00100170187444 -0.0291198025912
Te 2.10710868 1.7589068818 10.4435404394 0 -0.0711015498099 -0.0969977029909
Te 3.7445143343 4.5949763091 10.4435404394 0.0615758689202 0.0355506463498 -0.0969977029909
Te 6.32132698 1.21653976 9.9944616097 -0 2.57110337382e-07 -0.000136782699487
Te 0.4697034857 4.5949760391 10.4435408594 -0.0615756118099 0.0355503892394 -0.0969974458806
Te -0.4978741217 0.2874478953 23.8132047098 0.0059233079526 -0.00341956748718 0.0223405743254
Te 2.10710934 3.64961945 24.3635256167 -2.57110337382e-07 -2.57110337382e-07 -0.0194144015757
Te 4.7120919517 0.2874483953 23.8132048998 -0.00592305084226 -0.00341956748718 0.0223403172151
Te -2.10710934 3.0747236595 23.8132048998 0 0.00683939208469 0.0223403172151
Te 0.087787507 2.4837647478 27.5891050775 -0.0339107966179 -0.0195784379709 -0.0108194601074
Te 2.10710823 5.9813307644 27.5891050775 2.57110337382e-07 0.0391566188315 -0.0108194601074
Te 4.126430313 2.4837639678 27.5891050675 0.0339107966179 -0.0195781808606 -0.0108194601074
Te -2.10710823 6.0826991 27.5986063245 -2.57110337382e-07 -0 -0.0527708683062
Te 0.4037907668 2.6662083437 20.550526708 0.00731453198817 0.00422329440183 -0.00985863877656
Te 2.10710915 5.6164419926 20.550526708 -0 -0.00844633169332 -0.00985863877656
Te 3.8104270632 2.6662086137 20.550526278 -0.00731453198817 0.00422329440183 -0.00985863877656
Te -2.10710915 6.08269963 20.9319472689 0 -2.57110337382e-07 0.0134751527822
Sb 0.0339648667 2.4526877465 8.2623678336 0.00785112126229 0.00453311235838 -0.0176472822269
Sb 2.10711038 6.0434810471 8.2623678336 -2.57110337382e-07 -0.00906571049608 -0.0176472822269
Sb 4.1802529633 2.4526894465 8.2623682236 -0.00785112126229 0.00453285524804 -0.0176472822269
Sb -2.10711038 6.08270034 9.5693812173 2.57110337382e-07 -2.57110337382e-07 0.0117448002116
Sb 0.0035041107 2.4351003249 1.9194432271 -0.00135034349193 -0.000779301432604 0.00498151278677
Sb 2.10711114 6.0786545801 1.9194432271 -2.57110337382e-07 0.00155911708588 0.00498151278677
Sb 4.2107137193 2.4351028949 1.9194435171 0.00135034349193 -0.000779558542941 0.00498125567643
Sb -2.10711114 6.08270078 1.6764429428 2.57110337382e-07 -2.57110337382e-07 0.0147414211938
Sb -0.0274491303 0.0158477686 19.1454874872 0.00460587458385 -0.0026590351092 0.00469946274666
Sb 2.10710819 3.64962011 18.0542735981 2.57110337382e-07 -2.57110337382e-07 -0.0208475345963
Sb 4.2416669603 0.0158469386 19.1454877272 -0.00460587458385 -0.00265877799886 0.004699719857
Sb 6.32132747 3.6179245728 19.1454877272 -2.57110337382e-07 0.0053180702184 0.004699719857
Sb 0.0581464801 -0.0335708963 11.6787034114 -0.00148815463276 0.000859519857867 0.0218314958574
Sb 2.10710964 3.64961928 14.9336396209 0 -0 -0.0485234055327
Sb 4.1560713499 -0.0335700663 11.6787031714 0.0014884117431 0.000859262747529 0.0218312387471
Sb -2.10710964 3.7167610726 11.6787031714 0 -0.0017187826054 0.0218312387471
Sb 2.10710669 1.2162698509 29.1906525513 2.57110337382e-07 0.00830440678709 -0.0125426135885
Sb 4.2144505892 4.8662965496 29.1906525513 -0.0071916332469 -0.00415258905905 -0.0125423564782
Sb 6.32132897 1.21653861 29.0473786214 -2.57110337382e-07 2.57110337382e-07 -0.00323161983055
Sb -0.0002327592 4.8662939796 29.1906522613 0.0071916332469 -0.00415207483838 -0.0125423564782
Sb 2.10710745 1.2425224319 22.7961276959 2.57110337382e-07 0.00490000880982 0.0220024742318
Sb 4.1917155707 4.8531695941 22.7961276959 -0.00424334900815 -0.00245026151525 0.0220027313421
Sb 6.32132821 1.21653905 21.6412207253 -2.57110337382e-07 2.57110337382e-07 -0.0052162545248
Sb 0.0225022593 4.8531679041 22.7961273059 0.00424334900815 -0.00245000440491 0.0220027313421
Cr 2.1071088 3.64961976 12.4641755993 -5.14220674763e-07 -2.57110337382e-07 0.0717738933421
61
Lattice="8.42843558953 0 0 -4.21421779477 7.29923593142 0 0 0 31.0334408416" Properties=species:S:1:pos:R:3:forces:R:3 energy=-133601.104593 ionic_step=43 pbc="T T T"
Te 2.1071096 1.0579841435 3.4166320472 -2.57110337382e-07 0.0249206765611 0.0165093118736
Te 4.3515314155 4.9454368832 3.4166320472 -0.0215820988302 -0.0124603382805 0.0165093118736
Te 6.32132606 1.21654029 3.4977698802 2.57110337382e-07 0 0.0590896119577
Te -0.1373135855 4.9454376632 3.4166320572 0.0215820988302 -0.0124605953909 0.0165093118736
Te 0.5512221722 -0.3182484189 7.4342847707 0.0077356787208 -0.00446600656032 -0.0458000928391
Te 2.10710848 3.64961994 6.6220795767 2.57110337382e-07 -2.57110337382e-07 -0.000144496009608
Te 3.6629956578 -0.3182489089 7.4342845907 -0.0077356787208 -0.00446600656032 -0.0458000928391
Te -2.10710848 4.2861167778 7.4342845907 -0 0.00893252734131 -0.0458000928391
Te -0.0875830443 0.0505661199 -0.0328942248 0.0210293116048 -0.0121410072415 -0.00275776547876
Te 2.10710891 3.6496197 0.0270120738 0 -2.57110337382e-07 0.0139405224928
Te 4.3018008743 0.0505661199 -0.0328942248 -0.0210293116048 -0.0121410072415 -0.00275776547876
Te -2.10710891 3.5484874603 -0.0328942248 0 0.024282014483 -0.00275776547876
Te -0.1675104103 2.3363678239 13.4875351514 -1.34811511663 -0.778334440625 0.665369671462
Te 2.1071087 6.2761238122 13.4875351514 -0 1.55666965258 0.665369928572
Te 4.3817282303 2.3363675739 13.4875355314 1.34811717352 -0.778335726177 0.665370699903
Te -2.1071087 6.08269937 13.3820061043 -0 -2.57110337382e-07 0.034214186816
Te 2.10710913 0.751486421 17.2518386549 -0 0.000137811140837 -0.0245545514406
Te 4.6169658754 5.0986861445 17.2518386549 -0.000119299196545 -6.89055704183e-05 -0.0245545514406
Te 6.32132652 1.21654002 17.4664379267 0 2.57110337382e-07 -0.0566403788838
Te -0.4027480554 5.0986863945 17.2518382649 0.000119299196545 -6.89055704183e-05 -0.0245542943303
Te 2.10710868 1.7695472874 10.4218111166 -0 -0.948099511302 -1.05304166661
Te 3.7352994771 4.5896561063 10.4218111166 0.821079034215 0.474050012761 -1.05304192372
Te 6.32132698 1.21653976 9.9897460756 -0 2.57110337382e-07 -0.00429631373765
Te 0.4789183429 4.5896558363 10.4218115366 -0.821076977332 0.474048727209 -1.05303960972
Te -0.506023543 0.2921529681 23.7993998991 0.00460330348048 -0.00265749244718 0.0232648859883
Te 2.10710934 3.64961945 24.3743332406 -2.57110337382e-07 -2.57110337382e-07 -0.0213255027134
Te 4.720241373 0.2921534681 23.7994000891 -0.00460330348048 -0.00265749244718 0.023264628878
Te -2.10710934 3.0653135139 23.7994000891 0 0.00531524200469 0.023264628878
Te 0.0935140956 2.4870709968 27.581111049 -0.0355491036877 -0.0205243469022 -0.0103679743549
Te 2.10710823 5.9747182664 27.581111049 2.57110337382e-07 0.041048436694 -0.0103679743549
Te 4.1207037244 2.4870702168 27.581111039 0.0355491036877 -0.0205240897918 -0.0103679743549
Te -2.10710823 6.0826991 27.5901385791 -2.57110337382e-07 -0 -0.0514986863569
Te 0.4077935345 2.6685193438 20.546093228 0.00872761040242 0.00503910550234 -0.00972082763572
Te 2.10710915 5.6118199924 20.546093228 -0 -0.010077696784 -0.00972082763572
Te 3.8064242955 2.6685196138 20.546092798 -0.00872761040242 0.00503910550234 -0.00972082763572
Te -2.10710915 6.08269963 20.9369437399 0 -2.57110337382e-07 0.0116291005598
Sb 0.029574253 2.4501528233 8.2643080742 0.00166298966218 0.000960564220458 -0.0308774088575
Sb 2.10711038 6.0485508934 8.2643080742 -2.57110337382e-07 -0.0019203571099 -0.0308774088575
Sb 4.184643577 2.4501545233 8.2643084642 -0.00166298966218 0.00096030711012 -0.0308774088575
Sb -2.10711038 6.08270034 9.6018744105 2.57110337382e-07 -2.57110337382e-07 0.00748113948679
Sb 0.0030267612 2.434824727 1.9238302167 -0.00142541971044 -0.000822495969284 0.00497817035238
Sb 2.10711114 6.0792057761 1.9238302167 -2.57110337382e-07 0.00164576326958 0.00497817035238
Sb 4.2111910688 2.434827297 1.9238305067 0.00142541971044 -0.000822753079621 0.00497791324205
Sb -2.10711114 6.08270078 1.6669829545 2.57110337382e-07 -2.57110337382e-07 0.0148712619142
Sb -0.0309828561 0.0178879671 19.1570301984 0.00436367664604 -0.002519424196 0.00497457080766
Sb 2.10710819 3.64962011 18.021747817 2.57110337382e-07 -2.57110337382e-07 -0.0202690363371
Sb 4.2452006861 0.0178871371 19.1570304384 -0.00436393375638 -0.00251916708567 0.00497457080766
Sb 6.32132747 3.6138441758 19.1570304384 -2.57110337382e-07 0.00503859128167 0.00497457080766
Sb 0.0604384046 -0.0348941402 11.6879971691 0.000399035243616 -0.000229599531282 -0.002434834895
Sb 2.10710964 3.64961928 14.9623937932 2.57110337382e-07 -0 0.176137550389
Sb 4.1537794254 -0.0348933102 11.6879969291 -0.000398778133279 -0.000229856641619 -0.002434834895
Sb -2.10710964 3.7194075604 11.6879969291 2.57110337382e-07 0.000460227503913 -0.002434834895
Sb 2.10710669 1.2175682652 29.19650142 2.57110337382e-07 0.00851035216733 -0.012508675024
Sb 4.2133261299 4.8656473424 29.19650142 -0.00737006782104 -0.004255433194 -0.0125084179136
Sb 6.32132897 1.21653861 29.0439086459 -2.57110337382e-07 2.57110337382e-07 -0.00281947195973
Sb 0.0008917001 4.8656447724 29.19650113 0.00737006782104 -0.00425517608367 -0.0125084179136
Sb 2.10710745 1.2351194757 22.7946339149 2.57110337382e-07 0.00577289840523 0.0229913205893
Sb 4.1981267158 4.8568710721 22.7946339149 -0.00499925340005 -0.00288683486812 0.0229915776997
Sb 6.32132821 1.21653905 21.6132654827 -2.57110337382e-07 2.57110337382e-07 -0.00478405204766
Sb 0.0160911142 4.8568693821 22.7946335249 0.00499925340005 -0.00288657775778 0.0229915776997
Cr 2.1071088 3.64961976 12.4653783335 -4.37087573549e-06 2.57110337382e-07 1.20633882017
61
Lattice="8.42843558953 0 0 -4.21421779477 7.29923593142 0 0 0 31.0334408416" Properties=species:S:1:pos:R:3:forces:R:3 energy=-133601.164763 ionic_step=44 pbc="T T T"
Te 2.1071096 1.0540745574 3.4172320806 -2.57110337382e-07 0.025657554788 0.0161591275941
Te 4.3549172148 4.9473916763 3.4172320806 -0.0222202466875 -0.012828777394 0.0161591275941
Te 6.32132606 1.21654029 3.5035429402 2.57110337382e-07 0 0.0595858349089
Te -0.1406993848 4.9473924563 3.4172320906 0.0222199895772 -0.0128290345043 0.0161591275941
Te 0.5513877596 -0.3183440209 7.4270918853 0.00733818613921 -0.00423640702904 -0.0432387596581
Te 2.10710848 3.64961994 6.6237816662 2.57110337382e-07 -2.57110337382e-07 0.00058029803147
Te 3.6628300704 -0.3183445109 7.4270917053 -0.00733818613921 -0.00423640702904 -0.0432387596581
Te -2.10710848 4.2863079817 7.4270917053 -0 0.00847332827875 -0.0432387596581
Te -0.0911656556 0.0526345424 -0.0304603844 0.0216188656084 -0.0124814213282 -0.00318765396286
Te 2.10710891 3.6496197 0.0323859982 0 -2.57110337382e-07 0.0135198899809
Te 4.3053834856 0.0526345424 -0.0304603844 -0.0216188656084 -0.0124814213282 -0.00318765396286
Te -2.10710891 3.5443506151 -0.0304603844 0 0.0249630997667 -0.00318765396286
Te -0.1747663285 2.3321786156 13.5014486052 -0.753014214599 -0.434752754575 0.404789372967
Te 2.1071087 6.2845022288 13.5014486052 0 0.869506023371 0.404789372967
Te 4.3889841485 2.3321783656 13.5014489852 0.753015243041 -0.434753525906 0.404789887188
Te -2.1071087 6.08269937 13.3834706405 -0 -2.57110337382e-07 0.0298708218867
Te 2.10710913 0.7531220149 17.249605219 -0 0.00121690322683 -0.0262591929775
Te 4.6155494102 5.0978683476 17.249605219 -0.00105389527293 -0.000608580168582 -0.0262591929775
Te 6.32132652 1.21654002 17.4671945383 0 2.57110337382e-07 -0.0568668930911
Te -0.4013315902 5.0978685976 17.249604829 0.00105389527293 -0.000608580168582 -0.0262591929775
Te 2.10710868 1.7677170874 10.4206332616 0 -0.480649263791 -0.540568056586
Te 3.7368844761 4.5905712063 10.4206332616 0.416254951352 0.240324631895 -0.540568056586
Te 6.32132698 1.21653976 9.990546314 -0 2.57110337382e-07 -4.7822522753e-05
Te 0.4773333439 4.5905709363 10.4206336816 -0.416253922911 0.240324117675 -0.540566771035
Te -0.5054169808 0.291802769 23.7857267114 0.00420632511956 -0.00242840713657 0.0248818529001
Te 2.10710934 3.64961945 24.3782305634 -2.57110337382e-07 -2.57110337382e-07 -0.0220675231471
Te 4.7196348108 0.291803269 23.7857269014 -0.00420632511956 -0.00242840713657 0.0248815957898
Te -2.10710934 3.0660139119 23.7857269014 0 0.00485681427314 0.0248815957898
Te 0.0970949832 2.4891384242 27.579492403 -0.0367757771074 -0.0212324287713 -0.0110464885353
Te 2.10710823 5.9705834117 27.579492403 2.57110337382e-07 0.0424648575426 -0.0110464885353
Te 4.1171228368 2.4891376442 27.579492393 0.0367757771074 -0.021232171661 -0.0110464885353
Te -2.10710823 6.0826991 27.5916677868 -2.57110337382e-07 -0 -0.0508309708107
Te 0.4096038007 2.6695645019 20.5438122282 0.00947271616015 0.00546925109678 -0.0097956467439
Te 2.10710915 5.6097296761 20.5438122282 -0 -0.0109382450832 -0.0097956467439
Te 3.8046140293 2.6695647719 20.5438117982 -0.00947271616015 0.00546925109678 -0.0097956467439
Te -2.10710915 6.08269963 20.9377954265 0 -2.57110337382e-07 0.0100399015644
Sb 0.0302889528 2.4505654556 8.2667368967 0.00502547865446 0.00290200437803 -0.0229818075069
Sb 2.10711038 6.0477256288 8.2667368967 -2.57110337382e-07 -0.00580323742504 -0.0229818075069
Sb 4.1839288772 2.4505671556 8.2667372867 -0.00502547865446 0.00290174726769 -0.0229818075069
Sb -2.10711038 6.08270034 9.5938812522 2.57110337382e-07 -2.57110337382e-07 0.0101766842639
Sb 0.0034230354 2.4350535161 1.9274507824 -0.00162030934618 -0.000935110297057 0.00517563109149
Sb 2.10711114 6.0787481979 1.9274507824 -2.57110337382e-07 0.00187073481479 0.00517563109149
Sb 4.2107947946 2.4350560861 1.9274510724 0.00162030934618 -0.000935367407394 0.00517537398115
Sb -2.10711114 6.08270078 1.6620446787 2.57110337382e-07 -2.57110337382e-07 0.015198049153
Sb -0.032841049 0.0189607958 19.1606249927 0.00424206345646 -0.00244897596356 0.00434953557749
Sb 2.10710819 3.64962011 18.0082067919 2.57110337382e-07 -2.57110337382e-07 -0.0239382579619
Sb 4.247058879 0.0189599658 19.1606252327 -0.00424206345646 -0.00244897596356 0.00434953557749
Sb 6.32132747 3.6116985184 19.1606252327 -2.57110337382e-07 0.00489820903746 0.00434953557749
Sb 0.05835471 -0.033691118 11.7007734217 -0.000450200200755 0.000260452771768 0.00961104152166
Sb 2.10710964 3.64961928 14.9577326468 0 -0 0.0691673087417
Sb 4.15586312 -0.033690288 11.7007731817 0.000450200200755 0.00026019566143 0.00961104152166
Sb -2.10710964 3.7170015159 11.7007731817 2.57110337382e-07 -0.000520134212523 0.00961104152166
Sb 2.10710669 1.2179761204 29.2015769137 2.57110337382e-07 0.00864867752884 -0.0123461812907
Sb 4.2129729171 4.8654434148 29.2015769137 -0.00748988123826 -0.00432459587476 -0.0123461812907
Sb 6.32132897 1.21653861 29.0405265186 -2.57110337382e-07 2.57110337382e-07 -0.00234921715266
Sb 0.0012449129 4.8654408448 29.2015766237 0.00748988123826 -0.00432433876442 -0.0123459241804
Sb 2.10710745 1.2343619967 22.7909402161 2.57110337382e-07 0.00596470271692 0.0230872227452
Sb 4.1987827116 4.8572498116 22.7909402161 -0.005165346678 -0.00298273702396 0.0230874798555
Sb 6.32132821 1.21653905 21.5992151092 -2.57110337382e-07 2.57110337382e-07 -0.00476348322067
Sb 0.0154351184 4.8572481216 22.7909398261 0.005165346678 -0.00298247991363 0.0230874798555
Cr 2.1071088 3.64961976 12.4540781188 -2.31399303643e-06 0 0.496833331087
61
Lattice="8.42843558953 0 0 -4.21421779477 7.29923593142 0 0 0 31.0334408416" Properties=species:S:1:pos:R:3:forces:R:3 energy=-133601.184323 ionic_step=45 pbc="T T T"
Te 2.1071096 1.049137553 3.4178506776 -2.57110337382e-07 0.0264168016143 0.0160758238448
Te 4.359192784 4.9498601785 3.4178506776 -0.0228776778202 -0.0132085293623 0.0160758238448
Te 6.32132606 1.21654029 3.5095468623 2.57110337382e-07 0 0.0599612160014
Te -0.144974954 4.9498609585 3.4178506876 0.0228776778202 -0.0132085293623 0.0160758238448
Te 0.5521992548 -0.318812538 7.4250605582 0.00722711447346 -0.00417238655503 -0.04202082799
Te 2.10710848 3.64961994 6.6261665051 2.57110337382e-07 -2.57110337382e-07 0.00013652558915
Te 3.6620185752 -0.318813028 7.4250603782 -0.00722711447346 -0.00417238655503 -0.0420205708796
Te -2.10710848 4.2872450161 7.4250603782 -0 0.0083450302204 -0.0420205708796
Te -0.0951110666 0.0549124276 -0.0282640464 0.0222513570384 -0.0128465180073 -0.00360648670245
Te 2.10710891 3.6496197 0.0379266085 0 -2.57110337382e-07 0.0132147000104
Te 4.3093288966 0.0549124276 -0.0282640464 -0.0222513570384 -0.0128465180073 -0.00360648670245
Te -2.10710891 3.5397948448 -0.0282640464 0 0.0256932931249 -0.00360648670245
Te -0.1765428231 2.3311529555 13.5101190911 -0.361410745285 -0.208660465405 0.227274739611
Te 2.1071087 6.2865535491 13.5101190911 0 0.417321445032 0.227274739611
Te 4.3907606431 2.3311527055 13.5101194711 0.361411259506 -0.208660722516 0.227274996722
Te -2.1071087 6.08269937 13.3844135397 -0 -2.57110337382e-07 0.0271621644823
Te 2.10710913 0.751486808 17.2473410464 -0 0.00125829799115 -0.0266600279934
Te 4.6169655403 5.098685951 17.2473410464 -0.00108989072016 -0.000629148995573 -0.0266600279934
Te 6.32132652 1.21654002 17.4691496704 0 2.57110337382e-07 -0.0574603037497
Te -0.4027477203 5.098686201 17.2473406564 0.00108963360982 -0.000629148995573 -0.0266597708831
Te 2.10710868 1.7667611857 10.4195488849 0 -0.211755302536 -0.248568617753
Te 3.7377123108 4.5910491572 10.4195488849 0.18338574791 0.105877522713 -0.248568617753
Te 6.32132698 1.21653976 9.990939127 -0 2.57110337382e-07 0.0019774356048
Te 0.4765055092 4.5910488872 10.4195493049 -0.183385233689 0.105877265603 -0.248568103532
Te -0.5083297685 0.2934844686 23.7712461871 0.00342470969392 -0.00197692138413 0.0263954614563
Te 2.10710934 3.64961945 24.3812961235 -2.57110337382e-07 -2.57110337382e-07 -0.0226300805653
Te 4.7225475985 0.2934849686 23.7712463771 -0.00342445258359 -0.00197692138413 0.0263954614563
Te -2.10710934 3.0626505128 23.7712463771 0 0.00395409987859 0.0263954614563
Te 0.1011091463 2.4914560034 27.5781512612 -0.0380554152565 -0.0219713638809 -0.0117993076031
Te 2.10710823 5.9659482532 27.5781512612 2.57110337382e-07 0.0439424706516 -0.0117993076031
Te 4.1131086737 2.4914552234 27.5781512512 0.0380554152565 -0.0219711067706 -0.0117993076031
Te -2.10710823 6.0826991 27.593238782 -2.57110337382e-07 -0 -0.0501344589067
Te 0.4141586213 2.6721942301 20.5406519254 0.0106505386157 0.00614930793916 -0.00992265925057
Te 2.10710915 5.6044702199 20.5406519254 -0 -0.012298358768 -0.00992240214023
Te 3.8000592087 2.6721945001 20.5406514954 -0.0106505386157 0.00614930793916 -0.00992240214023
Te -2.10710915 6.08269963 20.9391071782 0 -2.57110337382e-07 0.00890450231454
Sb 0.0300240822 2.4504125324 8.2689977796 0.00694660709538 0.00401092126315 -0.0185615665866
Sb 2.10711038 6.0480314752 8.2689977796 -2.57110337382e-07 -0.00802132830563 -0.0185615665866
Sb 4.1841937478 2.4504142324 8.2689981696 -0.00694660709538 0.00401066415282 -0.0185615665866
Sb -2.10711038 6.08270034 9.5933427578 2.57110337382e-07 -2.57110337382e-07 0.0113329094511
Sb 0.0034063366 2.435043875 1.9322767363 -0.00176480535579 -0.00101841404637 0.00517691664318
Sb 2.10711114 6.0787674799 1.9322767363 -2.57110337382e-07 0.00203759942375 0.00517691664318
Sb 4.2108114934 2.435046445 1.9322770263 0.00176480535579 -0.00101867115671 0.00517665953284
Sb -2.10711114 6.08270078 1.6570457669 2.57110337382e-07 -2.57110337382e-07 0.0153566862311
Sb -0.0347864741 0.020083988 19.1645755766 0.00416081658985 -0.00240218188216 0.00402506233171
Sb 2.10710819 3.64962011 17.991012768 2.57110337382e-07 -2.57110337382e-07 -0.0264795365366
Sb 4.2490043041 0.020083158 19.1645758166 -0.00416107370018 -0.00240192477182 0.00402506233171
Sb 6.32132747 3.609452134 19.1645758166 -2.57110337382e-07 0.00480436376431 0.00402506233171
Sb 0.0576721007 -0.0332970132 11.7103927332 -0.000961592661807 0.000555358328744 0.0165928727333
Sb 2.10710964 3.64961928 14.9556391913 0 -0 0.00105286683158
Sb 4.1565457293 -0.0332961832 11.7103924932 0.000961592661807 0.000555358328744 0.0165926156229
Sb -2.10710964 3.7162133063 11.7103924932 2.57110337382e-07 -0.00111045954715 0.0165926156229
Sb 2.10710669 1.2183553451 29.2057437252 2.57110337382e-07 0.00883071164771 -0.0120746727745
Sb 4.2126444991 4.8652538025 29.2057437252 -0.00764748987508 -0.00441561293419 -0.0120744156641
Sb 6.32132897 1.21653861 29.0358277449 -2.57110337382e-07 2.57110337382e-07 -0.00181391343023
Sb 0.0015733309 4.8652512325 29.2057434352 0.00764748987508 -0.00441535582385 -0.0120741585538
Sb 2.10710745 1.2340525344 22.7894180078 2.57110337382e-07 0.00601123968798 0.0232008655143
Sb 4.1990507136 4.8574045428 22.7894180078 -0.00520545589063 -0.00300587695433 0.0232011226246
Sb 6.32132821 1.21653905 21.5813496036 -2.57110337382e-07 2.57110337382e-07 -0.00459944682542
Sb 0.0151671164 4.8574028528 22.7894176178 0.00520571300097 -0.00300561984399 0.0232011226246
Cr 2.1071088 3.64961976 12.447024029 -1.28555168691e-06 -0 0.187433950172
61
Lattice="8.42843558953 0 0 -4.21421779477 7.29923593142 0 0 0 31.0334408416" Properties=species:S:1:pos:R:3:forces:R:3 energy=-133601.20812 ionic_step=46 pbc="T T T"
Te 2.1071096 1.0406045203 3.4176904806 -2.57110337382e-07 0.0274786673077 0.016130074126
Te 4.3665826037 4.9541266948 3.4176904806 -0.0237971043867 -0.0137392050987 0.016130074126
Te 6.32132606 1.21654029 3.520373939 2.57110337382e-07 0 0.0605160601095
Te -0.1523647737 4.9541274748 3.4176904906 0.0237971043867 -0.013739462209 0.016130074126
Te 0.5542023426 -0.3199690219 7.4236053456 0.00719626123297 -0.00415464594175 -0.0407818132741
Te 2.10710848 3.64961994 6.6272153051 2.57110337382e-07 -2.57110337382e-07 -0.00138891004254
Te 3.6600154874 -0.3199695119 7.4236051656 -0.00719651834331 -0.00415464594175 -0.0407818132741
Te -2.10710848 4.2895579838 7.4236051656 -0 0.00830980610417 -0.0407818132741
Te -0.1018485963 0.058802344 -0.0247692192 0.0232132068105 -0.013401876336 -0.00433359473657
Te 2.10710891 3.6496197 0.047827196 0 -2.57110337382e-07 0.0125420993678
Te 4.3160664263 0.058802344 -0.0247692192 -0.0232129497002 -0.013401876336 -0.00433359473657
Te -2.10710891 3.532015012 -0.0247692192 0 0.026803752672 -0.00433359473657
Te -0.1727807307 2.3333250016 13.5235907387 -0.225896371092 -0.13042127552 0.166229803538
Te 2.1071087 6.2822094569 13.5235907387 0 0.260842808149 0.166229803538
Te 4.3869985507 2.3333247516 13.5235911187 0.225896885313 -0.13042153263 0.166229803538
Te -2.1071087 6.08269937 13.3865586042 -0 -2.57110337382e-07 0.0246471111621
Te 2.10710913 0.7488154801 17.2428128114 -0 0.000830209279405 -0.0260979847959
Te 4.619278977 5.1000216149 17.2428128114 -0.000719137613656 -0.000415233194871 -0.0260979847959
Te 6.32132652 1.21654002 17.4746831036 0 2.57110337382e-07 -0.0586736074318
Te -0.405061157 5.1000218649 17.2428124214 0.000719137613656 -0.000415233194871 -0.0260979847959
Te 2.10710868 1.7653594928 10.4158057916 0 -0.123087974477 -0.152160211655
Te 3.7389262119 4.5917500036 10.4158057916 0.106597431658 0.061543730128 -0.152159954545
Te 6.32132698 1.21653976 9.9910109168 -0 2.57110337382e-07 0.00383094402699
Te 0.4752916081 4.5917497336 10.4158062116 -0.106596917437 0.061543730128 -0.152159440324
Te -0.5118195981 0.2954993236 23.7463433625 0.00223351750083 -0.00128940834197 0.0290550107861
Te 2.10710934 3.64961945 24.3838890266 -2.57110337382e-07 -2.57110337382e-07 -0.0233805856401
Te 4.7260374281 0.2954998236 23.7463435525 -0.00223351750083 -0.00128940834197 0.0290550107861
Te -2.10710934 3.0586208028 23.7463435525 0 0.00257881668394 0.0290547536758
Te 0.1081057823 2.495495515 27.5761331345 -0.0401529213889 -0.02318235357 -0.0130972005862
Te 2.10710823 5.9578692301 27.5761331345 2.57110337382e-07 0.0463644500297 -0.0130972005862
Te 4.1061120377 2.495494735 27.5761331245 0.0401529213889 -0.0231820964597 -0.0130972005862
Te -2.10710823 6.0826991 27.5957964949 -2.57110337382e-07 -0 -0.0488918446462
Te 0.4212027141 2.6762611408 20.5352054669 0.0125852939045 0.00726645235508 -0.0101918537738
Te 2.10710915 5.5963363983 20.5352054669 -0 -0.0145323904895 -0.0101918537738
Te 3.7930151159 2.6762614108 20.5352050369 -0.0125855510148 0.00726645235508 -0.0101918537738
Te -2.10710915 6.08269963 20.9410038809 0 -2.57110337382e-07 0.00688232951103
Sb 0.0294030657 2.4500539882 8.2715813302 0.00750067987243 0.00433102363319 -0.0166437805801
Sb 2.10711038 6.0487485636 8.2715813302 -2.57110337382e-07 -0.00866127593537 -0.0166437805801
Sb 4.1848147643 2.4500556882 8.2715817202 -0.00750067987243 0.00433076652286 -0.0166437805801
Sb -2.10711038 6.08270034 9.5964354847 2.57110337382e-07 -2.57110337382e-07 0.0115794782647
Sb 0.0027655735 2.4346739301 1.9405702932 -0.0019072444827 -0.00110068935433 0.00516688934002
Sb 2.10711114 6.0795073699 1.9405702932 -2.57110337382e-07 0.00220215003967 0.00516688934002
Sb 4.2114522565 2.4346765001 1.9405705832 0.0019072444827 -0.00110094646467 0.00516663222968
Sb -2.10711114 6.08270078 1.6484001822 2.57110337382e-07 -2.57110337382e-07 0.0155515758669
Sb -0.037614368 0.0217166741 19.1712109963 0.00402557655238 -0.00232402033959 0.00338125804691
Sb 2.10710819 3.64962011 17.9642145095 2.57110337382e-07 -2.57110337382e-07 -0.0291740528724
Sb 4.251832198 0.0217158441 19.1712112363 -0.00402583366272 -0.00232402033959 0.00338125804691
Sb 6.32132747 3.6061867619 19.1712112363 -2.57110337382e-07 0.00464829778952 0.00338125804691
Sb 0.0575138907 -0.0332056705 11.7266434446 -0.0011197155193 0.000646632498515 0.0182234664929
Sb 2.10710964 3.64961928 14.9562132299 0 -0 -0.0208884151399
Sb 4.1567039393 -0.0332048405 11.7266432045 0.0011197155193 0.000646632498515 0.0182234664929
Sb -2.10710964 3.7160306209 11.7266432045 2.57110337382e-07 -0.00129326499703 0.0182234664929
Sb 2.10710669 1.2192109684 29.2125327579 2.57110337382e-07 0.0091119903568 -0.0115573667756
Sb 4.2119035079 4.8648259908 29.2125327579 -0.00789097336458 -0.00455625228874 -0.0115573667756
Sb 6.32132897 1.21653861 29.0281707647 -2.57110337382e-07 2.57110337382e-07 -0.000928682538622
Sb 0.0023143221 4.8648234208 29.2125324679 0.00789097336458 -0.0045559951784 -0.0115571096653
Sb 2.10710745 1.2338104614 22.7863497543 2.57110337382e-07 0.00609608609932 0.0234037255705
Sb 4.1992603549 4.8575255793 22.7863497543 -0.00527898944712 -0.00304830016 0.0234037255705
Sb 6.32132821 1.21653905 21.5546009529 -2.57110337382e-07 2.57110337382e-07 -0.0042148097607
Sb 0.0149574751 4.8575238893 22.7863493643 0.00527924655746 -0.00304804304966 0.0234037255705
Cr 2.1071088 3.64961976 12.4400436316 -7.71331012145e-07 -2.57110337382e-07 0.0918110161549
61
Lattice="8.42843558953 0 0 -4.21421779477 7.29923593142 0 0 0 31.0334408416" Properties=species:S:1:pos:R:3:forces:R:3 energy=-133601.235551 ionic_step=47 pbc="T T T"
Te 2.1071096 1.026522017 3.4152180349 -2.57110337382e-07 0.0288511222886 0.0166044426984
Te 4.3787784036 4.9611679465 3.4152180349 -0.0249859825867 -0.0144256896995 0.0166044426984
Te 6.32132606 1.21654029 3.5356798099 2.57110337382e-07 0 0.0612714502807
Te -0.1645605736 4.9611687265 3.4152180449 0.0249859825867 -0.0144259468098 0.0166044426984
Te 0.5556631162 -0.3208124003 7.4234210938 0.00704353769257 -0.00406645709603 -0.0396880658989
Te 2.10710848 3.64961994 6.6279893104 2.57110337382e-07 -2.57110337382e-07 -0.00342496680426
Te 3.6585547138 -0.3208128903 7.4234209138 -0.00704353769257 -0.00406619998569 -0.0396878087886
Te -2.10710848 4.2912447406 7.4234209138 -0 0.00813317130239 -0.0396880658989
Te -0.1123289072 0.0648531572 -0.0202329965 0.0244560781814 -0.0141194712876 -0.00518103040858
Te 2.10710891 3.6496197 0.0634119811 0 -2.57110337382e-07 0.0116771801929
Te 4.3265467372 0.0648531572 -0.0202329965 -0.0244560781814 -0.0141194712876 -0.00518103040858
Te -2.10710891 3.5199133857 -0.0202329965 0 0.0282391996856 -0.00518103040858
Te -0.1666901017 2.3368414295 13.542789895 -0.114597162695 -0.0661627173391 0.11459304893
Te 2.1071087 6.275176601 13.542789895 0 0.132325434678 0.11459304893
Te 4.3809079217 2.3368411795 13.542790275 0.114597419805 -0.0661627173391 0.11459304893
Te -2.1071087 6.08269937 13.393423278 -0 -2.57110337382e-07 0.0213201033964
Te 2.10710913 0.7429765844 17.2374740164 -0 -0.000111585886424 -0.0250052658621
Te 4.6243356066 5.1029410628 17.2374740164 9.66734868555e-05 5.57929432118e-05 -0.0250052658621
Te 6.32132652 1.21654002 17.4851781773 0 2.57110337382e-07 -0.0602203832215
Te -0.4101177866 5.1029413128 17.2374736264 -9.66734868555e-05 5.57929432118e-05 -0.0250050087517
Te 2.10710868 1.7615074644 10.4129547996 0 -0.0529950685204 -0.0755901820799
Te 3.7422621648 4.5936760178 10.4129547996 0.045895223664 0.0264975342602 -0.0755899249695
Te 6.32132698 1.21653976 9.9943127485 -0 2.57110337382e-07 0.00622309860598
Te 0.4719556552 4.5936757478 10.4129552196 -0.0458949665536 0.0264972771499 -0.0755896678592
Te -0.5162005168 0.2980286494 23.7064655488 0.000476168344831 -0.000274593840324 0.0333063302148
Te 2.10710934 3.64961945 24.3809944355 -2.57110337382e-07 -2.57110337382e-07 -0.0238649815158
Te 4.7304183468 0.2980291494 23.7064657388 -0.000476168344831 -0.000274850950661 0.0333063302148
Te -2.10710934 3.0535621513 23.7064657388 0 0.000549701901322 0.0333063302148
Te 0.1192667277 2.5019392928 27.5760108765 -0.0431873375907 -0.0249343034089 -0.0154387044288
Te 2.10710823 5.9449816744 27.5760108765 2.57110337382e-07 0.0498683497075 -0.0154387044288
Te 4.0949510923 2.5019385128 27.5760108665 0.0431873375907 -0.0249340462986 -0.0154387044288
Te -2.10710823 6.0826991 27.6036448893 -2.57110337382e-07 -0 -0.0470025978871
Te 0.4334458784 2.6833297383 20.5259487533 0.0157158693725 0.00907393802687 -0.0108086614732
Te 2.10710915 5.5821992033 20.5259487533 -0 -0.0181471047227 -0.0108086614732
Te 3.7807719516 2.6833300083 20.5259483233 -0.0157158693725 0.00907368091654 -0.0108086614732
Te -2.10710915 6.08269963 20.9422832572 0 -2.57110337382e-07 0.00429862773068
Sb 0.0301805223 2.4505028532 8.2749172277 0.00773027940372 0.00446343545695 -0.0148962016169
Sb 2.10711038 6.0478508336 8.2749172277 -2.57110337382e-07 -0.00892635669322 -0.0148962016169
Sb 4.1840373077 2.4505045532 8.2749176177 -0.00773027940372 0.00446317834661 -0.0148962016169
Sb -2.10711038 6.08270034 9.598896515 2.57110337382e-07 -2.57110337382e-07 0.0115589094377
Sb 0.0009665818 2.4336352813 1.9537871965 -0.00199851865247 -0.00115339697349 0.00507355828755
Sb 2.10711114 6.0815846675 1.9537871965 -2.57110337382e-07 0.00230730816766 0.00507355828755
Sb 4.2132512482 2.4336378513 1.9537874865 0.00199851865247 -0.00115365408383 0.00507330117721
Sb -2.10711114 6.08270078 1.6348277906 2.57110337382e-07 -2.57110337382e-07 0.0156474780227
Sb -0.0401369494 0.0231730878 19.1805116024 0.00377772218715 -0.00218080988167 0.00198540602526
Sb 2.10710819 3.64962011 17.9289349649 2.57110337382e-07 -2.57110337382e-07 -0.0322534633832
Sb 4.2543547794 0.0231722578 19.1805118424 -0.00377772218715 -0.00218080988167 0.00198540602526
Sb 6.32132747 3.6032739344 19.1805118424 -2.57110337382e-07 0.00436187687368 0.0019856631356
Sb 0.0568848277 -0.0328424806 11.7466609038 -0.00123670072281 0.000714252517246 0.0191297804322
Sb 2.10710964 3.64961928 14.9576510035 0 -0 -0.0401210397071
Sb 4.1573330023 -0.0328416506 11.7466606638 0.00123670072281 0.000713995406909 0.0191297804322
Sb -2.10710964 3.7153042412 11.7466606638 0 -0.00142824792415 0.0191297804322
Sb 2.10710669 1.2205025406 29.2225124256 2.57110337382e-07 0.00953056598606 -0.0106171142718
Sb 4.2107849741 4.8641802047 29.2225124256 -0.00825349894029 -0.00476554010337 -0.0106171142718
Sb 6.32132897 1.21653861 29.016032617 -2.57110337382e-07 2.57110337382e-07 0.000432973808151
Sb 0.0034328559 4.8641776347 29.2225121356 0.00825349894029 -0.00476528299303 -0.0106168571615
Sb 2.10710745 1.2361367986 22.78123516 2.57110337382e-07 0.00596650248928 0.0235392227183
Sb 4.1972456887 4.8563624107 22.78123516 -0.00516688934002 -0.00298350835498 0.0235394798286
Sb 6.32132821 1.21653905 21.5160957216 -2.57110337382e-07 2.57110337382e-07 -0.00372527167832
Sb 0.0169721413 4.8563607207 22.78123477 0.00516688934002 -0.00298325124464 0.0235394798286
Cr 2.1071088 3.64961976 12.4339765767 -5.14220674763e-07 -2.57110337382e-07 0.027161907372
61
Lattice="8.42843558953 0 0 -4.21421779477 7.29923593142 0 0 0 31.0334408416" Properties=species:S:1:pos:R:3:forces:R:3 energy=-133601.263268 ionic_step=48 pbc="T T T"
Te 2.1071096 1.0120447159 3.4086108035 -2.57110337382e-07 0.0296743895889 0.0171150638285
Te 4.3913161083 4.9684065971 3.4086108035 -0.0256989495523 -0.0148373233496 0.0171150638285
Te 6.32132606 1.21654029 3.5508785585 2.57110337382e-07 0 0.0619882739014
Te -0.1770982783 4.9684073771 3.4086108135 0.0256989495523 -0.01483758046 0.0171150638285
Te 0.5564036369 -0.3212399403 7.4193859294 0.0066619859519 -0.00384611353689 -0.0386544823426
Te 2.10710848 3.64961994 6.6197208233 2.57110337382e-07 -2.57110337382e-07 -0.00384662775757
Te 3.6578141931 -0.3212404303 7.4193857494 -0.0066619859519 -0.00384611353689 -0.0386544823426
Te -2.10710848 4.2920998207 7.4193857494 -0 0.00769248418412 -0.0386544823426
Te -0.1229665343 0.0709947969 -0.0166878778 0.0253071133981 -0.0146108091424 -0.00573201786159
Te 2.10710891 3.6496197 0.0800133988 0 -2.57110337382e-07 0.010672135884
Te 4.3371843643 0.0709947969 -0.0166878778 -0.0253071133981 -0.0146108091424 -0.00573201786159
Te -2.10710891 3.5076301063 -0.0166878778 0 0.0292218753951 -0.00573201786159
Te -0.1580174774 2.3418485738 13.5664902069 -0.0580765972284 -0.0335302733186 0.0871079538635
Te 2.1071087 6.2651623124 13.5664902069 0 0.0670608037476 0.0871079538635
Te 4.3722352974 2.3418483238 13.5664905869 0.0580765972284 -0.0335302733186 0.0871079538635
Te -2.1071087 6.08269937 13.406247685 -0 -2.57110337382e-07 0.0182643470366
Te 2.10710913 0.7395177178 17.2327222045 -0 -0.000725565372091 -0.0234782875683
Te 4.6273310716 5.1046704961 17.2327222045 0.000628377664561 0.000362782686045 -0.0234782875683
Te 6.32132652 1.21654002 17.4982154957 0 2.57110337382e-07 -0.0611074138855
Te -0.4131132516 5.1046707461 17.2327218145 -0.000628377664561 0.000362782686045 -0.0234782875683
Te 2.10710868 1.7554281791 10.4136858986 0 -0.0193218418542 -0.0387753242012
Te 3.7475269779 4.5967156604 10.4136858986 0.0167332549775 0.00966066381678 -0.0387753242012
Te 6.32132698 1.21653976 9.9998164896 -0 2.57110337382e-07 0.00914927135573
Te 0.4666908421 4.5967153904 10.4136863186 -0.0167329978671 0.00966066381678 -0.0387750670909
Te -0.5124927842 0.2958879879 23.6656433142 -0.000420889622294 0.000243226379163 0.0377183436042
Te 2.10710934 3.64961945 24.3683747459 -2.57110337382e-07 -2.57110337382e-07 -0.023604528744
Te 4.7267106142 0.2958884879 23.6656435042 0.000420889622294 0.000243226379163 0.0377180864939
Te -2.10710934 3.0578434741 23.6656435042 0 -0.000486195647989 0.0377180864939
Te 0.1309069033 2.5086597544 27.5788128706 -0.0458651417545 -0.0264803078676 -0.0178951365921
Te 2.10710823 5.9315407511 27.5788128706 2.57110337382e-07 0.0529603586249 -0.0178951365921
Te 4.0833109167 2.5086589744 27.5788128606 0.0458651417545 -0.0264800507573 -0.0178951365921
Te -2.10710823 6.0826991 27.6159910534 -2.57110337382e-07 -0 -0.045158345437
Te 0.4427139826 2.6886806833 20.5166290485 0.0183617918544 0.0106014305413 -0.0117052052196
Te 2.10710915 5.5714973135 20.5166290485 -0 -0.0212023468618 -0.0117052052196
Te 3.7715038474 2.6886809533 20.5166286185 -0.0183617918544 0.0106014305413 -0.0117052052196
Te -2.10710915 6.08269963 20.9406276269 0 -2.57110337382e-07 0.00163110798035
Sb 0.0334186649 2.4523723965 8.2739031398 0.0072700518998 0.00419784047843 -0.0138734166948
Sb 2.10711038 6.0441117469 8.2739031398 -2.57110337382e-07 -0.00839490962585 -0.0138734166948
Sb 4.1807991651 2.4523740965 8.2739035298 -0.0072700518998 0.00419758336809 -0.0138734166948
Sb -2.10711038 6.08270034 9.5958751869 2.57110337382e-07 -2.57110337382e-07 0.0109739834201
Sb -0.0022417704 2.4317829374 1.9667217658 -0.00187536280086 -0.00108217741004 0.00517254576744
Sb 2.10711114 6.0852893552 1.9667217658 -2.57110337382e-07 0.00216538326143 0.00517254576744
Sb 4.2164596004 2.4317855074 1.9667220558 0.00187536280086 -0.00108269163071 0.00517228865711
Sb -2.10711114 6.08270078 1.6199537234 2.57110337382e-07 -2.57110337382e-07 0.015708670283
Sb -0.0394070422 0.0227516755 19.187224601 0.00338382915028 -0.00195352434343 -0.000236541510391
Sb 2.10710819 3.64962011 17.909971851 2.57110337382e-07 -2.57110337382e-07 -0.0336549718322
Sb 4.2536248722 0.0227508455 19.187224841 -0.00338382915028 -0.00195326723309 -0.000236541510391
Sb 6.32132747 3.604116759 19.187224841 -2.57110337382e-07 0.00390704868685 -0.000236541510391
Sb 0.0544543105 -0.0314392202 11.7673695251 -0.00122101699223 0.0007049965451 0.0184965176712
Sb 2.10710964 3.64961928 14.9612908382 0 -0 -0.0506088274792
Sb 4.1597635195 -0.0314383902 11.7673692851 0.00122101699223 0.0007049965451 0.0184965176712
Sb -2.10710964 3.7124977204 11.7673692851 0 -0.0014099930902 0.0184965176712
Sb 2.10710669 1.2220637672 29.2332142515 2.57110337382e-07 0.00987277984512 -0.00955087770272
Sb 4.2094329128 4.8633995914 29.2332142515 -0.00854994715929 -0.00493651847773 -0.00955087770272
Sb 6.32132897 1.21653861 29.0046439879 -2.57110337382e-07 2.57110337382e-07 0.00177586110029
Sb 0.0047849172 4.8633970214 29.2332139615 0.00854994715929 -0.00493626136739 -0.00955062059238
Sb 2.10710745 1.2420527536 22.7711163695 2.57110337382e-07 0.00567519647702 0.0234394639074
Sb 4.1921223238 4.8534044332 22.7711163695 -0.00491466409905 -0.00283798390402 0.0234394639074
Sb 6.32132821 1.21653905 21.4898359379 -2.57110337382e-07 2.57110337382e-07 -0.00335477568216
Sb 0.0220955062 4.8534027432 22.7711159795 0.00491492120939 -0.00283772679368 0.0234394639074
Cr 2.1071088 3.64961976 12.4363731332 -2.57110337382e-07 -2.57110337382e-07 0.00372655723001
61
Lattice="8.42843558953 0 0 -4.21421779477 7.29923593142 0 0 0 31.0334408416" Properties=species:S:1:pos:R:3:forces:R:3 energy=-133601.290331 ionic_step=49 pbc="T T T"
Te 2.1071096 0.9946459348 3.4006769769 -2.57110337382e-07 0.03006391175 0.0178344585525
Te 4.4063838877 4.9771059876 3.4006769769 -0.026036278315 -0.015031955875 0.0178344585525
Te 6.32132606 1.21654029 3.5669395105 2.57110337382e-07 0 0.0624279325783
Te -0.1921660577 4.9771067676 3.4006769869 0.0260360212046 -0.0150322129854 0.0178344585525
Te 0.5559041884 -0.3209515835 7.4202934589 0.00626552181165 -0.00361728533662 -0.0386817360384
Te 2.10710848 3.64961994 6.6084252915 2.57110337382e-07 -2.57110337382e-07 -0.00327172904318
Te 3.6583136416 -0.3209520735 7.4202932789 -0.00626552181165 -0.00361702822628 -0.0386817360384
Te -2.10710848 4.2915231069 7.4202932789 -0 0.00723482778358 -0.0386817360384
Te -0.1350549754 0.0779740649 -0.0148125026 0.0259288061939 -0.0149697351734 -0.00567442514601
Te 2.10710891 3.6496197 0.0974273091 0 -2.57110337382e-07 0.0102584453512
Te 4.3492728054 0.0779740649 -0.0148125026 -0.0259285490836 -0.0149697351734 -0.00567442514601
Te -2.10710891 3.4936715703 -0.0148125026 0 0.0299394703467 -0.00567442514601
Te -0.1516735212 2.3455112604 13.5845579692 -0.0400948144526 -0.0231486721158 0.0780445573605
Te 2.1071087 6.2578369393 13.5845579692 0 0.0462973442316 0.0780445573605
Te 4.3658913412 2.3455110104 13.5845583492 0.0400948144526 -0.0231486721158 0.0780445573605
Te -2.1071087 6.08269937 13.4244146371 -0 -2.57110337382e-07 0.0150160150341
Te 2.10710913 0.7316709409 17.2295829569 -0 -0.00181674164394 -0.0220047882248
Te 4.6341265766 5.1085938846 17.2295829569 0.00157351526478 0.000908370821969 -0.0220050453351
Te 6.32132652 1.21654002 17.5111868143 0 2.57110337382e-07 -0.0618905719732
Te -0.4199087566 5.1085941346 17.2295825669 -0.00157351526478 0.000908370821969 -0.0220047882248
Te 2.10710868 1.7502487156 10.4202648383 0 -0.00975579464161 -0.0284361462041
Te 3.7520125227 4.5993053922 10.4202648383 0.0084489027967 0.0048778973208 -0.0284361462041
Te 6.32132698 1.21653976 10.0103399324 -0 2.57110337382e-07 0.010987610268
Te 0.4622052973 4.5993051222 10.4202652583 -0.0084489027967 0.0048778973208 -0.0284358890937
Te -0.5111365628 0.2951049728 23.6220059058 -0.00155757442386 0.000899371960161 0.0419120703173
Te 2.10710934 3.64961945 24.3494658136 -2.57110337382e-07 -2.57110337382e-07 -0.02296895199
Te 4.7253543928 0.2951054728 23.6220060958 0.00155757442386 0.000899371960161 0.0419120703173
Te -2.10710934 3.0594095044 23.6220060958 0 -0.00179848680998 0.0419120703173
Te 0.1443355748 2.5164128052 27.5849810515 -0.04824701192 -0.0278553339519 -0.0204065903676
Te 2.10710823 5.9160346497 27.5849810515 2.57110337382e-07 0.0557106679039 -0.0204065903676
Te 4.0698822452 2.5164120252 27.5849810415 0.04824701192 -0.0278550768416 -0.0204065903676
Te -2.10710823 6.0826991 27.6344566395 -2.57110337382e-07 -0 -0.0432670417953
Te 0.4551609247 2.695866932 20.5039499271 0.0214165197729 0.0123652074557 -0.0127688706854
Te 2.10710915 5.557124816 20.5039499271 -0 -0.0247299006907 -0.0127688706854
Te 3.7590569053 2.695867202 20.5039494971 -0.0214167768832 0.0123652074557 -0.0127688706854
Te -2.10710915 6.08269963 20.9384496721 0 -2.57110337382e-07 -0.000136782699487
Sb 0.0391292985 2.4556694339 8.2729295208 0.00639227720798 0.00369107600345 -0.0136497307013
Sb 2.10711038 6.0375176721 8.2729295208 -2.57110337382e-07 -0.00738138067589 -0.0136497307013
Sb 4.1750885315 2.4556711339 8.2729299108 -0.00639253431832 0.00369081889311 -0.0136497307013
Sb -2.10711038 6.08270034 9.5938495882 2.57110337382e-07 -2.57110337382e-07 0.0104283952842
Sb -0.0063404763 2.4294165473 1.9802213676 -0.00164396349722 -0.000948737144938 0.00521702585581
Sb 2.10711114 6.0900221353 1.9802213676 -2.57110337382e-07 0.00189824562089 0.00521702585581
Sb 4.2205583063 2.4294191173 1.9802216576 0.00164396349722 -0.000948994255276 0.00521702585581
Sb -2.10711114 6.08270078 1.6012708788 2.57110337382e-07 -2.57110337382e-07 0.0153890821336
Sb -0.0361430794 0.0208672248 19.1947908131 0.00279787469139 -0.00161516713943 -0.00301487581614
Sb 2.10710819 3.64962011 17.8965645066 2.57110337382e-07 -2.57110337382e-07 -0.0338876566876
Sb 4.2503609094 0.0208663948 19.1947910531 -0.00279787469139 -0.00161516713943 -0.00301487581614
Sb 6.32132747 3.6078856604 19.1947910531 -2.57110337382e-07 0.0032305913892 -0.00301487581614
Sb 0.0509621112 -0.0294229971 11.7790620315 -0.00108114896869 0.000624263899163 0.0178557987105
Sb 2.10710964 3.64961928 14.9711315827 0 -0 -0.0531580764743
Sb 4.1632557188 -0.0294221671 11.7790617915 0.00108114896869 0.000624263899163 0.0178555416001
Sb -2.10710964 3.7084652741 11.7790617915 0 -0.00124852779833 0.0178555416001
Sb 2.10710669 1.2237383275 29.2449683284 2.57110337382e-07 0.0102211643523 -0.00837614057122
Sb 4.2079827017 4.8625623113 29.2449683284 -0.00885153758504 -0.00511083928647 -0.00837588346088
Sb 6.32132897 1.21653861 28.9914126708 -2.57110337382e-07 2.57110337382e-07 0.00311386329603
Sb 0.0062351283 4.8625597413 29.2449680384 0.00885153758504 -0.00511058217613 -0.00837588346088
Sb 2.10710745 1.2504758985 22.759972263 2.57110337382e-07 0.00514452074067 0.0232443171613
Sb 4.1848276697 4.8491928607 22.759972263 -0.00445520792615 -0.00257264603584 0.0232443171613
Sb 6.32132821 1.21653905 21.4582340813 -2.57110337382e-07 2.57110337382e-07 -0.00340851174267
Sb 0.0293901603 4.8491911707 22.759971873 0.00445520792615 -0.0025723889255 0.0232443171613
Cr 2.1071088 3.64961976 12.4484530427 -2.57110337382e-07 -2.57110337382e-07 0.00108294874105
