81
Properties=species:S:1:pos:R:3:forces:R:3 energy=-265.66274692963924 mlff_rel_energy_eV=0.0 mlff_fmax_eV_A=2.276330004826598 calculator_label=/data/pclancy3/yi/flare-data/1-Cr-Sb2Te3/3.fine-tuning/2-layer/MACE-omat/MACE-matpes-pbe-omat-ft.model neb_image=0 neb_protocol=mlff_pre_neb pbc="F F F"
Te      12.86545973       7.42011156      14.99690583      -1.00735894      -0.77997101       0.87258885
Te       2.17397942       3.71993510      15.01430370      -0.61147169       0.02478959       0.44236494
Te       0.04654443       7.42587609      15.00146438      -0.97983187      -0.86737261       1.08904949
Te      15.00130540       3.71609299      14.99690567      -1.22078667      -0.52693642       0.98710450
Te       0.05034610       2.49536771      22.28979136       0.81285392       0.48582596      -0.15567965
Te       2.18375401       6.15973011      22.27975237       0.18569833      -0.77950175      -0.14992418
Te       4.29048406       2.50620488      22.27975318       0.13442992      -0.92149795      -0.08048005
Te      -2.08920089       6.19432497      22.29070768       0.52185112      -0.27039754       0.30794202
Te       2.17078663       1.25856364      25.13612751      -0.53437990      -0.89430157       0.10874594
Te       4.29822717       4.94484340      25.06131068       0.04170961      -0.06050210      -0.22918146
Te       6.48429385       1.27270786      24.69086348      -0.09493099      -0.46898606      -0.95632122
Te       0.04210584       4.95015598      25.13612830      -0.80994550      -0.57041636      -0.20454983
Te       2.17294927       1.24145750      18.62681824      -0.06167922      -0.41269083      -0.18494983
Te       4.31889809       4.95676068      18.64793135       0.12539012      -0.50377287      -0.27339266
Te       6.45310130       1.25472209      18.65300897      -0.05462688      -1.19149201       0.57657057
Te       0.02838831       4.96058930      18.62681860      -1.13230027      -0.33868935      -0.86567541
Te       0.07347303       0.05682860      32.42086265       1.01029515       0.74418159      -0.86173297
Te       2.19697484       3.73318492      32.43033349       0.15528270      -0.68872517      -0.27492223
Te       4.28754375       0.00598700      32.50865092       0.08979290       0.53621222      -0.76237740
Te      -2.04858468       3.73693682      32.42086277       0.96992459       0.31484163      -0.70019231
Te       0.08650229       2.51622310      28.79899015      -0.79679334      -0.40233133      -0.70115110
Te       2.21455662       6.28564541      28.76733411       0.12965859      -1.02301320       0.24271984
Te       4.41488766       2.46979585      28.76733438      -0.05447507      -0.35535664      -0.16436318
Te      -2.17806720       6.14308859      28.87663823       0.28660199      -1.46908275      -0.83235263
Sb       0.03064359       2.48401415      16.68596198       1.02321206       1.09426600       0.61711216
Sb       2.18353993       6.19606224      16.70255351       0.09322615       0.35073224      -0.80681142
Sb       4.32181623       2.48782861      16.70255285      -0.21122281       0.48204626       0.58092083
Sb      -2.09170309       6.19288970      16.69248011       2.00880260       0.26894822      -0.49373256
Sb       0.04441805       0.01794027      26.86614779       0.78238847       1.14303656      -0.02584465
Sb       2.20921447       3.74025067      26.79661263      -0.05957536       1.44051693       0.45595222
Sb       4.20612494      -0.04095537      26.86867021      -0.07042298       0.34462178      -0.01468287
Sb       6.45555274       3.89835734      26.83498430       0.05829790       1.71497836      -0.71917070
Sb      12.88081284       7.43043080      20.59652453      -1.08897022      -1.26094323       0.34968759
Sb       2.16586622       3.71524917      20.55907007      -1.02011367       0.32098938       1.39871327
Sb       4.31019715       0.01904968      20.58653757       0.01736333       1.35799979      -0.18806864
Sb      15.01793531       3.72419979      20.59652410      -0.79209965      -0.65874824      -0.75394580
Sb       2.18498767       1.24553502      30.76109742      -0.62273771      -0.80931520       1.92381064
Sb       4.36870924       4.98548237      30.78478719      -0.40709846       0.62047115      -0.84090917
Sb       6.45056387       1.25325807      30.91324898      -0.03530903      -0.51305739       1.39275543
Sb       0.03794884       4.96896541      30.76109750      -1.11910877       0.01171972      -0.18557324
Te       4.31540886       7.42153481      15.00893572       0.03138670      -0.50943032       0.55658876
Te      10.72388739       3.71740241      15.01166329      -0.18521958       0.34304642       0.42902562
Te       8.59086008       7.42011873      15.00749957       0.01302960      -0.57442389       0.74820393
Te       6.45036513       3.71905946      15.00893529       0.10775416       0.38282031       0.20034962
Te       8.64539184       2.51886526      22.27832885       0.03963495      -0.86826795       0.18928294
Te      10.75509339       6.19715938      22.29080847       1.11024859       0.43280773      -0.59322438
Te      12.88571501       2.50220283      22.29080870       0.69224977      -0.38816862       0.16552266
Te       6.47285530       6.19879954      22.29779235       0.00448973      -1.02840681      -0.23578802
Te      10.76284887       1.27023321      25.12002511      -0.00584815      -0.81973064       0.33016113
Te      12.86896293       4.95432465      25.18088629      -1.04972569      -0.65053800       0.29301299
Te      15.01469830       1.25893560      25.17127847      -1.43569643      -0.70348754       1.03171505
Te       8.62541848       4.97699604      25.12002599      -0.14565444      -0.28012742       0.16638177
Te      10.73251286       1.25401788      18.64467091      -0.05627071      -1.05002520       0.75534962
Te      12.88599288       4.96413784      18.62576713       0.83839120       0.04762464       0.74464803
Te      15.00444145       1.25301422      18.63911328      -0.43362603       0.27311985       1.31108408
Te       8.59619513       4.95885416      18.64467136      -0.00465510      -0.64262254       0.04405958
Te       8.62124980      -0.01226802      32.50999165      -0.00508170       0.56150908      -0.66779383
Te      10.76619883       3.74179330      32.54058994       0.80876250      -0.33114967      -0.55790615
Te      12.90374696       0.04168381      32.41786935       0.89276698       0.80506164      -1.13139128
Te       6.44264551       3.76590159      32.50999204       0.17157114      -0.66195961      -0.03318779
Te       8.52036238       2.44677462      28.78738936       0.07865631      -0.40312771      -0.00231340
Te      10.73559498       6.16831911      28.82409927       0.69094200      -0.75292599       0.80513016
Te      12.85097973       2.49978454      28.82409977       1.14955947      -0.28176534       0.42530475
Te       6.56862268       6.25402951      28.96476000      -0.06200611      -0.68529833      -0.17514296
Sb       8.59549802       2.49010155      16.70322502       0.06827477       0.88461431       0.02050535
Sb      10.73787298       6.19225537      16.70176288       0.42657734       0.96735920      -1.95794398
Sb      12.87283819       2.48976389      16.70176267       1.46113030       0.86010365      -1.05267569
Sb       6.46301869       6.19313409      16.69657326      -0.03246052       0.46176491      -1.22316183
Sb       8.74234963      -0.06743984      26.83498238      -0.01676243       0.33000922      -0.04610705
Sb      10.70428590       3.70610060      26.84334967       0.65610732       1.62554565      -0.88176513
Sb      12.89035611       0.03397013      26.85784738       0.95909883       1.37266554      -1.27223523
Sb      -2.09680352       3.73128102      26.86614949       1.33162654       1.59876090       0.92326195
Sb       8.60123363       0.02340514      20.59557074       0.06774157       1.26706320      -0.16813057
Sb      10.76490086       3.74104494      20.57039148      -0.12410455       0.54676207      -0.36752240
Sb      12.87997068       0.02797311      20.59769741       0.23628362       1.17142664      -0.66255188
Sb       6.46349232       3.73070899      20.59557088      -0.06648866       1.34812452       0.44480940
Sb      10.74995812       1.27769543      30.78834522      -0.17995644      -0.43185429       1.09551731
Sb      12.85736472       4.94763109      30.77203349      -1.48432807      -0.15695246      -0.63476816
Sb      15.04068236       1.27391344      30.69959985      -1.91002421      -0.29524416       0.48561265
Sb       8.62542762       4.96209178      30.78834612      -0.26358865       0.54329112      -0.72598156
Cr       6.49066709       1.27638784      27.07238363      -0.03632637       0.20295013       1.30401078
81
Properties=species:S:1:pos:R:3:forces:R:3 energy=-282.6564282724051 mlff_rel_energy_eV=-16.993681342765854 mlff_fmax_eV_A=0.06492700319300974 calculator_label=/data/pclancy3/yi/flare-data/1-Cr-Sb2Te3/3.fine-tuning/2-layer/MACE-omat/MACE-matpes-pbe-omat-ft.model neb_image=1 neb_protocol=mlff_pre_neb pbc="F F F"
Te      12.80617413       5.99560390      14.32348845       0.01276186      -0.03094934      -0.00962949
Te       2.26001559       3.28501110      16.51856242      -0.00206022      -0.00327051       0.00818473
Te       0.12349091       6.59916503      15.52639704      -0.00321446      -0.01004226      -0.00110840
Te      14.49238524       3.92433201      15.02777515      -0.01351729      -0.00453963      -0.00254838
Te       0.57848927       3.00213333      23.74864133       0.03598347       0.00257190       0.00045418
Te       2.53316126       6.83962264      22.87720885       0.00692463      -0.00470810      -0.00548090
Te       4.81263830       3.27908811      23.43113036       0.00317469      -0.00377314       0.01150120
Te      -3.07959170       7.17531821      24.75095039      -0.02721272       0.01499298       0.02582949
Te       2.44682783       0.47634358      25.00446166      -0.00173112       0.00984007       0.01424037
Te       3.90009050       6.72451231      25.29537949      -0.00820864       0.00309270       0.00754535
Te       7.02717651       0.69550591      24.83598949      -0.03729357      -0.02145931       0.00571480
Te      -0.47734375       5.67348423      24.52432645       0.01681796       0.02100134      -0.02644510
Te       2.50252741       1.24430321      20.43079291       0.02670653      -0.00420505       0.02038718
Te       4.63663690       5.05162757      19.57449143      -0.00765413      -0.00706781       0.03147223
Te       6.77827137       0.82862204      20.23431558      -0.01029177      -0.01217231       0.01099322
Te       0.11886631       5.38924994      19.83052160       0.02330477      -0.00172284       0.03241052
Te      -0.12633993       0.03653193      31.13445386      -0.00850186       0.03524089      -0.00416140
Te       2.05938312       3.36095340      31.52936590      -0.00904448       0.00652378      -0.00492423
Te       3.90074742      -0.35502473      31.22051836       0.00069587      -0.01671406      -0.01835384
Te      -1.91883598       2.07821303      31.04768042       0.01896457      -0.02798865      -0.00314539
Te      -0.14586148       2.72353457      27.63936276      -0.02682675      -0.00259237      -0.03161299
Te       1.68415679       6.36693737      28.58792065      -0.01919168      -0.02752256       0.02100239
Te       4.12243763       2.86951351      27.68904160      -0.03156810      -0.00449325      -0.01812718
Te      -2.49059147       6.22316620      28.72459566       0.02093961      -0.01242076       0.00936517
Sb      -0.02174249       3.03384165      18.25100619      -0.00439988       0.03052394       0.01414845
Sb       2.47284551       6.12251551      17.12634004       0.00283810      -0.00592050      -0.01343609
Sb       4.38618004       2.42942667      18.43578433      -0.01902161       0.00784799       0.02962267
Sb      -1.51233028       5.37816760      17.40286890       0.01322880      -0.02858113      -0.00683010
Sb       1.72943503      -0.97550329      27.36475500       0.03988546      -0.01363601      -0.02903898
Sb       1.77555149       4.56788199      26.31308344       0.00537661       0.01430693       0.01110101
Sb       4.44601223      -0.88587921      26.59932716      -0.02734712      -0.02037486      -0.01208912
Sb       6.18379806       4.91466602      26.12048639       0.01982187      -0.00138215      -0.02478688
Sb      13.66599446       7.15039240      20.72293905       0.01246609      -0.00020630      -0.00855324
Sb       2.43019436       4.12489937      21.76310950       0.00070320       0.00440900       0.03054545
Sb       4.63634813       0.64267350      22.35378117      -0.00554011       0.00007466      -0.02147291
Sb      15.10157661       4.66150670      20.64425482      -0.00492278       0.04574816       0.00824782
Sb       2.03581835       1.12412592      29.53890717      -0.00549340       0.02303186      -0.01205916
Sb       3.96053646       4.86019804      29.91568626       0.00017996      -0.02969763       0.00640417
Sb       6.12794679       0.83517105      30.01444983       0.01903122      -0.01328600       0.01122341
Sb      -0.31396619       4.41511486      29.93074755      -0.01063593       0.03208635      -0.02858540
Te       4.25618620       6.66242994      15.00990728       0.00969521      -0.00788097      -0.00627501
Te      10.40243934       2.97147009      15.40962041       0.00778216      -0.00647615       0.01370464
Te       8.43607325       6.74073365      14.68950176       0.00376008      -0.01671008      -0.01678033
Te       6.28138627       3.23400268      15.90187791       0.00386308      -0.01711080       0.02886325
Te       9.33618165       3.06429987      23.05169908       0.00345077       0.00338827       0.00745751
Te      11.43002784       6.63346774      22.34580169      -0.00288024       0.00754299      -0.00809616
Te      13.66362642       2.97709187      22.46800622       0.00709066       0.02878149      -0.00646170
Te       7.32558823       6.72570968      22.28054676       0.00998024       0.00164593       0.02413876
Te      10.58916804       0.21268499      26.49020303       0.00573792      -0.02974326       0.00398301
Te      12.81832270       5.89715678      24.67968970      -0.01444949       0.02165131      -0.01256848
Te      14.33419087       0.63469723      25.15906617      -0.04989835      -0.01616114       0.01381408
Te       8.44562561       6.43894964      24.86035708       0.01193788       0.01235311      -0.00684758
Te      11.09457903       1.05301701      19.52895785      -0.00390918       0.00524705       0.01099681
Te      13.13888879       4.98615017      18.57185931       0.00614079       0.00518236      -0.00368267
Te      15.38354514       1.46084589      18.68793455       0.00912324       0.00926764       0.01403310
Te       8.83305989       4.86030176      19.01682288      -0.00752629       0.00758934       0.00269254
Te       8.43906597      -0.31143184      31.15378469       0.02211747      -0.01404379      -0.04663687
Te      10.42499703       3.49269901      31.49683891      -0.00048131      -0.01834867      -0.03522697
Te      12.33124898      -0.31671930      30.86786635       0.01464241       0.01356159      -0.01315895
Te       6.16587960       3.29259943      31.50592215      -0.02337451       0.02141525       0.00461354
Te       8.20646918       2.92156742      27.68576486       0.01340442      -0.00057247       0.00924736
Te      10.46912828       6.34924406      28.19540939       0.00311839      -0.01282568      -0.00873587
Te      12.91802483       2.97173679      27.79622775      -0.01178311       0.01308269      -0.00617341
Te       6.14621374       6.66858563      28.32140766      -0.01662739       0.00143725      -0.00607351
Sb       8.54222099       2.39813888      17.51631898      -0.01067691       0.00279655       0.00883142
Sb      10.61658361       5.69945584      16.18135854      -0.00474996       0.00003699       0.00432001
Sb      13.08920252       2.41417541      17.02596486       0.01829219      -0.00223469       0.01578365
Sb       6.50042836       5.97509091      16.64606335       0.00066975       0.00539024      -0.00764166
Sb       8.03790715      -1.02225085      26.80627047      -0.01476984       0.01508527       0.00121754
Sb      10.63471135       4.56261617      25.92805535       0.01474354       0.00343802      -0.02038768
Sb      13.17680987      -1.06871305      26.89831973      -0.00081400      -0.02366246       0.04265763
Sb      -2.64881032       4.91713740      26.31732713      -0.03482677       0.00854722       0.01741126
Sb       9.18806937       0.52625975      21.78332379       0.00519112       0.01120792       0.00692690
Sb      11.13519198       3.91458767      20.75769733       0.00494013      -0.00062171      -0.01542267
Sb      13.75688119       0.64558542      20.79256223       0.01755622       0.02744651       0.01245729
Sb       6.90668559       4.04990686      21.32512998       0.00292615       0.00047349       0.00261196
Sb      10.24115656       1.23888457      29.55711208       0.04240710      -0.01511994      -0.02391794
Sb      12.30336968       4.85728888      29.86269781       0.00919656       0.00215076       0.00261662
Sb      14.16857626       0.65558923      29.05520894      -0.02366357      -0.03098303      -0.05191920
Sb       8.08062799       4.86636273      29.85773696      -0.00902307       0.00809883      -0.00796259
Cr       6.18985946       1.12703198      27.34292286      -0.01444118       0.03311073       0.02758573
81
Properties=species:S:1:pos:R:3:forces:R:3 energy=-282.83967229682645 mlff_rel_energy_eV=-17.17692536718721 mlff_fmax_eV_A=0.23961031138000252 calculator_label=/data/pclancy3/yi/flare-data/1-Cr-Sb2Te3/3.fine-tuning/2-layer/MACE-omat/MACE-matpes-pbe-omat-ft.model neb_image=2 neb_protocol=mlff_pre_neb pbc="F F F"
Te      12.54009516       4.48177404      13.67331453      -0.01752062       0.04524020      -0.01820644
Te       2.14280801       2.23195526      16.79138528      -0.03281661       0.02209122      -0.09462557
Te      -0.00289024       5.20347182      14.94465307       0.00044521       0.01041207      -0.00866359
Te      14.76031641       4.02011844      15.20886992       0.00285410       0.01169880       0.01809872
Te       0.43673035       3.66015228      23.74978366      -0.00171699      -0.02260642      -0.00307771
Te       3.03109427       7.29148904      23.22091737       0.04630289      -0.06430856      -0.00840778
Te       4.76531008       3.73763092      23.56209959       0.05708434      -0.02881193       0.00865598
Te      -0.82311572       9.07355614      26.04975801      -0.06994212       0.06719751       0.07409485
Te       2.04826879       0.64882065      25.14675956      -0.00412798       0.07120480      -0.01722756
Te       3.98686914       7.00150637      25.80512636      -0.04211823       0.01910226       0.01956350
Te       7.10042270       1.29816528      24.81223845      -0.02956678      -0.03890955       0.01097237
Te      -0.10014292       6.43389139      24.90386008      -0.01212309      -0.07127083      -0.05225843
Te       2.28412478       1.64088089      20.99485794       0.00407719      -0.03026345       0.01973810
Te       4.56550813       4.92069187      19.29799053      -0.03108223      -0.00767097       0.01677108
Te       6.77348894       1.19425409      20.69290413       0.08118691      -0.15303488       0.16553583
Te       0.40596446       5.49346703      19.32503092      -0.03045842      -0.00749051       0.02108573
Te      -0.26576268      -0.46881268      30.61272497       0.02786539       0.02829424       0.04854669
Te       1.96729517       2.82032642      31.50471453       0.05763628       0.00774239      -0.01010994
Te       3.84616338      -0.93774188      30.77578578       0.00488679       0.01347138       0.00221049
Te      -1.87513353       1.57128054      29.86595094      -0.03939650       0.01543285       0.00411816
Te      -0.04515550       2.72661429      27.56847795      -0.04095964      -0.01349092      -0.01356391
Te       1.87616935       6.22891701      28.96159257      -0.01604537      -0.05309901      -0.02819651
Te       4.07452136       2.73281528      27.73537608       0.06712868      -0.03347756       0.01212355
Te      -2.32327148       6.46006725      29.19671047      -0.02961667       0.00096714       0.02178890
Sb       0.19503683       2.70552115      18.81801464       0.03063811      -0.00243285       0.02230861
Sb       2.50704633       5.03153266      16.36775392       0.00706903       0.02271639       0.01226408
Sb       4.41579020       2.06294036      18.95704647      -0.09193331       0.03190929      -0.11313401
Sb      -1.44876060       4.75762789      17.25931402       0.01281856      -0.00821677       0.00055025
Sb       2.02162179      -1.37105690      27.11014242      -0.03599508       0.07458586       0.00608167
Sb       1.86564044       4.77536750      26.41398343       0.02289464      -0.01034207       0.00045530
Sb       4.52395721      -0.68652477      25.94942235      -0.05037153      -0.01809729       0.00107984
Sb       6.17775856       5.05040818      26.39322381      -0.00249761      -0.03482747       0.00365307
Sb      12.89722562       8.12027637      20.44746607       0.03167653      -0.00762802       0.00566115
Sb       2.47112198       4.58888974      21.92595133      -0.01681235      -0.01060733      -0.00296873
Sb       4.87069214       0.97030313      22.88481978      -0.04935293       0.00286639       0.01828086
Sb      14.82954938       5.99538643      20.70320137      -0.00941552       0.04671868      -0.01540373
Sb       2.02797662       0.74372038      29.27284129       0.01993127      -0.02501341      -0.00246705
Sb       4.05689414       4.41528514      30.16247395      -0.01820655       0.03124621       0.01144040
Sb       6.06855645       0.52770777      29.86939725      -0.03847925       0.02537827      -0.02154227
Sb      -0.13361310       4.27925350      29.96416565       0.00392949      -0.02817779       0.01862273
Te       4.29429245       4.56004602      14.23237532       0.00432212       0.03237837       0.01487588
Te      10.69146875       1.98387677      16.02064457      -0.00705557       0.04470426      -0.02826101
Te       8.39616592       4.95729094      14.02487254      -0.00221795       0.03971872      -0.02690191
Te       6.51185620       1.98471657      16.44489514      -0.03990690       0.01081916      -0.01853176
Te       9.29111829       3.67990924      23.12508059       0.04507310      -0.03931298      -0.00412146
Te      10.78563055       7.40031571      22.15566060       0.01810713      -0.04700444       0.03212597
Te      13.64883412       4.28407542      22.69391228       0.04612496      -0.02161922      -0.01546456
Te       6.63130197       7.07942740      22.42848276       0.02929384      -0.02293309      -0.02925771
Te       9.80623500      -0.58343239      25.84056358      -0.06664766       0.02174113       0.09234923
Te      12.09793910       7.00297546      24.66015245       0.01985844      -0.05350136       0.01222662
Te      12.40701053       0.98135789      23.97289437       0.03481706       0.01956875      -0.06625824
Te       8.08414020       6.75155543      24.89177570       0.02586217      -0.02220808      -0.00283009
Te      11.66793909       1.59661745      20.02875725       0.03713027      -0.02611291      -0.00293345
Te      12.96620769       5.69147688      18.54379575      -0.04123949       0.01950662       0.01179248
Te      15.88896301       2.79728876      19.16902758      -0.01624805       0.00486608      -0.04972928
Te       8.76661303       4.85652079      18.81949263       0.00797065      -0.02265635       0.02173456
Te       8.52124548      -1.09309210      30.16687933      -0.01330161       0.03691431      -0.06905649
Te      10.54049364       2.40309579      31.14547045       0.03778906       0.01707656       0.05540240
Te      12.42276444      -1.19374598      29.47153174      -0.00896729       0.02681601       0.02675369
Te       6.20324031       2.76000760      31.71762638       0.01284938      -0.00661553      -0.04455372
Te       8.20156739       2.84040064      27.72902194      -0.02190395      -0.05214338      -0.08163349
Te      10.62496388       6.05253012      28.73516220       0.02600234      -0.00131313      -0.01913711
Te      12.53404694       2.58811469      27.22080882       0.04229946       0.05056692       0.05306850
Te       6.33482527       6.37214686      28.90078853      -0.03535606      -0.00601995      -0.03035602
Sb       8.81046178       2.01360930      18.19743698      -0.00418902       0.02191244      -0.03409795
Sb      10.59479288       4.77744016      15.78900916       0.00103684       0.01999840      -0.02204962
Sb      13.53707542       2.88303043      17.53384453       0.01016045       0.02925348      -0.02184440
Sb       6.44620598       4.79142174      16.10293967       0.02535635       0.02696416      -0.01276166
Sb       7.52409563      -1.36376468      27.45763244      -0.04092701       0.02797051       0.13873760
Sb      10.43686572       5.07833365      25.95680218      -0.03079101      -0.01984369       0.01503786
Sb      12.56330614      -1.46515012      25.39446283      -0.09181230       0.02498125      -0.03167978
Sb      -2.51860044       6.94702972      26.55035769       0.05054112       0.03233099      -0.02155627
Sb       9.90606113       1.01771280      22.34519808       0.10403483      -0.04296587       0.06469225
Sb      11.04943796       4.56086890      20.80540977       0.02206816      -0.05466928       0.01996791
Sb      14.30389726       1.82024332      21.37690563       0.02226004       0.01069970      -0.06733129
Sb       6.77920980       4.40408856      21.25388359       0.06127992       0.02283328       0.03548923
Sb      10.40362996       0.77754581      28.62496012      -0.01061056      -0.05378187       0.01974314
Sb      12.39098045       4.02368000      29.74398218      -0.01706969       0.09132184      -0.00730103
Sb      13.95983747      -0.03653059      27.50313399      -0.00040240       0.00655423       0.05467009
Sb       8.25203305       4.35483657      30.20104910      -0.02924365       0.03091835      -0.06473476
Cr       6.15485030       1.10351908      27.26069525       0.02578242      -0.05621273      -0.03013305
81
Properties=species:S:1:pos:R:3:forces:R:3 energy=-282.24570006016586 mlff_rel_energy_eV=-16.58295313052662 mlff_fmax_eV_A=0.4648516261416995 calculator_label=/data/pclancy3/yi/flare-data/1-Cr-Sb2Te3/3.fine-tuning/2-layer/MACE-omat/MACE-matpes-pbe-omat-ft.model neb_image=3 neb_protocol=mlff_pre_neb pbc="F F F"
Te      11.82038851       6.69599194      13.97237971      -0.03446828      -0.02858512       0.04102226
Te       1.97729911       2.04560658      16.58985627       0.01092464       0.00805187      -0.00687766
Te      -0.67772952       4.69291258      15.25471063       0.03707257       0.05208345       0.00811979
Te      13.54024636       4.53149989      13.99829585       0.04395853      -0.00394865       0.02460950
Te       0.01935595       3.39464721      23.77693277       0.00168040      -0.01207407       0.00084370
Te       2.33507070       6.74542510      22.08338051       0.00843263      -0.01297553       0.02603696
Te       4.52752998       3.18903962      23.61390542      -0.00558338      -0.00127109      -0.01778700
Te      -0.23240991       6.86892733      21.12622789       0.02880961       0.03933881      -0.00754539
Te       3.25564042      -0.81247109      24.97310322      -0.33417074      -0.11545650       0.26840414
Te       4.65898132       6.71554662      25.23513532      -0.01962980      -0.00687304       0.01933468
Te       7.26956800       1.05525436      24.78573310      -0.02699975      -0.03999879       0.00415048
Te      -0.24101302       6.02917981      24.58953855       0.02083465      -0.03543300       0.01471670
Te       2.39274412       0.80033535      20.87215411      -0.00919687      -0.01063125      -0.01424856
Te       4.13245086       4.54243608      19.40788534       0.00896379       0.00763653       0.02280049
Te       6.82052353       1.21780586      20.35163594       0.01194568      -0.04851690      -0.03835906
Te      -0.42234823       4.19716817      19.71495405       0.01162640       0.00585649       0.00675522
Te      -0.85314782       0.27339595      29.91336843       0.03493739       0.00476206       0.04464261
Te       2.21272207       2.93136347      31.34895190      -0.00903821      -0.06702386      -0.05866857
Te       3.67211681      -0.97791704      30.83520058       0.16928353       0.16127535       0.06326236
Te      -1.28552164       2.51533447      31.36736454      -0.09940619       0.02438300      -0.00192789
Te       0.08390842       3.13521491      27.50485215      -0.02990673      -0.02539604      -0.00627515
Te       2.57564937       6.35295002      28.48986380      -0.02225589      -0.04024258      -0.00222666
Te       4.21760789       2.67784832      27.62057517      -0.01994967      -0.01871574      -0.01130808
Te      -1.75199873       6.80090034      28.75348506       0.01362568      -0.00792990      -0.00655909
Sb      -0.18678818       1.56610714      18.36709268      -0.00063205       0.00441570       0.01529198
Sb       1.71612795       4.90945270      16.85994429       0.01498511       0.02565597       0.00470462
Sb       4.21099523       1.79901989      18.61118482      -0.02207610      -0.00979285      -0.01905235
Sb      -2.05875761       3.51089289      17.35678064       0.03032571       0.01355162      -0.01518673
Sb       2.89492750      -1.91609883      28.33438575      -0.05818534       0.10189250      -0.02855253
Sb       2.21494797       4.77358726      26.13726982       0.02505200      -0.02985227       0.00533160
Sb       5.30054383      -1.49190968      26.79863896      -0.10587137       0.08918857      -0.03598970
Sb       6.69285252       4.89491345      26.47377196      -0.01045197       0.02043112      -0.02490195
Sb      11.55774340       7.93352234      18.96826257      -0.03014896      -0.00900300      -0.04255743
Sb       2.18056996       3.74296180      21.76137261       0.01572579       0.00319670      -0.01602808
Sb       4.59430254       0.43717554      22.84083071       0.28399769       0.16879928      -0.32701552
Sb      15.08432380       4.33471960      19.81817785       0.01628650       0.02909121       0.02571387
Sb       1.85544810       0.98586910      29.08639012       0.08702924      -0.11501753       0.12123353
Sb       4.47297547       4.40757390      30.02209376      -0.01578335      -0.00075411      -0.00528015
Sb       6.20533530       0.24423409      29.78029997      -0.12318938      -0.09814476       0.02483337
Sb       0.29926170       4.72410977      29.92272035      -0.04192777      -0.05570102       0.00618151
Te       3.51953634       5.49941373      14.75989805      -0.00408220      -0.00593316       0.00822111
Te      10.09629998       3.22919919      15.49258158      -0.01760318      -0.01399106       0.02227320
Te       7.62978962       6.32303551      14.46052550       0.01366986      -0.00096595       0.03500127
Te       6.08991683       2.64280748      16.11813761      -0.01226227      -0.02088089       0.01069402
Te       9.30692979       3.65929897      22.92184154      -0.01801477      -0.03985310       0.02519250
Te      11.26169789       7.30056349      21.58410476      -0.03458462      -0.00816381       0.01276016
Te      13.51261057       3.96475144      22.22700114      -0.01475250      -0.09836821       0.05527555
Te       5.64644103       6.84006776      22.61466667       0.03314277      -0.01261842       0.02122938
Te      11.50803315       0.83371210      24.34468110      -0.03420945      -0.04955472      -0.02140852
Te      12.60772279       5.97389586      24.76112630       0.00832746       0.00416776       0.01627356
Te      15.49850367       0.57507443      23.78814294      -0.03274411      -0.05326708      -0.04704422
Te       8.90002254       6.40238542      25.52846514      -0.00213444       0.00667950       0.01135418
Te      11.10573822       1.54100477      19.50582682       0.00265631      -0.02559064       0.02236581
Te      12.92604350       5.44413912      18.05228875      -0.01001399       0.00508125       0.06355023
Te      15.22343687       1.63530710      19.16265364       0.02200969       0.00934546       0.01741540
Te       8.34663222       5.14085192      18.95806223      -0.01214546      -0.02402813       0.04123728
Te       8.21186537      -1.66592055      30.16771387       0.02417588       0.00168112      -0.06885757
Te      10.37899834       1.48978301      31.31196039       0.04349146       0.03896659      -0.02743559
Te      11.75986115      -2.49614856      28.47471356       0.01801771       0.03857896      -0.03090150
Te       6.20691644       2.44013835      31.69927940       0.05502076      -0.00266177      -0.05848471
Te       8.36001728       2.47890972      27.88146093       0.01212419       0.00245855      -0.04080821
Te      11.11367318       5.13102598      28.97487083       0.01026342       0.01949775      -0.03648707
Te      12.65854329       1.69212644      27.67370675       0.06901659       0.04212327      -0.01665798
Te       6.88387183       6.06467270      29.04794684      -0.01977657      -0.00081102      -0.01137515
Sb       8.43069427       2.43946904      17.96343650      -0.03220933       0.03355003      -0.04859308
Sb       9.94848196       6.07590739      16.07651553       0.00234936      -0.05012387      -0.01211458
Sb      12.80055438       3.02459813      16.26454925      -0.00069565       0.01708555       0.01804055
Sb       5.81180873       5.43769844      16.49857080       0.00441179      -0.02002472       0.03724339
Sb       9.40515552      -0.67494136      25.55121607      -0.03992254      -0.02358878       0.00861749
Sb      10.81885087       4.35606556      26.03608698      -0.00109496       0.03215292      -0.03376089
Sb      13.54931809      -1.17752037      24.72786668       0.02479636       0.00313618      -0.00815876
Sb      -2.00169774       5.11266905      26.67396858      -0.01520715       0.00660780      -0.01887046
Sb       9.41926168       1.03765588      21.76184033       0.00500972       0.00792286       0.02365510
Sb      10.96437182       4.49616452      20.52805641      -0.03428288       0.01475772       0.01363376
Sb      13.63058643       1.13296112      21.54822075       0.03425907      -0.01311796       0.06754389
Sb       6.46995021       4.13744693      21.39153062      -0.01315778       0.05057361       0.03878061
Sb      10.08686995      -0.09912433      28.54230714      -0.01913344       0.03596585      -0.03266162
Sb      12.51055330       2.97958820      30.23779621       0.02196800       0.04733052      -0.01050556
Sb      13.89665806      -0.91592733      27.64776987       0.09498111       0.05435047      -0.02587921
Sb       8.57460800       3.81304196      30.41898824       0.01360222       0.00645701      -0.03685584
Cr       6.23927719       1.02696601      27.24163720      -0.00189216       0.01879995      -0.04513973
81
Properties=species:S:1:pos:R:3:forces:R:3 energy=-282.1991980729693 mlff_rel_energy_eV=-16.536451143330055 mlff_fmax_eV_A=0.9103136706031536 calculator_label=/data/pclancy3/yi/flare-data/1-Cr-Sb2Te3/3.fine-tuning/2-layer/MACE-omat/MACE-matpes-pbe-omat-ft.model neb_image=4 neb_protocol=mlff_pre_neb pbc="F F F"
Te      12.81854629       5.52913547      15.22630516       0.03265454       0.06192985       0.00433800
Te       2.23227870       2.79048230      16.48251407       0.03392062       0.01201325       0.01169831
Te       0.15054338       5.70156856      14.87087882       0.00219427       0.06095533       0.01196186
Te      14.17479120       3.15985184      15.69745453      -0.01132882       0.05619715       0.05039574
Te      -0.31618900       3.41979331      23.03725417      -0.02490490      -0.00861242      -0.00350756
Te       1.84353355       7.26127336      22.64929064       0.01368564       0.00016549       0.00518077
Te       4.02050668       3.82594667      23.62397624      -0.00198799      -0.03197383      -0.01403459
Te      -0.57659176       7.43622119      21.47969314       0.01451610       0.00488995      -0.00733254
Te       1.64696687       1.05884689      24.69385229      -0.57590742       0.02991459       0.32917565
Te       4.18978509       6.97265998      25.46236897      -0.06693156      -0.02456386      -0.00425804
Te       5.94506049      -0.00654426      24.89486536      -0.08074729      -0.12595106       0.00825574
Te      -0.61616612       5.57614732      24.75106320      -0.01918844       0.01267519       0.04684316
Te       1.84666274       1.57788720      20.57645301      -0.04399664      -0.01993661      -0.00788065
Te       4.33492485       5.13229090      19.54568363       0.00979960      -0.03087062       0.00748457
Te       6.27771646       1.11054464      20.77331092       0.05748566      -0.03464330      -0.03920775
Te      -0.41186760       5.16295816      19.31777873       0.00425993       0.02920648       0.00813861
Te       0.60153813      -1.48135013      29.87564390       0.43676592       0.74584814      -0.28568700
Te       2.36440131       2.63779166      31.76544035       0.07065765       0.00042846      -0.09173845
Te       4.94829415      -0.97346993      29.70019911      -0.03057851       0.08639841       0.14082480
Te      -3.31817567       2.19115153      30.53767432       0.01188784      -0.00794132       0.05253006
Te       0.21326888       2.46929603      27.90448102       0.01110773      -0.07313608      -0.17722141
Te       1.74700065       5.97580531      28.92051601      -0.02764633      -0.04566421       0.00845590
Te       4.44626320       2.87411062      27.39449724      -0.03229935      -0.09464863       0.04321558
Te      -2.13351413       5.89460540      28.58288657       0.04406773      -0.06576479       0.07765066
Sb      -0.17212345       2.55352328      18.00822201      -0.01665126       0.04819686      -0.04269568
Sb       2.27420825       5.64448381      16.85777435       0.02273953       0.03929466      -0.01668032
Sb       4.09298859       2.36217746      18.77975863       0.00009894       0.03533535      -0.10913251
Sb      -1.66550756       4.66297114      16.68231610      -0.00163666       0.04840304      -0.00711734
Sb       0.12675346      -0.37214864      27.35162587      -0.02224237      -0.03014090       0.29377125
Sb       2.32317905       4.99671670      26.32451901       0.00877845       0.01205763       0.01945067
Sb       3.50459059       0.04656022      26.54361704      -0.10553927      -0.05147891       0.12092483
Sb       6.48184157       5.41821053      26.36948195      -0.01069832      -0.00483312      -0.02890313
Sb      11.88213123       7.50266953      19.30540799       0.00548866      -0.04808610       0.00714000
Sb       1.94121697       4.51366173      21.50971308      -0.00076409       0.02856109      -0.02678505
Sb       3.77171682       1.07712290      22.85977263       0.42373511       0.10202889      -0.56488052
Sb      14.92666670       4.16513361      21.56211382       0.02084619       0.03031347      -0.00784294
Sb       2.67674295       0.84388634      29.61016052      -0.43008340      -0.50958768       0.11334820
Sb       3.92429450       4.44523982      30.04298226       0.03237533       0.04555629       0.01004822
Sb       6.74498295       1.07439178      28.99898271       0.00744866      -0.07531129       0.07283625
Sb      -1.20725664       3.73317687      30.31731836       0.00895290      -0.06067438       0.02031920
Te       4.34809176       6.10149607      14.98727533      -0.01603519       0.01823393      -0.01548607
Te      10.39121034       2.54566993      16.48542997      -0.02274394       0.03621939      -0.02863861
Te       8.59569038       6.44430700      15.20441870       0.02138362      -0.02231143       0.01063148
Te       6.35160605       2.88340418      16.43090526      -0.04008660       0.01879268      -0.00683161
Te       8.40344949       3.07011531      23.94690441      -0.01420168      -0.03731768       0.11072944
Te      10.84325326       7.30987396      21.90245250      -0.04033226      -0.04114793      -0.00280792
Te      13.15348047       2.90551771      23.39648870      -0.00129657       0.02506660       0.04508983
Te       7.10231671       7.00969849      22.87416240      -0.01191901      -0.04448788      -0.02037522
Te      11.18981936       0.58713688      25.34209553      -0.03294829      -0.00886127       0.02488578
Te      12.84159747       6.79366294      23.89122989      -0.00029338      -0.07070986      -0.07661421
Te      15.58008325      -0.53906327      24.01547284      -0.01791519       0.02378006       0.03529307
Te       8.77115924       7.01697796      25.20133473      -0.08388522      -0.04745825      -0.06754507
Te      10.61137100       1.19959199      20.60333054      -0.02920211      -0.01834161      -0.02222463
Te      12.90211354       4.70843238      19.42790290       0.03051923      -0.00425429       0.05223974
Te      15.53576246       1.70817025      20.28370752      -0.00928509      -0.04571441       0.04904395
Te       8.56492244       4.86373982      19.63945886       0.01282234      -0.03736114      -0.00530344
Te       9.14676866      -0.49800599      29.50251256       0.07217750      -0.06955325      -0.02400432
Te      11.12125157       3.08594707      31.07228532       0.01447042       0.02769726      -0.02281322
Te      13.04017327      -0.51909968      29.52527638       0.02906848       0.00603206       0.02206331
Te       6.65043844       2.84626887      31.29314857       0.06096930      -0.02149918      -0.03837195
Te       8.91758493       3.47000086      27.53199263       0.00916334      -0.01601762      -0.05755932
Te      11.20596143       6.54249591      28.19999586      -0.02193439       0.04104960      -0.02800498
Te      13.47952499       3.26395958      27.30824874       0.00702203       0.02552207       0.00182420
Te       6.31872416       6.50238489      28.96223828      -0.00461053       0.00529485      -0.01193759
Sb       8.27728721       2.18426262      18.53672055       0.08675185      -0.01370068       0.03157336
Sb      10.55570208       5.52668806      17.02954780       0.01750541      -0.04482050      -0.02694277
Sb      12.79417739       2.03109574      17.89408016      -0.01738037       0.06614110       0.00694470
Sb       6.41134191       5.67979476      16.92753897       0.00246623      -0.01945408       0.00983843
Sb       8.75272399      -0.46374562      26.55914182       0.03995282      -0.08858403       0.02682600
Sb      11.18155432       5.20571703      25.63435127      -0.00971711       0.02573186       0.01833162
Sb      13.55110596      -1.08148370      25.91395001      -0.04558493       0.03342021       0.00392502
Sb      -2.06936313       4.00135796      26.57711687       0.03439662      -0.04843160       0.03720190
Sb       8.47063078       0.59885658      22.53229005       0.02556026       0.02081763       0.03420659
Sb      10.75932726       4.00323464      21.50775265       0.02196574      -0.10416051       0.00344893
Sb      13.70572287       0.38788901      22.09699844      -0.08814673       0.05857940       0.01578561
Sb       6.42843140       4.33736316      21.86750293       0.07254187      -0.07963831      -0.02147056
Sb      11.14783571       1.51379383      28.59396349       0.01440391       0.03693656      -0.02451163
Sb      12.91867221       4.81951655      29.70366613       0.01369217       0.02757932      -0.02771406
Sb      14.83623726       0.69477956      27.79591559       0.05340343       0.04691581       0.06757265
Sb       8.40422029       4.72927182      30.08940957       0.02458793       0.04125356      -0.02670501
Cr       7.18211065       1.86192871      26.31866242       0.07235974       0.15221114      -0.08067591
81
Properties=species:S:1:pos:R:3:forces:R:3 energy=-282.3572865181949 mlff_rel_energy_eV=-16.694539588555642 mlff_fmax_eV_A=0.17841952674571784 calculator_label=/data/pclancy3/yi/flare-data/1-Cr-Sb2Te3/3.fine-tuning/2-layer/MACE-omat/MACE-matpes-pbe-omat-ft.model neb_image=5 neb_protocol=mlff_pre_neb pbc="F F F"
Te      13.39735688       6.55634569      16.05049016      -0.02264773      -0.00316073      -0.01831661
Te       2.51430346       3.49140148      15.62937446       0.00522219      -0.00093934       0.01115245
Te       0.38343360       6.75975900      14.63001633       0.03107600       0.00944282      -0.01103106
Te      14.68115658       4.11482599      16.16936708      -0.02622853      -0.00617000      -0.03906671
Te      -0.27747618       2.96082795      22.98856804      -0.00093916      -0.00349652       0.00265534
Te       2.02019487       6.65716881      22.32422712       0.01109222       0.00308376      -0.00781741
Te       3.95442563       2.89133100      22.94026877       0.01828893       0.01695491      -0.00650714
Te      -0.28216969       7.22672700      21.02169315      -0.00557710       0.01885284       0.07418983
Te       1.90351392       1.02958019      24.98141009      -0.03505565      -0.01868039      -0.00456120
Te       3.85756681       5.74072058      25.13239982       0.00430122       0.03327599       0.02951723
Te       6.16471125       0.60727689      24.73870931      -0.02801320      -0.03025535      -0.02777365
Te      -0.28951608       4.99862807      24.87445829       0.02031691       0.00438681      -0.00456135
Te       2.06476299       1.25256766      19.45416825      -0.00214841      -0.00264509       0.01449430
Te       4.22653405       4.99949546      19.21383285       0.01535357      -0.00023217       0.02971906
Te       6.36258205       0.84750411      19.90369084      -0.02957897      -0.02751031      -0.02467618
Te      -0.25726738       5.14742969      18.80440712       0.02034280      -0.00498402       0.00363741
Te       0.52008416       0.53716604      32.69460766       0.00367867      -0.01656376      -0.02706135
Te       2.76890965       3.61985817      31.99176869       0.01600945      -0.00892423      -0.01176671
Te       4.76107983      -0.25963279      31.94471496      -0.01659257      -0.02305595      -0.00066740
Te      -1.31610664       2.49957039      32.24696955       0.02824252      -0.01218419       0.00991683
Te       0.06795065       2.24797464      28.59611508       0.00133516       0.00007466      -0.01378192
Te       2.04933395       6.09959391      28.69298435       0.00297721       0.00241127      -0.00705198
Te       4.32697738       2.50651828      28.23752474       0.01301923      -0.00194520      -0.01202456
Te      -1.91278383       5.68697177      28.69494132      -0.00118210      -0.00501115       0.00754676
Sb       0.00501102       2.92955942      16.86668441       0.01097378      -0.00066718      -0.00163242
Sb       2.48615675       6.25023324      16.55151003      -0.00364272      -0.01462987       0.01091390
Sb       4.31151746       2.50759438      17.80565589      -0.00887340       0.00474478       0.01767321
Sb      -1.45219046       5.28316998      16.09732950       0.02973388       0.01200497       0.00137597
Sb       0.98142619      -0.23117182      27.36056573       0.00259661      -0.01017711       0.01240578
Sb       2.11387633       3.98234729      26.63434747       0.00911449       0.00502582      -0.00171669
Sb       3.96263667       0.00612687      26.73109350      -0.02153241      -0.00823590      -0.00877513
Sb       6.18766894       4.18612484      25.73831528      -0.01608938       0.02395145       0.01625152
Sb      11.72961217       7.81024734      19.67343075      -0.00559193       0.02230875      -0.03445416
Sb       1.78374856       3.95138689      21.10465564       0.00739598      -0.00560524       0.01093071
Sb       3.95671232       0.46680237      21.44745857      -0.00577675      -0.00604577       0.04080937
Sb      14.83583799       3.67834539      21.83778431      -0.05246188       0.04550647      -0.00901756
Sb       2.55141007       1.09638651      30.70597634       0.00288339      -0.00844539      -0.01589024
Sb       4.43404811       5.30502513      30.15136056       0.01224948       0.01775552      -0.00154424
Sb       6.69572256       0.62791935      30.09144675      -0.02088305       0.00422616       0.00835000
Sb       0.19599144       4.55326209      30.63474995       0.02256609      -0.00793174       0.00567585
Te       4.72522447       6.97569642      15.00230955      -0.00197988       0.01338592      -0.01951204
Te      10.97030812       3.06034942      16.26859610      -0.00094992       0.05462690      -0.02480259
Te       8.92543279       7.28294105      15.65185081      -0.02302833      -0.01883943      -0.00121136
Te       6.68753421       3.51838324      15.88665253      -0.03284681       0.03168418      -0.03872913
Te       8.42227331       3.00961946      23.24835364       0.00233868       0.02480633      -0.04044316
Te       9.96912468       7.30152238      21.79134481       0.03451536      -0.01263318      -0.01607994
Te      12.63896765       2.76909250      23.46452858       0.00010042      -0.02453869       0.07124033
Te       6.08975548       6.66064941      22.27876740       0.03023233      -0.03485061       0.00432622
Te      10.24662998      -0.69961815      24.69677453       0.10559574       0.07219597       0.02353127
Te      11.93588747       6.41617474      23.61364526      -0.07826000       0.01897415       0.01557459
Te      14.68141983      -0.70872941      24.67268066      -0.15696548      -0.01748981      -0.01899602
Te       7.79140632       6.40024058      24.70609746       0.05016923      -0.01041953      -0.01324887
Te      10.58960062       1.19439934      20.11722637       0.12992856      -0.05835301       0.10745707
Te      13.16968028       5.08401179      19.80138925      -0.01519107      -0.06029699       0.01570138
Te      15.20167085       1.15934965      20.69821592      -0.04643753      -0.07443212       0.04851056
Te       8.58541851       4.84401585      19.35831695       0.03926975      -0.03114611      -0.00766529
Te       8.97379629      -0.35995170      31.46003709       0.00479951      -0.02751328      -0.00194519
Te      10.92207811       3.32970295      30.89731168      -0.05631859      -0.00103608       0.06446655
Te      13.12982550      -0.30654680      30.48675799      -0.00748374       0.03535370       0.04130244
Te       6.89173292       3.31929515      31.06573327      -0.01713787       0.00348507       0.00908619
Te       8.70224490       2.64824483      27.43183257      -0.00139487      -0.01736666       0.03093090
Te      10.96487114       6.31725302      27.77644929      -0.00737523      -0.00249918      -0.00058781
Te      12.90363535       2.22205548      27.00422889       0.01329077       0.05014986      -0.05274529
Te       6.51515957       6.64817745      28.24345153       0.00423473       0.01392989       0.01221962
Sb       8.64336142       2.40125264      17.84073496      -0.01162754       0.02085863      -0.01894189
Sb      10.84079358       6.08637715      17.36326682       0.00115988      -0.01660927       0.00088968
Sb      13.13960556       2.65496739      18.07259106      -0.03966752       0.02391781      -0.07383313
Sb       6.64308499       6.13739888      17.00133253      -0.04889761       0.01768629      -0.06088491
Sb       8.12584164      -0.08488744      26.63938498       0.04492448      -0.00712429      -0.09666174
Sb      10.24115522       4.87027682      25.37938429       0.02363041      -0.02952671      -0.01503499
Sb      12.50989621      -0.72977794      26.46058069       0.05041407       0.04534681      -0.10543868
Sb      -1.88009215       3.65542879      26.86721676       0.00207108       0.01446717      -0.00854396
Sb       8.42213018       0.45966693      22.02425889       0.06953581       0.01857581      -0.06609560
Sb      10.68541624       3.85821307      21.37994822      -0.02378868       0.00004408      -0.01178292
Sb      13.06590480       0.12505006      22.44547991       0.01332254      -0.07238132       0.07075918
Sb       6.24898323       4.00171389      21.23807422       0.02257577      -0.00941772      -0.00717271
Sb      10.62518164       0.80968061      29.48822897      -0.01696971       0.01982040       0.01896597
Sb      12.95905118       4.20942500      29.21658165      -0.04434659      -0.02021938       0.06920143
Sb      14.63754775       1.65828447      29.23918783       0.01627780       0.03094568       0.06163071
Sb       8.81831989       5.47510661      29.58582691      -0.01890145       0.01688533       0.00141735
Cr       6.61209697       4.00509347      28.45328071       0.00522670       0.02304299       0.01562597
81
Properties=species:S:1:pos:R:3:forces:R:3 energy=-281.9575670535413 mlff_rel_energy_eV=-16.29482012390207 mlff_fmax_eV_A=0.023826864337113934 calculator_label=/data/pclancy3/yi/flare-data/1-Cr-Sb2Te3/3.fine-tuning/2-layer/MACE-omat/MACE-matpes-pbe-omat-ft.model neb_image=6 neb_protocol=mlff_pre_neb pbc="F F F"
Te      13.33822922       6.76187099      15.59652093      -0.00970544      -0.00408268      -0.00049859
Te       2.39867444       4.26735260      15.51330123       0.00114882       0.00438818       0.00324247
Te       0.58273465       7.85545812      15.05907279      -0.00251297      -0.00083617       0.00531928
Te      14.52318278       4.29653485      15.18372673       0.00431322       0.00507966       0.00304076
Te      -0.02339068       2.43714668      22.68397717       0.00389238       0.00072276       0.00149072
Te       2.04387095       6.26889765      22.66005320      -0.00229036      -0.00225438      -0.00246601
Te       4.15363586       2.45796074      22.51042174       0.00479071      -0.00215462      -0.00321580
Te      -1.07195124       6.88779440      26.62381961      -0.01918934      -0.00699660       0.00977945
Te       2.09584103       0.82104676      24.79276426      -0.00018588       0.00283080       0.00303202
Te       3.94328138       5.22805118      24.69296848      -0.00272373      -0.00217341       0.00095510
Te       6.33605421       0.94169999      24.80662739       0.00195359      -0.00178113       0.00027538
Te      -0.41516977       4.48765695      24.65070708      -0.00300406       0.00114061      -0.00024371
Te       2.05498870       1.40117600      18.83363109       0.00702255      -0.00388494      -0.00386534
Te       4.36474881       5.15407076      19.16718049       0.00828878       0.00306792      -0.00507693
Te       6.31273999       0.72701773      19.00001794       0.00152586      -0.00077874      -0.00377245
Te       0.10896719       5.80587297      19.07297905       0.00383132       0.00246420       0.00242945
Te       0.40276725       0.42010632      32.97871614       0.00095151       0.00462805       0.00198502
Te       2.49689029       3.78229115      31.89825890      -0.00072652       0.00359606       0.00090012
Te       4.55157396       0.06675476      32.73129488       0.00105997       0.00206829       0.00233959
Te      -1.43019368       2.32367282      32.23169423       0.00141305       0.00455896       0.00102698
Te       0.12442615       1.82292040      28.45851541      -0.00004571       0.00294514       0.00208134
Te       1.75008349       5.96204587      28.31086599      -0.00119204      -0.00244504      -0.00302561
Te       4.13800410       2.36711089      28.39982475      -0.00258210       0.00089639       0.00238428
Te      -2.47266569       5.07961482      28.08970827       0.00056524       0.00001708       0.00343335
Sb      -0.03176833       3.86246100      17.01403627       0.00624008       0.00010994       0.00379925
Sb       2.75217290       6.90021051      16.70782364       0.00020365       0.00235919       0.00377026
Sb       4.22127531       2.89767201      17.42567203       0.00332830       0.00132653      -0.00190587
Sb      -1.26778925       6.44576048      16.57395413      -0.00005221      -0.00445865       0.00181812
Sb       1.11650612      -0.59977807      27.05620978      -0.00155692       0.00423890       0.00251176
Sb       2.11500328       3.70772854      26.42370971      -0.00397404      -0.00150906      -0.00144442
Sb       3.98559133      -0.08083859      26.80784727      -0.00067093       0.00271533       0.00242705
Sb       6.24943239       3.75327083      25.94807951      -0.00593913      -0.00396503       0.00014353
Sb      12.13368728       7.23976892      19.77550143       0.01938535      -0.00346218       0.01341420
Sb       1.91191444       3.92824594      21.07739201       0.00252777      -0.00200124       0.00201814
Sb       3.94274736       0.30208736      20.64086007       0.00326746      -0.00290490      -0.00149151
Sb      15.07092154       3.00189473      20.87685233      -0.00040373      -0.00078499      -0.00691490
Sb       2.45336675       1.02689785      31.09060727       0.00113614       0.00306692       0.00279241
Sb       4.15189910       5.57025780      29.82316421      -0.00166175      -0.00049846      -0.00181447
Sb       6.50950799       0.80899012      30.80630426       0.00085028       0.00331289       0.00318424
Sb       0.03678172       4.16077038      30.50850434      -0.00086099       0.00307493       0.00128786
Te       4.92101854       7.62443262      15.06839055      -0.00332256      -0.00176388      -0.00014608
Te      10.78012365       3.40225714      15.50748449       0.00122932       0.00593248      -0.00737020
Te       9.06959724       7.72582804      15.75014641       0.00248041      -0.00359484      -0.00381766
Te       6.68457067       4.02847576      15.48741202      -0.00195581      -0.00055438      -0.00228927
Te       8.65553918       2.25052262      22.50687758       0.00571092      -0.00366190      -0.00738285
Te      10.81703219       6.16611705      22.08579790      -0.00087156       0.00184730       0.00019161
Te      12.98297562       2.03338166      22.69472751       0.00637014      -0.00180942      -0.00462437
Te       6.62060962       6.13020707      22.31774809       0.00700542      -0.00577197      -0.00346569
Te      10.57368083       0.62828637      24.99264408      -0.00040653      -0.00329074       0.00526928
Te      12.43558486       5.26602272      24.32728910      -0.00737485       0.00096241      -0.00118851
Te      14.66800844       0.59972241      25.54121007      -0.00486099      -0.00184770       0.00343774
Te       8.34148304       5.15223172      24.55173422      -0.00200582      -0.01338132      -0.00359206
Te      10.81915496       0.69347593      19.00627411       0.00126978       0.00760377      -0.00216638
Te      13.38020742       4.54844946      19.07280198      -0.00720988       0.00439865       0.00393327
Te      15.09031874       0.57258004      19.43145615       0.00158072      -0.00534896      -0.00886566
Te       8.76780007       4.70732298      19.07373780       0.00080942       0.00266946      -0.00171301
Te       8.75181908       0.26728282      32.47540144       0.00194979       0.00108841       0.00029753
Te      10.22430267       4.14245027      31.51604461      -0.00125095       0.00158286       0.00124073
Te      12.95767900       1.10407537      32.30245780      -0.00265788       0.00429360      -0.00147395
Te       6.39138541       3.59797234      31.33318679      -0.00232088       0.00406149       0.00176111
Te       8.49250400       2.40240103      28.25967772      -0.00426959      -0.00055154       0.00430754
Te      10.46760370       6.28717757      27.77856132      -0.00082126      -0.00102606      -0.00091385
Te      13.11831213       2.88228924      28.18222475       0.00367640       0.00286248       0.00201785
Te       6.06767145       6.53540277      27.78535517      -0.00111845      -0.00302489      -0.00394103
Sb       8.55225462       2.59113025      17.13777162       0.00337354       0.00516639      -0.00441520
Sb      10.97368925       6.15519274      17.14706983      -0.00414092      -0.00286087       0.00472969
Sb      13.09816442       2.51659850      16.86645602      -0.00222124       0.01316439       0.00844979
Sb       6.77443211       6.49150007      16.94417443       0.00171930      -0.00067700      -0.00264910
Sb       8.29159031       0.05159700      26.62834536      -0.00140615      -0.00008803       0.00414848
Sb      10.61912065       3.90058383      26.08874804      -0.00151305      -0.00225847       0.00166686
Sb      12.54786461       0.03122100      27.02421057      -0.00251974      -0.00664295       0.00436123
Sb      -1.84274932       2.79499682      26.53193643      -0.00195686       0.00262662       0.00184456
Sb       8.53446474       0.01221303      20.72925347      -0.00097437      -0.00164513      -0.00524680
Sb      10.87934731       3.38902992      20.78478280       0.00030740      -0.00107937      -0.00920571
Sb      12.80340769      -0.25837560      20.91666133       0.00195908       0.00087000      -0.00589350
Sb       6.40134459       3.73776679      20.88155385       0.00083303      -0.00483999      -0.00596313
Sb      10.58104963       1.39430159      30.64700318      -0.00189546       0.00114551      -0.00263183
Sb      12.43508479       5.04330970      30.01336296      -0.00214298       0.00209863      -0.00147363
Sb      14.40457544       2.92292076      30.81729497       0.00246882      -0.00843084      -0.00600889
Sb       8.32914359       5.76126406      29.61014244      -0.00003312      -0.00061687       0.00251275
Cr       6.32359486       3.99309357      28.66879767      -0.00191080       0.00075618       0.00112178
81
Properties=species:S:1:pos:R:3:forces:R:3 energy=-282.09794011397275 mlff_rel_energy_eV=-16.435193184333514 mlff_fmax_eV_A=0.09368429340050592 calculator_label=/data/pclancy3/yi/flare-data/1-Cr-Sb2Te3/3.fine-tuning/2-layer/MACE-omat/MACE-matpes-pbe-omat-ft.model neb_image=7 neb_protocol=mlff_pre_neb pbc="F F F"
Te      13.38111143       4.81653235      14.32574742      -0.00281325      -0.00232220      -0.01010633
Te       2.23796771       4.14089385      16.15875991      -0.00208623      -0.00308339      -0.00896490
Te       0.93424245       7.75747414      14.82079062      -0.00476983      -0.00331975      -0.00681106
Te      14.83796033       2.76042396      15.45380003       0.00197653      -0.00357634       0.01356431
Te       0.18894404       3.43522996      22.43111086      -0.00416458       0.00613873       0.01667629
Te       2.07666995       7.16961864      23.30181622       0.00247821       0.00207699      -0.00925561
Te       4.44789696       3.69081590      22.93882617      -0.00209512      -0.01814751      -0.00517278
Te      -4.15776904       5.60977256      26.80356816      -0.08818253      -0.02400566      -0.02059896
Te       2.06234301       1.36559196      24.51344863      -0.00931714      -0.00585132       0.02040042
Te       3.57020322       6.22872923      25.56441768       0.00232954      -0.01288709      -0.02050935
Te       6.38625708       1.25074929      24.56507491       0.01231830       0.00772393       0.03135450
Te      -0.46764580       5.00680098      24.75702246       0.01264442       0.00942820       0.00122143
Te       1.96210230       2.05180412      19.97164785      -0.00782663      -0.00205797      -0.00480906
Te       4.83402113       5.57310708      19.14015374      -0.00705567      -0.00760972      -0.00015652
Te       6.34174831       1.04872333      19.91476060      -0.00360391      -0.00607519       0.00088626
Te       0.66561456       7.03775966      19.26320456       0.00927978      -0.01059703      -0.01648224
Te       0.98385140      -1.04831618      32.60257658       0.00010652       0.02404751      -0.01489669
Te       2.49186791       2.75260294      32.03126859      -0.00132817       0.00150496      -0.01533893
Te       5.03124352      -0.74275841      32.09027634       0.00285815      -0.00440723      -0.01978316
Te      -1.16816764       0.44724875      31.76412757      -0.00427591       0.01358354      -0.01742108
Te       0.07605689       1.70865073      28.06448390      -0.00396928       0.02029192      -0.00317979
Te       1.24677402       5.51814090      29.04879906       0.00889631      -0.00499414       0.00537168
Te       3.99506360       2.38368675      28.24131972       0.00648268       0.00380007       0.00207036
Te      -1.92699555       5.21087321      28.62924636       0.00324886       0.00671257       0.01477024
Sb      -0.00395296       4.64349485      17.91538331       0.00518208      -0.01876069      -0.00423467
Sb       3.14193222       6.88491059      16.45034731      -0.01220724      -0.00356666       0.00071377
Sb       4.21715652       2.99556283      18.08471428      -0.00451648      -0.00850016      -0.00700707
Sb      -0.90375501       7.17705452      16.82124191      -0.00526626      -0.02301429      -0.01085244
Sb       1.11320845      -0.48565651      26.47783000      -0.00734380       0.01000023       0.02961185
Sb       1.77010839       3.91980719      26.63068604       0.00850467       0.00638733       0.00294609
Sb       4.01222725       0.18724340      26.31566504      -0.00665410      -0.01012700       0.01472240
Sb       5.87582712       4.13766337      26.00213997       0.01639758      -0.00062792       0.01525942
Sb      13.47619457       6.73357147      20.52078671       0.04495004      -0.03125568       0.04671382
Sb       2.31709512       5.09617926      21.36267052      -0.00538634      -0.00635543       0.00072059
Sb       3.97247165       1.13603719      21.80522868      -0.00657777      -0.01406820      -0.01457917
Sb      14.92613774       4.29920524      21.04055051      -0.00670804       0.03596842       0.01294533
Sb       2.74818865       0.18640510      30.75912042       0.00267005       0.00419218      -0.01946263
Sb       3.86785481       5.16734205      30.30899369       0.00622749      -0.00047476       0.01201792
Sb       6.63149240       0.61734242      30.16362221       0.01448914      -0.00220875       0.00278349
Sb      -0.05979185       2.96846862      30.80164757      -0.00251553       0.01311003      -0.01818711
Te       5.02035343       6.68832340      14.36895657      -0.01487871      -0.00031635      -0.00705748
Te      10.60878829       2.24422662      15.59032166      -0.00827997       0.00912484      -0.00190919
Te       9.11173920       6.04471470      14.27485273      -0.00611940      -0.00304987      -0.01444850
Te       6.44049323       3.10098748      15.81577974      -0.00838532      -0.00330998      -0.00723992
Te       8.97853149       3.01434798      22.91503183       0.00117954       0.00086121      -0.00276215
Te      11.03809623       6.45042411      21.90766454       0.00785560      -0.00621958       0.01158315
Te      13.28557132       2.75314653      22.83830190      -0.00232613       0.01376624      -0.00185674
Te       7.10121689       6.81184921      22.20528211      -0.00831841       0.00051778       0.00078144
Te      10.68592728       0.70642083      25.44776052       0.03686075       0.00421925      -0.01921430
Te      12.19650204       6.02934873      24.47028211      -0.01593480       0.00507318       0.02229727
Te      14.52609100       0.62413036      25.84957531      -0.00680532      -0.01303535      -0.02042949
Te       7.79084140       6.12361828      24.85170974       0.00388553      -0.00099789       0.00578753
Te      10.80907396       0.60892996      19.79853475       0.00271633       0.01074747       0.00339256
Te      13.30936602       4.30394415      18.67401607       0.00263164      -0.00457916       0.00446502
Te      15.21199396       0.72242560      19.40968809      -0.00550404       0.01760183      -0.01305415
Te       8.99760618       4.71058826      18.85801863       0.00298209       0.00190574      -0.00406546
Te       9.09152632      -0.11817592      31.35017895       0.01180397      -0.01433957       0.00123463
Te      10.20252639       4.17544178      31.15091800       0.00462638      -0.01265322       0.02824145
Te      12.96739414       1.62233901      31.45644186      -0.00473719      -0.04732958      -0.03275449
Te       6.35816626       3.20031692      31.34101420       0.01631636       0.00147085       0.00085272
Te       8.27532640       2.79202387      27.87516887       0.00227566       0.01857738       0.00423270
Te       9.91275234       6.59781769      27.79569811       0.00140941       0.01924426       0.02774059
Te      12.93492183       3.81510025      27.50702471       0.02298623       0.00607028       0.01243385
Te       5.36525491       6.56364094      28.20680097       0.01426695       0.00600462       0.01294566
Sb       8.54303790       2.13622237      17.60211340      -0.00614930       0.00622251      -0.00595583
Sb      11.07284311       4.99858512      16.04766866      -0.00644297      -0.00149670      -0.01065701
Sb      13.15014999       1.55569042      17.43404695       0.00442354      -0.00874250       0.00838564
Sb       7.03854487       5.86486213      16.21683787      -0.01020806       0.00176549      -0.01222436
Sb       8.12610527       0.22120718      26.57429319       0.05439452       0.01352164       0.00116843
Sb      10.18329804       4.41308593      25.72178892      -0.00398850       0.01815532       0.01364212
Sb      12.52505532      -0.38259952      27.44625860       0.01328121       0.01002748       0.00941941
Sb      -2.30889400       3.52194876      26.39994400      -0.01524608       0.03399204      -0.00468723
Sb       8.51103004       0.45886209      21.76366357       0.00205684       0.00593200      -0.00454216
Sb      11.02634144       3.54805115      20.74482573      -0.00248128       0.00257219       0.00805928
Sb      13.33262008       0.25543765      21.39367777       0.00790313       0.01782968      -0.00344760
Sb       6.76887546       4.23489323      20.99858265      -0.00239263       0.00725283      -0.00230653
Sb      10.69481201       1.56587548      29.74609018      -0.01905145       0.00616177       0.00506578
Sb      12.06155008       5.62457212      29.51496100      -0.00863089      -0.00108013       0.00120759
Sb      14.23857070       1.62553408      28.86745697       0.00040161      -0.08003945      -0.04063726
Sb       8.05639736       5.70388270      29.89361907      -0.01773701       0.01559769       0.02260408
Cr       6.06977854       4.05468088      28.80703621      -0.00301640       0.00590123       0.00676834
81
Properties=species:S:1:pos:R:3:forces:R:3 energy=-281.86265654182125 mlff_rel_energy_eV=-16.19990961218201 mlff_fmax_eV_A=0.07233940555191636 calculator_label=/data/pclancy3/yi/flare-data/1-Cr-Sb2Te3/3.fine-tuning/2-layer/MACE-omat/MACE-matpes-pbe-omat-ft.model neb_image=8 neb_protocol=mlff_pre_neb pbc="F F F"
Te      12.92557655       6.36373879      14.50053511       0.02298556       0.00992545      -0.01830281
Te       2.16378875       3.89586352      15.82555604       0.00555379       0.00104306      -0.00291812
Te       0.29979798       7.40516480      15.13842278       0.02941452       0.00151702       0.00569908
Te      14.65132501       4.32803264      15.18982361       0.01274377      -0.01467817       0.01098469
Te       0.08003348       2.66160454      22.81581693      -0.00980694       0.00597825      -0.00337995
Te       2.34824889       6.44643470      22.68021645      -0.00123221       0.00142808       0.00201017
Te       4.33974955       2.64517997      22.69859075       0.00354558       0.02412448       0.00795013
Te      -4.24258137       5.62427537      26.06654370       0.00282570      -0.01790063      -0.07003265
Te       2.20996584       0.84477212      24.89781487      -0.00127141       0.00503636      -0.01041160
Te       4.10683476       5.50283522      24.79373055       0.00059653       0.00671268       0.00712158
Te       6.50108041       1.08379413      24.90083089      -0.00015941      -0.00056245       0.00089935
Te      -0.21766030       4.80799477      24.53056490       0.00151275       0.00364821       0.01098561
Te       2.03895466       1.30710627      19.36257742       0.01529658       0.00588426       0.00732183
Te       4.43852072       5.12955253      19.18901690      -0.00490455       0.00912759       0.00387557
Te       6.40601331       0.70927788      19.20763296      -0.01687106       0.03161417      -0.00534689
Te       0.10212297       5.79068871      19.33850792       0.00313390      -0.00409663      -0.00604599
Te       0.27761604       0.62507395      32.63201512      -0.00150730      -0.02203019      -0.00927844
Te       2.39623955       3.82105428      31.72191059       0.00494613      -0.01700751       0.00956661
Te       4.31503494       0.03552317      32.46878489       0.01152326      -0.00745108      -0.00512595
Te      -1.63224995       2.38533837      31.76672779      -0.00128516       0.00345509       0.02288313
Te       0.14257183       2.21513960      28.18009555       0.00508000      -0.01029422       0.01324660
Te       1.77565069       6.11596933      28.21397541      -0.01444171      -0.00484003       0.01139305
Te       4.17371489       2.52608734      28.33176446       0.00352991       0.00348719       0.00540833
Te      -2.33990371       5.62064698      28.22454582       0.04128380       0.03308537       0.02828692
Sb      -0.15203192       3.62793632      17.51860088      -0.00703008       0.00676581       0.00534252
Sb       2.58739147       6.62467287      16.73396457      -0.02725548       0.00434204      -0.00590880
Sb       4.15904051       2.71162936      17.68438615       0.01376960       0.00420314      -0.00329934
Sb      -1.44511986       6.14586348      16.87890185      -0.02471629      -0.00562992       0.00232837
Sb       1.30249785      -0.39570135      27.31494149      -0.02120946       0.00282118      -0.00433751
Sb       2.13767129       3.85011255      26.37260831      -0.01277029      -0.00552097      -0.00616125
Sb       4.17587304       0.01944625      26.84816336      -0.01489037      -0.00731850      -0.00369160
Sb       6.34655066       3.91760895      26.05117866      -0.00671890       0.00426598      -0.00072876
Sb      13.69219573       6.75486212      21.23076564       0.00911935       0.01187041      -0.00260014
Sb       2.13208846       4.03343312      21.16071551       0.00240669       0.00251663      -0.00672455
Sb       4.13648279       0.34711566      21.02810926      -0.01210015      -0.00441988      -0.00043109
Sb      14.98800723       4.20929946      20.93598865      -0.01818890      -0.00130940      -0.02001483
Sb       2.34694837       1.10395185      30.70429807      -0.00306690      -0.00577359       0.00560572
Sb       4.02020926       5.58938100      29.90884238      -0.00004673      -0.01041651       0.01032600
Sb       6.41877748       0.82267212      30.72067554       0.00573644       0.00600068      -0.00780803
Sb      -0.06425718       4.31833368      30.22916710      -0.02246627       0.00436143       0.00234276
Te       4.56319069       7.17631111      14.80709244       0.01069013      -0.00601804       0.01438395
Te      10.56721448       3.31403545      15.33190996      -0.00765044      -0.00437691      -0.02527054
Te       8.69172704       7.12626945      14.82814272       0.04622471      -0.00114893      -0.02326455
Te       6.39191325       3.62520707      15.58017872       0.00325254      -0.00617085      -0.00212666
Te       8.82622196       2.38793356      22.56489516      -0.00738723      -0.01358370       0.01118008
Te      11.40020123       6.08216388      22.72011860      -0.04669957       0.00756116       0.00037564
Te      13.35718049       2.39312775      22.50346644      -0.00898651      -0.00192520      -0.01602876
Te       6.97448143       6.22128815      22.35649154      -0.00389796       0.01428935      -0.01158493
Te      10.79088155       0.99770011      25.12870926      -0.00679976      -0.01166295       0.00269036
Te      12.77691461       5.11058279      24.97184021       0.00265651      -0.00069589       0.00774783
Te      14.77753786       0.14646557      25.60605893       0.00885302       0.01334749      -0.00562307
Te       8.53697825       5.20944058      24.69126169      -0.01491144       0.01001657       0.01243233
Te      10.99677267       0.97407608      19.05878095       0.00775681      -0.01309249      -0.00530679
Te      13.13212374       4.89207601      18.83372285       0.01106559      -0.00625789       0.01240341
Te      15.33951618       1.38291878      18.68560435       0.00489308      -0.01268398       0.01324510
Te       8.79203817       4.88383623      18.96206395      -0.00343715       0.00447622      -0.00552872
Te       8.63574233       0.15423600      32.36042098       0.00329803       0.00001034      -0.00378016
Te      10.36168917       3.90533286      31.78566091      -0.00150724       0.00715833       0.00105091
Te      12.80544682       0.19192929      31.94599258       0.00507976       0.00254832       0.00017225
Te       6.26981874       3.58877196      31.42094259       0.00058740       0.00820274       0.00348096
Te       8.44871130       2.53272735      28.39194548      -0.00531232       0.00994789      -0.01139533
Te      10.46994288       6.34236646      28.22797948      -0.01183884      -0.00263628      -0.00195951
Te      13.03060054       2.91753299      28.37191119      -0.00901450       0.00295979      -0.00201161
Te       6.31051476       6.67475067      27.96744350      -0.00634005       0.00006633       0.02065288
Sb       8.54515406       2.58704819      17.23994220      -0.00159343      -0.01692355      -0.01384112
Sb      10.77335500       5.94976449      16.36616015      -0.02757521       0.01640930       0.00848606
Sb      13.17789281       2.57908129      16.93369149      -0.01469428      -0.01889291      -0.00569645
Sb       6.62168628       6.28360906      16.59167885      -0.02960604      -0.01110745       0.00618449
Sb       8.52184684       0.22866795      26.66070813       0.00261895       0.00237108      -0.00439247
Sb      10.59438128       3.85857349      26.40016879       0.02846583       0.00208377       0.00963238
Sb      12.74154491      -0.14879062      27.23604249      -0.00136196      -0.01177385      -0.01757928
Sb      -2.22664958       3.62612172      26.24905042      -0.00861363      -0.00115032       0.01135383
Sb       8.75998221       0.14099619      20.81204667       0.01201172      -0.00961042       0.01163422
Sb      10.94785847       3.62350816      20.73674182       0.04566050      -0.00319237       0.00751367
Sb      13.53627541       0.31789778      20.49954179      -0.00093777       0.00632245      -0.00292364
Sb       6.58648166       3.84303776      20.94484988       0.02137265      -0.01824425      -0.01071542
Sb      10.50698569       1.29969759      30.56548365      -0.00238522       0.00435294      -0.00105994
Sb      12.27557535       5.13168146      30.12580948       0.00221118       0.00171106      -0.00702953
Sb      14.31404486       0.66035830      29.69824183       0.01792161       0.02380418       0.01660596
Sb       8.19378722       5.81825073      29.96964193       0.00490617      -0.01159614       0.00659896
Cr       6.28340765       4.13240122      28.78263345       0.00796003      -0.00885980       0.01826348
81
Properties=species:S:1:pos:R:3:forces:R:3 energy=-265.8685077255292 mlff_rel_energy_eV=-0.2057607958899439 mlff_fmax_eV_A=2.3463403146914286 calculator_label=/data/pclancy3/yi/flare-data/1-Cr-Sb2Te3/3.fine-tuning/2-layer/MACE-omat/MACE-matpes-pbe-omat-ft.model neb_image=9 neb_protocol=mlff_pre_neb pbc="F F F"
Te      12.87157687       7.42217671      15.00617687      -1.00744988      -0.78051004       0.86772096
Te       2.17458185       3.72160114      15.00697263      -0.61628659       0.02701422       0.44310885
Te       0.04114347       7.42144522      15.00697282      -0.98939842      -0.86154362       1.07950295
Te      15.00706279       3.72087826      15.00213002      -1.22773767      -0.52849861       0.98194462
Te       0.04666273       2.49034838      22.29458754       0.84108363       0.49764991      -0.14288467
Te       2.18944919       6.19519240      22.27759518       0.18895668      -0.82996324      -0.16710334
Te       4.33184804       2.49787910      22.29506519       0.09665905      -0.93659678      -0.01110086
Te      -2.09042326       6.19651682      22.29458767       0.51426272      -0.26595737       0.29615976
Te       2.18202680       1.25822893      25.03949063      -0.31933879      -1.11176483       0.28567511
Te       4.31597977       4.99515492      25.05769849      -0.04446187      -0.24024898      -0.24314084
Te       6.48524026       1.23318852      25.05769802      -0.15890367      -0.89666359       0.17726917
Te       0.03415406       4.95238632      25.15504481      -0.76966313      -0.56192566      -0.22619800
Te       2.17947710       1.25675569      18.63864106      -0.05030910      -0.40904395      -0.15575690
Te       4.31983453       4.95451511      18.64316692       0.10751342      -0.50241574      -0.26288509
Te       6.45200223       1.25687539      18.64316686      -0.04492801      -1.18508406       0.59457524
Te       0.04288849       4.95741887      18.64588483      -1.12344568      -0.33985383      -0.89457483
Te       0.06406485       0.03693432      32.37631545       1.10216986       0.80486874      -0.87525996
Te       2.16667524       3.71515372      32.43921473       0.17798821      -0.53246449      -0.39433021
Te       4.30077170       0.01417341      32.43921281       0.01992567       0.50298190      -0.73392619
Te      -2.08008318       3.73323861      32.39012612       1.03637104       0.31994405      -0.74883347
Te       0.08641175       2.49528926      28.74688081      -0.86370700      -0.45308280      -0.65815177
Te       2.10711295       6.14771769      28.62091627       0.41283612      -0.62412973       0.47507831
Te       4.42800208       2.55332995      28.80417948       0.06219472      -0.15240439      -0.14048715
Te      -2.06623986       6.22845118      28.74688159       0.22094374      -1.53338860      -0.71538485
Sb       0.04072452       2.48963495      16.69593693       1.00421013       1.10212074       0.62378555
Sb       2.18538446       6.19285483      16.69777378       0.09081151       0.34789116      -0.78051846
Sb       4.32123349       2.49176555      16.69732804      -0.20717828       0.47240216       0.58372970
Sb      -2.09402192       6.19174802      16.69593728       2.02710071       0.25984038      -0.47661858
Sb       0.07618909       0.04393271      26.80062550       0.73594414       1.00898985      -0.00515072
Sb       2.18431358       3.72316747      26.79189472       0.10944688       1.23763054       0.11119127
Sb       4.31653497       0.02543512      26.79189460      -0.17594049       0.94706148      -0.47013158
Sb       6.48216241       3.73782853      26.65892885      -0.01996354       1.31616316      -0.27038286
Sb      12.88179549       7.42806056      20.58470482      -1.08521273      -1.25216480       0.34667104
Sb       2.18145176       3.72239077      20.58858534      -1.02830240       0.35137336       1.36427697
Sb       4.31443399       0.02333967      20.58858536       0.04312479       1.32794554      -0.19446729
Sb      15.02033871       3.72852402      20.59702721      -0.81531021      -0.67332540      -0.76294340
Sb       2.22762545       1.28451734      30.71618926      -0.66297179      -0.95554423       1.91775663
Sb       4.18853597       5.06426106      30.73943348      -0.63353875       0.53960305      -0.21286217
Sb       6.48121524       1.08826131      30.73942961      -0.09382483      -1.18640867       1.13264689
Sb       0.04184769       4.95681576      30.71174599      -1.42152567      -0.08096101       0.03636661
Te       4.31643999       7.42169374      15.00812113       0.03031782      -0.50741132       0.55492689
Te      10.72732786       3.72100726      15.00564086      -0.18338300       0.34471365       0.43637292
Te       8.59415175       7.42039667      15.00564103       0.00917559      -0.58439893       0.76267388
Te       6.44888411       3.71864112      15.00407875       0.11007679       0.39278035       0.20119688
Te       8.61581047       2.49773207      22.28159919       0.03830834      -0.89902222       0.25473487
Te      10.75330998       6.20070470      22.27960782       1.09525001       0.41879246      -0.60986845
Te      12.87925806       2.49390549      22.28241397       0.71567923      -0.37093324       0.17135935
Te       6.47770280       6.20567126      22.28159900       0.00478827      -1.03662457      -0.19115916
Te      10.73685619       1.25853666      25.11622137      -0.22604696      -1.00115859       0.39165614
Te      12.86455024       4.93908807      25.13151657      -0.96007099      -0.58036703       0.26388489
Te      14.98814589       1.25631264      25.13151720      -1.36727590      -0.69500363       0.96945645
Te       8.64097691       4.98267405      25.05043071      -0.19627016      -0.36774921       0.14828340
Te      10.72978956       1.25445591      18.63373624      -0.05873931      -1.04043834       0.78152729
Te      12.87696647       4.95836159      18.63548753       0.82419068       0.02886635       0.75661662
Te      15.01105104       1.25739802      18.63548748      -0.44908034       0.27985379       1.30859577
Te       8.59778942       4.95776506      18.63669408      -0.00253873      -0.64306321       0.06072757
Te       8.65512578       0.05813637      32.50780820      -0.02793892       0.45318007      -0.59686531
Te      10.77003837       3.72548473      32.41850830       0.73413596      -0.15344063      -0.47093434
Te      12.88858690       0.05146311      32.41850797       0.87273685       0.82501186      -1.13291405
Te       6.44722645       3.71767564      32.90844542       0.06040564       0.10387637       0.74255478
Te       8.51854513       2.53004912      28.81482817       0.04473631      -0.04742383       0.05305220
Te      10.85252914       6.25792368      28.68541018       0.38174450      -0.88785579       0.97458095
Te      12.85478979       2.47980212      28.76413288       1.12801919      -0.29817817       0.51131036
Te       6.45694387       6.10530681      28.81482881       0.08471250      -0.69277325       0.20016799
Sb       8.59556835       2.49227930      16.69863730       0.06250299       0.87909693       0.00750948
Sb      10.73783782       6.19178945      16.70595417       0.43325743       0.97537999      -1.97048769
Sb      12.87297979       2.49029224      16.69322275       1.47100501       0.86360978      -1.04291417
Sb       6.46283953       6.19089341      16.69863774      -0.02385916       0.47156382      -1.24244682
Sb       8.56997989       0.00904242      26.77318849       0.12698208       0.83207250      -0.44380699
Sb      10.74858135       3.74525641      26.79526627       0.53379104       1.50376547      -0.87966969
Sb      12.89494427       0.02299877      26.79526728       0.95475715       1.31717527      -1.14128614
Sb      -2.11095969       3.71544188      26.86364405       1.39362433       1.69070023       0.83943841
Sb       8.60156081       0.02724702      20.58215592       0.03348947       1.20285198      -0.18829439
Sb      10.74541227       3.72786343      20.58223837      -0.07617635       0.58856461      -0.40657843
Sb      12.87830993       0.02895871      20.58223840       0.24923342       1.15338998      -0.66309923
Sb       6.46343510       3.72702395      20.59183165      -0.05138737       1.36463001       0.39718999
Sb      10.71819098       1.24776777      30.75594527      -0.06952463      -0.41457843       0.86086981
Sb      12.89031600       4.97019604      30.69840605      -1.36715344      -0.24763804      -0.66188494
Sb      15.02798130       1.26302094      30.69840436      -1.92769238      -0.26467579       0.46575164
Sb       8.74942679       5.04520355      30.69013389       0.12858818       0.57534395      -0.27029143
Cr       6.45455496       3.72190255      30.53031390       0.03348433       0.29797897      -1.97630375
