61
Lattice="8.42843558953 0 0 -4.21421779477 7.29923593142 0 0 0 31.0334408416" Properties=species:S:1:pos:R:3:forces:R:3 energy=-133597.150023 ionic_step=0 pbc="T T T"
Te 2.1071095967 1.2148895271 3.5264900038 -2.57110337382e-07 0.000600609748123 -0.0194606814364
Te 4.215647432 4.8669841886 3.5264900038 -0.000520134212523 -0.000300304874062 -0.0194606814364
Te 6.3213260584 1.2165402929 3.5215638737 2.57110337382e-07 0 -0.0203402559006
Te -0.0014296045 4.8669849772 3.5264900154 0.000520134212523 -0.000300561984399 -0.0194606814364
Te -0.0118059971 0.0068161988 6.8185749457 0.00426468916615 -0.00246183148043 0.0209084697462
Te 2.1071084831 3.6496199444 6.8338646783 2.57110337382e-07 -5.14220674763e-07 0.0200983150731
Te 4.2260238246 0.0068157015 6.8185747569 -0.00426468916615 -0.00246183148043 0.0209087268565
Te -2.1071084831 3.6359875468 6.8185747569 -2.57110337382e-07 0.0049239200712 0.0209087268565
Te -0 -0 -0 0 2.57110337382e-07 -2.57110337382e-07
Te 2.1071089138 3.6496196957 0 -0 -2.57110337382e-07 -2.57110337382e-07
Te 4.2142178275 -0 -0 -0 2.57110337382e-07 -2.57110337382e-07
Te -2.1071089138 3.6496196957 -0 0 -2.57110337382e-07 -2.57110337382e-07
Te 0.0400185229 2.4561847637 13.9481197326 -0.0261620052699 -0.0151044609902 -0.0350968466043
Te 2.1071086966 6.036489936 13.9481197326 0 0.0302089219803 -0.0350968466043
Te 4.1741993046 2.4561845129 13.948120121 0.0261620052699 -0.0151042038798 -0.0350971037146
Te -2.1071086966 6.0826993675 13.8856725974 -0 -2.57110337382e-07 -0.00941795165829
Te 2.107109131 1.2627494555 17.0853174928 -0 -0.0302089219803 0.0350968466043
Te 4.1741993046 4.8430546277 17.0853174928 0.0261620052699 0.0151044609902 0.0350968466043
Te 6.3213265241 1.216540024 17.147764628 0 2.57110337382e-07 0.00941795165829
Te 0.0400185229 4.8430548785 17.0853171044 -0.0261620052699 0.0151044609902 0.0350971037146
Te 2.1071086782 1.2079462303 10.3617263364 0 0.00666789948966 0.0115211142181
Te 4.2216600413 4.8704566324 10.3617263364 -0.00577444106725 -0.00333420685516 0.0115213713284
Te 6.3213269768 1.2165397626 10.3512614332 -0 2.57110337382e-07 0.0165702470236
Te -0.0074422138 4.8704563604 10.3617267597 0.00577444106725 -0.00333420685516 0.0115213713284
Te 0.0118059971 -0.0068161988 24.2148622797 -0.00426468916615 0.0024623457011 -0.0209087268565
Te 2.1071093444 3.6496194471 24.1995725471 -2.57110337382e-07 -2.57110337382e-07 -0.0200983150731
Te 4.2024118304 -0.0068157015 24.2148624685 0.00426468916615 0.0024623457011 -0.0209087268565
Te -2.1071093444 3.6632518447 24.2148624685 2.57110337382e-07 -0.00492469140221 -0.0209087268565
Te -0.0014296045 2.4322552028 27.5069472216 0.000520134212523 0.000300304874062 0.0194611956571
Te 2.1071082308 6.0843498644 27.5069472216 2.57110337382e-07 -0.000600609748123 0.0194611956571
Te 4.215647432 2.4322544142 27.50694721 -0.000520134212523 0.000300561984399 0.0194611956571
Te -2.1071082308 6.0826990986 27.5118733517 -2.57110337382e-07 -0 0.0203407701213
Te -0.0074422138 2.428782759 20.671710889 0.00577444106725 0.00333420685516 -0.0115211142181
Te 2.1071091493 6.0912931612 20.671710889 -0 -0.00666789948966 -0.0115213713284
Te 4.2216600413 2.428783031 20.6717104657 -0.00577444106725 0.00333420685516 -0.0115211142181
Te -2.1071091493 6.0826996289 20.6821757922 0 -2.57110337382e-07 -0.0165705041339
Sb -0.0202583216 2.4213819524 8.4217251165 0.00311077797198 0.00179642992729 -0.00531267090132
Sb 2.1071103789 6.1060926446 8.4217251165 -2.57110337382e-07 -0.00359208852356 -0.00531267090132
Sb 4.2344761491 2.4213836442 8.4217255058 -0.00311077797198 0.00179617281695 -0.00531267090132
Sb -2.1071103789 6.0827003388 8.3890635209 2.57110337382e-07 -0 -0.0118227046438
Sb -0.0002276144 2.4329458112 1.9216684863 -8.38179699864e-05 -4.80796330904e-05 0.00913307340447
Sb 2.1071111417 6.0829636058 1.9216684863 -2.57110337382e-07 9.66734868555e-05 0.00913307340447
Sb 4.2144454419 2.4329483838 1.9216687744 8.38179699864e-05 -4.83367434277e-05 0.00913281629413
Sb -2.1071111417 6.0827007792 1.9202916988 2.57110337382e-07 -2.57110337382e-07 0.00902225884906
Sb -0.0429447671 0.0247941844 18.7526419899 0.00358488943411 -0.00206973821592 -0.019118210467
Sb 2.107108188 3.6496201148 18.7028080681 0 -2.57110337382e-07 0.00203322854801
Sb 4.2571625946 0.0247933463 18.752642235 -0.00358488943411 -0.00206948110558 -0.019118210467
Sb 6.3213274671 3.600031746 18.752642235 -0 0.00413921932151 -0.0191179533567
Sb 0.0429447671 -0.0247941844 12.2807952355 -0.00358488943411 0.00206973821592 0.019118210467
Sb 2.1071096396 3.6496192767 12.3306291573 -0 -0 -0.00203322854801
Sb 4.1712730604 -0.0247933463 12.2807949904 0.00358488943411 0.00206973821592 0.019118210467
Sb -2.1071096396 3.6992076455 12.2807949904 0 -0.00413947643184 0.0191179533567
Sb 2.1071066858 1.2162757857 29.1117687391 2.57110337382e-07 -9.66734868555e-05 -0.00913307340447
Sb 4.2144454419 4.8662935803 29.1117687391 8.38179699864e-05 4.80796330904e-05 -0.00913307340447
Sb 6.3213289693 1.2165386123 29.1131455266 -2.57110337382e-07 2.57110337382e-07 -0.0090225159594
Sb -0.0002276144 4.8662910076 29.111768451 -8.38179699864e-05 4.83367434277e-05 -0.00913281629413
Sb 2.1071074486 1.1931467469 22.6117121089 2.57110337382e-07 0.00359208852356 0.00531267090132
Sb 4.2344761491 4.877857439 22.6117121089 -0.00311077797198 -0.00179617281695 0.00531267090132
Sb 6.3213282064 1.2165390527 22.6443737045 -2.57110337382e-07 2.57110337382e-07 0.0118227046438
Sb -0.0202583216 4.8778557472 22.6117117197 0.00311077797198 -0.00179617281695 0.00531267090132
Cr 2.1071089138 3.6496196957 15.5167186127 0 0 0
61
Lattice="8.42843558953 0 0 -4.21421779477 7.29923593142 0 0 0 31.0334408416" Properties=species:S:1:pos:R:3:forces:R:3 energy=-133597.176067 ionic_step=1 pbc="T T T"
Te 2.1071095967 1.2148205526 3.522124321 -2.57110337382e-07 0.000663087560107 -0.0185176007189
Te 4.2157071656 4.8670186759 3.522124321 -0.000574127383373 -0.000331672335222 -0.0185176007189
Te 6.3213260584 1.2165402929 3.5168470229 2.57110337382e-07 0 -0.0195689248885
Te -0.0014893381 4.8670194645 3.5221243326 0.000574127383373 -0.00033192944556 -0.0185176007189
Te -0.0129530333 0.0074784408 6.8228627307 0.00463338538995 -0.00267471883978 0.0202078440768
Te 2.1071084831 3.6496199444 6.8403025236 2.57110337382e-07 -5.14220674763e-07 0.019118210467
Te 4.2271708608 0.0074779435 6.8228625419 -0.00463338538995 -0.00267446172944 0.0202078440768
Te -2.1071084831 3.6346630628 6.8228625419 -2.57110337382e-07 0.0053496947899 0.0202078440768
Te 0 0 0 0 2.57110337382e-07 -2.57110337382e-07
Te 2.1071089138 3.6496196957 0 -0 -2.57110337382e-07 -2.57110337382e-07
Te 4.2142178275 -0 0 -0 2.57110337382e-07 -2.57110337382e-07
Te -2.1071089138 3.6496196957 0 0 -2.57110337382e-07 -2.57110337382e-07
Te 0.0409468834 2.4567207531 13.9480792444 -0.026418087166 -0.0152522994342 -0.0349135269337
Te 2.1071086966 6.0354179572 13.9480792444 0 0.0305045988683 -0.0349135269337
Te 4.1732709441 2.4567205023 13.9480796328 0.026418087166 -0.0152522994342 -0.0349137840441
Te -2.1071086966 6.0826993675 13.8855292426 -0 -2.57110337382e-07 -0.00912278899097
Te 2.107109131 1.2638214343 17.085357981 -0 -0.0305045988683 0.0349135269337
Te 4.1732709441 4.8425186383 17.085357981 0.026418087166 0.0152522994342 0.0349135269337
Te 6.3213265241 1.216540024 17.1479079828 0 2.57110337382e-07 0.00912278899097
Te 0.0409468834 4.8425188891 17.0853575926 -0.026418087166 0.0152522994342 0.0349137840441
Te 2.1071086782 1.207338882 10.3634686805 0 0.00676662985921 0.011748913977
Te 4.2221860201 4.8707603066 10.3634686805 -0.00585980169926 -0.00338357203994 0.0117491710873
Te 6.3213269768 1.2165397626 10.3533934975 -0 2.57110337382e-07 0.0168998624761
Te -0.0079681926 4.8707600346 10.3634691038 0.00585980169926 -0.0033833149296 0.011748913977
Te 0.0129530333 -0.0074784408 24.2105744947 -0.00463338538995 0.00267523306046 -0.0202078440768
Te 2.1071093444 3.6496194471 24.1931347018 -2.57110337382e-07 -2.57110337382e-07 -0.019118210467
Te 4.2012647942 -0.0074779435 24.2105746835 0.00463338538995 0.00267497595012 -0.0202078440768
Te -2.1071093444 3.6645763287 24.2105746835 2.57110337382e-07 -0.00535020901057 -0.0202081011872
Te -0.0014893381 2.4322207155 27.5113129044 0.000574127383373 0.000331415224885 0.0185178578292
Te 2.1071082308 6.0844188389 27.5113129044 2.57110337382e-07 -0.000663087560107 0.0185178578292
Te 4.2157071656 2.4322199269 27.5113128928 -0.000574127383373 0.000331672335222 0.0185181149396
Te -2.1071082308 6.0826990986 27.5165902025 -2.57110337382e-07 -0 0.0195691819988
Te -0.0079681926 2.4284790848 20.6699685449 0.00585980169926 0.00338357203994 -0.011748913977
Te 2.1071091493 6.0919005095 20.6699685449 -0 -0.00676662985921 -0.011748913977
Te 4.2221860201 2.4284793568 20.6699681216 -0.00585980169926 0.0033833149296 -0.011748913977
Te -2.1071091493 6.0826996289 20.6800437279 0 -2.57110337382e-07 -0.0169001195864
Sb -0.0212545732 2.420806766 8.4247316695 0.00323187694089 0.00186610682872 -0.00537206338925
Sb 2.1071103789 6.1072430174 8.4247316695 -2.57110337382e-07 -0.00373195654709 -0.00537232049959
Sb 4.2354724007 2.4208084578 8.4247320588 -0.00323187694089 0.00186610682872 -0.00537232049959
Sb -2.1071103789 6.0827003388 8.3901670625 2.57110337382e-07 -0 -0.0119522882539
Sb -0.0002008298 2.4329612753 1.9186422715 -9.59021558433e-05 -5.50216121997e-05 0.00934570365348
Sb 2.1071111417 6.0829326776 1.9186422715 -2.57110337382e-07 0.000110557445074 0.00934596076382
Sb 4.2144186573 2.4329638479 1.9186425596 9.59021558433e-05 -5.52787225371e-05 0.00934570365348
Sb -2.1071111417 6.0827007792 1.9172422434 2.57110337382e-07 -2.57110337382e-07 0.00922383335357
Sb -0.0436194497 0.0251837128 18.753482395 0.00361651400561 -0.00208799304988 -0.0192228543743
Sb 2.107108188 3.6496201148 18.7028933606 0 -2.57110337382e-07 0.00193398395778
Sb 4.2578372772 0.0251828747 18.7534826401 -0.00361651400561 -0.00208773593954 -0.019222597264
Sb 6.3213274671 3.5992526892 18.7534826401 -0 0.00417572898942 -0.019222597264
Sb 0.0436194497 -0.0251837128 12.2799548304 -0.00361651400561 0.00208799304988 0.0192228543743
Sb 2.1071096396 3.6496192767 12.3305438648 -0 -0 -0.00193398395778
Sb 4.1705983778 -0.0251828747 12.2799545853 0.00361651400561 0.00208799304988 0.019222597264
Sb -2.1071096396 3.6999867023 12.2799545853 0 -0.00417598609975 0.019222597264
Sb 2.1071066858 1.2163067139 29.1147949539 2.57110337382e-07 -0.000110557445074 -0.00934596076382
Sb 4.2144186573 4.8662781162 29.1147949539 9.59021558433e-05 5.50216121997e-05 -0.00934596076382
Sb 6.3213289693 1.2165386123 29.116194982 -2.57110337382e-07 2.57110337382e-07 -0.00922383335357
Sb -0.0002008298 4.8662755435 29.1147946658 -9.59021558433e-05 5.52787225371e-05 -0.00934570365348
Sb 2.1071074486 1.1919963741 22.6087055559 2.57110337382e-07 0.00373195654709 0.00537206338925
Sb 4.2354724007 4.8784326254 22.6087055559 -0.00323187694089 -0.00186610682872 0.00537232049959
Sb 6.3213282064 1.2165390527 22.6432701629 -2.57110337382e-07 2.57110337382e-07 0.0119522882539
Sb -0.0212545732 4.8784309336 22.6087051667 0.00323187694089 -0.00186610682872 0.00537232049959
Cr 2.1071089138 3.6496196957 15.5167186127 0 0 0
61
Lattice="8.42843558953 0 0 -4.21421779477 7.29923593142 0 0 0 31.0334408416" Properties=species:S:1:pos:R:3:forces:R:3 energy=-133597.203579 ionic_step=2 pbc="T T T"
Te 2.1071095967 1.2147471776 3.5173829625 -2.57110337382e-07 0.000735078454574 -0.0174611343426
Te 4.2157707102 4.8670553634 3.5173829625 -0.000636605195357 -0.000367667782456 -0.0174611343426
Te 6.3213260584 1.2165402929 3.5117302558 2.57110337382e-07 0 -0.0187101763616
Te -0.0015528827 4.867056152 3.5173829741 0.000636605195357 -0.000367924892793 -0.0174611343426
Te -0.0142031605 0.0082002024 6.8275433771 0.00503524884728 -0.0029066323641 0.0194210864445
Te 2.1071084831 3.6496199444 6.8473841533 2.57110337382e-07 -5.14220674763e-07 0.0180038942648
Te 4.228420988 0.0081997051 6.8275431883 -0.00503524884728 -0.0029066323641 0.0194213435548
Te -2.1071084831 3.6332195397 6.8275431883 -2.57110337382e-07 0.00581377894887 0.0194213435548
Te 0 0 0 0 2.57110337382e-07 -2.57110337382e-07
Te 2.1071089138 3.6496196957 0 -0 -2.57110337382e-07 -2.57110337382e-07
Te 4.2142178275 -0 0 -0 2.57110337382e-07 -2.57110337382e-07
Te -2.1071089138 3.6496196957 0 0 -2.57110337382e-07 -2.57110337382e-07
Te 0.0419183124 2.4572816082 13.9480419977 -0.0266821394825 -0.0154047658642 -0.0347122095396
Te 2.1071086966 6.034296247 13.9480419977 0 0.0308095317284 -0.0347122095396
Te 4.1722995151 2.4572813574 13.9480423861 0.0266821394825 -0.0154045087539 -0.0347122095396
Te -2.1071086966 6.0826993675 13.8854769927 -0 -2.57110337382e-07 -0.00881322814477
Te 2.107109131 1.2649431445 17.0853952277 -0 -0.0308095317284 0.0347122095396
Te 4.1722995151 4.8419577832 17.0853952277 0.0266821394825 0.0154047658642 0.0347122095396
Te 6.3213265241 1.216540024 17.1479602327 0 2.57110337382e-07 0.00881322814477
Te 0.0419183124 4.841958034 17.0853948393 -0.0266821394825 0.0154047658642 0.0347122095396
Te 2.1071086782 1.2066739467 10.365388646 0 0.00687101665619 0.012000367887
Te 4.2227618707 4.8710927742 10.365388646 -0.00595030453802 -0.00343576543843 0.0120006249973
Te 6.3213269768 1.2165397626 10.3558047641 -0 2.57110337382e-07 0.0172387339008
Te -0.0085440432 4.8710925022 10.3653890693 0.00595030453802 -0.00343576543843 0.0120006249973
Te 0.0142031605 -0.0082002024 24.2058938483 -0.00503524884728 0.00290740369511 -0.0194213435548
Te 2.1071093444 3.6496194471 24.1860530721 -2.57110337382e-07 -2.57110337382e-07 -0.0180041513751
Te 4.200014667 -0.0081997051 24.2058940371 0.00503524884728 0.00290714658477 -0.0194213435548
Te -2.1071093444 3.6660198518 24.2058940371 2.57110337382e-07 -0.00581429316955 -0.0194213435548
Te -0.0015528827 2.432184028 27.5160542629 0.000636605195357 0.000367410672118 0.0174616485633
Te 2.1071082308 6.0844922139 27.5160542629 2.57110337382e-07 -0.000735078454574 0.0174616485633
Te 4.2157707102 2.4321832394 27.5160542513 -0.000636605195357 0.000367924892793 0.0174616485633
Te -2.1071082308 6.0826990986 27.5217069696 -2.57110337382e-07 -0 0.0187106905823
Te -0.0085440432 2.4281466172 20.6680485794 0.00595030453802 0.00343576543843 -0.0120006249973
Te 2.1071091493 6.0925654448 20.6680485794 -0 -0.00687101665619 -0.0120006249973
Te 4.2227618707 2.4281468892 20.6680481561 -0.00595030453802 0.00343576543843 -0.0120006249973
Te -2.1071091493 6.0826996289 20.6776324613 0 -2.57110337382e-07 -0.0172387339008
Sb -0.0223128658 2.4201957602 8.4280644862 0.00335837522688 0.00193912616453 -0.00544328295271
Sb 2.1071103789 6.108465029 8.4280644862 -2.57110337382e-07 -0.00387799521873 -0.00544354006304
Sb 4.2365306933 2.420197452 8.4280648755 -0.00335837522688 0.00193912616453 -0.00544354006304
Sb -2.1071103789 6.0827003388 8.3913731463 2.57110337382e-07 -0 -0.0120913849464
Sb -0.0001723488 2.4329777188 1.9153280922 -0.000108757672712 -6.24778119837e-05 0.00958558759826
Sb 2.1071111417 6.0828997905 1.9153280922 -2.57110337382e-07 0.000125469844642 0.00958558759826
Sb 4.2143901763 2.4329802914 1.9153283803 0.000108757672712 -6.27349223211e-05 0.00958533048792
Sb -2.1071111417 6.0827007792 1.913906945 2.57110337382e-07 -2.57110337382e-07 0.00945086178147
Sb -0.044339317 0.0255993286 18.7543579316 0.00364890990812 -0.00210676210451 -0.0193416393502
Sb 2.107108188 3.6496201148 18.7030843031 0 -2.57110337382e-07 0.00182522628507
Sb 4.2585571445 0.0255984905 18.7543581767 -0.00364890990812 -0.00210650499417 -0.0193416393502
Sb 6.3213274671 3.5984214577 18.7543581767 -0 0.00421326709867 -0.0193416393502
Sb 0.044339317 -0.0255993286 12.2790792938 -0.00364890990812 0.00210676210451 0.0193416393502
Sb 2.1071096396 3.6496192767 12.3303529223 -0 -0 -0.00182522628507
Sb 4.1698785105 -0.0255984905 12.2790790487 0.00364890990812 0.00210650499417 0.0193416393502
Sb -2.1071096396 3.7008179338 12.2790790487 0 -0.00421352420901 0.0193416393502
Sb 2.1071066858 1.216339601 29.1181091332 2.57110337382e-07 -0.000125469844642 -0.0095858447086
Sb 4.2143901763 4.8662616727 29.1181091332 0.000108757672712 6.24778119837e-05 -0.00958558759826
Sb 6.3213289693 1.2165386123 29.1195302804 -2.57110337382e-07 2.57110337382e-07 -0.00945086178147
Sb -0.0001723488 4.8662591 29.1181088451 -0.000108757672712 6.27349223211e-05 -0.00958533048792
Sb 2.1071074486 1.1907743625 22.6053727392 2.57110337382e-07 0.00387799521873 0.00544328295271
Sb 4.2365306933 4.8790436312 22.6053727392 -0.00335837522688 -0.00193912616453 0.00544354006304
Sb 6.3213282064 1.2165390527 22.6420640791 -2.57110337382e-07 2.57110337382e-07 0.0120913849464
Sb -0.0223128658 4.8790419394 22.60537235 0.00335837522688 -0.00193912616453 0.00544354006304
Cr 2.1071089138 3.6496196957 15.5167186127 0 0 0
61
Lattice="8.42843558953 0 0 -4.21421779477 7.29923593142 0 0 0 31.0334408416" Properties=species:S:1:pos:R:3:forces:R:3 energy=-133597.242887 ionic_step=3 pbc="T T T"
Te 2.1071095967 1.2146584893 3.5103885144 -2.57110337382e-07 0.000845893009986 -0.0158433960998
Te 4.2158475165 4.8670997075 3.5103885144 -0.0007325073512 -0.000422946504993 -0.0158433960998
Te 6.3213260584 1.2165402929 3.5042016367 2.57110337382e-07 0 -0.0174120262682
Te -0.001629689 4.8671004961 3.510388526 0.0007325073512 -0.00042320361533 -0.0158433960998
Te -0.0160472564 0.0092648922 6.8344443119 0.00562403151989 -0.00324678934046 0.0182360648995
Te 2.1071084831 3.6496199444 6.858006598 2.57110337382e-07 -5.14220674763e-07 0.0162822834457
Te 4.2302650839 0.0092643949 6.8344441231 -0.00562403151989 -0.00324653223012 0.0182363220098
Te -2.1071084831 3.6310901601 6.8344441231 -2.57110337382e-07 0.00649383579125 0.0182363220098
Te 0 0 0 0 2.57110337382e-07 -2.57110337382e-07
Te 2.1071089138 3.6496196957 0 -0 -2.57110337382e-07 -2.57110337382e-07
Te 4.2142178275 0 0 -0 2.57110337382e-07 -2.57110337382e-07
Te -2.1071089138 3.6496196957 -0 0 -2.57110337382e-07 -2.57110337382e-07
Te 0.0432995259 2.4580790525 13.9479709667 -0.0270459506098 -0.0156148250099 -0.0343915929488
Te 2.1071086966 6.0327013583 13.9479709667 0 0.0312299071301 -0.0343913358385
Te 4.1709183016 2.4580788017 13.9479713551 0.0270459506098 -0.0156148250099 -0.0343915929488
Te -2.1071086966 6.0826993675 13.8856489694 -0 -2.57110337382e-07 -0.00836739881975
Te 2.107109131 1.2665380332 17.0854662587 -0 -0.0312299071301 0.0343913358385
Te 4.1709183016 4.8411603389 17.0854662587 0.0270459506098 0.0156148250099 0.0343915929488
Te 6.3213265241 1.216540024 17.147788256 0 2.57110337382e-07 0.00836739881975
Te 0.0432995259 4.8411605897 17.0854658703 -0.0270459506098 0.0156148250099 0.0343915929488
Te 2.1071086782 1.2056780225 10.368392157 0 0.00702014065187 0.0123515806078
Te 4.2236243659 4.8715907363 10.368392157 -0.00607911681705 -0.00351032743627 0.0123518377182
Te 6.3213269768 1.2165397626 10.3597475824 -0 2.57110337382e-07 0.017656538199
Te -0.0094065384 4.8715904643 10.3683925803 0.00607911681705 -0.00351007032593 0.0123518377182
Te 0.0160472564 -0.0092648922 24.1989929135 -0.00562403151989 0.00324730356113 -0.0182360648995
Te 2.1071093444 3.6496194471 24.1754306274 -2.57110337382e-07 -2.57110337382e-07 -0.0162822834457
Te 4.1981705711 -0.0092643949 24.1989931023 0.00562403151989 0.00324704645079 -0.0182363220098
Te -2.1071093444 3.6681492314 24.1989931023 2.57110337382e-07 -0.00649435001192 -0.0182363220098
Te -0.001629689 2.4321396839 27.523048711 0.0007325073512 0.000422946504993 0.0158439103205
Te 2.1071082308 6.0845809022 27.523048711 2.57110337382e-07 -0.000845893009986 0.0158439103205
Te 4.2158475165 2.4321388953 27.5230486994 -0.0007325073512 0.00042320361533 0.0158439103205
Te -2.1071082308 6.0826990986 27.5292355887 -2.57110337382e-07 -0 0.0174125404888
Te -0.0094065384 2.4276486551 20.6650450684 0.00607911681705 0.00351032743627 -0.0123518377182
Te 2.1071091493 6.093561369 20.6650450684 -0 -0.00701988354153 -0.0123518377182
Te 4.2236243659 2.4276489271 20.6650446451 -0.00607911681705 0.00351007032593 -0.0123515806078
Te -2.1071091493 6.0826996289 20.673689643 0 -2.57110337382e-07 -0.017656538199
Sb -0.0237851834 2.4193457168 8.4332141947 0.00353218181495 0.00203965630645 -0.00556463903195
Sb 2.1071103789 6.1101651157 8.4332141947 -2.57110337382e-07 -0.00407879839222 -0.00556489614229
Sb 4.2380030109 2.4193474086 8.433214584 -0.00353218181495 0.00203939919611 -0.00556489614229
Sb -2.1071103789 6.0827003388 8.3932154536 2.57110337382e-07 -0 -0.0122952734439
Sb -0.0001165532 2.4330099324 1.910345531 -0.000130354941052 -7.48191081781e-05 0.00995479804274
Sb 2.1071111417 6.0828353633 1.910345531 -2.57110337382e-07 0.000150152437031 0.00995479804274
Sb 4.2143343807 2.433012505 1.9103458191 0.000130354941052 -7.50762185154e-05 0.0099545409324
Sb -2.1071111417 6.0827007792 1.9089128373 2.57110337382e-07 -2.57110337382e-07 0.00980515982639
Sb -0.0453648969 0.0261914476 18.7555707701 0.00369056178278 -0.00213067336588 -0.0195290727862
Sb 2.107108188 3.6496201148 18.7036354943 0 -2.57110337382e-07 0.00165116258666
Sb 4.2595827244 0.0261906095 18.7555710152 -0.00369056178278 -0.00213067336588 -0.0195290727862
Sb 6.3213274671 3.5972372196 18.7555710152 -0 0.00426134673176 -0.0195288156758
Sb 0.0453648969 -0.0261914476 12.2778664553 -0.00369081889311 0.00213093047622 0.0195290727862
Sb 2.1071096396 3.6496192767 12.3298017311 -0 -0 -0.00165116258666
Sb 4.1688529306 -0.0261906095 12.2778662102 0.00369081889311 0.00213067336588 0.0195290727862
Sb -2.1071096396 3.7020021719 12.2778662102 0 -0.0042616038421 0.0195288156758
Sb 2.1071066858 1.2164040282 29.1230916944 2.57110337382e-07 -0.000150152437031 -0.00995505515308
Sb 4.2143343807 4.8662294591 29.1230916944 0.000130354941052 7.48191081781e-05 -0.00995479804274
Sb 6.3213289693 1.2165386123 29.1245243881 -2.57110337382e-07 2.57110337382e-07 -0.00980515982639
Sb -0.0001165532 4.8662268864 29.1230914063 -0.000130354941052 7.50762185154e-05 -0.00995479804274
Sb 2.1071074486 1.1890742758 22.6002230307 2.57110337382e-07 0.00407879839222 0.00556463903195
Sb 4.2380030109 4.8798936746 22.6002230307 -0.00353218181495 -0.00203965630645 0.00556489614229
Sb 6.3213282064 1.2165390527 22.6402217718 -2.57110337382e-07 2.57110337382e-07 0.0122950163336
Sb -0.0237851834 4.8798919828 22.6002226415 0.00353218181495 -0.00203939919611 0.00556489614229
Cr 2.1071089138 3.6496196957 15.5167186127 0 0 0
61
Lattice="8.42843558953 0 0 -4.21421779477 7.29923593142 0 0 0 31.0334408416" Properties=species:S:1:pos:R:3:forces:R:3 energy=-133597.29788 ionic_step=4 pbc="T T T"
Te 2.1071095967 1.2145487322 3.5000806051 -2.57110337382e-07 0.00101969959806 -0.0133291141105
Te 4.2159425689 4.867154586 3.5000806051 -0.000882916898569 -0.000509849799028 -0.0133291141105
Te 6.3213260584 1.2165402929 3.493102654 2.57110337382e-07 0 -0.0154225064775
Te -0.0017247414 4.8671553746 3.5000806167 0.000882916898569 -0.000510106909365 -0.0133293712209
Te -0.0187852196 0.0108456567 6.8446223135 0.0064948642326 -0.00374944005004 0.0164116099454
Te 2.1071084831 3.6496199444 6.873940265 2.57110337382e-07 -5.14220674763e-07 0.013568740945
Te 4.2330030471 0.0108451594 6.8446221247 -0.0064948642326 -0.00374944005004 0.0164116099454
Te -2.1071084831 3.627928631 6.8446221247 -2.57110337382e-07 0.00749939432075 0.0164116099454
Te 0 0 0 0 2.57110337382e-07 -2.57110337382e-07
Te 2.1071089138 3.6496196957 0 -0 -2.57110337382e-07 -2.57110337382e-07
Te 4.2142178275 0 0 -0 2.57110337382e-07 -2.57110337382e-07
Te -2.1071089138 3.6496196957 -0 0 -2.57110337382e-07 -2.57110337382e-07
Te 0.0452417196 2.4592003791 13.9478829621 -0.0275383169059 -0.015899189043 -0.0338951128874
Te 2.1071086966 6.0304587052 13.9478829621 0 0.031798378086 -0.0338951128874
Te 4.1689761079 2.4592001283 13.9478833505 0.0275383169059 -0.0158989319327 -0.0338953699977
Te -2.1071086966 6.0826993675 13.8863323056 -0 -2.57110337382e-07 -0.00774313492059
Te 2.107109131 1.2687806863 17.0855542633 -0 -0.0317981209757 0.0338951128874
Te 4.1689761079 4.8400390123 17.0855542633 0.0275383169059 0.015899189043 0.0338951128874
Te 6.3213265241 1.216540024 17.1471049198 0 2.57110337382e-07 0.00774313492059
Te 0.0452417196 4.8400392631 17.0855538749 -0.0275383169059 0.0158989319327 0.0338953699977
Te 2.1071086782 1.2042034394 10.3730367488 0 0.00722505759076 0.012850888883
Te 4.2249013918 4.8723280279 10.3730367488 -0.00625678006018 -0.00361291446089 0.0128511459933
Te 6.3213269768 1.2165397626 10.3660762951 -0 2.57110337382e-07 0.0181635597843
Te -0.0106835643 4.8723277559 10.3730371721 0.00625678006018 -0.00361265735055 0.0128511459933
Te 0.0187852196 -0.0108456567 24.1888149119 -0.0064948642326 0.00375021138105 -0.0164116099454
Te 2.1071093444 3.6496194471 24.1594969604 -2.57110337382e-07 -2.57110337382e-07 -0.013568740945
Te 4.1954326079 -0.0108451594 24.1888151007 0.0064948642326 0.00374995427071 -0.0164116099454
Te -2.1071093444 3.6713107605 24.1888151007 2.57110337382e-07 -0.00749990854142 -0.0164118670557
Te -0.0017247414 2.4320848054 27.5333566203 0.000882916898569 0.000509849799028 0.0133296283312
Te 2.1071082308 6.0846906593 27.5333566203 2.57110337382e-07 -0.00101969959806 0.0133296283312
Te 4.2159425689 2.4320840168 27.5333566087 -0.000882916898569 0.000510106909365 0.0133296283312
Te -2.1071082308 6.0826990986 27.5403345714 -2.57110337382e-07 -0 0.0154230206982
Te -0.0106835643 2.4269113635 20.6604004766 0.00625678006018 0.00361291446089 -0.012850888883
Te 2.1071091493 6.0950359521 20.6604004766 -0 -0.00722505759076 -0.012850888883
Te 4.2249013918 2.4269116355 20.6604000533 -0.00625678006018 0.00361265735055 -0.012850888883
Te -2.1071091493 6.0826996289 20.6673609303 0 -2.57110337382e-07 -0.0181638168947
Sb -0.0258296883 2.4181653208 8.4411111669 0.00376743777365 0.00217541056459 -0.00576415665376
Sb 2.1071103789 6.1125259077 8.4411111669 -2.57110337382e-07 -0.0043503069085 -0.0057644137641
Sb 4.2400475158 2.4181670126 8.4411115562 -0.00376743777365 0.00217515345425 -0.0057644137641
Sb -2.1071103789 6.0827003388 8.3959666996 2.57110337382e-07 -0 -0.0125837512425
Sb -3.41694e-05 2.4330574968 1.9028769202 -0.00016197951255 -9.30739421321e-05 0.0105271256538
Sb 2.1071111417 6.0827402346 1.9028769202 -2.57110337382e-07 0.000186919215276 0.0105271256538
Sb 4.2142519969 2.4330600694 1.9028772083 0.00016197951255 -9.33310524695e-05 0.0105268685434
Sb -2.1071111417 6.0827007792 1.9014428135 2.57110337382e-07 -2.57110337382e-07 0.010353576176
Sb -0.046820757 0.0270319892 18.7571376853 0.00374249807093 -0.00216075527536 -0.0198234641225
Sb 2.107108188 3.6496201148 18.7047794338 0 -2.57110337382e-07 0.00137682585668
Sb 4.2610385845 0.0270311511 18.7571379304 -0.00374249807093 -0.00216049816502 -0.0198232070121
Sb 6.3213274671 3.5955561363 18.7571379304 -0 0.00432125344037 -0.0198232070121
Sb 0.046820757 -0.0270319892 12.2762995401 -0.00374275518126 0.00216075527536 0.0198234641225
Sb 2.1071096396 3.6496192767 12.3286577916 -0 -0 -0.00137682585668
Sb 4.1673970705 -0.0270311511 12.276299295 0.00374249807093 0.00216075527536 0.0198232070121
Sb -2.1071096396 3.7036832552 12.276299295 0 -0.00432151055071 0.0198232070121
Sb 2.1071066858 1.2164991569 29.1305603052 2.57110337382e-07 -0.000186919215276 -0.0105271256538
Sb 4.2142519969 4.8661818947 29.1305603052 0.00016197951255 9.33310524695e-05 -0.0105271256538
Sb 6.3213289693 1.2165386123 29.1319944119 -2.57110337382e-07 2.57110337382e-07 -0.010353576176
Sb -3.41694e-05 4.866179322 29.1305600171 -0.00016197951255 9.35881628069e-05 -0.0105268685434
Sb 2.1071074486 1.1867134838 22.5923260585 2.57110337382e-07 0.0043503069085 0.00576415665376
Sb 4.2400475158 4.8810740706 22.5923260585 -0.00376743777365 -0.00217541056459 0.0057644137641
Sb 6.3213282064 1.2165390527 22.6374705258 -2.57110337382e-07 2.57110337382e-07 0.0125837512425
Sb -0.0258296883 4.8810723788 22.5923256693 0.00376743777365 -0.00217515345425 0.0057644137641
Cr 2.1071089138 3.6496196957 15.5167186127 0 0 0
61
Lattice="8.42843558953 0 0 -4.21421779477 7.29923593142 0 0 0 31.0334408416" Properties=species:S:1:pos:R:3:forces:R:3 energy=-133597.371701 ionic_step=5 pbc="T T T"
Te 2.1071095967 1.2144115508 3.4851276985 -2.57110337382e-07 0.00130149252783 -0.0094166661066
Te 4.2160613714 4.8672231767 3.4851276985 -0.00112717171908 -0.000650746263913 -0.0094166661066
Te 6.3213260584 1.2165402929 3.4770143987 2.57110337382e-07 0 -0.0123767774209
Te -0.0018435439 4.8672239653 3.4851277101 0.00112717171908 -0.00065100337425 -0.0094166661066
Te -0.0228123389 0.0131707161 6.8594906628 0.00777193127837 -0.00448683249765 0.0135733689311
Te 2.1071084831 3.6496199444 6.8978407655 2.57110337382e-07 -5.14220674763e-07 0.00923617464976
Te 4.2370301664 0.0131702188 6.859490474 -0.00777193127837 -0.00448657538731 0.0135736260414
Te -2.1071084831 3.6232785121 6.859490474 -2.57110337382e-07 0.00897392210563 0.0135736260414
Te -0 0 0 0 2.57110337382e-07 -2.57110337382e-07
Te 2.1071089138 3.6496196957 0 -0 -2.57110337382e-07 -2.57110337382e-07
Te 4.2142178275 0 0 -0 2.57110337382e-07 -2.57110337382e-07
Te -2.1071089138 3.6496196957 -0 0 -2.57110337382e-07 -2.57110337382e-07
Te 0.0479673396 2.4607740173 13.9477551409 -0.0281965193696 -0.0162789410113 -0.0331284098613
Te 2.1071086966 6.0273114288 13.9477551409 0 0.032558139133 -0.0331284098613
Te 4.1662504879 2.4607737665 13.9477555293 0.0281965193696 -0.0162789410113 -0.0331286669716
Te -2.1071086966 6.0826993675 13.8879144616 -0 -2.57110337382e-07 -0.00687101665619
Te 2.107109131 1.2719279627 17.0856820845 -0 -0.032558139133 0.0331284098613
Te 4.1662504879 4.8384653741 17.0856820845 0.0281965193696 0.0162791981217 0.0331284098613
Te 6.3213265241 1.216540024 17.1455227638 0 2.57110337382e-07 0.00687101665619
Te 0.0479673396 4.8384656249 17.0856816961 -0.0281965193696 0.0162789410113 0.0331286669716
Te 2.1071086782 1.2020174942 10.3801201967 0 0.00750299386547 0.0135545998764
Te 4.226794475 4.8734210004 10.3801201967 -0.00649743533597 -0.00375175404307 0.0135548569868
Te 6.3213269768 1.2165397626 10.3760323818 -0 2.57110337382e-07 0.0187430864848
Te -0.0125766475 4.8734207284 10.38012062 0.00649743533597 -0.00375149693274 0.0135548569868
Te 0.0228123389 -0.0131707161 24.1739465626 -0.00777193127837 0.00448734671832 -0.0135733689311
Te 2.1071093444 3.6496194471 24.1355964599 -2.57110337382e-07 -2.57110337382e-07 -0.00923617464976
Te 4.1914054886 -0.0131702188 24.1739467514 0.00777193127837 0.00448708960798 -0.0135736260414
Te -2.1071093444 3.6759608794 24.1739467514 2.57110337382e-07 -0.00897443632631 -0.0135736260414
Te -0.0018435439 2.4320162147 27.5483095269 0.00112717171908 0.000650746263913 0.00941718032728
Te 2.1071082308 6.0848278407 27.5483095269 2.57110337382e-07 -0.00130149252783 0.00941718032728
Te 4.2160613714 2.4320154261 27.5483095153 -0.00112717171908 0.00065100337425 0.00941718032728
Te -2.1071082308 6.0826990986 27.5564228267 -2.57110337382e-07 -0 0.0123770345312
Te -0.0125766475 2.425818391 20.6533170287 0.00649743533597 0.00375175404307 -0.0135548569868
Te 2.1071091493 6.0972218973 20.6533170287 -0 -0.00750273675513 -0.0135548569868
Te 4.226794475 2.425818663 20.6533166054 -0.00649743533597 0.00375149693274 -0.0135548569868
Te -2.1071091493 6.0826996289 20.6574048436 0 -2.57110337382e-07 -0.0187433435951
Sb -0.028671361 2.4165246796 8.4530559626 0.00408291215762 0.00235744468345 -0.00609351499594
Sb 2.1071103789 6.1158071903 8.4530559626 -2.57110337382e-07 -0.00471463225657 -0.00609377210628
Sb 4.2428891885 2.4165263714 8.4530563519 -0.00408291215762 0.00235744468345 -0.00609377210628
Sb -2.1071103789 6.0827003388 8.3999724361 2.57110337382e-07 -0 -0.0129902426859
Sb 9.20832e-05 2.4331303888 1.8918918175 -0.000209287814629 -0.000120327637895 0.0114015579112
Sb 2.1071111417 6.0825944507 1.8918918175 -2.57110337382e-07 0.000241426606801 0.0114015579112
Sb 4.2141257443 2.4331329614 1.8918921056 0.000209287814629 -0.000120841858569 0.0114013008009
Sb -2.1071111417 6.0827007792 1.8904890193 2.57110337382e-07 -2.57110337382e-07 0.0111917558759
Sb -0.0488846083 0.0282235549 18.7590888544 0.0038042045519 -0.00219623650191 -0.020279577861
Sb 2.107108188 3.6496201148 18.7069157815 0 -2.57110337382e-07 0.000952593799999
Sb 4.2631024358 0.0282227168 18.7590890995 -0.0038042045519 -0.00219623650191 -0.020279577861
Sb 6.3213274671 3.593173005 18.7590890995 -0 0.00439221589349 -0.020279577861
Sb 0.0488846083 -0.0282235549 12.274348371 -0.0038042045519 0.00219623650191 0.020279577861
Sb 2.1071096396 3.6496192767 12.3265214439 -0 -0 -0.000952593799999
Sb 4.1653332192 -0.0282227168 12.2743481259 0.0038042045519 0.00219623650191 0.020279577861
Sb -2.1071096396 3.7060663865 12.2743481259 0 -0.00439247300383 0.020279577861
Sb 2.1071066858 1.2166449408 29.1415454079 2.57110337382e-07 -0.000241426606801 -0.0114015579112
Sb 4.2141257443 4.8661090027 29.1415454079 0.000209287814629 0.000120584748232 -0.0114015579112
Sb 6.3213289693 1.2165386123 29.1429482061 -2.57110337382e-07 2.57110337382e-07 -0.0111917558759
Sb 9.20832e-05 4.86610643 29.1415451198 -0.000209287814629 0.000120841858569 -0.0114013008009
Sb 2.1071074486 1.1834322012 22.5803812628 2.57110337382e-07 0.00471463225657 0.00609351499594
Sb 4.2428891885 4.8827147118 22.5803812628 -0.00408291215762 -0.00235744468345 0.00609377210628
Sb 6.3213282064 1.2165390527 22.6334647893 -2.57110337382e-07 2.57110337382e-07 0.0129902426859
Sb -0.028671361 4.88271302 22.5803808736 0.00408291215762 -0.00235744468345 0.00609377210628
Cr 2.1071089138 3.6496196957 15.5167186127 0 0 0
61
Lattice="8.42843558953 0 0 -4.21421779477 7.29923593142 0 0 0 31.0334408416" Properties=species:S:1:pos:R:3:forces:R:3 energy=-133597.467027 ionic_step=6 pbc="T T T"
Te 2.1071095967 1.2142435646 3.4633116262 -2.57110337382e-07 0.00175452094229 -0.00322493496178
Te 4.2162068517 4.8673071699 3.4633116262 -0.00151926498359 -0.000877260471146 -0.00322493496178
Te 6.3213260584 1.2165402929 3.4533520589 2.57110337382e-07 0 -0.00759889602131
Te -0.0019890242 4.8673079585 3.4633116378 0.00151926498359 -0.000877517581484 -0.00322493496178
Te -0.028846862 0.0166547514 6.8813662267 0.00966580602352 -0.00558006565219 0.00903485725559
Te 2.1071084831 3.6496199444 6.9336915163 2.57110337382e-07 -5.14220674763e-07 0.00223968814893
Te 4.2430646895 0.0166542541 6.8813660379 -0.00966580602352 -0.00558006565219 0.00903485725559
Te -2.1071084831 3.6163104417 6.8813660379 -2.57110337382e-07 0.0111606455251 0.00903485725559
Te -0 0 0 0 2.57110337382e-07 -2.57110337382e-07
Te 2.1071089138 3.6496196957 0 -0 -2.57110337382e-07 -2.57110337382e-07
Te 4.2142178275 0 0 -0 2.57110337382e-07 -2.57110337382e-07
Te -2.1071089138 3.6496196957 -0 0 -2.57110337382e-07 -2.57110337382e-07
Te 0.0518569606 2.4630196921 13.9475906694 -0.0290804647095 -0.016789305031 -0.0319580436055
Te 2.1071086966 6.0228200793 13.9475906694 0 0.0335788671724 -0.0319580436055
Te 4.1623608669 2.4630194413 13.9475910578 0.0290804647095 -0.016789305031 -0.0319583007159
Te -2.1071086966 6.0826993675 13.8911795177 -0 -2.57110337382e-07 -0.00567005427028
Te 2.107109131 1.2764193122 17.085846556 -0 -0.0335788671724 0.0319580436055
Te 4.1623608669 4.8362196993 17.085846556 0.0290804647095 0.0167895621414 0.0319580436055
Te 6.3213265241 1.216540024 17.1422577077 0 2.57110337382e-07 0.00567005427028
Te 0.0518569606 4.8362199501 17.0858461676 -0.0290804647095 0.016789305031 0.0319583007159
Te 2.1071086782 1.1987872129 10.3909113923 0 0.00787246142029 0.0145395895789
Te 4.2295919793 4.8750361411 10.3909113923 -0.00681753770601 -0.00393661637565 0.0145398466893
Te 6.3213269768 1.2165397626 10.3918634763 -0 2.57110337382e-07 0.0193480671086
Te -0.0153741518 4.8750358691 10.3909118156 0.00681753770601 -0.00393635926531 0.0145398466893
Te 0.028846862 -0.0166547514 24.1520709987 -0.00966580602352 0.00558083698321 -0.00903485725559
Te 2.1071093444 3.6496194471 24.0997457091 -2.57110337382e-07 -2.57110337382e-07 -0.00223968814893
Te 4.1853709655 -0.0166542541 24.1520711875 0.00966580602352 0.00558057987287 -0.00903485725559
Te -2.1071093444 3.6829289498 24.1520711875 2.57110337382e-07 -0.0111611597457 -0.00903485725559
Te -0.0019890242 2.4319322215 27.5701255992 0.00151926498359 0.000877260471146 0.00322519207212
Te 2.1071082308 6.0849958269 27.5701255992 2.57110337382e-07 -0.00175452094229 0.00322519207212
Te 4.2162068517 2.4319314329 27.5701255876 -0.00151926498359 0.000877517581484 0.00322544918245
Te -2.1071082308 6.0826990986 27.5800851665 -2.57110337382e-07 -0 0.00759941024199
Te -0.0153741518 2.4242032503 20.6425258331 0.00681753770601 0.00393661637565 -0.0145398466893
Te 2.1071091493 6.1004521786 20.6425258331 -0 -0.00787246142029 -0.0145398466893
Te 4.2295919793 2.4242035223 20.6425254098 -0.00681753770601 0.00393635926531 -0.0145398466893
Te -2.1071091493 6.0826996289 20.6415737491 0 -2.57110337382e-07 -0.019348324219
Sb -0.0326632484 2.4142199613 8.4712947332 0.00450277333856 0.0025998997316 -0.00663858891119
Sb 2.1071103789 6.1204166269 8.4712947332 -2.57110337382e-07 -0.00519954235287 -0.00663858891119
Sb 4.2468810759 2.4142216531 8.4712951225 -0.00450277333856 0.0025998997316 -0.00663858891119
Sb -2.1071103789 6.0827003388 8.4058036879 2.57110337382e-07 -0 -0.0135612847452
Sb 0.0002846942 2.4332415928 1.8756658947 -0.000281535819433 -0.00016197951255 0.0127264474797
Sb 2.1071111417 6.0823720426 1.8756658947 -2.57110337382e-07 0.000324730356113 0.0127267045901
Sb 4.2139331333 2.4332441654 1.8756661828 0.000281535819433 -0.000162493733225 0.0127261903694
Sb -2.1071111417 6.0827007792 1.8743643088 2.57110337382e-07 -2.57110337382e-07 0.0124572529565
Sb -0.0518279548 0.0299228976 18.7613615773 0.00386771080523 -0.00223300328016 -0.0209994868056
Sb 2.107108188 3.6496201148 18.7106992372 0 -2.57110337382e-07 0.000260452771768
Sb 4.2660457823 0.0299220595 18.7613618224 -0.00386771080523 -0.00223274616982 -0.0209994868056
Sb 6.3213274671 3.5897743196 18.7613618224 -0 0.00446574944998 -0.0209992296953
Sb 0.0518279548 -0.0299228976 12.2720756481 -0.00386771080523 0.00223300328016 0.0209994868056
Sb 2.1071096396 3.6496192767 12.3227379882 -0 -0 -0.000260452771768
Sb 4.1623898727 -0.0299220595 12.272075403 0.00386771080523 0.00223274616982 0.0209994868056
Sb -2.1071096396 3.7094650719 12.272075403 0 -0.00446600656032 0.0209992296953
Sb 2.1071066858 1.2168673489 29.1577713307 2.57110337382e-07 -0.000324730356113 -0.0127267045901
Sb 4.2139331333 4.8659977987 29.1577713307 0.000281535819433 0.000162236622888 -0.0127264474797
Sb 6.3213289693 1.2165386123 29.1590729166 -2.57110337382e-07 2.57110337382e-07 -0.0124572529565
Sb 0.0002846942 4.865995226 29.1577710426 -0.000281535819433 0.000162493733225 -0.0127264474797
Sb 2.1071074486 1.1788227646 22.5621424922 2.57110337382e-07 0.00519954235287 0.00663858891119
Sb 4.2468810759 4.8850194301 22.5621424922 -0.00450277333856 -0.0025998997316 0.00663858891119
Sb 6.3213282064 1.2165390527 22.6276335375 -2.57110337382e-07 2.57110337382e-07 0.0135610276349
Sb -0.0326632484 4.8850177383 22.562142103 0.00450277333856 -0.00259964262127 0.00663884602153
Cr 2.1071089138 3.6496196957 15.5167186127 0 0 0
61
Lattice="8.42843558953 0 0 -4.21421779477 7.29923593142 0 0 0 31.0334408416" Properties=species:S:1:pos:R:3:forces:R:3 energy=-133597.574606 ionic_step=7 pbc="T T T"
Te 2.1071095967 1.2140784257 3.4312727255 -2.57110337382e-07 0.00242223648847 0.00654500074839
Te 4.2163498661 4.8673897393 3.4312727255 -0.0020977632427 -0.0012112467994 0.00654500074839
Te 6.3213260584 1.2165402929 3.4187248472 2.57110337382e-07 0 -0.000113128548448
Te -0.0021320386 4.8673905279 3.4312727371 0.0020977632427 -0.00121150390974 0.00654500074839
Te -0.037928716 0.0218981646 6.9136342354 0.0124749935698 -0.00720217477073 0.00165707612442
Te 2.1071084831 3.6496199444 6.9874676425 2.57110337382e-07 -5.14220674763e-07 -0.00890990163162
Te 4.2521465435 0.0218976673 6.9136340466 -0.0124749935698 -0.0072019176604 0.00165707612442
Te -2.1071084831 3.6058236151 6.9136340466 -2.57110337382e-07 0.0144046066518 0.00165707612442
Te -0 0 0 0 2.57110337382e-07 -2.57110337382e-07
Te 2.1071089138 3.6496196957 0 -0 -2.57110337382e-07 -2.57110337382e-07
Te 4.2142178275 0 0 -0 2.57110337382e-07 -2.57110337382e-07
Te -2.1071089138 3.6496196957 -0 0 -2.57110337382e-07 -2.57110337382e-07
Te 0.0574259322 2.4662349408 13.9474228242 -0.0302364327864 -0.0174567634669 -0.0302107217527
Te 2.1071086966 6.0163895817 13.9474228242 0 0.0349135269337 -0.0302107217527
Te 4.1567918953 2.46623469 13.9474232126 0.0302364327864 -0.0174567634669 -0.030210978863
Te -2.1071086966 6.0826993675 13.8975594101 -0 -2.57110337382e-07 -0.00407648439919
Te 2.107109131 1.2828498098 17.0860144012 -0 -0.0349135269337 0.0302107217527
Te 4.1567918953 4.8330044506 17.0860144012 0.0302364327864 0.0174567634669 0.030210978863
Te 6.3213265241 1.216540024 17.1358778153 0 2.57110337382e-07 0.00407648439919
Te 0.0574259322 4.8330047014 17.0860140128 -0.0302364327864 0.0174567634669 0.030210978863
Te 2.1071086782 1.1940722194 10.4071186504 0 0.00834168778601 0.0159284996215
Te 4.2336752816 4.8773936378 10.4071186504 -0.00722377203907 -0.00417110100334 0.0159287567318
Te 6.3213269768 1.2165397626 10.4167833707 -0 2.57110337382e-07 0.0198964834583
Te -0.0194574541 4.8773933658 10.4071190737 0.00722377203907 -0.004170843893 0.0159287567318
Te 0.037928716 -0.0218981646 24.11980299 -0.0124749935698 0.00720268899141 -0.00165707612442
Te 2.1071093444 3.6496194471 24.0459695829 -2.57110337382e-07 -2.57110337382e-07 0.00890990163162
Te 4.1762891115 -0.0218976673 24.1198031788 0.0124749935698 0.00720243188107 -0.00165707612442
Te -2.1071093444 3.6934157764 24.1198031788 2.57110337382e-07 -0.0144051208725 -0.00165707612442
Te -0.0021320386 2.4318496521 27.6021644999 0.0020977632427 0.00121098968907 -0.00654474363805
Te 2.1071082308 6.0851609658 27.6021644999 2.57110337382e-07 -0.00242223648847 -0.00654474363805
Te 4.2163498661 2.4318488635 27.6021644883 -0.0020977632427 0.0012112467994 -0.00654474363805
Te -2.1071082308 6.0826990986 27.6147123782 -2.57110337382e-07 -0 0.000113385658785
Te -0.0194574541 2.4218457536 20.626318575 0.00722377203907 0.00417110100334 -0.0159284996215
Te 2.1071091493 6.1051671721 20.626318575 -0 -0.00834168778601 -0.0159284996215
Te 4.2336752816 2.4218460256 20.6263181517 -0.00722377203907 0.004170843893 -0.0159284996215
Te -2.1071091493 6.0826996289 20.6166538547 0 -2.57110337382e-07 -0.0198967405686
Sb -0.0382548069 2.4109916719 8.4991807531 0.00503859128167 0.00290946057781 -0.00752253425111
Sb 2.1071103789 6.1268732056 8.4991807531 -2.57110337382e-07 -0.00581814982461 -0.00752253425111
Sb 4.2524726344 2.4109933637 8.4991811424 -0.00503859128167 0.00290920346747 -0.00752253425111
Sb -2.1071103789 6.0827003388 8.4142495113 2.57110337382e-07 -0 -0.0143210457922
Sb 0.0005830342 2.4334138396 1.8518853887 -0.000391064823157 -0.000225485765884 0.0146432050449
Sb 2.1071111417 6.082027549 1.8518853887 -2.57110337382e-07 0.000451485752442 0.0146432050449
Sb 4.2136347933 2.4334164122 1.8518856768 0.000391064823157 -0.000225742876221 0.0146429479346
Sb -2.1071111417 6.0827007792 1.8508378677 2.57110337382e-07 -2.57110337382e-07 0.0142858216759
Sb -0.0559921867 0.0323271192 18.7635683171 0.00391579043832 -0.0022607711966 -0.0221392569313
Sb 2.107108188 3.6496201148 18.7171537094 0 -2.57110337382e-07 -0.00088471667093
Sb 4.2702100142 0.0323262811 18.7635685622 -0.00391579043832 -0.00226051408626 -0.0221389998209
Sb 6.3213274671 3.5849658765 18.7635685622 -0 0.00452128528286 -0.0221389998209
Sb 0.0559921867 -0.0323271192 12.2698689083 -0.00391579043832 0.0022607711966 0.0221392569313
Sb 2.1071096396 3.6496192767 12.316283516 -0 -0 0.00088471667093
Sb 4.1582256408 -0.0323262811 12.2698686632 0.00391579043832 0.00226051408626 0.0221389998209
Sb -2.1071096396 3.714273515 12.2698686632 0 -0.00452154239319 0.0221389998209
Sb 2.1071066858 1.2172118425 29.1815518367 2.57110337382e-07 -0.000451485752442 -0.0146432050449
Sb 4.2136347933 4.8658255519 29.1815518367 0.000391064823157 0.000225485765884 -0.0146432050449
Sb 6.3213289693 1.2165386123 29.1825993577 -2.57110337382e-07 2.57110337382e-07 -0.0142860787863
Sb 0.0005830342 4.8658229792 29.1815515486 -0.000391064823157 0.000225742876221 -0.0146429479346
Sb 2.1071074486 1.1723661859 22.5342564723 2.57110337382e-07 0.00581840693495 0.00752253425111
Sb 4.2524726344 4.8882477195 22.5342564723 -0.00503859128167 -0.00290946057781 0.00752253425111
Sb 6.3213282064 1.2165390527 22.6191877141 -2.57110337382e-07 2.57110337382e-07 0.0143207886818
Sb -0.0382548069 4.8882460277 22.5342560831 0.00503859128167 -0.00290920346747 0.00752279136145
Cr 2.1071089138 3.6496196957 15.5167186127 0 0 0
61
Lattice="8.42843558953 0 0 -4.21421779477 7.29923593142 0 0 0 31.0334408416" Properties=species:S:1:pos:R:3:forces:R:3 energy=-133597.653348 ionic_step=8 pbc="T T T"
Te 2.1071095967 1.2139887223 3.384890682 -2.57110337382e-07 0.00316888490823 0.0209339236696
Te 4.2164275514 4.867434591 3.384890682 -0.00274413863087 -0.00158431389895 0.0209339236696
Te 6.3213260584 1.2165402929 3.3685385705 2.57110337382e-07 0 0.011197155193
Te -0.0022097239 4.8674353796 3.3848906936 0.00274413863087 -0.00158482811962 0.0209336665593
Te -0.0515910526 0.029786122 6.9612167511 0.0165054552186 -0.00952902332404 -0.00989669110649
Te 2.1071084831 3.6496199444 7.0681318318 2.57110337382e-07 -5.14220674763e-07 -0.0249489586982
Te 4.2658088801 0.0297856247 6.9612165623 -0.0165054552186 -0.00952902332404 -0.00989669110649
Te -2.1071084831 3.5900477004 6.9612165623 -2.57110337382e-07 0.0190585608688 -0.00989669110649
Te -0 0 0 0 2.57110337382e-07 -2.57110337382e-07
Te 2.1071089138 3.6496196957 0 -0 -2.57110337382e-07 -2.57110337382e-07
Te 4.2142178275 0 0 -0 2.57110337382e-07 -2.57110337382e-07
Te -2.1071089138 3.6496196957 -0 0 -2.57110337382e-07 -2.57110337382e-07
Te 0.0654762133 2.470882775 13.94731744 -0.0316929628477 -0.0182977713804 -0.0276229062069
Te 2.1071086966 6.0070939134 13.94731744 0 0.0365957998712 -0.0276229062069
Te 4.1487416142 2.4708825242 13.9473178284 0.031693219958 -0.0182977713804 -0.0276229062069
Te -2.1071086966 6.0826993675 13.9104129181 -0 -2.57110337382e-07 -0.00208002262942
Te 2.107109131 1.2921454781 17.0861197854 -0 -0.0365957998712 0.0276226490966
Te 4.1487416142 4.8283566164 17.0861197854 0.0316929628477 0.0182977713804 0.0276229062069
Te 6.3213265241 1.216540024 17.1230243073 0 2.57110337382e-07 0.00208002262942
Te 0.0654762133 4.8283568672 17.086119397 -0.0316929628477 0.0182977713804 0.0276229062069
Te 2.1071086782 1.1870916565 10.4315801233 0 0.00895541016134 0.0177948635605
Te 4.2397206236 4.8808839193 10.4315801233 -0.00775521910644 -0.00447783363584 0.0177951206709
Te 6.3213269768 1.2165397626 10.456691126 -0 2.57110337382e-07 0.0200188679789
Te -0.0255027961 4.8808836473 10.4315805466 0.00775521910644 -0.00447783363584 0.0177951206709
Te 0.0515910526 -0.029786122 24.0722204743 -0.0165054552186 0.00952979465505 0.00989669110649
Te 2.1071093444 3.6496194471 23.9653053936 -2.57110337382e-07 -2.57110337382e-07 0.0249489586982
Te 4.1626267749 -0.0297856247 24.0722206631 0.0165054552186 0.00952953754471 0.00989643399616
Te -2.1071093444 3.7091916911 24.0722206631 2.57110337382e-07 -0.0190590750894 0.00989643399616
Te -0.0022097239 2.4318048004 27.6485465434 0.00274413863087 0.00158431389895 -0.0209334094489
Te 2.1071082308 6.0852506692 27.6485465434 2.57110337382e-07 -0.00316888490823 -0.0209334094489
Te 4.2164275514 2.4318040118 27.6485465318 -0.00274413863087 0.00158457100928 -0.0209334094489
Te -2.1071082308 6.0826990986 27.6648986549 -2.57110337382e-07 -0 -0.0111968980826
Te -0.0255027961 2.4183554721 20.6018571021 0.00775521910644 0.00447783363584 -0.0177948635605
Te 2.1071091493 6.112147735 20.6018571021 -0 -0.00895541016134 -0.0177948635605
Te 4.2397206236 2.4183557441 20.6018566788 -0.00775521910644 0.00447783363584 -0.0177948635605
Te -2.1071091493 6.0826996289 20.5767460994 0 -2.57110337382e-07 -0.0200191250892
Sb -0.0459662978 2.4065394385 8.5424717465 0.00564537167789 0.00325964485732 -0.00890707341791
Sb 2.1071103789 6.1357776724 8.5424717465 -2.57110337382e-07 -0.00651877549397 -0.00890707341791
Sb 4.2601841253 2.4065411303 8.5424721358 -0.00564537167789 0.00325964485732 -0.00890707341791
Sb -2.1071103789 6.0827003388 8.4263749689 2.57110337382e-07 -0 -0.0152276168418
Sb 0.0010587204 2.4336884773 1.8171537569 -0.000562300307854 -0.000324216135438 0.0171114642838
Sb 2.1071111417 6.0814782737 1.8171537569 -2.57110337382e-07 0.000648946491551 0.0171114642838
Sb 4.2131591071 2.4336910499 1.817154045 0.000562300307854 -0.000324473245776 0.0171112071734
Sb -2.1071111417 6.0827007792 1.816710761 2.57110337382e-07 -2.57110337382e-07 0.0166324677252
Sb -0.0617936419 0.0356765924 18.7640678969 0.00388776541155 -0.00224457324534 -0.0239387721826
Sb 2.107108188 3.6496201148 18.7283492225 0 -2.57110337382e-07 -0.00282744238019
Sb 4.2760114694 0.0356757543 18.764068142 -0.00388776541155 -0.002244316135 -0.0239385150723
Sb 6.3213274671 3.57826693 18.764068142 -0 0.00448888938035 -0.0239385150723
Sb 0.0617936419 -0.0356765924 12.2693693285 -0.00388776541155 0.00224457324534 0.0239387721826
Sb 2.1071096396 3.6496192767 12.3050880029 -0 -0 0.00282744238019
Sb 4.1524241856 -0.0356757543 12.2693690834 0.00388776541155 0.00224457324534 0.0239385150723
Sb -2.1071096396 3.7209724615 12.2693690834 0 -0.00448914649068 0.0239385150723
Sb 2.1071066858 1.2177611178 29.2162834685 2.57110337382e-07 -0.000648946491551 -0.0171117213941
Sb 4.2131591071 4.8655509142 29.2162834685 0.000562300307854 0.000324216135438 -0.0171114642838
Sb 6.3213289693 1.2165386123 29.2167264644 -2.57110337382e-07 2.57110337382e-07 -0.0166327248356
Sb 0.0010587204 4.8655483415 29.2162831804 -0.000562300307854 0.000324473245776 -0.0171112071734
Sb 2.1071074486 1.1634617191 22.4909654789 2.57110337382e-07 0.00651903260431 0.00890707341791
Sb 4.2601841253 4.8926999529 22.4909654789 -0.00564537167789 -0.00325964485732 0.00890707341791
Sb 6.3213282064 1.2165390527 22.6070622565 -2.57110337382e-07 2.57110337382e-07 0.0152273597314
Sb -0.0459662978 4.8926982611 22.4909650897 0.00564537167789 -0.00325938774699 0.00890707341791
Cr 2.1071089138 3.6496196957 15.5167186127 0 0 0
61
Lattice="8.42843558953 0 0 -4.21421779477 7.29923593142 0 0 0 31.0334408416" Properties=species:S:1:pos:R:3:forces:R:3 energy=-133597.668766 ionic_step=9 pbc="T T T"
Te 2.1071095967 1.2141466643 3.3749705944 -2.57110337382e-07 0.00328047079465 0.0240845537439
Te 4.2162907697 4.86735562 3.3749705944 -0.00284081211773 -0.00164036395249 0.0240845537439
Te 6.3213260584 1.2165402929 3.3580626372 2.57110337382e-07 0 0.0135443154629
Te -0.0020729422 4.8673564086 3.374970606 0.00284081211773 -0.00164062106283 0.0240845537439
Te -0.0552985385 0.031926641 6.9726087727 0.0174876167073 -0.0100962087283 -0.0123940038135
Te 2.1071084831 3.6496199444 7.0900808877 2.57110337382e-07 -5.14220674763e-07 -0.0285952975029
Te 4.269516366 0.0319261437 6.9726085839 -0.0174876167073 -0.010095951618 -0.0123940038135
Te -2.1071084831 3.5857666624 6.9726085839 -2.57110337382e-07 0.0201924174566 -0.0123940038135
Te -0 0 0 0 2.57110337382e-07 -2.57110337382e-07
Te 2.1071089138 3.6496196957 0 -0 -2.57110337382e-07 -2.57110337382e-07
Te 4.2142178275 0 0 -0 2.57110337382e-07 -2.57110337382e-07
Te -2.1071089138 3.6496196957 -0 0 -2.57110337382e-07 -2.57110337382e-07
Te 0.0673646808 2.4719730827 13.9475295535 -0.0318513428155 -0.0183890455502 -0.0269230518686
Te 2.1071086966 6.004913298 13.9475295535 0 0.0367783482108 -0.0269230518686
Te 4.1468531467 2.4719728319 13.9475299419 0.0318513428155 -0.0183890455502 -0.0269230518686
Te -2.1071086966 6.0826993675 13.9178718001 -0 -2.57110337382e-07 -0.0019753787221
Te 2.107109131 1.2943260935 17.0859076719 -0 -0.0367783482108 0.0269230518686
Te 4.1468531467 4.8272663087 17.0859076719 0.0318510857052 0.0183893026605 0.0269230518686
Te 6.3213265241 1.216540024 17.1155654253 0 2.57110337382e-07 0.0019753787221
Te 0.0673646808 4.8272665595 17.0859072835 -0.0318510857052 0.0183890455502 0.0269230518686
Te 2.1071086782 1.1851758675 10.4381279248 0 0.00902688683513 0.0182525199611
Te 4.2413797448 4.8818418138 10.4381279248 -0.00781718269775 -0.00451357197273 0.0182527770714
Te 6.3213269768 1.2165397626 10.4706996312 -0 2.57110337382e-07 0.0192310819051
Te -0.0271619173 4.8818415418 10.4381283481 0.00781718269775 -0.00451357197273 0.0182525199611
Te 0.0552985385 -0.031926641 24.0608284527 -0.0174876167073 0.010096722949 0.0123940038135
Te 2.1071093444 3.6496194471 23.9433563377 -2.57110337382e-07 -2.57110337382e-07 0.0285952975029
Te 4.158919289 -0.0319261437 24.0608286415 0.0174876167073 0.0100964658386 0.0123937467031
Te -2.1071093444 3.7134727291 24.0608286415 2.57110337382e-07 -0.0201929316773 0.0123937467031
Te -0.0020729422 2.4318837714 27.658466631 0.00284081211773 0.00164010684216 -0.0240842966335
Te 2.1071082308 6.0850927272 27.658466631 2.57110337382e-07 -0.00328047079465 -0.0240842966335
Te 4.2162907697 2.4318829828 27.6584666194 -0.00284081211773 0.00164036395249 -0.0240842966335
Te -2.1071082308 6.0826990986 27.6753745882 -2.57110337382e-07 -0 -0.0135440583526
Te -0.0271619173 2.4173975776 20.5953093006 0.00781718269775 0.00451357197273 -0.0182525199611
Te 2.1071091493 6.114063524 20.5953093006 -0 -0.00902688683513 -0.0182525199611
Te 4.2413797448 2.4173978496 20.5953088773 -0.00781718269775 0.00451357197273 -0.0182525199611
Te -2.1071091493 6.0826996289 20.5627375942 0 -2.57110337382e-07 -0.0192310819051
Sb -0.0472547175 2.4057955687 8.5561630243 0.00563534437473 0.00325373131956 -0.00921997669851
Sb 2.1071103789 6.137265412 8.5561630243 -2.57110337382e-07 -0.00650720552879 -0.00922023380884
Sb 4.261472545 2.4057972605 8.5561634136 -0.00563534437473 0.00325373131956 -0.00922023380884
Sb -2.1071103789 6.0827003388 8.4291319784 2.57110337382e-07 -0 -0.0151121743003
Sb 0.0012275004 2.4337859225 1.8092132413 -0.000615522147692 -0.000355069375924 0.0175446952022
Sb 2.1071111417 6.0812833832 1.8092132413 -2.57110337382e-07 0.000710652972523 0.0175449523126
Sb 4.2129903271 2.4337884951 1.8092135294 0.000615522147692 -0.000355326486261 0.0175444380919
Sb -2.1071111417 6.0827007792 1.8091700317 2.57110337382e-07 -2.57110337382e-07 0.0170507862441
Sb -0.0627818066 0.0362471098 18.7604091833 0.00380754698628 -0.00219829338461 -0.0245077573592
Sb 2.107108188 3.6496201148 18.7326672367 0 -2.57110337382e-07 -0.0035882318685
Sb 4.2769996341 0.0362462717 18.7604094284 -0.00380754698628 -0.00219803627428 -0.0245075002489
Sb 6.3213274671 3.5771258952 18.7604094284 -0 0.00439632965889 -0.0245075002489
Sb 0.0627818066 -0.0362471098 12.2730280421 -0.00380754698628 0.00219829338461 0.0245077573592
Sb 2.1071096396 3.6496192767 12.3007699887 -0 -0 0.0035882318685
Sb 4.1514360209 -0.0362462717 12.273027797 0.00380754698628 0.00219803627428 0.0245075002489
Sb -2.1071096396 3.7221134963 12.273027797 0 -0.00439658676923 0.0245075002489
Sb 2.1071066858 1.2179560083 29.2242239841 2.57110337382e-07 -0.000710652972523 -0.0175449523126
Sb 4.2129903271 4.865453469 29.2242239841 0.000615522147692 0.000355069375924 -0.0175449523126
Sb 6.3213289693 1.2165386123 29.2242671937 -2.57110337382e-07 2.57110337382e-07 -0.0170510433545
Sb 0.0012275004 4.8654508963 29.224223696 -0.000615522147692 0.000355326486261 -0.0175446952022
Sb 2.1071074486 1.1619739795 22.4772742011 2.57110337382e-07 0.00650720552879 0.00921997669851
Sb 4.261472545 4.8934438227 22.4772742011 -0.00563534437473 -0.00325373131956 0.00922023380884
Sb 6.3213282064 1.2165390527 22.604305247 -2.57110337382e-07 2.57110337382e-07 0.0151121743003
Sb -0.0472547175 4.8934421309 22.4772738119 0.00563534437473 -0.00325373131956 0.00922023380884
Cr 2.1071089138 3.6496196957 15.5167186127 0 0 0
61
Lattice="8.42843558953 0 0 -4.21421779477 7.29923593142 0 0 0 31.0334408416" Properties=species:S:1:pos:R:3:forces:R:3 energy=-133597.693696 ionic_step=10 pbc="T T T"
Te 2.1071095967 1.2144671576 3.3665848814 -2.57110337382e-07 0.00334937636507 0.026947734461
Te 4.2160132145 4.8671953733 3.3665848814 -0.00290071882634 -0.0016748167377 0.026947734461
Te 6.3213260584 1.2165402929 3.3492127391 2.57110337382e-07 0 0.0155068386682
Te -0.001795387 4.8671961619 3.366584893 0.00290071882634 -0.00167507384804 0.026947734461
Te -0.0595231745 0.0343657369 6.9839685069 0.0185255711394 -0.0106955329247 -0.0145401037996
Te 2.1071084831 3.6496199444 7.1142248492 2.57110337382e-07 -5.14220674763e-07 -0.0320588308578
Te 4.273741002 0.0343652396 6.9839683181 -0.0185255711394 -0.0106952758144 -0.0145398466893
Te -2.1071084831 3.5808884706 6.9839683181 -2.57110337382e-07 0.0213910658495 -0.0145398466893
Te -0 0 0 0 2.57110337382e-07 -2.57110337382e-07
Te 2.1071089138 3.6496196957 0 -0 -2.57110337382e-07 -2.57110337382e-07
Te 4.2142178275 0 0 -0 2.57110337382e-07 -2.57110337382e-07
Te -2.1071089138 3.6496196957 -0 0 -2.57110337382e-07 -2.57110337382e-07
Te 0.0693639048 2.4731273357 13.9480228789 -0.0318778251803 -0.0184044721705 -0.0261311520294
Te 2.1071086966 6.0026047919 13.9480228789 0 0.0368092014512 -0.0261311520294
Te 4.1448539227 2.4731270849 13.9480232673 0.0318778251803 -0.0184044721705 -0.0261311520294
Te -2.1071086966 6.0826993675 13.9298226486 -0 -2.57110337382e-07 -0.00219237984685
Te 2.107109131 1.2966345996 17.0854143465 -0 -0.0368092014512 0.0261311520294
Te 4.1448539227 4.8261120557 17.0854143465 0.0318778251803 0.0184044721705 0.0261311520294
Te 6.3213265241 1.216540024 17.1036145768 0 2.57110337382e-07 0.00219237984685
Te 0.0693639048 4.8261123065 17.0854139581 -0.0318778251803 0.0184044721705 0.0261311520294
Te 2.1071086782 1.1828808311 10.4454432749 0 0.00906776737878 0.0187194323337
Te 4.2433673037 4.882989332 10.4454432749 -0.00785266392431 -0.00453414079973 0.0187196894441
Te 6.3213269768 1.2165397626 10.4890341863 -0 2.57110337382e-07 0.0176760785846
Te -0.0291494762 4.88298906 10.4454436982 0.00785266392431 -0.00453388368939 0.0187196894441
Te 0.0595231745 -0.0343657369 24.0494687185 -0.0185255711394 0.0106960471454 0.0145401037996
Te 2.1071093444 3.6496194471 23.9192123762 -2.57110337382e-07 -2.57110337382e-07 0.0320588308578
Te 4.154694653 -0.0343652396 24.0494689073 0.0185255711394 0.0106957900351 0.0145398466893
Te -2.1071093444 3.7183509209 24.0494689073 2.57110337382e-07 -0.0213915800702 0.0145398466893
Te -0.001795387 2.4320440181 27.666852344 0.00290071882634 0.00167455962737 -0.0269474773506
Te 2.1071082308 6.0847722339 27.666852344 2.57110337382e-07 -0.00334937636507 -0.0269474773506
Te 4.2160132145 2.4320432295 27.6668523324 -0.00290071882634 0.00167507384804 -0.0269474773506
Te -2.1071082308 6.0826990986 27.6842244863 -2.57110337382e-07 -0 -0.0155063244475
Te -0.0291494762 2.4162500594 20.5879939505 0.00785266392431 0.00453414079973 -0.0187196894441
Te 2.1071091493 6.1163585604 20.5879939505 -0 -0.00906776737878 -0.0187196894441
Te 4.2433673037 2.4162503314 20.5879935272 -0.00785266392431 0.00453388368939 -0.0187196894441
Te -2.1071091493 6.0826996289 20.5444030391 0 -2.57110337382e-07 -0.0176760785846
Sb -0.0481637652 2.4052707295 8.573228308 0.00548416349635 0.00316657091519 -0.00950048407659
Sb 2.1071103789 6.1383150904 8.573228308 -2.57110337382e-07 -0.00633262760971 -0.00950048407659
Sb 4.2623815927 2.4052724213 8.5732286973 -0.00548416349635 0.00316631380485 -0.00950048407659
Sb -2.1071103789 6.0827003388 8.4315974871 2.57110337382e-07 -0 -0.0146601743272
Sb 0.0014127989 2.4338929047 1.8018607904 -0.000676971518326 -0.000390293492145 0.0178583698139
Sb 2.1071111417 6.0810694188 1.8018607904 -2.57110337382e-07 0.00078161542564 0.0178586269242
Sb 4.2128050286 2.4338954773 1.8018610785 0.000676971518326 -0.00039080771282 0.0178583698139
Sb -2.1071111417 6.0827007792 1.8024734472 2.57110337382e-07 -2.57110337382e-07 0.0173626610834
Sb -0.0634713274 0.036645205 18.7527596361 0.00366356519735 -0.0021149896353 -0.025213268125
Sb 2.107108188 3.6496201148 18.7385404586 0 -2.57110337382e-07 -0.00463801337603
Sb 4.2776891549 0.0366443669 18.7527598812 -0.00366356519735 -0.0021149896353 -0.0252130110147
Sb 6.3213274671 3.5763297048 18.7527598812 -0 0.0042299792706 -0.0252130110147
Sb 0.0634713274 -0.036645205 12.2806775893 -0.00366356519735 0.0021149896353 0.025213268125
Sb 2.1071096396 3.6496192767 12.2948967668 -0 -0 0.00463801337603
Sb 4.1507465001 -0.0366443669 12.2806773442 0.00366356519735 0.0021149896353 0.0252130110147
Sb -2.1071096396 3.7229096867 12.2806773442 0 -0.00423023638094 0.0252130110147
Sb 2.1071066858 1.2181699727 29.231576435 2.57110337382e-07 -0.000781358315303 -0.0178586269242
Sb 4.2128050286 4.8653464868 29.231576435 0.000676971518326 0.000390550602483 -0.0178586269242
Sb 6.3213289693 1.2165386123 29.2309637782 -2.57110337382e-07 2.57110337382e-07 -0.0173626610834
Sb 0.0014127989 4.8653439141 29.2315761469 -0.000676971518326 0.00039080771282 -0.0178583698139
Sb 2.1071074486 1.1609243011 22.4602089174 2.57110337382e-07 0.00633262760971 0.00950022696625
Sb 4.2623815927 4.8939686619 22.4602089174 -0.00548416349635 -0.00316657091519 0.00950048407659
Sb 6.3213282064 1.2165390527 22.6018397383 -2.57110337382e-07 2.57110337382e-07 0.0146599172168
Sb -0.0481637652 4.8939669701 22.4602085282 0.00548416349635 -0.00316631380485 0.00950048407659
Cr 2.1071089138 3.6496196957 15.5167186127 0 0 0
61
Lattice="8.42843558953 0 0 -4.21421779477 7.29923593142 0 0 0 31.0334408416" Properties=species:S:1:pos:R:3:forces:R:3 energy=-133597.736265 ionic_step=11 pbc="T T T"
Te 2.1071095967 1.2150680831 3.3562707006 -2.57110337382e-07 0.00335528990283 0.0306182416374
Te 4.215492798 4.8668949106 3.3562707006 -0.00290586103309 -0.00167764495142 0.0306182416374
Te 6.3213260584 1.2165402929 3.3384109429 2.57110337382e-07 0 0.0178876803923
Te -0.0012749705 4.8668956992 3.3562707122 0.00290586103309 -0.00167815917209 0.0306182416374
Te -0.0661541243 0.0381941193 7.0001436299 0.0200741467014 -0.0115895055678 -0.0172166224117
Te 2.1071084831 3.6496199444 7.1504407916 2.57110337382e-07 -5.14220674763e-07 -0.0364183937384
Te 4.2803719517 0.038193622 7.0001434411 -0.0200741467014 -0.0115892484575 -0.0172163653014
Te -2.1071084831 3.5732317059 7.0001434411 -2.57110337382e-07 0.0231790111356 -0.0172163653014
Te -0 0 0 0 2.57110337382e-07 -2.57110337382e-07
Te 2.1071089138 3.6496196957 0 -0 -2.57110337382e-07 -2.57110337382e-07
Te 4.2142178275 -0 0 -0 2.57110337382e-07 -2.57110337382e-07
Te -2.1071089138 3.6496196957 -0 0 -2.57110337382e-07 -2.57110337382e-07
Te 0.0725423906 2.4749624362 13.949072271 -0.0318744827459 -0.0184024152878 -0.024916819906
Te 2.1071086966 5.998934591 13.949072271 0 0.0368050876858 -0.0249165627957
Te 4.1416754369 2.4749621854 13.9490726594 0.0318744827459 -0.0184024152878 -0.024916819906
Te -2.1071086966 6.0826993675 13.9509052583 -0 -2.57110337382e-07 -0.00265235024043
Te 2.107109131 1.3003048005 17.0843649544 -0 -0.0368050876858 0.0249165627957
Te 4.1416754369 4.8242769552 17.0843649544 0.0318744827459 0.0184026723981 0.024916819906
Te 6.3213265241 1.216540024 17.0825319671 0 2.57110337382e-07 0.00265235024043
Te 0.0725423906 4.824277206 17.084364566 -0.0318744827459 0.0184024152878 0.024916819906
Te 2.1071086782 1.1790321338 10.456715131 0 0.0091731826171 0.01934909555
Te 4.2467003717 4.8849136807 10.456715131 -0.00794393809408 -0.00458684841889 0.0193493526603
Te 6.3213269768 1.2165397626 10.5188003832 -0 2.57110337382e-07 0.0148926020722
Te -0.0324825442 4.8849134087 10.4567155543 0.00794393809408 -0.00458659130855 0.0193493526603
Te 0.0661541243 -0.0381941193 24.0332935955 -0.0200741467014 0.0115900197885 0.0172166224117
Te 2.1071093444 3.6496194471 23.8829964338 -2.57110337382e-07 -2.57110337382e-07 0.0364183937384
Te 4.1480637033 -0.038193622 24.0332937843 0.0200738895911 0.0115897626782 0.0172163653014
Te -2.1071093444 3.7260076856 24.0332937843 2.57110337382e-07 -0.0231795253563 0.0172163653014
Te -0.0012749705 2.4323444808 27.6771665248 0.00290586103309 0.00167764495142 -0.0306179845271
Te 2.1071082308 6.0841713084 27.6771665248 2.57110337382e-07 -0.00335554701317 -0.0306179845271
Te 4.215492798 2.4323436922 27.6771665132 -0.00290586103309 0.00167790206175 -0.0306179845271
Te -2.1071082308 6.0826990986 27.6950262825 -2.57110337382e-07 -0 -0.0178871661716
Te -0.0324825442 2.4143257107 20.5767220944 0.00794393809408 0.00458684841889 -0.0193493526603
Te 2.1071091493 6.1202072577 20.5767220944 -0 -0.0091731826171 -0.0193493526603
Te 4.2467003717 2.4143259827 20.5767216711 -0.00794393809408 0.00458659130855 -0.01934909555
Te -2.1071091493 6.0826996289 20.5146368422 0 -2.57110337382e-07 -0.0148928591825
Sb -0.0493983686 2.4045579306 8.6003333612 0.00515609070585 0.00297708059654 -0.00984835436307
Sb 2.1071103789 6.1397406883 8.6003333612 -2.57110337382e-07 -0.00595390408275 -0.0098486114734
Sb 4.2636161961 2.4045596224 8.6003337505 -0.00515609070585 0.00297708059654 -0.0098486114734
Sb -2.1071103789 6.0827003388 8.4346233709 2.57110337382e-07 -0 -0.0137201789337
Sb 0.0016629961 2.4340373562 1.7923123122 -0.000769531239783 -0.000443772442321 0.0181414482953
Sb 2.1071111417 6.0807805159 1.7923123122 -2.57110337382e-07 0.000888316215654 0.0181417054056
Sb 4.2125548314 2.4340399288 1.7923126003 0.000769531239783 -0.000444029552658 0.0181414482953
Sb -2.1071111417 6.0827007792 1.7940937644 2.57110337382e-07 -2.57110337382e-07 0.0176660512815
Sb -0.0644150099 0.0371900406 18.7381469719 0.0034231670319 -0.00197640716345 -0.0263316980926
Sb 2.107108188 3.6496201148 18.7481882855 0 -2.57110337382e-07 -0.00633134205802
Sb 4.2786328374 0.0371892025 18.738147217 -0.0034231670319 -0.00197615005312 -0.0263314409823
Sb 6.3213274671 3.5752400336 18.738147217 -0 0.00395255721657 -0.0263314409823
Sb 0.0644150099 -0.0371900406 12.2952902535 -0.0034231670319 0.00197640716345 0.0263316980926
Sb 2.1071096396 3.6496192767 12.2852489399 -0 -0 0.00633134205802
Sb 4.1498028176 -0.0371892025 12.2952900084 0.0034231670319 0.00197615005312 0.0263314409823
Sb -2.1071096396 3.7239993579 12.2952900084 0 -0.00395281432691 0.0263314409823
Sb 2.1071066858 1.2184588756 29.2411249132 2.57110337382e-07 -0.000888316215654 -0.0181417054056
Sb 4.2125548314 4.8652020353 29.2411249132 0.000769531239783 0.000444029552658 -0.0181417054056
Sb 6.3213289693 1.2165386123 29.239343461 -2.57110337382e-07 2.57110337382e-07 -0.0176660512815
Sb 0.0016629961 4.8651994626 29.2411246251 -0.000769531239783 0.000444286662995 -0.0181414482953
Sb 2.1071074486 1.1594987032 22.4331038642 2.57110337382e-07 0.00595390408275 0.00984835436307
Sb 4.2636161961 4.8946814608 22.4331038642 -0.00515609070585 -0.00297708059654 0.0098486114734
Sb 6.3213282064 1.2165390527 22.5988138545 -2.57110337382e-07 2.57110337382e-07 0.0137201789337
Sb -0.0493983686 4.894679769 22.433103475 0.00515609070585 -0.00297708059654 0.0098486114734
Cr 2.1071089138 3.6496196957 15.5167186127 0 0 0
61
Lattice="8.42843558953 0 0 -4.21421779477 7.29923593142 0 0 0 31.0334408416" Properties=species:S:1:pos:R:3:forces:R:3 energy=-133597.799954 ionic_step=12 pbc="T T T"
Te 2.1071095967 1.2161195837 3.3438385144 -2.57110337382e-07 0.00316040026709 0.035121786307
Te 4.2145821722 4.8663691603 3.3438385144 -0.00273693954143 -0.00158020013355 0.035121786307
Te 6.3213260584 1.2165402929 3.3256803722 2.57110337382e-07 0 0.0206847837527
Te -0.0003643447 4.8663699489 3.343838526 0.00273693954143 -0.00158045724388 0.035121786307
Te -0.0766817717 0.0442722622 7.0234913827 0.0223750271106 -0.0129177375707 -0.0204492706836
Te 2.1071084831 3.6496199444 7.204764705 2.57110337382e-07 -5.14220674763e-07 -0.0412728940185
Te 4.2908995992 0.0442717649 7.0234911939 -0.0223750271106 -0.0129177375707 -0.0204492706836
Te -2.1071084831 3.56107542 7.0234911939 -2.57110337382e-07 0.0258359893621 -0.0204492706836
Te -0 0 0 0 2.57110337382e-07 -2.57110337382e-07
Te 2.1071089138 3.6496196957 0 -0 -2.57110337382e-07 -2.57110337382e-07
Te 4.2142178275 -0 0 -0 2.57110337382e-07 -2.57110337382e-07
Te -2.1071089138 3.6496196957 0 0 -2.57110337382e-07 -2.57110337382e-07
Te 0.0778258914 2.4780128682 13.9511546693 -0.0319102210828 -0.0184232412251 -0.0230440282085
Te 2.1071086966 5.9928337269 13.9511546693 0 0.0368464824502 -0.0230437710982
Te 4.1363919361 2.4780126174 13.9511550577 0.0319102210828 -0.0184232412251 -0.0230440282085
Te -2.1071086966 6.0826993675 13.9872663067 -0 -2.57110337382e-07 -0.00329075520815
Te 2.107109131 1.3064056646 17.0822825561 -0 -0.0368464824502 0.0230437710982
Te 4.1363919361 4.8212265232 17.0822825561 0.0319102210828 0.0184232412251 0.0230440282085
Te 6.3213265241 1.216540024 17.0461709187 0 2.57110337382e-07 0.00329075520815
Te 0.0778258914 4.821226774 17.0822821677 -0.0319102210828 0.0184232412251 0.0230440282085
Te 2.1071086782 1.1724101901 10.4743446505 0 0.00946448862936 0.0201679919746
Te 4.2524351405 4.8882246525 10.4743446505 -0.00819616333505 -0.00473237286985 0.0201682490849
Te 6.3213269768 1.2165397626 10.5663724809 -0 2.57110337382e-07 0.0103018969982
Te -0.038217313 4.8882243805 10.4743450738 0.00819616333505 -0.00473237286985 0.0201682490849
Te 0.0766817717 -0.0442722622 24.0099458427 -0.0223750271106 0.0129185089017 0.0204492706836
Te 2.1071093444 3.6496194471 23.8286725204 -2.57110337382e-07 -2.57110337382e-07 0.0412728940185
Te 4.1375360558 -0.0442717649 24.0099460315 0.0223750271106 0.0129182517914 0.0204492706836
Te -2.1071093444 3.7381639715 24.0099460315 2.57110337382e-07 -0.0258365035828 0.0204492706836
Te -0.0003643447 2.4328702311 27.689598711 0.00273693954143 0.00158020013355 -0.0351215291967
Te 2.1071082308 6.0831198078 27.689598711 2.57110337382e-07 -0.00316040026709 -0.0351215291967
Te 4.2145821722 2.4328694425 27.6895986994 -0.00273693954143 0.00158045724388 -0.0351215291967
Te -2.1071082308 6.0826990986 27.7077568532 -2.57110337382e-07 -0 -0.0206845266424
Te -0.038217313 2.4110147389 20.5590925749 0.00819616333505 0.00473237286985 -0.0201682490849
Te 2.1071091493 6.1268292014 20.5590925749 -0 -0.00946448862936 -0.0201682490849
Te 4.2524351405 2.4110150109 20.5590921516 -0.00819616333505 0.00473237286985 -0.0201682490849
Te -2.1071091493 6.0826996289 20.4670647445 0 -2.57110337382e-07 -0.0103021541085
Sb -0.051326223 2.4034448828 8.6429718798 0.00454982453031 0.00262715342737 -0.0102149937042
Sb 2.1071103789 6.1419667838 8.6429718798 -2.57110337382e-07 -0.00525379263406 -0.0102149937042
Sb 4.2655440505 2.4034465746 8.6429722691 -0.00454982453031 0.00262689631703 -0.0102149937042
Sb -2.1071103789 6.0827003388 8.438077307 2.57110337382e-07 -0 -0.011984427046
Sb 0.001960079 2.4342088772 1.7802281292 -0.000902200173872 -0.00052039132286 0.0182795165465
Sb 2.1071111417 6.0804374738 1.7802281292 -2.57110337382e-07 0.00104181108707 0.0182795165465
Sb 4.2122577485 2.4342114498 1.7802284173 0.000902200173872 -0.000520905543535 0.0182792594361
Sb -2.1071111417 6.0827007792 1.7840164088 2.57110337382e-07 -2.57110337382e-07 0.0178743106548
Sb -0.0659118285 0.0380542297 18.7118246878 0.00305704191147 -0.00176480535579 -0.0281047309792
Sb 2.107108188 3.6496201148 18.7639226749 0 -2.57110337382e-07 -0.0089042452042
Sb 4.280129656 0.0380533916 18.7118249329 -0.00305704191147 -0.00176480535579 -0.0281047309792
Sb 6.3213274671 3.5735116555 18.7118249329 -0 0.00352961071158 -0.0281044738688
Sb 0.0659118285 -0.0380542297 12.3216125376 -0.00305704191147 0.00176480535579 0.0281047309792
Sb 2.1071096396 3.6496192767 12.2695145505 -0 -0 0.0089042452042
Sb 4.148305999 -0.0380533916 12.3216122925 0.00305704191147 0.00176480535579 0.0281047309792
Sb -2.1071096396 3.725727736 12.3216122925 0 -0.00352986782191 0.0281044738688
Sb 2.1071066858 1.2188019177 29.2532090962 2.57110337382e-07 -0.00104155397673 -0.0182795165465
Sb 4.2122577485 4.8650305143 29.2532090962 0.000902200173872 0.000520648433198 -0.0182795165465
Sb 6.3213289693 1.2165386123 29.2494208166 -2.57110337382e-07 2.57110337382e-07 -0.0178743106548
Sb 0.001960079 4.8650279416 29.2532088081 -0.000902200173872 0.000520905543535 -0.0182792594361
Sb 2.1071074486 1.1572726077 22.3904653456 2.57110337382e-07 0.00525379263406 0.0102149937042
Sb 4.2655440505 4.8957945086 22.3904653456 -0.00454982453031 -0.00262715342737 0.0102149937042
Sb 6.3213282064 1.2165390527 22.5953599184 -2.57110337382e-07 2.57110337382e-07 0.0119841699357
Sb -0.051326223 4.8957928168 22.3904649564 0.00454982453031 -0.00262689631703 0.0102152508145
Cr 2.1071089138 3.6496196957 15.5167186127 0 0 0
61
Lattice="8.42843558953 0 0 -4.21421779477 7.29923593142 0 0 0 31.0334408416" Properties=species:S:1:pos:R:3:forces:R:3 energy=-133597.902717 ionic_step=13 pbc="T T T"
Te 2.1071095967 1.217978771 3.3314841217 -2.57110337382e-07 0.00246697368718 0.0399132945544
Te 4.2129720696 4.8654395667 3.3314841217 -0.0021363297933 -0.00123361539876 0.0399132945544
Te 6.3213260584 1.2165402929 3.3134593551 2.57110337382e-07 0 0.0234644036101
Te 0.0012457579 4.8654403553 3.3314841333 0.0021363297933 -0.00123387250909 0.0399132945544
Te -0.0937914299 0.0541505326 7.0571034868 0.0256763238426 -0.0148239536121 -0.023692203369
Te 2.1071084831 3.6496199444 7.2862505752 2.57110337382e-07 -5.14220674763e-07 -0.0451665729678
Te 4.3080092574 0.0541500353 7.057103298 -0.0256763238426 -0.0148236965017 -0.0236919462587
Te -2.1071084831 3.5413188792 7.057103298 -2.57110337382e-07 0.0296481643345 -0.0236919462587
Te -0 -0 0 0 2.57110337382e-07 -2.57110337382e-07
Te 2.1071089138 3.6496196957 0 -0 -2.57110337382e-07 -2.57110337382e-07
Te 4.2142178275 -0 0 -0 2.57110337382e-07 -2.57110337382e-07
Te -2.1071089138 3.6496196957 0 0 -2.57110337382e-07 -2.57110337382e-07
Te 0.0870593817 2.4833438289 13.955427954 -0.0321814724887 -0.0185798214205 -0.0200489498883
Te 2.1071086966 5.9821718057 13.955427954 0 0.0371598999514 -0.0200489498883
Te 4.1271584458 2.4833435781 13.9554283424 0.0321814724887 -0.0185798214205 -0.0200489498883
Te -2.1071086966 6.0826993675 14.0510758539 -0 -2.57110337382e-07 -0.00361497134359
Te 2.107109131 1.3170675858 17.0780092714 -0 -0.0371598999514 0.0200489498883
Te 4.1271584458 4.8158955625 17.0780092714 0.0321814724887 0.0185798214205 0.0200489498883
Te 6.3213265241 1.216540024 16.9823613715 0 2.57110337382e-07 0.00361497134359
Te 0.0870593817 4.8158958133 17.078008883 -0.0321814724887 0.0185798214205 0.0200489498883
Te 2.1071086782 1.1604574995 10.5025795759 0 0.0102329914278 0.0211792069315
Te 4.2627864694 4.8942009978 10.5025795759 -0.00886182199853 -0.00511675282423 0.0211794640418
Te 6.3213269768 1.2165397626 10.6442507227 -0 2.57110337382e-07 0.00287166535822
Te -0.0485686419 4.8942007258 10.5025799992 0.00886182199853 -0.00511675282423 0.0211794640418
Te 0.0937914299 -0.0541505326 23.9763337386 -0.0256763238426 0.0148244678327 0.0236919462587
Te 2.1071093444 3.6496194471 23.7471866502 -2.57110337382e-07 -2.57110337382e-07 0.0451665729678
Te 4.1204263976 -0.0541500353 23.9763339274 0.0256763238426 0.0148242107224 0.0236919462587
Te -2.1071093444 3.7579205123 23.9763339274 2.57110337382e-07 -0.0296486785552 0.0236919462587
Te 0.0012457579 2.4337998247 27.7019531037 0.0021363297933 0.00123335828842 -0.0399130374441
Te 2.1071082308 6.0812606205 27.7019531037 2.57110337382e-07 -0.00246697368718 -0.0399130374441
Te 4.2129720696 2.4337990361 27.7019530921 -0.0021363297933 0.00123387250909 -0.0399130374441
Te -2.1071082308 6.0826990986 27.7199778703 -2.57110337382e-07 -0 -0.0234641464998
Te -0.0485686419 2.4050383936 20.5308576495 0.00886182199853 0.00511675282423 -0.0211794640418
Te 2.1071091493 6.138781892 20.5308576495 -0 -0.0102329914278 -0.0211794640418
Te 4.2627864694 2.4050386656 20.5308572262 -0.00886182199853 0.00511675282423 -0.0211794640418
Te -2.1071091493 6.0826996289 20.3891865027 0 -2.57110337382e-07 -0.00287192246855
Sb -0.0544998405 2.401612593 8.710675656 0.00349155838164 0.00201600215541 -0.0102772144058
Sb 2.1071103789 6.1456313633 8.710675656 -2.57110337382e-07 -0.00403174720048 -0.0102774715162
Sb 4.268717668 2.4016142848 8.7106760453 -0.00349155838164 0.00201600215541 -0.0102774715162
Sb -2.1071103789 6.0827003388 8.4409845975 2.57110337382e-07 -0 -0.00883791073716
Sb 0.0022325546 2.4343661911 1.7665800527 -0.00108860516847 -0.000628120554223 0.0180072366992
Sb 2.1071111417 6.080122846 1.7665800527 -2.57110337382e-07 0.00125675532912 0.0180074938095
Sb 4.2119852729 2.4343687637 1.7665803408 0.00108860516847 -0.000628377664561 0.0180072366992
Sb -2.1071111417 6.0827007792 1.773879396 2.57110337382e-07 -2.57110337382e-07 0.017783807816
Sb -0.0685465542 0.03957539 18.6632933358 0.0025806164563 -0.00148969729479 -0.0310314179496
Sb 2.107108188 3.6496201148 18.7904685115 0 -2.57110337382e-07 -0.0123148138296
Sb 4.2827643817 0.0395745519 18.6632935809 -0.0025806164563 -0.00148969729479 -0.0310311608393
Sb 6.3213274671 3.5704693349 18.6632935809 -0 0.00297939458958 -0.0310311608393
Sb 0.0685465542 -0.03957539 12.3701438896 -0.0025806164563 0.00148995440513 0.0310314179496
Sb 2.1071096396 3.6496192767 12.2429687139 -0 -0 0.0123148138296
Sb 4.1456712733 -0.0395745519 12.3701436445 0.0025806164563 0.00148969729479 0.0310311608393
Sb -2.1071096396 3.7287700566 12.3701436445 0 -0.00297965169992 0.0310311608393
Sb 2.1071066858 1.2191165455 29.2668571727 2.57110337382e-07 -0.00125675532912 -0.0180074938095
Sb 4.2119852729 4.8648732004 29.2668571727 0.00108860516847 0.000628120554223 -0.0180074938095
Sb 6.3213289693 1.2165386123 29.2595578294 -2.57110337382e-07 2.57110337382e-07 -0.0177840649263
Sb 0.0022325546 4.8648706277 29.2668568846 -0.00108860516847 0.000628377664561 -0.0180072366992
Sb 2.1071074486 1.1536080282 22.3227615694 2.57110337382e-07 0.00403174720048 0.0102772144058
Sb 4.268717668 4.8976267984 22.3227615694 -0.00349155838164 -0.00201600215541 0.0102774715162
Sb 6.3213282064 1.2165390527 22.5924526279 -2.57110337382e-07 2.57110337382e-07 0.00883765362682
Sb -0.0544998405 4.8976251066 22.3227611802 0.00349155838164 -0.00201600215541 0.0102774715162
Cr 2.1071089138 3.6496196957 15.5167186127 0 0 0
61
Lattice="8.42843558953 0 0 -4.21421779477 7.29923593142 0 0 0 31.0334408416" Properties=species:S:1:pos:R:3:forces:R:3 energy=-133598.031241 ionic_step=14 pbc="T T T"
Te 2.1071095967 1.2207976468 3.317079942 -2.57110337382e-07 0.000807583569716 0.0443823864388
Te 4.2105308527 4.8640301288 3.317079942 -0.000699340117678 -0.000403663229689 0.0443823864388
Te 6.3213260584 1.2165402929 3.2993272978 2.57110337382e-07 0 0.0267204489227
Te 0.0036869748 4.8640309174 3.3170799536 0.000699340117678 -0.000404177450364 0.0443823864388
Te -0.1208223105 0.069756826 7.107755908 0.0297808332686 -0.0171934824814 -0.0269857867909
Te 2.1071084831 3.6496199444 7.4084793806 2.57110337382e-07 -5.14220674763e-07 -0.0457988072875
Te 4.335040138 0.0697563287 7.1077557192 -0.0297808332686 -0.0171934824814 -0.0269857867909
Te -2.1071084831 3.5101062923 7.1077557192 -2.57110337382e-07 0.0343874791834 -0.0269857867909
Te -0 -0 0 0 2.57110337382e-07 -2.57110337382e-07
Te 2.1071089138 3.6496196957 0 -0 -2.57110337382e-07 -2.57110337382e-07
Te 4.2142178275 -0 0 -0 2.57110337382e-07 -2.57110337382e-07
Te -2.1071089138 3.6496196957 0 0 -2.57110337382e-07 -2.57110337382e-07
Te 0.1032536911 2.4926936221 13.9630332741 -0.0333847488677 -0.0192745335522 -0.015539491681
Te 2.1071086966 5.9634722191 13.9630332741 0 0.0385490671043 -0.015539491681
Te 4.1109641364 2.4926933713 13.9630336624 0.0333847488677 -0.0192742764418 -0.0155397487913
Te -2.1071086966 6.0826993675 14.1527782997 -0 -2.57110337382e-07 -0.00149303972918
Te 2.107109131 1.3357671723 17.0704039514 -0 -0.0385490671043 0.015539491681
Te 4.1109641364 4.8065457693 17.0704039514 0.0333847488677 0.0192745335522 0.015539491681
Te 6.3213265241 1.216540024 16.8806589257 0 2.57110337382e-07 0.00149303972918
Te 0.1032536911 4.8065460201 17.0704035629 -0.0333847488677 0.0192745335522 0.0155397487913
Te 2.1071086782 1.1396313793 10.5469864179 0 0.0118694987252 0.0224830134523
Te 4.2808224101 4.9046140579 10.5469864179 -0.0102790141782 -0.00593487791778 0.0224832705627
Te 6.3213269768 1.2165397626 10.763223869 -0 2.57110337382e-07 -0.00646863897818
Te -0.0666045826 4.9046137859 10.5469868412 0.0102790141782 -0.00593487791778 0.0224832705627
Te 0.1208223105 -0.069756826 23.9256813174 -0.0297805761582 0.0171939967021 0.0269857867909
Te 2.1071093444 3.6496194471 23.6249578448 -2.57110337382e-07 -2.57110337382e-07 0.0457988072875
Te 4.093395517 -0.0697563287 23.9256815062 0.0297805761582 0.0171939967021 0.0269857867909
Te -2.1071093444 3.7891330992 23.9256815062 2.57110337382e-07 -0.0343877362938 0.0269855296806
Te 0.0036869748 2.4352092626 27.7163572834 0.000699340117678 0.000403663229689 -0.0443821293285
Te 2.1071082308 6.0784417447 27.7163572834 2.57110337382e-07 -0.000807583569716 -0.0443821293285
Te 4.2105308527 2.435208474 27.7163572718 -0.000699340117678 0.000403920340027 -0.0443821293285
Te -2.1071082308 6.0826990986 27.7341099276 -2.57110337382e-07 -0 -0.0267201918124
Te -0.0666045826 2.3946253335 20.4864508075 0.0102792712885 0.00593513502812 -0.0224832705627
Te 2.1071091493 6.1596080122 20.4864508075 -0 -0.0118694987252 -0.0224832705627
Te 4.2808224101 2.3946256055 20.4864503842 -0.0102792712885 0.00593487791778 -0.0224832705627
Te -2.1071091493 6.0826996289 20.2702133564 0 -2.57110337382e-07 0.00646863897818
Sb -0.0608435442 2.3979500523 8.8136487872 0.00234638893894 0.001354971478 -0.00902482995243
Sb 2.1071103789 6.1529564448 8.8136487872 -2.57110337382e-07 -0.00270942873533 -0.00902508706277
Sb 4.2750613717 2.3979517441 8.8136491765 -0.00234638893894 0.00135471436766 -0.00902508706277
Sb -2.1071103789 6.0827003388 8.4431191189 2.57110337382e-07 -0 -0.00441921247892
Sb 0.0023865231 2.4344550849 1.7498751716 -0.00133208865797 -0.000768759908771 0.0171603152479
Sb 2.1071111417 6.0799450584 1.7498751716 -2.57110337382e-07 0.00153803403822 0.0171603152479
Sb 4.2118313044 2.4344576575 1.7498754597 0.00133208865797 -0.000769017019108 0.0171600581375
Sb -2.1071111417 6.0827007792 1.7626037114 2.57110337382e-07 -2.57110337382e-07 0.0172791002237
Sb -0.0740729375 0.0427660504 18.5850514638 0.00223943103859 -0.00129275077635 -0.0359795063925
Sb 2.107108188 3.6496201148 18.8319813078 0 -2.57110337382e-07 -0.0150512391503
Sb 4.288290765 0.0427652123 18.5850517089 -0.00223943103859 -0.00129275077635 -0.0359792492822
Sb 6.3213274671 3.5640880141 18.5850517089 -0 0.00258550155271 -0.0359792492822
Sb 0.0740729375 -0.0427660504 12.4483857616 -0.00223943103859 0.00129275077635 0.0359795063925
Sb 2.1071096396 3.6496192767 12.2014559176 -0 -0 0.0150512391503
Sb 4.14014489 -0.0427652123 12.4483855165 0.00223943103859 0.00129275077635 0.0359792492822
Sb -2.1071096396 3.7351513774 12.4483855165 0 -0.00258575866305 0.0359792492822
Sb 2.1071066858 1.2192943331 29.2835620538 2.57110337382e-07 -0.00153803403822 -0.0171603152479
Sb 4.2118313044 4.8647843066 29.2835620538 0.00133208865797 0.000768759908771 -0.0171603152479
Sb 6.3213289693 1.2165386123 29.270833514 -2.57110337382e-07 2.57110337382e-07 -0.0172791002237
Sb 0.0023865231 4.8647817339 29.2835617657 -0.00133208865797 0.000769017019108 -0.0171600581375
Sb 2.1071074486 1.1462829467 22.2197884382 2.57110337382e-07 0.00270942873533 0.00902482995243
Sb 4.2750613717 4.9012893391 22.2197884382 -0.00234638893894 -0.001354971478 0.00902508706277
Sb 6.3213282064 1.2165390527 22.5903181065 -2.57110337382e-07 2.57110337382e-07 0.00441921247892
Sb -0.0608435442 4.9012876473 22.219788049 0.00234638893894 -0.00135471436766 0.00902508706277
Cr 2.1071089138 3.6496196957 15.5167186127 0 0 0
61
Lattice="8.42843558953 0 0 -4.21421779477 7.29923593142 0 0 0 31.0334408416" Properties=species:S:1:pos:R:3:forces:R:3 energy=-133598.211257 ionic_step=15 pbc="T T T"
Te 2.1071095967 1.2250814297 3.3056693438 -2.57110337382e-07 -0.00222888951476 0.0464307844967
Te 4.2068209895 4.8618882373 3.3056693438 0.00193038441306 0.00111457331255 0.0464307844967
Te 6.3213260584 1.2165402929 3.2887088852 2.57110337382e-07 0 0.0296700187132
Te 0.007396838 4.8618890259 3.3056693554 -0.00193038441306 0.00111431620221 0.0464307844967
Te -0.1646687927 0.0950716161 7.1837614185 0.0334310287284 -0.0193010159169 -0.028429975556
Te 2.1071084831 3.6496199444 7.5904940824 2.57110337382e-07 -5.14220674763e-07 -0.0436002567925
Te 4.3788866202 0.0950711188 7.1837612297 -0.0334310287284 -0.0193010159169 -0.028429975556
Te -2.1071084831 3.4594767122 7.1837612297 -0 0.0386025460545 -0.0284297184456
Te -0 -0 0 0 2.57110337382e-07 -2.57110337382e-07
Te 2.1071089138 3.6496196957 0 -0 -2.57110337382e-07 -2.57110337382e-07
Te 4.2142178275 -0 0 -0 2.57110337382e-07 -2.57110337382e-07
Te -2.1071089138 3.6496196957 0 0 -2.57110337382e-07 -2.57110337382e-07
Te 0.1329906668 2.509862281 13.9772796174 -0.036559033093 -0.0211069589267 -0.00876566273235
Te 2.1071086966 5.9291349014 13.9772796174 0 0.042214432074 -0.00876566273235
Te 4.0812271607 2.5098620302 13.9772800058 0.036559033093 -0.0211069589267 -0.00876591984269
Te -2.1071086966 6.0826993675 14.3188439679 -0 -2.57110337382e-07 0.00539134666456
Te 2.107109131 1.3701044901 17.056157608 -0 -0.042214432074 0.00876566273235
Te 4.0812271607 4.7893771104 17.056157608 0.036559033093 0.021107216037 0.00876566273235
Te 6.3213265241 1.216540024 16.7145932574 0 2.57110337382e-07 -0.00539134666456
Te 0.1329906668 4.7893773612 17.0561572196 -0.036559033093 0.021107216037 0.00876591984269
Te 2.1071086782 1.1010198778 10.617906478 0 0.014817011633 0.0242951271102
Te 4.3142609357 4.9239198086 10.617906478 -0.0128316056077 -0.00740863437165 0.0242953842205
Te 6.3213269768 1.2165397626 10.946567077 -0 2.57110337382e-07 -0.0158621651544
Te -0.1000431082 4.9239195366 10.6179069013 0.0128316056077 -0.00740863437165 0.0242953842205
Te 0.1646687927 -0.0950716161 23.8496758069 -0.033430771618 0.0193015301376 0.028429975556
Te 2.1071093444 3.6496194471 23.442943143 -2.57110337382e-07 -2.57110337382e-07 0.0436002567925
Te 4.0495490348 -0.0950711188 23.8496759957 0.0334310287284 0.0193012730272 0.028429975556
Te -2.1071093444 3.8397626793 23.8496759957 0 -0.0386028031648 0.0284297184456
Te 0.007396838 2.4373511541 27.7277678816 -0.00193038441306 -0.00111457331255 -0.0464305273864
Te 2.1071082308 6.0741579618 27.7277678816 2.57110337382e-07 0.00222888951476 -0.0464305273864
Te 4.2068209895 2.4373503655 27.72776787 0.00193038441306 -0.00111431620221 -0.0464305273864
Te -2.1071082308 6.0826990986 27.7447283402 -2.57110337382e-07 -0 -0.0296697616028
Te -0.1000431082 2.3753195828 20.4155307474 0.0128316056077 0.00740863437165 -0.0242951271102
Te 2.1071091493 6.1982195137 20.4155307474 -0 -0.014817011633 -0.0242951271102
Te 4.3142609357 2.3753198548 20.4155303241 -0.0128316056077 0.00740863437165 -0.0242951271102
Te -2.1071091493 6.0826996289 20.0868701484 0 -2.57110337382e-07 0.0158621651544
Sb -0.0735939556 2.3905885954 8.9702533654 0.00223043217679 0.00128812279028 -0.00363733994294
Sb 2.1071103789 6.1676793586 8.9702533654 -2.57110337382e-07 -0.00257547424955 -0.00363759705328
Sb 4.2878117831 2.3905902872 8.9702537547 -0.00223043217679 0.00128786567994 -0.00363733994294
Sb -2.1071103789 6.0827003388 8.441323413 2.57110337382e-07 -2.57110337382e-07 0.000341956748718
Sb 0.0021259671 2.4343046527 1.7338503286 -0.00162236622888 -0.000936138738407 0.01528726644
Sb 2.1071111417 6.0802459227 1.7338503286 -2.57110337382e-07 0.00187304880783 0.01528726644
Sb 4.2120918604 2.4343072253 1.7338506167 0.00162236622888 -0.000936395848744 0.0152870093297
Sb -2.1071111417 6.0827007792 1.7550009277 2.57110337382e-07 -2.57110337382e-07 0.0159673232824
Sb -0.0859849647 0.0496434657 18.4558921655 0.00259475752486 -0.00149792482559 -0.0444518062299
Sb 2.107108188 3.6496201148 18.8976603433 0 -2.57110337382e-07 -0.0160089751571
Sb 4.3002027922 0.0496426276 18.4558924106 -0.00259475752486 -0.00149792482559 -0.0444518062299
Sb 6.3213274671 3.5503331834 18.4558924106 -0 0.00299610676151 -0.0444515491196
Sb 0.0859849647 -0.0496434657 12.5775450599 -0.00259475752486 0.00149818193592 0.0444518062299
Sb 2.1071096396 3.6496192767 12.1357768821 -0 -0 0.0160089751571
Sb 4.1282328628 -0.0496426276 12.5775448148 0.00259475752486 0.00149792482559 0.0444518062299
Sb -2.1071096396 3.7489062081 12.5775448148 0 -0.00299636387185 0.0444515491196
Sb 2.1071066858 1.2189934688 29.2995868968 2.57110337382e-07 -0.00187304880783 -0.0152875235504
Sb 4.2120918604 4.8649347388 29.2995868968 0.00162236622888 0.000936395848744 -0.01528726644
Sb 6.3213289693 1.2165386123 29.2784362977 -2.57110337382e-07 2.57110337382e-07 -0.0159673232824
Sb 0.0021259671 4.8649321661 29.2995866087 -0.00162236622888 0.000936652959081 -0.01528726644
Sb 2.1071074486 1.1315600329 22.06318386 2.57110337382e-07 0.00257573135989 0.00363733994294
Sb 4.2878117831 4.908650796 22.06318386 -0.00223043217679 -0.00128812279028 0.00363759705328
Sb 6.3213282064 1.2165390527 22.5921138124 -2.57110337382e-07 2.57110337382e-07 -0.000341956748718
Sb -0.0735939556 4.9086491042 22.0631834708 0.00223043217679 -0.00128786567994 0.00363759705328
Cr 2.1071089138 3.6496196957 15.5167186127 0 0 0
61
Lattice="8.42843558953 0 0 -4.21421779477 7.29923593142 0 0 0 31.0334408416" Properties=species:S:1:pos:R:3:forces:R:3 energy=-133598.437977 ionic_step=16 pbc="T T T"
Te 2.1071095967 1.2301070032 3.3055753363 -2.57110337382e-07 -0.00555281195643 0.0450102498827
Te 4.2024687173 4.8593754506 3.3055753363 0.00480873464005 0.00277627742305 0.0450102498827
Te 6.3213260584 1.2165402929 3.290440458 2.57110337382e-07 0 0.0313252950652
Te 0.0117491102 4.8593762392 3.3055753479 -0.00480873464005 0.00277602031271 0.0450102498827
Te -0.2222982779 0.1283440305 7.2770584132 0.0331111834687 -0.0191164106947 -0.0262828471285
Te 2.1071084831 3.6496199444 7.8076788289 2.57110337382e-07 -5.14220674763e-07 -0.0497246250289
Te 4.4365161054 0.1283435332 7.2770582244 -0.0331111834687 -0.0191164106947 -0.0262825900182
Te -2.1071084831 3.3929318835 7.2770582244 -0 0.03823333561 -0.0262825900182
Te -0 -0 0 0 2.57110337382e-07 -2.57110337382e-07
Te 2.1071089138 3.6496196957 0 -0 -2.57110337382e-07 -2.57110337382e-07
Te 4.2142178275 -0 0 -0 2.57110337382e-07 -2.57110337382e-07
Te -2.1071089138 3.6496196957 0 0 -2.57110337382e-07 -2.57110337382e-07
Te 0.178783563 2.5363008343 13.9981813958 -0.0404115743883 -0.0233314775657 -0.000115185431147
Te 2.1071086966 5.8762577947 13.9981813958 0 0.0466632122417 -0.000115185431147
Te 4.0354342645 2.5363005835 13.9981817842 0.0404115743883 -0.0233312204554 -0.000115185431147
Te -2.1071086966 6.0826993675 14.5359929236 -0 -2.57110337382e-07 0.00062554945085
Te 2.107109131 1.4229815968 17.0352558296 -0 -0.0466629551314 0.000115185431147
Te 4.0354342645 4.7629385571 17.0352558296 0.0404115743883 0.0233314775657 0.000115185431147
Te 6.3213265241 1.216540024 16.4974443018 0 2.57110337382e-07 -0.00062554945085
Te 0.178783563 4.7629388079 17.0352554412 -0.0404115743883 0.0233314775657 0.000115185431147
Te 2.1071086782 1.0422023675 10.7095184907 0 0.0166730911585 0.0268358914642
Te 4.36519837 4.9533285638 10.7095184907 -0.0144393165474 -0.0083368026896 0.0268361485745
Te 6.3213269768 1.2165397626 11.1712637344 -0 2.57110337382e-07 -0.0196283173764
Te -0.1509805425 4.9533282918 10.709518914 0.0144393165474 -0.0083368026896 0.0268361485745
Te 0.2222982779 -0.1283440305 23.7563788122 -0.0331111834687 0.0191169249153 0.0262825900182
Te 2.1071093444 3.6496194471 23.2257583965 -2.57110337382e-07 -2.57110337382e-07 0.0497246250289
Te 3.9919195496 -0.1283435332 23.756379001 0.0331111834687 0.019116667805 0.0262825900182
Te -2.1071093444 3.906307508 23.756379001 0 -0.03823333561 0.0262825900182
Te 0.0117491102 2.4398639408 27.7278618891 -0.00480873464005 -0.00277627742305 -0.0450099927724
Te 2.1071082308 6.0691323883 27.7278618891 2.57110337382e-07 0.00555281195643 -0.0450099927724
Te 4.2024687173 2.4398631522 27.7278618775 0.00480873464005 -0.00277602031271 -0.0450099927724
Te -2.1071082308 6.0826990986 27.7429967674 -2.57110337382e-07 -0 -0.0313250379549
Te -0.1509805425 2.3459108276 20.3239187347 0.0144393165474 0.0083368026896 -0.0268361485745
Te 2.1071091493 6.257037024 20.3239187347 -0 -0.0166730911585 -0.0268361485745
Te 4.36519837 2.3459110996 20.3239183114 -0.0144393165474 0.0083368026896 -0.0268361485745
Te -2.1071091493 6.0826996289 19.862173491 0 -2.57110337382e-07 0.0196283173764
Sb -0.094296402 2.3786360268 9.1590431242 0.00448760382866 0.00259115798013 0.00647943761235
Sb 2.1071103789 6.1915844958 9.1590431242 -2.57110337382e-07 -0.00518180173959 0.00647943761235
Sb 4.3085142295 2.3786377186 9.1590435135 -0.00448760382866 0.00259115798013 0.00647943761235
Sb -2.1071103789 6.0827003388 8.4322297663 2.57110337382e-07 -2.57110337382e-07 0.00119119219309
Sb 0.0011891052 2.433763755 1.7277498439 -0.00187459146985 -0.0010819202997 0.0126338877583
Sb 2.1071111417 6.0813277181 1.7277498439 -2.57110337382e-07 0.00216435482008 0.0126338877583
Sb 4.2130287223 2.4337663276 1.727750132 0.00187459146985 -0.00108217741004 0.0126336306479
Sb -2.1071111417 6.0827007792 1.7588764748 2.57110337382e-07 -2.57110337382e-07 0.013911726135
Sb -0.1069221474 0.0617315594 18.2853441504 0.00153186339012 -0.000884459560593 -0.0508901061883
Sb 2.107108188 3.6496201148 18.9788845112 0 -2.57110337382e-07 -0.021425004414
Sb 4.3211399749 0.0617307213 18.2853443955 -0.00153186339012 -0.000884202450255 -0.0508898490779
Sb 6.3213274671 3.5261569961 18.2853443955 -0 0.00176866201085 -0.0508898490779
Sb 0.1069221474 -0.0617315594 12.748093075 -0.00153186339012 0.000884459560593 0.0508901061883
Sb 2.1071096396 3.6496192767 12.0545527142 -0 -0 0.021425004414
Sb 4.1072956801 -0.0617307213 12.7480928299 0.00153186339012 0.000884202450255 0.0508898490779
Sb -2.1071096396 3.7730823954 12.7480928299 0 -0.00176891912119 0.0508898490779
Sb 2.1071066858 1.2179116734 29.3056873815 2.57110337382e-07 -0.00216435482008 -0.0126341448686
Sb 4.2130287223 4.8654756365 29.3056873815 0.00187459146985 0.0010819202997 -0.0126338877583
Sb 6.3213289693 1.2165386123 29.2745607506 -2.57110337382e-07 2.57110337382e-07 -0.013911726135
Sb 0.0011891052 4.8654730638 29.3056870934 -0.00187459146985 0.00108217741004 -0.0126338877583
Sb 2.1071074486 1.1076548957 21.8743941012 2.57110337382e-07 0.00518205884993 -0.00647943761235
Sb 4.3085142295 4.9206033646 21.8743941012 -0.00448760382866 -0.00259115798013 -0.00647943761235
Sb 6.3213282064 1.2165390527 22.6012074591 -2.57110337382e-07 2.57110337382e-07 -0.00119119219309
Sb -0.094296402 4.9206016728 21.874393712 0.00448760382866 -0.00259115798013 -0.00647943761235
Cr 2.1071089138 3.6496196957 15.5167186127 0 0 0
61
Lattice="8.42843558953 0 0 -4.21421779477 7.29923593142 0 0 0 31.0334408416" Properties=species:S:1:pos:R:3:forces:R:3 energy=-133598.77457 ionic_step=17 pbc="T T T"
Te 2.1071095967 1.2342979161 3.3294259262 -2.57110337382e-07 -0.00779327143637 0.0423848962277
Te 4.1988392819 4.8572799941 3.3294259262 0.00674940346661 0.00389676427336 0.0423848962277
Te 6.3213260584 1.2165402929 3.3173148724 2.57110337382e-07 0 0.0308270152314
Te 0.0153785456 4.8572807827 3.3294259378 -0.00674940346661 0.00389650716302 0.0423848962277
Te -0.281046243 0.1622621997 7.36579838 0.0287487923743 -0.01659801494 -0.0218911454557
Te 2.1071084831 3.6496199444 8.0008625129 2.57110337382e-07 -5.14220674763e-07 -0.0551789637261
Te 4.4952640705 0.1622617024 7.3657981912 -0.0287487923743 -0.0165977578297 -0.0218911454557
Te -2.1071084831 3.325095545 7.3657981912 -0 0.03319602988 -0.0218911454557
Te -0 -0 0 0 2.57110337382e-07 -2.57110337382e-07
Te 2.1071089138 3.6496196957 0 -0 -2.57110337382e-07 -2.57110337382e-07
Te 4.2142178275 -0 0 -0 2.57110337382e-07 -2.57110337382e-07
Te -2.1071089138 3.6496196957 0 0 -2.57110337382e-07 -2.57110337382e-07
Te 0.2364922911 2.5696189995 14.0208081859 -0.0400480203712 -0.0231214184201 0.00926857055227
Te 2.1071086966 5.8096214643 14.0208081859 0 0.0462433510608 0.00926857055227
Te 3.9777255364 2.5696187487 14.0208085743 0.0400480203712 -0.0231214184201 0.00926857055227
Te -2.1071086966 6.0826993675 14.7604400404 -0 -2.57110337382e-07 -0.036473672461
Te 2.107109131 1.4896179272 17.0126290395 -0 -0.0462433510608 -0.00926857055227
Te 3.9777255364 4.7296203919 17.0126290395 0.0400480203712 0.0231216755304 -0.00926857055227
Te 6.3213265241 1.216540024 16.272997185 0 2.57110337382e-07 0.036473672461
Te 0.2364922911 4.7296206427 17.0126286511 -0.0400480203712 0.0231214184201 -0.00926857055227
Te 2.1071086782 0.9651657639 10.803044457 0 0.0127231050453 0.0299932064073
Te 4.4319139947 4.9918468656 10.803044457 -0.0110187206188 -0.00636193818817 0.0299932064073
Te 6.3213269768 1.2165397626 11.3803585062 -0 2.57110337382e-07 -0.0160434279423
Te -0.2176961672 4.9918465936 10.8030448803 0.0110187206188 -0.00636168107783 0.0299932064073
Te 0.281046243 -0.1622621997 23.6676388454 -0.028748535264 0.01659801494 0.0218911454557
Te 2.1071093444 3.6496194471 23.0325747125 -2.57110337382e-07 -2.57110337382e-07 0.0551789637261
Te 3.9331715845 -0.1622617024 23.6676390342 0.028748535264 0.01659801494 0.0218911454557
Te -2.1071093444 3.9741438465 23.6676390342 0 -0.03319602988 0.0218911454557
Te 0.0153785456 2.4419593973 27.7040112992 -0.00674940346661 -0.00389676427336 -0.0423846391174
Te 2.1071082308 6.0649414754 27.7040112992 2.57110337382e-07 0.00779327143637 -0.0423846391174
Te 4.1988392819 2.4419586087 27.7040112876 0.00674940346661 -0.00389650716302 -0.0423846391174
Te -2.1071082308 6.0826990986 27.716122353 -2.57110337382e-07 -0 -0.030826758121
Te -0.2176961672 2.3073925258 20.2303927684 0.0110187206188 0.00636193818817 -0.0299932064073
Te 2.1071091493 6.3340736276 20.2303927684 -0 -0.0127231050453 -0.0299932064073
Te 4.4319139947 2.3073927978 20.2303923451 -0.0110187206188 0.00636168107783 -0.0299932064073
Te -2.1071091493 6.0826996289 19.6530787192 0 -2.57110337382e-07 0.0160434279423
Sb -0.1217895674 2.3627628329 9.3298926851 0.00758064118736 0.00437704638358 0.0161524427253
Sb 2.1071103789 6.2233308835 9.3298926851 -2.57110337382e-07 -0.00875332143616 0.0161524427253
Sb 4.3360073949 2.3627645247 9.3298930744 -0.00758064118736 0.00437678927325 0.0161524427253
Sb -2.1071103789 6.0827003388 8.4125885897 2.57110337382e-07 -2.57110337382e-07 -0.00348178818882
Sb -0.0006153863 2.4327219309 1.7453620967 -0.0020365709824 -0.00117550846251 0.00947194482914
Sb 2.1071111417 6.0834113664 1.7453620967 -2.57110337382e-07 0.00235153114569 0.00947194482914
Sb 4.2148332138 2.4327245035 1.7453623848 0.0020365709824 -0.00117576557285 0.0094716877188
Sb -2.1071111417 6.0827007792 1.7850636304 2.57110337382e-07 -2.57110337382e-07 0.0110377467838
Sb -0.1371393427 0.0791774733 18.105023169 -0.00555589728048 0.00320796567951 -0.0460258357154
Sb 2.107108188 3.6496201148 19.0547358479 0 -2.57110337382e-07 -0.0238966060873
Sb 4.3513571701 0.0791766352 18.1050234141 0.00555589728048 0.00320796567951 -0.0460258357154
Sb 6.3213274671 3.4912651682 18.1050234141 -0 -0.00641567424868 -0.0460258357154
Sb 0.1371393427 -0.0791774733 12.9284140564 0.00555589728048 -0.00320770856917 0.0460260928257
Sb 2.1071096396 3.6496192767 11.9787013775 -0 -0 0.0238966060873
Sb 4.0770784849 -0.0791766352 12.9284138113 -0.00555589728048 -0.00320796567951 0.0460258357154
Sb -2.1071096396 3.8079742233 12.9284138113 0 0.00641541713835 0.0460258357154
Sb 2.1071066858 1.2158280251 29.2880751287 2.57110337382e-07 -0.00235153114569 -0.00947194482914
Sb 4.2148332138 4.8665174606 29.2880751287 0.0020365709824 0.00117550846251 -0.00947194482914
Sb 6.3213289693 1.2165386123 29.248373595 -2.57110337382e-07 2.57110337382e-07 -0.0110377467838
Sb -0.0006153863 4.8665148879 29.2880748406 -0.0020365709824 0.00117576557285 -0.0094716877188
Sb 2.1071074486 1.075908508 21.7035445403 2.57110337382e-07 0.00875332143616 -0.0161524427253
Sb 4.3360073949 4.9364765585 21.7035445403 -0.00758064118736 -0.00437704638358 -0.0161524427253
Sb 6.3213282064 1.2165390527 22.6208486357 -2.57110337382e-07 2.57110337382e-07 0.00348178818882
Sb -0.1217895674 4.9364748667 21.7035441511 0.00758064118736 -0.00437678927325 -0.0161524427253
Cr 2.1071089138 3.6496196957 15.5167186127 0 0 0
61
Lattice="8.42843558953 0 0 -4.21421779477 7.29923593142 0 0 0 31.0334408416" Properties=species:S:1:pos:R:3:forces:R:3 energy=-133599.288316 ionic_step=18 pbc="T T T"
Te 2.1071095967 1.2342698067 3.3895057727 -2.57110337382e-07 -0.00789277313694 0.041368539064
Te 4.1988636253 4.8572940488 3.3895057727 0.00683553542963 0.00394638656847 0.0413687961744
Te 6.3213260584 1.2165402929 3.3808258021 2.57110337382e-07 0 0.025341309073
Te 0.0153542022 4.8572948374 3.3895057843 -0.00683553542963 0.00394612945813 0.0413687961744
Te -0.3090632579 0.1784378384 7.3964762056 0.0270644625541 -0.015625623644 -0.0193336689297
Te 2.1071084831 3.6496199444 8.0373957909 2.57110337382e-07 -5.14220674763e-07 -0.0570913504156
Te 4.5232810854 0.1784373411 7.3964760168 -0.0270647196645 -0.0156253665337 -0.0193336689297
Te -2.1071084831 3.2927442677 7.3964760168 -0 0.0312515043984 -0.0193336689297
Te -0 -0 0 0 2.57110337382e-07 -2.57110337382e-07
Te 2.1071089138 3.6496196957 0 -0 -2.57110337382e-07 -2.57110337382e-07
Te 4.2142178275 -0 0 -0 2.57110337382e-07 -2.57110337382e-07
Te -2.1071089138 3.6496196957 0 0 -2.57110337382e-07 -2.57110337382e-07
Te 0.2856601052 2.5980060635 14.0288121469 -0.0363132356104 -0.0209652911308 0.0122068274879
Te 2.1071086966 5.7528473364 14.0288121469 0 0.0419308393719 0.0122068274879
Te 3.9285577223 2.5980058127 14.0288125353 0.0363132356104 -0.0209652911308 0.0122068274879
Te -2.1071086966 6.0826993675 14.8703437486 -0 -2.57110337382e-07 -0.0541407521838
Te 2.107109131 1.5463920551 17.0046250785 -0 -0.0419308393719 -0.0122068274879
Te 3.9285577222 4.7012333279 17.0046250785 0.0363132356104 0.0209652911308 -0.0122068274879
Te 6.3213265241 1.216540024 16.1630934768 0 2.57110337382e-07 0.0541407521838
Te 0.2856601052 4.7012335787 17.0046246901 -0.0363132356104 0.0209652911308 -0.0122068274879
Te 2.1071086782 0.8975502922 10.8474983679 0 0.00456139449549 0.0313039549072
Te 4.4904706836 5.0256546015 10.8474983679 -0.00395024322353 -0.00228082580291 0.0313042120176
Te 6.3213269768 1.2165397626 11.441062709 -0 2.57110337382e-07 -0.015857280058
Te -0.2762528561 5.0256543295 10.8474987912 0.00395024322353 -0.00228082580291 0.0313042120176
Te 0.3090632579 -0.1784378384 23.6369610198 -0.0270644625541 0.015625623644 0.0193336689297
Te 2.1071093444 3.6496194471 22.9960414345 -2.57110337382e-07 -2.57110337382e-07 0.0570913504156
Te 3.9051545696 -0.1784373411 23.6369612086 0.0270644625541 0.015625623644 0.0193336689297
Te -2.1071093444 4.0064951238 23.6369612086 0 -0.0312512472881 0.0193336689297
Te 0.0153542022 2.4419453426 27.6439314527 -0.00683553542963 -0.00394638656847 -0.0413682819537
Te 2.1071082308 6.0649695848 27.6439314527 2.57110337382e-07 0.00789277313694 -0.0413682819537
Te 4.1988636253 2.441944554 27.6439314411 0.00683553542963 -0.00394612945813 -0.0413682819537
Te -2.1071082308 6.0826990986 27.6526114233 -2.57110337382e-07 -0 -0.0253410519627
Te -0.2762528561 2.2735847899 20.1859388575 0.00395024322353 0.00228082580291 -0.0313039549072
Te 2.1071091493 6.4016890993 20.1859388575 -0 -0.00456139449549 -0.0313039549072
Te 4.4904706836 2.2735850619 20.1859384342 -0.00395024322353 0.00228082580291 -0.0313039549072
Te -2.1071091493 6.0826996289 19.5923745164 0 -2.57110337382e-07 0.0158570229477
Sb -0.14603674 2.3487637148 9.3683781119 0.00811080270304 0.00468326479541 0.0204775528208
Sb 2.1071103789 6.2513291198 9.3683781119 -2.57110337382e-07 -0.0093657582598 0.0204775528208
Sb 4.3602545675 2.3487654066 9.3683785012 -0.00811105981338 0.00468300768507 0.0204775528208
Sb -2.1071103789 6.0827003388 8.3825247794 2.57110337382e-07 -2.57110337382e-07 -0.00940689591378
Sb -0.0031429635 2.4312626328 1.8017581783 -0.00200031842483 -0.00115442541484 0.00460664591487
Sb 2.1071111417 6.0863299625 1.8017581783 -2.57110337382e-07 0.00230936505036 0.0046069030252
Sb 4.217360791 2.4312652054 1.8017584664 0.00200031842483 -0.00115468252518 0.00460638880453
Sb -2.1071111417 6.0827007792 1.8425264991 2.57110337382e-07 -2.57110337382e-07 0.00591945129754
Sb -0.1674606641 0.0966835045 18.0053936696 -0.00707413382272 0.00408445481964 -0.0404671102212
Sb 2.107108188 3.6496201148 19.0811557437 0 -2.57110337382e-07 -0.0196452866587
Sb 4.3816784916 0.0966826664 18.0053939147 0.00707413382272 0.00408445481964 -0.0404671102212
Sb 6.3213274671 3.4562531057 18.0053939147 -2.57110337382e-07 -0.00816865252895 -0.0404668531108
Sb 0.1674606641 -0.0966835045 13.0280435558 0.00707413382272 -0.00408419770931 0.0404671102212
Sb 2.1071096396 3.6496192767 11.9522814817 -0 -0 0.0196452866587
Sb 4.0467571634 -0.0966826664 13.0280433107 -0.00707413382272 -0.00408445481964 0.0404671102212
Sb -2.1071096396 3.8429862858 13.0280433107 2.57110337382e-07 0.00816865252895 0.0404668531108
Sb 2.1071066858 1.212909429 29.2316790471 2.57110337382e-07 -0.00230936505036 -0.0046069030252
Sb 4.217360791 4.8679767587 29.2316790471 0.00200031842483 0.00115442541484 -0.0046069030252
Sb 6.3213289693 1.2165386123 29.1909107263 -2.57110337382e-07 2.57110337382e-07 -0.00591945129754
Sb -0.0031429635 4.867974186 29.231678759 -0.00200031842483 0.00115468252518 -0.00460664591487
Sb 2.1071074486 1.0479102717 21.6650591135 2.57110337382e-07 0.0093657582598 -0.0204775528208
Sb 4.3602545675 4.9504756766 21.6650591135 -0.00811080270304 -0.00468326479541 -0.0204775528208
Sb 6.3213282064 1.2165390527 22.6509124461 -2.57110337382e-07 2.57110337382e-07 0.00940689591378
Sb -0.14603674 4.9504739848 21.6650587243 0.00811105981338 -0.00468300768507 -0.0204775528208
Cr 2.1071089138 3.6496196957 15.5167186127 0 0 0
61
Lattice="8.42843558953 0 0 -4.21421779477 7.29923593142 0 0 0 31.0334408416" Properties=species:S:1:pos:R:3:forces:R:3 energy=-133599.515878 ionic_step=19 pbc="T T T"
Te 2.1071095967 1.2307990629 3.4298413767 -2.57110337382e-07 -0.00636733750526 0.0413675106227
Te 4.2018693762 4.8590294207 3.4298413767 0.00551424540582 0.00318354019746 0.0413675106227
Te 6.3213260584 1.2165402929 3.4211972702 2.57110337382e-07 0 0.0202371546553
Te 0.0123484513 4.8590302093 3.4298413883 -0.00551424540582 0.00318328308712 0.0413675106227
Te -0.303965197 0.1754944702 7.3847856073 0.0288673202399 -0.0166664062898 -0.0199399351053
Te 2.1071084831 3.6496199444 7.969803199 2.57110337382e-07 -5.14220674763e-07 -0.0589132342663
Te 4.5181830245 0.1754939729 7.3847854185 -0.0288673202399 -0.0166664062898 -0.0199399351053
Te -2.1071084831 3.298631004 7.3847854185 -0 0.0333330696898 -0.019939677995
Te 0 -0 0 0 2.57110337382e-07 -2.57110337382e-07
Te 2.1071089138 3.6496196957 0 -0 -2.57110337382e-07 -2.57110337382e-07
Te 4.2142178275 -0 0 -0 2.57110337382e-07 -2.57110337382e-07
Te -2.1071089138 3.6496196957 0 0 -2.57110337382e-07 -2.57110337382e-07
Te 0.3015473053 2.607178547 14.0135780598 -0.0379847099137 -0.021930226227 0.00694686420571
Te 2.1071086966 5.7345023694 14.0135780598 0 0.0438609666746 0.00694686420571
Te 3.9126705222 2.6071782962 14.0135784482 0.0379847099137 -0.021930226227 0.00694686420571
Te -2.1071086966 6.0826993675 14.8431952242 -0 -2.57110337382e-07 -0.0480631780288
Te 2.107109131 1.5647370221 17.0198591656 -0 -0.0438609666746 -0.00694686420571
Te 3.9126705222 4.6920608444 17.0198591656 0.0379847099137 0.021930226227 -0.00694686420571
Te 6.3213265241 1.216540024 16.1902420012 0 2.57110337382e-07 0.0480631780288
Te 0.3015473053 4.6920610952 17.0198587772 -0.0379847099137 0.021930226227 -0.00694686420571
Te 2.1071086782 0.8745513794 10.8388141503 0 0.00192678486834 0.0301222757966
Te 4.5103883171 5.0371540579 10.8388141503 -0.00166864608961 -0.000963649544506 0.030122532907
Te 6.3213269768 1.2165397626 11.3762195377 -0 2.57110337382e-07 -0.0146581174445
Te -0.2961704896 5.0371537859 10.8388145736 0.00166864608961 -0.000963649544506 0.030122532907
Te 0.303965197 -0.1754944702 23.6486516181 -0.0288670631295 0.0166666634001 0.0199399351053
Te 2.1071093444 3.6496194471 23.0636340264 -2.57110337382e-07 -2.57110337382e-07 0.0589132342663
Te 3.9102526305 -0.1754939729 23.6486518069 0.0288673202399 0.0166664062898 0.0199399351053
Te -2.1071093444 4.0006083875 23.6486518069 0 -0.0333330696898 0.019939677995
Te 0.0123484513 2.4402099707 27.6035958487 -0.00551424540582 -0.0031837973078 -0.041366996402
Te 2.1071082308 6.0684403286 27.6035958487 2.57110337382e-07 0.00636733750526 -0.0413672535123
Te 4.2018693762 2.4402091821 27.6035958371 0.00551424540582 -0.00318328308712 -0.041366996402
Te -2.1071082308 6.0826990986 27.6122399552 -2.57110337382e-07 -0 -0.020236897545
Te -0.2961704896 2.2620853335 20.1946230751 0.00166864608961 0.000963649544506 -0.0301222757966
Te 2.1071091493 6.4246880121 20.1946230751 -0 -0.00192678486834 -0.030122532907
Te 4.5103883171 2.2620856055 20.1946226518 -0.00166864608961 0.000963649544506 -0.030122532907
Te -2.1071091493 6.0826996289 19.6572176877 0 -2.57110337382e-07 0.0146581174445
Sb -0.1525911914 2.3449794988 9.3065906116 0.00685996091168 0.0039610418577 0.0195203310347
Sb 2.1071103789 6.2588975518 9.3065906116 -2.57110337382e-07 -0.00792131238439 0.0195200739244
Sb 4.3668090189 2.3449811906 9.3065910009 -0.00686021802202 0.00396078474736 0.0195203310347
Sb -2.1071103789 6.0827003388 8.3644234528 2.57110337382e-07 -2.57110337382e-07 -0.0112331506402
Sb -0.0044040969 2.4305345168 1.8451622904 -0.00178974505851 -0.00103281222526 0.000670543759891
Sb 2.1071111417 6.0877861946 1.8451622904 -2.57110337382e-07 0.00206639578154 0.000670543759891
Sb 4.2186219244 2.4305370894 1.8451625785 0.00178974505851 -0.00103332644594 0.000670286649554
Sb -2.1071111417 6.0827007792 1.880330123 2.57110337382e-07 -2.57110337382e-07 0.0017889737275
Sb -0.1789562082 0.1033204631 18.018263169 -0.0042189235261 0.00243586333635 -0.0384192263839
Sb 2.107108188 3.6496201148 19.0702791601 0 -2.57110337382e-07 -0.0094950847595
Sb 4.3931740357 0.103319625 18.0182634141 0.0042189235261 0.00243612044669 -0.0384192263839
Sb 6.3213274671 3.4429791885 18.0182634141 -2.57110337382e-07 -0.00487172667271 -0.0384189692736
Sb 0.1789562082 -0.1033204631 13.0151740564 0.0042189235261 -0.00243586333635 0.0384192263839
Sb 2.1071096396 3.6496192767 11.9631580653 -0 -0 0.0094950847595
Sb 4.0352616193 -0.103319625 13.0151738113 -0.0042189235261 -0.00243586333635 0.0384192263839
Sb -2.1071096396 3.856260203 13.0151738113 2.57110337382e-07 0.00487172667271 0.0384189692736
Sb 2.1071066858 1.2114531969 29.188274935 2.57110337382e-07 -0.00206639578154 -0.000670543759891
Sb 4.2186219244 4.8687048747 29.188274935 0.00178974505851 0.0010330693356 -0.000670543759891
Sb 6.3213289693 1.2165386123 29.1531071024 -2.57110337382e-07 2.57110337382e-07 -0.0017889737275
Sb -0.0044040969 4.868702302 29.1882746469 -0.00178974505851 0.00103332644594 -0.000670286649554
Sb 2.1071074486 1.0403418397 21.7268466138 2.57110337382e-07 0.00792131238439 -0.0195203310347
Sb 4.3668090189 4.9542598926 21.7268466138 -0.00685996091168 -0.0039610418577 -0.0195200739244
Sb 6.3213282064 1.2165390527 22.6690137726 -2.57110337382e-07 2.57110337382e-07 0.0112331506402
Sb -0.1525911914 4.9542582008 21.7268462246 0.00686021802202 -0.00396078474736 -0.0195200739244
Cr 2.1071089138 3.6496196957 15.5167186127 0 0 0
61
Lattice="8.42843558953 0 0 -4.21421779477 7.29923593142 0 0 0 31.0334408416" Properties=species:S:1:pos:R:3:forces:R:3 energy=-133599.608758 ionic_step=20 pbc="T T T"
Te 2.1071095967 1.2290027804 3.4354524344 -2.57110337382e-07 -0.00590351045662 0.0411096289543
Te 4.2034250018 4.8599275619 3.4354524344 0.00511263905883 0.00295162667314 0.0411096289543
Te 6.3213260584 1.2165402929 3.4247651119 2.57110337382e-07 0 0.021633778008
Te 0.0107928257 4.8599283505 3.435452446 -0.00511263905883 0.0029513695628 0.0411096289543
Te -0.3130303801 0.1807282585 7.4084426607 0.0277823146161 -0.0160398283976 -0.0209730044409
Te 2.1071084831 3.6496199444 7.9942083207 2.57110337382e-07 -5.14220674763e-07 -0.0581213344271
Te 4.5272482076 0.1807277612 7.4084424719 -0.0277823146161 -0.0160398283976 -0.0209730044409
Te -2.1071084831 3.2881634274 7.4084424719 -0 0.0320801710158 -0.0209730044409
Te 0 -0 0 0 2.57110337382e-07 -2.57110337382e-07
Te 2.1071089138 3.6496196957 0 -0 -2.57110337382e-07 -2.57110337382e-07
Te 4.2142178275 -0 0 -0 2.57110337382e-07 -2.57110337382e-07
Te -2.1071089138 3.6496196957 0 0 -2.57110337382e-07 -2.57110337382e-07
Te 0.3169807539 2.6160890569 14.0000461067 -0.0330708171457 -0.0190932707643 0.00849903931249
Te 2.1071086966 5.7166813496 14.0000461067 0 0.0381867986389 0.00849903931249
Te 3.8972370736 2.6160888061 14.0000464951 0.0330708171457 -0.0190932707643 0.00849903931249
Te -2.1071086966 6.0826993675 14.8617349928 -0 -2.57110337382e-07 -0.0498189845228
Te 2.107109131 1.5825580419 17.0333911187 -0 -0.0381867986389 -0.00849903931249
Te 3.8972370736 4.6831503345 17.0333911187 0.0330708171457 0.0190932707643 -0.00849903931249
Te 6.3213265241 1.216540024 16.1717022326 0 2.57110337382e-07 0.0498189845228
Te 0.3169807539 4.6831505853 17.0333907303 -0.0330708171457 0.0190932707643 -0.00849903931249
Te 2.1071086782 0.8548809895 10.8527241665 0 -0.00151669388021 0.0306478093262
Te 4.5274233665 5.0469892528 10.8527241665 0.00131357671368 0.000758218384938 0.0306480664366
Te 6.3213269768 1.2165397626 11.3852249119 -0 2.57110337382e-07 -0.01232278425
Te -0.313205539 5.0469889808 10.8527245898 -0.00131357671368 0.000758218384938 0.0306480664366
Te 0.3130303801 -0.1807282585 23.6249945647 -0.0277820575058 0.0160400855079 0.0209730044409
Te 2.1071093444 3.6496194471 23.0392289047 -2.57110337382e-07 -2.57110337382e-07 0.0581213344271
Te 3.9011874474 -0.1807277612 23.6249947535 0.0277823146161 0.0160400855079 0.0209730044409
Te -2.1071093444 4.0110759641 23.6249947535 0 -0.0320801710158 0.0209730044409
Te 0.0107928257 2.4393118295 27.597984791 -0.00511263905883 -0.00295188378348 -0.0411091147336
Te 2.1071082308 6.0702366111 27.597984791 2.57110337382e-07 0.00590351045662 -0.0411091147336
Te 4.2034250018 2.4393110409 27.5979847794 0.00511263905883 -0.0029513695628 -0.0411091147336
Te -2.1071082308 6.0826990986 27.6086721135 -2.57110337382e-07 -0 -0.0216332637873
Te -0.313205539 2.2522501386 20.1807130589 -0.00131357671368 -0.000758218384938 -0.0306480664366
Te 2.1071091493 6.444358402 20.1807130589 -0 0.00151695099055 -0.0306480664366
Te 4.5274233665 2.2522504106 20.1807126356 0.00131357671368 -0.000758218384938 -0.0306480664366
Te -2.1071091493 6.0826996289 19.6482123135 0 -2.57110337382e-07 0.01232278425
Sb -0.1562672423 2.3428571288 9.316347009 0.00721554450828 0.00416621590693 0.0201242832172
Sb 2.1071103789 6.2631422918 9.316347009 -2.57110337382e-07 -0.00833191759319 0.0201242832172
Sb 4.3704850698 2.3428588206 9.3163473983 -0.00721554450828 0.00416595879659 0.0201242832172
Sb -2.1071103789 6.0827003388 8.3579494683 2.57110337382e-07 -2.57110337382e-07 -0.0121152962078
Sb -0.0045765026 2.4304349782 1.8543449509 -0.00175966314904 -0.00101558583266 -0.000738935109635
Sb 2.1071111417 6.0879852717 1.8543449509 -2.57110337382e-07 0.00203168588599 -0.000738677999297
Sb 4.2187943301 2.4304375508 1.854345239 0.00175966314904 -0.00101584294299 -0.000738935109635
Sb -2.1071111417 6.0827007792 1.8872593401 2.57110337382e-07 -2.57110337382e-07 0.000278707605722
Sb -0.1854750406 0.1070841145 18.0063368215 -0.00433076652286 0.00250039803104 -0.0373486189391
Sb 2.107108188 3.6496201148 19.0904076197 0 -2.57110337382e-07 -0.016428836338
Sb 4.3996928681 0.1070832764 18.0063370666 0.00433050941252 0.00250065514137 -0.0373483618287
Sb 6.3213274671 3.4354518858 18.0063370666 -2.57110337382e-07 -0.00500079606207 -0.0373483618287
Sb 0.1854750406 -0.1070841145 13.0271004039 0.00433076652286 -0.00250039803104 0.0373486189391
Sb 2.1071096396 3.6496192767 11.9430296057 -0 -0 0.0164290934483
Sb 4.0287427869 -0.1070832764 13.0271001588 -0.00433076652286 -0.00250039803104 0.0373483618287
Sb -2.1071096396 3.8637875057 13.0271001588 2.57110337382e-07 0.00500053895174 0.0373483618287
Sb 2.1071066858 1.2112541198 29.1790922745 2.57110337382e-07 -0.00203142877565 0.000738677999297
Sb 4.2187943301 4.8688044133 29.1790922745 0.00175966314904 0.00101558583266 0.000738677999297
Sb 6.3213289693 1.2165386123 29.1461778853 -2.57110337382e-07 2.57110337382e-07 -0.000278707605722
Sb -0.0045765026 4.8688018406 29.1790919864 -0.00175966314904 0.00101584294299 0.000738935109635
Sb 2.1071074486 1.0360970997 21.7170902164 2.57110337382e-07 0.00833191759319 -0.0201242832172
Sb 4.3704850698 4.9563822626 21.7170902164 -0.00721554450828 -0.00416621590693 -0.0201242832172
Sb 6.3213282064 1.2165390527 22.6754877571 -2.57110337382e-07 2.57110337382e-07 0.0121152962078
Sb -0.1562672423 4.9563805708 21.7170898272 0.00721554450828 -0.00416595879659 -0.0201242832172
Cr 2.1071089138 3.6496196957 15.5167186127 0 0 0
61
Lattice="8.42843558953 0 0 -4.21421779477 7.29923593142 0 0 0 31.0334408416" Properties=species:S:1:pos:R:3:forces:R:3 energy=-133599.679236 ionic_step=21 pbc="T T T"
Te 2.1071095967 1.2278378593 3.4366341792 -2.57110337382e-07 -0.00565411342936 0.0408147233973
Te 4.2044338526 4.8605100225 3.4366341792 0.00489666637543 0.00282692815951 0.0408149805076
Te 6.3213260584 1.2165402929 3.4243919526 2.57110337382e-07 0 0.023201379735
Te 0.0097839749 4.8605108111 3.4366341908 -0.00489666637543 0.00282667104917 0.0408149805076
Te -0.3209782451 0.1853169626 7.4296872598 0.0266368880631 -0.0153785406098 -0.0216623172554
Te 2.1071084831 3.6496199444 8.022664671 2.57110337382e-07 -5.14220674763e-07 -0.0569167724965
Te 4.5351960726 0.1853164653 7.429687071 -0.0266371451734 -0.0153785406098 -0.0216620601451
Te -2.1071084831 3.2789860191 7.429687071 -0 0.0307578525506 -0.0216620601451
Te 0 -0 0 0 2.57110337382e-07 -2.57110337382e-07
Te 2.1071089138 3.6496196957 0 -0 -2.57110337382e-07 -2.57110337382e-07
Te 4.2142178275 -0 0 -0 2.57110337382e-07 -2.57110337382e-07
Te -2.1071089138 3.6496196957 0 0 -2.57110337382e-07 -2.57110337382e-07
Te 0.3284454823 2.622708224 13.9890292498 -0.0297569220072 -0.0171801127438 0.00940175370703
Te 2.1071086966 5.7034430154 13.9890292498 0 0.034360482598 0.00940175370703
Te 3.8857723452 2.6227079732 13.9890296382 0.0297569220072 -0.0171801127438 0.00940175370703
Te -2.1071086966 6.0826993675 14.8811878111 -0 -2.57110337382e-07 -0.0522818444445
Te 2.107109131 1.5957963761 17.0444079756 -0 -0.0343602254877 -0.00940201081737
Te 3.8857723452 4.6765311674 17.0444079756 0.0297569220072 0.0171801127438 -0.00940175370703
Te 6.3213265241 1.216540024 16.1522494142 0 2.57110337382e-07 0.0522818444445
Te 0.3284454823 4.6765314182 17.0444075872 -0.0297569220072 0.0171801127438 -0.00940175370703
Te 2.1071086782 0.8404118653 10.8652583257 0 -0.00430119883406 0.0312993269212
Te 4.5399539898 5.0542238149 10.8652583257 0.00372501456799 0.00215047086186 0.0312995840315
Te 6.3213269768 1.2165397626 11.4007840971 -0 2.57110337382e-07 -0.0106628799119
Te -0.3257361623 5.0542235429 10.865258749 -0.00372501456799 0.00215047086186 0.0312995840315
Te 0.3209782451 -0.1853169626 23.6037499656 -0.0266368880631 0.0153787977201 0.0216620601451
Te 2.1071093444 3.6496194471 23.0107725544 -2.57110337382e-07 -2.57110337382e-07 0.0569167724965
Te 3.8932395824 -0.1853164653 23.6037501544 0.0266368880631 0.0153787977201 0.0216620601451
Te -2.1071093444 4.0202533724 23.6037501544 0 -0.0307575954403 0.0216620601451
Te 0.0097839749 2.4387293689 27.5968030462 -0.00489666637543 -0.00282718526985 -0.040814466287
Te 2.1071082308 6.0714015322 27.5968030462 2.57110337382e-07 0.00565411342936 -0.040814466287
Te 4.2044338526 2.4387285803 27.5968030346 0.00489666637543 -0.00282692815951 -0.040814466287
Te -2.1071082308 6.0826990986 27.6090452728 -2.57110337382e-07 -0 -0.0232011226246
Te -0.3257361623 2.2450155765 20.1681788997 -0.00372501456799 -0.00215047086186 -0.0312993269212
Te 2.1071091493 6.4588275262 20.1681788997 -0 0.00430119883406 -0.0312993269212
Te 4.5399539898 2.2450158485 20.1681784764 0.00372501456799 -0.00215047086186 -0.0312993269212
Te -2.1071091493 6.0826996289 19.6326531283 0 -2.57110337382e-07 0.0106626228016
Sb -0.1580944302 2.3418022009 9.3327768576 0.00767088691578 0.00442923978207 0.0207557462058
Sb 2.1071103789 6.2652521477 9.3327768576 -2.57110337382e-07 -0.00885770823313 0.0207554890955
Sb 4.3723122577 2.3418038927 9.3327772469 -0.00767114402612 0.00442898267174 0.0207557462058
Sb -2.1071103789 6.0827003388 8.3540660129 2.57110337382e-07 -2.57110337382e-07 -0.0126997080046
Sb -0.0044919311 2.4304838057 1.8576812673 -0.00177123311422 -0.00102201359109 -0.00149843904626
Sb 2.1071111417 6.0878876169 1.8576812673 -2.57110337382e-07 0.0020447985132 -0.00149843904626
Sb 4.2187097586 2.4304863783 1.8576815554 0.00177123311422 -0.00102252781177 -0.0014986961566
Sb -2.1071111417 6.0827007792 1.889241155 2.57110337382e-07 -2.57110337382e-07 -0.00055870076313
Sb -0.1892244305 0.1092488268 17.9938007213 -0.00475551280021 0.0027456812929 -0.0366706189794
Sb 2.107108188 3.6496201148 19.1106976411 0 -2.57110337382e-07 -0.019665341265
Sb 4.403442258 0.1092479887 17.9938009664 0.00475525568987 0.0027456812929 -0.0366703618691
Sb 6.3213274671 3.4311224612 17.9938009664 -2.57110337382e-07 -0.0054913625858 -0.0366703618691
Sb 0.1892244305 -0.1092488268 13.0396365041 0.00475551280021 -0.00274542418256 0.0366706189794
Sb 2.1071096396 3.6496192767 11.9227395843 -0 -0 0.019665341265
Sb 4.024993397 -0.1092479887 13.039636259 -0.00475551280021 -0.0027456812929 0.0366703618691
Sb -2.1071096396 3.8681169303 13.039636259 2.57110337382e-07 0.00549110547546 0.0366703618691
Sb 2.1071066858 1.2113517746 29.1757559581 2.57110337382e-07 -0.0020447985132 0.00149843904626
Sb 4.2187097586 4.8687555858 29.1757559581 0.00177123311422 0.00102227070143 0.00149843904626
Sb 6.3213289693 1.2165386123 29.1441960704 -2.57110337382e-07 2.57110337382e-07 0.00055870076313
Sb -0.0044919311 4.8687530131 29.17575567 -0.00177123311422 0.00102252781177 0.0014986961566
Sb 2.1071074486 1.0339872438 21.7006603678 2.57110337382e-07 0.00885770823313 -0.0207557462058
Sb 4.3723122577 4.9574371905 21.7006603678 -0.00767088691578 -0.00442923978207 -0.0207554890955
Sb 6.3213282064 1.2165390527 22.6793712125 -2.57110337382e-07 2.57110337382e-07 0.0126997080046
Sb -0.1580944302 4.9574354987 21.7006599786 0.00767114402612 -0.00442898267174 -0.0207554890955
Cr 2.1071089138 3.6496196957 15.5167186127 0 0 0
61
Lattice="8.42843558953 0 0 -4.21421779477 7.29923593142 0 0 0 31.0334408416" Properties=species:S:1:pos:R:3:forces:R:3 energy=-133599.791534 ionic_step=22 pbc="T T T"
Te 2.1071095967 1.2260241282 3.4374836353 -2.57110337382e-07 -0.0052162545248 0.0402904754194
Te 4.2060045891 4.861416888 3.4374836353 0.0045174286278 0.0026081272624 0.0402904754194
Te 6.3213260584 1.2165402929 3.4229480434 2.57110337382e-07 0 0.0255171725438
Te 0.0082132384 4.8614176766 3.4374836469 -0.0045174286278 0.00260787015206 0.0402904754194
Te -0.3315266295 0.1914070781 7.4609083484 0.0249481873672 -0.0144035782105 -0.0225969133318
Te 2.1071084831 3.6496199444 8.0653491963 2.57110337382e-07 -5.14220674763e-07 -0.0542106861956
Te 4.545744457 0.1914065808 7.4609081596 -0.0249484444775 -0.0144035782105 -0.0225966562215
Te -2.1071084831 3.2668057883 7.4609081596 -0 0.0288076706416 -0.0225966562215
Te 0 -0 0 0 2.57110337382e-07 -2.57110337382e-07
Te 2.1071089138 3.6496196957 0 -0 -2.57110337382e-07 -2.57110337382e-07
Te 4.2142178275 -0 0 -0 2.57110337382e-07 -2.57110337382e-07
Te -2.1071089138 3.6496196957 0 0 -2.57110337382e-07 -2.57110337382e-07
Te 0.3445576003 2.632010564 13.9700298989 -0.0263725786362 -0.0152260741797 0.00924183107718
Te 2.1071086966 5.6848383354 13.9700298989 0 0.0304526625802 0.00924183107718
Te 3.8696602272 2.6320103132 13.9700302873 0.0263728357466 -0.0152260741797 0.00924183107718
Te -2.1071086966 6.0826993675 14.907512567 -0 -0 -0.0559009295535
Te 2.107109131 1.6144010561 17.0634073265 -0 -0.0304526625802 -0.00924208818752
Te 3.8696602272 4.6672288274 17.0634073265 0.0263728357466 0.0152260741797 -0.00924183107718
Te 6.3213265241 1.216540024 16.1259246584 0 2.57110337382e-07 0.0559009295535
Te 0.3445576003 4.6672290782 17.0634069381 -0.0263728357466 0.0152260741797 -0.00924183107718
Te 2.1071086782 0.8203755932 10.882390281 0 -0.00828460929111 0.0323419093392
Te 4.5573059023 5.0642419509 10.882390281 0.00717492107497 0.00414204753522 0.0323421664496
Te 6.3213269768 1.2165397626 11.423434547 -0 2.57110337382e-07 -0.0084069938117
Te -0.3430880748 5.0642416789 10.8823907043 -0.00717466396463 0.00414230464556 0.0323421664496
Te 0.3315266295 -0.1914070781 23.572528877 -0.0249481873672 0.0144038353208 0.0225966562215
Te 2.1071093444 3.6496194471 22.9680880291 -2.57110337382e-07 -2.57110337382e-07 0.0542106861956
Te 3.882691198 -0.1914065808 23.5725290658 0.0249481873672 0.0144038353208 0.0225966562215
Te -2.1071093444 4.0324336032 23.5725290658 0 -0.0288076706416 0.0225966562215
Te 0.0082132384 2.4378225034 27.5959535901 -0.0045174286278 -0.0026081272624 -0.0402899611987
Te 2.1071082308 6.0732152633 27.5959535901 2.57110337382e-07 0.00521599741446 -0.0402902183091
Te 4.2060045891 2.4378217148 27.5959535785 0.0045174286278 -0.00260787015206 -0.0402899611987
Te -2.1071082308 6.0826990986 27.610489182 -2.57110337382e-07 -0 -0.0255169154334
Te -0.3430880748 2.2349974405 20.1510469444 -0.00717466396463 -0.00414230464556 -0.0323419093392
Te 2.1071091493 6.4788637983 20.1510469444 -0 0.00828486640145 -0.0323419093392
Te 4.5573059023 2.2349977125 20.1510465211 0.00717466396463 -0.00414230464556 -0.0323419093392
Te -2.1071091493 6.0826996289 19.6100026784 0 -2.57110337382e-07 0.0084069938117
Sb -0.1591766433 2.3411773846 9.3583564343 0.00837151258515 0.00483367434277 0.0214139486695
Sb 2.1071103789 6.2665017802 9.3583564343 -2.57110337382e-07 -0.00966683446487 0.0214136915592
Sb 4.3733944708 2.3411790764 9.3583568236 -0.00837176969548 0.00483341723244 0.0214139486695
Sb -2.1071103789 6.0827003388 8.348432812 2.57110337382e-07 -2.57110337382e-07 -0.0134268160387
Sb -0.0041435535 2.4306849417 1.8612581906 -0.00179874392032 -0.00103821154235 -0.0024410055431
Sb 2.1071111417 6.0874853449 1.8612581906 -2.57110337382e-07 0.00207693730537 -0.0024410055431
Sb 4.218361381 2.4306875143 1.8612584787 0.00179874392032 -0.00103846865268 -0.00244126265344
Sb -2.1071111417 6.0827007792 1.8905448806 2.57110337382e-07 -2.57110337382e-07 -0.00164113528351
Sb -0.1930840442 0.1114771769 17.9769510914 -0.00533761060404 0.00308172450386 -0.0358303823968
Sb 2.107108188 3.6496201148 19.1441976138 0 -2.57110337382e-07 -0.0191210386807
Sb 4.4073018717 0.1114763388 17.9769513365 0.00533735349371 0.00308172450386 -0.0358301252865
Sb 6.3213274671 3.4266657611 17.9769513365 -2.57110337382e-07 -0.00616344900771 -0.0358301252865
Sb 0.1930840442 -0.1114771769 13.056486134 0.00533761060404 -0.00308146739352 0.0358301252865
Sb 2.1071096396 3.6496192767 11.8892396116 -0 -0 0.0191210386807
Sb 4.0211337833 -0.1114763388 13.0564858889 -0.00533761060404 -0.00308172450386 0.0358301252865
Sb -2.1071096396 3.8725736304 13.0564858889 2.57110337382e-07 0.00616319189738 0.0358301252865
Sb 2.1071066858 1.2117540466 29.1721790348 2.57110337382e-07 -0.00207693730537 0.0024410055431
Sb 4.218361381 4.8685544498 29.1721790348 0.00179874392032 0.00103821154235 0.0024410055431
Sb 6.3213289693 1.2165386123 29.1428923448 -2.57110337382e-07 2.57110337382e-07 0.00164113528351
Sb -0.0041435535 4.8685518771 29.1721787467 -0.00179874392032 0.00103846865268 0.00244126265344
Sb 2.1071074486 1.0327376113 21.6750807911 2.57110337382e-07 0.00966683446487 -0.0214139486695
Sb 4.3733944708 4.9580620068 21.6750807911 -0.00837151258515 -0.00483367434277 -0.0214136915592
Sb 6.3213282064 1.2165390527 22.6850044135 -2.57110337382e-07 2.57110337382e-07 0.0134268160387
Sb -0.1591766433 4.958060315 21.6750804019 0.00837176969548 -0.00483341723244 -0.0214136915592
Cr 2.1071089138 3.6496196957 15.5167186127 0 0 0
61
Lattice="8.42843558953 0 0 -4.21421779477 7.29923593142 0 0 0 31.0334408416" Properties=species:S:1:pos:R:3:forces:R:3 energy=-133599.938074 ionic_step=23 pbc="T T T"
Te 2.1071095967 1.2237860399 3.4385612238 -2.57110337382e-07 -0.00464726934817 0.0392864595519
Te 4.2079428295 4.8625359322 3.4385612238 0.00402480522137 0.00232376322926 0.0392864595519
Te 6.3213260584 1.2165402929 3.4212221177 2.57110337382e-07 0 0.0283052770423
Te 0.006274998 4.8625367208 3.4385612354 -0.00402480522137 0.00232324900858 0.0392864595519
Te -0.3462461271 0.1999053879 7.505188162 0.0224462466741 -0.012959132335 -0.0233469041859
Te 2.1071084831 3.6496199444 8.1293759843 2.57110337382e-07 -5.14220674763e-07 -0.0487270369199
Te 4.5604639546 0.1999048906 7.5051879732 -0.0224465037844 -0.012959132335 -0.0233469041859
Te -2.1071084831 3.2498091685 7.5051879732 -0 0.0259187788908 -0.0233469041859
Te 0 -0 0 0 2.57110337382e-07 -2.57110337382e-07
Te 2.1071089138 3.6496196957 0 -0 -2.57110337382e-07 -2.57110337382e-07
Te 4.2142178275 -0 0 -0 2.57110337382e-07 -2.57110337382e-07
Te -2.1071089138 3.6496196957 0 0 -2.57110337382e-07 -2.57110337382e-07
Te 0.3670939133 2.6450219164 13.9438746332 -0.0227542648583 -0.0131370526885 0.00847178561672
Te 2.1071086966 5.6588156306 13.9438746332 0 0.0262746195977 0.00847178561672
Te 3.8471239142 2.6450216656 13.9438750216 0.0227542648583 -0.0131370526885 0.00847178561672
Te -2.1071086966 6.0826993675 14.9481140813 -0 -0 -0.061856890519
Te 2.107109131 1.6404237609 17.0895625922 -0 -0.0262743624874 -0.00847204272706
Te 3.8471239142 4.654217475 17.0895625922 0.0227542648583 0.0131370526885 -0.00847178561672
Te 6.3213265241 1.216540024 16.0853231441 0 2.57110337382e-07 0.061856890519
Te 0.3670939133 4.6542177258 17.0895622038 -0.0227542648583 0.0131370526885 -0.00847178561672
Te 2.1071086782 0.7928148531 10.9069496721 0 -0.0138528478678 0.0341072289157
Te 4.5811741922 5.078022321 10.9069496721 0.0119970254526 0.00692629537872 0.0341072289157
Te 6.3213269768 1.2165397626 11.461567146 -0 2.57110337382e-07 -0.00625935116356
Te -0.3669563647 5.078022049 10.9069500954 -0.0119970254526 0.00692629537872 0.0341072289157
Te 0.3462461271 -0.1999053879 23.5282490634 -0.0224462466741 0.0129593894454 0.0233469041859
Te 2.1071093444 3.6496194471 22.9040612411 -2.57110337382e-07 -2.57110337382e-07 0.0487270369199
Te 3.8679717004 -0.1999048906 23.5282492522 0.0224462466741 0.0129593894454 0.0233469041859
Te -2.1071093444 4.049430223 23.5282492522 0 -0.0259185217804 0.0233469041859
Te 0.006274998 2.4367034592 27.5948760016 -0.00402480522137 -0.00232376322926 -0.0392859453312
Te 2.1071082308 6.0754533516 27.5948760016 2.57110337382e-07 0.00464726934817 -0.0392859453312
Te 4.2079428295 2.4367026706 27.59487599 0.00402480522137 -0.00232350611892 -0.0392859453312
Te -2.1071082308 6.0826990986 27.6122151077 -2.57110337382e-07 -0 -0.028305019932
Te -0.3669563647 2.2212170704 20.1264875533 -0.0119970254526 -0.00692629537872 -0.0341072289157
Te 2.1071091493 6.5064245384 20.1264875533 -0 0.0138528478678 -0.0341072289157
Te 4.5811741922 2.2212173424 20.12648713 0.0119970254526 -0.00692629537872 -0.0341072289157
Te -2.1071091493 6.0826996289 19.5718700794 0 -2.57110337382e-07 0.00625935116356
Sb -0.1603281815 2.3405125434 9.4003293415 0.00940741013446 0.00543171298752 0.0219165993791
Sb 2.1071103789 6.2678314626 9.4003293415 -2.57110337382e-07 -0.010862654644 0.0219165993791
Sb 4.374546009 2.3405142352 9.4003297308 -0.00940741013446 0.00543145587719 0.0219165993791
Sb -2.1071103789 6.0827003388 8.3403200872 2.57110337382e-07 -2.57110337382e-07 -0.0144760833256
Sb -0.0035529271 2.4310259401 1.8652135084 -0.00184939465679 -0.00106726501047 -0.00367590649355
Sb 2.1071111417 6.086803348 1.8652135084 -2.57110337382e-07 0.00213530135195 -0.00367590649355
Sb 4.2177707546 2.4310285127 1.8652137965 0.00184939465679 -0.00106752212081 -0.00367616360388
Sb -2.1071111417 6.0827007792 1.8916289609 2.57110337382e-07 -2.57110337382e-07 -0.00304907149101
Sb -0.1976616727 0.1141200732 17.9489992042 -0.0061289962225 0.00353860957338 -0.034783429103
Sb 2.107108188 3.6496201148 19.1946277221 0 -2.57110337382e-07 -0.013463582817
Sb 4.4118795002 0.1141192351 17.9489994493 0.0061289962225 0.00353886668372 -0.034783429103
Sb 6.3213274671 3.4213799685 17.9489994493 -2.57110337382e-07 -0.00707721914677 -0.0347831719927
Sb 0.1976616727 -0.1141200732 13.0844380212 0.0061289962225 -0.00353860957338 0.034783429103
Sb 2.1071096396 3.6496192767 11.8388095033 -0 -2.57110337382e-07 0.013463582817
Sb 4.0165561548 -0.1141192351 13.0844377761 -0.0061289962225 -0.00353860957338 0.0347831719927
Sb -2.1071096396 3.877859423 13.0844377761 2.57110337382e-07 0.00707721914677 0.0347831719927
Sb 2.1071066858 1.2124360435 29.1682237171 2.57110337382e-07 -0.00213530135195 0.00367564938321
Sb 4.2177707546 4.8682134514 29.1682237171 0.00184939465679 0.00106726501047 0.00367590649355
Sb 6.3213289693 1.2165386123 29.1418082645 -2.57110337382e-07 2.57110337382e-07 0.00304907149101
Sb -0.0035529271 4.8682108787 29.1682234289 -0.00184939465679 0.00106777923115 0.00367616360388
Sb 2.1071074486 1.0314079289 21.6331078839 2.57110337382e-07 0.0108629117544 -0.0219165993791
Sb 4.374546009 4.958726848 21.6331078839 -0.00940741013446 -0.00543171298752 -0.0219165993791
Sb 6.3213282064 1.2165390527 22.6931171382 -2.57110337382e-07 2.57110337382e-07 0.0144760833256
Sb -0.1603281815 4.9587251562 21.6331074947 0.00940741013446 -0.00543145587719 -0.0219165993791
Cr 2.1071089138 3.6496196957 15.5167186127 0 0 0
61
Lattice="8.42843558953 0 0 -4.21421779477 7.29923593142 0 0 0 31.0334408416" Properties=species:S:1:pos:R:3:forces:R:3 energy=-133600.177443 ionic_step=24 pbc="T T T"
Te 2.1071095967 1.2190937176 3.4404194343 -2.57110337382e-07 -0.0032092512312 0.0375172833204
Te 4.2120064979 4.8648820933 3.4404194343 0.0027793627471 0.0016046256156 0.0375172833204
Te 6.3213260584 1.2165402929 3.4179434643 2.57110337382e-07 0 0.0322202961497
Te 0.0022113296 4.8648828819 3.4404194459 -0.0027793627471 0.00160436850526 0.0375175404307
Te -0.3645163292 0.2104536989 7.5771070328 0.0188513299368 -0.0108834805814 -0.024618057694
Te 2.1071084831 3.6496199444 8.2254161663 2.57110337382e-07 -5.14220674763e-07 -0.0377985620295
Te 4.5787341567 0.2104532016 7.577106844 -0.0188513299368 -0.0108834805814 -0.024618057694
Te -2.1071084831 3.2287125466 7.577106844 -0 0.0217674753834 -0.024618057694
Te 0 -0 0 0 2.57110337382e-07 -2.57110337382e-07
Te 2.1071089138 3.6496196957 0 -0 -2.57110337382e-07 -2.57110337382e-07
Te 4.2142178275 -0 0 -0 2.57110337382e-07 -2.57110337382e-07
Te -2.1071089138 3.6496196957 0 0 -2.57110337382e-07 -2.57110337382e-07
Te 0.4023425732 2.6653727492 13.8887210681 -0.0170551571199 -0.00984681170104 0.00674014749446
Te 2.1071086966 5.618113965 13.8887210681 0 0.0196938805124 0.0067404046048
Te 3.8118752543 2.6653724984 13.8887214565 0.0170554142302 -0.00984681170104 0.0067404046048
Te -2.1071086966 6.0826993675 14.9984504619 -0 -0 -0.0702836818266
Te 2.107109131 1.6811254265 17.1447161573 -0 -0.0196938805124 -0.0067404046048
Te 3.8118752543 4.6338666422 17.1447161573 0.0170554142302 0.00984681170104 -0.00674014749446
Te 6.3213265241 1.216540024 16.0349867635 0 2.57110337382e-07 0.0702834247163
Te 0.4023425732 4.633866893 17.1447157689 -0.0170554142302 0.00984681170104 -0.0067404046048
Te 2.1071086782 0.7513769406 10.9404733341 0 -0.0219700783293 0.0374136678544
Te 4.6170604604 5.0987412772 10.9404733341 0.0190266791869 0.0109847820543 0.0374136678544
Te 6.3213269768 1.2165397626 11.5103788144 -0 2.57110337382e-07 -0.00274542418256
Te -0.4028426329 5.0987410052 10.9404737574 -0.0190266791869 0.0109850391646 0.0374139249648
Te 0.3645163292 -0.2104536989 23.4563301926 -0.0188510728265 0.0108837376917 0.024618057694
Te 2.1071093444 3.6496194471 22.8080210591 -2.57110337382e-07 -2.57110337382e-07 0.0377985620295
Te 3.8497014983 -0.2104532016 23.4563303814 0.0188510728265 0.0108837376917 0.024618057694
Te -2.1071093444 4.0705268449 23.4563303814 0 -0.0217674753834 0.024618057694
Te 0.0022113296 2.4343572981 27.5930177911 -0.0027793627471 -0.0016046256156 -0.0375167690997
Te 2.1071082308 6.0801456739 27.5930177911 2.57110337382e-07 0.0032092512312 -0.0375170262101
Te 4.2120064979 2.4343565095 27.5930177795 0.0027793627471 -0.00160436850526 -0.0375167690997
Te -2.1071082308 6.0826990986 27.6154937611 -2.57110337382e-07 -0 -0.0322200390393
Te -0.4028426329 2.2004981142 20.0929638913 -0.0190266791869 -0.0109847820543 -0.0374136678544
Te 2.1071091493 6.5478624509 20.0929638913 -0 0.0219703354396 -0.0374136678544
Te 4.6170604604 2.2004983862 20.092963468 0.0190266791869 -0.0109850391646 -0.0374136678544
Te -2.1071091493 6.0826996289 19.523058411 0 -2.57110337382e-07 0.00274542418256
Sb -0.1577005514 2.342029607 9.4627510814 0.0107325568133 0.00619687335157 0.0199967564899
Sb 2.1071103789 6.2647973353 9.4627510814 -2.57110337382e-07 -0.0123932324825 0.0199967564899
Sb 4.3719183789 2.3420312988 9.4627514707 -0.0107328139237 0.00619661624123 0.0199967564899
Sb -2.1071103789 6.0827003388 8.3247160156 2.57110337382e-07 -2.57110337382e-07 -0.0157444086199
Sb -0.001991866 2.4319272196 1.8715790187 -0.00193835483352 -0.00111868707795 -0.00550576076469
Sb 2.1071111417 6.085000789 1.8715790187 -2.57110337382e-07 0.00223814548691 -0.00550550365435
Sb 4.2162096935 2.4319297922 1.8715793068 0.00193835483352 -0.00111894418828 -0.00550601787503
Sb -2.1071111417 6.0827007792 1.8911940204 2.57110337382e-07 -2.57110337382e-07 -0.00522962426234
Sb -0.2001375184 0.115549504 17.9153537912 -0.00669952406115 0.00386796791557 -0.0332765054156
Sb 2.107108188 3.6496201148 19.2877097726 0 -2.57110337382e-07 -0.00186173595298
Sb 4.4143553459 0.1155486659 17.9153540363 0.00669926695082 0.00386822502591 -0.0332765054156
Sb 6.3213274671 3.4185211068 17.9153540363 -2.57110337382e-07 -0.00773593583114 -0.0332762483053
Sb 0.2001375184 -0.115549504 13.1180834342 0.00669952406115 -0.00386796791557 0.0332765054156
Sb 2.1071096396 3.6496192767 11.7457274528 -0 -2.57110337382e-07 0.00186173595298
Sb 4.0140803091 -0.1155486659 13.1180831891 -0.00669952406115 -0.00386796791557 0.0332765054156
Sb -2.1071096396 3.8807182847 13.1180831891 2.57110337382e-07 0.00773593583114 0.0332762483053
Sb 2.1071066858 1.2142386025 29.1618582067 2.57110337382e-07 -0.00223814548691 0.00550550365435
Sb 4.2162096935 4.8673121719 29.1618582067 0.00193835483352 0.00111868707795 0.00550576076469
Sb 6.3213289693 1.2165386123 29.142243205 -2.57110337382e-07 2.57110337382e-07 0.005229367152
Sb -0.001991866 4.8673095992 29.1618579186 -0.00193835483352 0.00111920129862 0.00550576076469
Sb 2.1071074486 1.0344420562 21.570686144 2.57110337382e-07 0.0123932324825 -0.0199967564899
Sb 4.3719183789 4.9572097844 21.570686144 -0.0107325568133 -0.00619687335157 -0.0199967564899
Sb 6.3213282064 1.2165390527 22.7087212098 -2.57110337382e-07 2.57110337382e-07 0.0157444086199
Sb -0.1577005514 4.9572080926 21.5706857548 0.0107328139237 -0.00619661624123 -0.0199964993795
Cr 2.1071089138 3.6496196957 15.5167186127 0 0 0
61
Lattice="8.42843558953 0 0 -4.21421779477 7.29923593142 0 0 0 31.0334408416" Properties=species:S:1:pos:R:3:forces:R:3 energy=-133600.36388 ionic_step=25 pbc="T T T"
Te 2.1071095967 1.2110018604 3.4529083531 -2.57110337382e-07 -0.000522962426234 0.0351544393199
Te 4.2190142486 4.868928022 3.4529083531 0.000452771304129 0.000261481213117 0.0351544393199
Te 6.3213260584 1.2165402929 3.4235101558 2.57110337382e-07 0 0.0347703164758
Te -0.0047964211 4.8689288105 3.4529083647 -0.000452771304129 0.00026122410278 0.0351544393199
Te -0.3763639855 0.2172939497 7.6641441513 0.0155718875835 -0.00899037716722 -0.0266224898842
Te 2.1071084831 3.6496199444 8.3230346842 2.57110337382e-07 -5.14220674763e-07 -0.0246954479055
Te 4.590581813 0.2172934524 7.6641439625 -0.0155721446939 -0.00899037716722 -0.0266224898842
Te -2.1071084831 3.215032045 7.6641439625 -0 0.0179810114448 -0.0266224898842
Te 0 -0 0 0 2.57110337382e-07 -2.57110337382e-07
Te 2.1071089138 3.6496196957 0 -0 -2.57110337382e-07 -2.57110337382e-07
Te 4.2142178275 -0 0 -0 2.57110337382e-07 -2.57110337382e-07
Te -2.1071089138 3.6496196957 0 0 -2.57110337382e-07 -2.57110337382e-07
Te 0.449453781 2.6925724304 13.793416065 -0.00801644320922 -0.00462824318321 0.00653163101084
Te 2.1071086966 5.5637146026 13.793416065 -0 0.00925674347675 0.00653163101084
Te 3.7647640465 2.6925721796 13.7934164534 0.00801644320922 -0.00462824318321 0.00653163101084
Te -2.1071086966 6.0826993675 15.0364053809 -0 -0 -0.0799322614576
Te 2.107109131 1.7355247889 17.2400211604 0 -0.00925674347675 -0.00653163101084
Te 3.7647640465 4.606666961 17.2400211604 0.00801644320922 0.00462824318321 -0.00653163101084
Te 6.3213265241 1.216540024 15.9970318445 0 2.57110337382e-07 0.0799320043472
Te 0.449453781 4.6066672118 17.240020772 -0.00801670031956 0.00462824318321 -0.00653163101084
Te 2.1071086782 0.7000810598 10.9681128813 0 -0.0310432450251 0.0421447551726
Te 4.6614839756 5.1243892177 10.9681128813 0.0268842282076 0.0155214939574 0.0421450122829
Te 6.3213269768 1.2165397626 11.5476372663 -0 2.57110337382e-07 0.00341828193549
Te -0.4472661481 5.1243889457 10.9681133046 -0.0268842282076 0.0155214939574 0.0421450122829
Te 0.3763639855 -0.2172939497 23.3692930741 -0.0155718875835 0.00899037716722 0.0266224898842
Te 2.1071093444 3.6496194471 22.7104025412 -2.57110337382e-07 -2.57110337382e-07 0.0246954479055
Te 3.837853842 -0.2172934524 23.3692932629 0.0155718875835 0.00899037716722 0.0266224898842
Te -2.1071093444 4.0842073465 23.3692932629 0 -0.0179807543344 0.0266224898842
Te -0.0047964211 2.4303113695 27.5805288723 -0.000452771304129 -0.000261481213117 -0.0351539250992
Te 2.1071082308 6.0882375311 27.5805288723 2.57110337382e-07 0.000522962426234 -0.0351541822095
Te 4.2190142486 2.4303105809 27.5805288607 0.000452771304129 -0.00026122410278 -0.0351539250992
Te -2.1071082308 6.0826990986 27.6099270696 -2.57110337382e-07 -0 -0.0347698022551
Te -0.4472661481 2.1748501737 20.0653243441 -0.0268842282076 -0.0155214939574 -0.0421447551726
Te 2.1071091493 6.5991583317 20.0653243441 -0 0.0310432450251 -0.0421447551726
Te 4.6614839756 2.1748504457 20.0653239208 0.0268842282076 -0.0155214939574 -0.0421450122829
Te -2.1071091493 6.0826996289 19.4857999591 0 -2.57110337382e-07 -0.00341853904583
Sb -0.1457707471 2.348917286 9.5294158196 0.0112313508678 0.00648483692944 0.0121862586609
Sb 2.1071103789 6.2510219775 9.5294158196 -2.57110337382e-07 -0.0129689025279 0.0121862586609
Sb 4.3599885746 2.3489189778 9.5294162089 -0.0112313508678 0.0064845798191 0.0121862586609
Sb -2.1071103789 6.0827003388 8.2957026723 2.57110337382e-07 -2.57110337382e-07 -0.0171124927251
Sb 0.0011013863 2.4337131105 1.887239317 -0.00206999532626 -0.00119479173781 -0.00828332373942
Sb 2.1071111417 6.0814290073 1.887239317 -2.57110337382e-07 0.0023900976963 -0.00828332373942
Sb 4.2131164412 2.4337156831 1.8872396051 0.00206999532626 -0.00119504884815 -0.00828358084976
Sb -2.1071111417 6.0827007792 1.8935413837 2.57110337382e-07 -2.57110337382e-07 -0.00860111211643
Sb -0.1927842861 0.1113041114 17.8895914229 -0.00659513726418 0.00380780409662 -0.0304927717928
Sb 2.107108188 3.6496201148 19.4317700456 0 -2.57110337382e-07 0.00936113027373
Sb 4.4070021136 0.1113032733 17.889591668 0.00659513726418 0.00380806120696 -0.0304925146824
Sb 6.3213274671 3.427011892 17.889591668 -2.57110337382e-07 -0.00761560819324 -0.0304925146824
Sb 0.1927842861 -0.1113041114 13.1438458025 0.00659539437451 -0.00380780409662 0.0304925146824
Sb 2.1071096396 3.6496192767 11.6016671798 -0 -2.57110337382e-07 -0.00936113027373
Sb 4.0214335414 -0.1113032733 13.1438455574 -0.00659539437451 -0.00380780409662 0.0304925146824
Sb -2.1071096396 3.8722274995 13.1438455574 2.57110337382e-07 0.00761560819324 0.0304925146824
Sb 2.1071066858 1.2178103842 29.1461979085 2.57110337382e-07 -0.0023900976963 0.00828306662909
Sb 4.2131164412 4.865526281 29.1461979085 0.00206999532626 0.00119479173781 0.00828332373942
Sb 6.3213289693 1.2165386123 29.1398958417 -2.57110337382e-07 2.57110337382e-07 0.00860111211643
Sb 0.0011013863 4.8655237083 29.1461976204 -0.00206999532626 0.00119504884815 0.00828358084976
Sb 2.1071074486 1.048217414 21.5040214058 2.57110337382e-07 0.0129689025279 -0.0121862586609
Sb 4.3599885746 4.9503221054 21.5040214058 -0.0112313508678 -0.00648483692944 -0.0121862586609
Sb 6.3213282064 1.2165390527 22.7377345531 -2.57110337382e-07 2.57110337382e-07 0.0171124927251
Sb -0.1457707471 4.9503204136 21.5040210166 0.0112313508678 -0.0064845798191 -0.0121860015505
Cr 2.1071089138 3.6496196957 15.5167186127 0 0 0
61
Lattice="8.42843558953 0 0 -4.21421779477 7.29923593142 0 0 0 31.0334408416" Properties=species:S:1:pos:R:3:forces:R:3 energy=-133600.47599 ionic_step=26 pbc="T T T"
Te 2.1071095967 1.2096755536 3.4591365749 -2.57110337382e-07 -2.75108060998e-05 0.0367096997507
Te 4.2201628634 4.8695911753 3.4591365749 2.39112613765e-05 1.36268478812e-05 0.036709956861
Te 6.3213260584 1.2165402929 3.4304128894 2.57110337382e-07 0 0.0339521913823
Te -0.0059450359 4.8695919639 3.4591365866 -2.39112613765e-05 1.33697375438e-05 0.036709956861
Te -0.3511276698 0.2027237492 7.6217638592 0.0188585290263 -0.0108878514571 -0.0294190790239
Te 2.1071084831 3.6496199444 8.2342009739 2.57110337382e-07 -5.14220674763e-07 -0.0313808308981
Te 4.5653454973 0.2027232519 7.6217636704 -0.0188585290263 -0.0108875943468 -0.0294188219135
Te -2.1071084831 3.244172446 7.6217636704 -0 0.0217759600245 -0.0294188219135
Te 0 -0 0 0 2.57110337382e-07 -2.57110337382e-07
Te 2.1071089138 3.6496196957 0 -0 -2.57110337382e-07 -2.57110337382e-07
Te 4.2142178275 -0 0 -0 2.57110337382e-07 -2.57110337382e-07
Te -2.1071089138 3.6496196957 0 0 -2.57110337382e-07 -2.57110337382e-07
Te 0.4302246278 2.6814704685 13.7829105175 -0.0103448344245 -0.00597267313738 0.00189361763482
Te 2.1071086966 5.5859185265 13.7829105175 0 0.0119453462748 0.00189361763482
Te 3.7839931997 2.6814702177 13.7829109059 0.0103448344245 -0.00597267313738 0.00189361763482
Te -2.1071086966 6.0826993675 14.9595325159 -0 -0 -0.0717615520459
Te 2.107109131 1.713320865 17.2505267079 -0 -0.0119453462748 -0.00189361763482
Te 3.7839931997 4.6177689229 17.2505267079 0.0103450915349 0.00597241602704 -0.00189361763482
Te 6.3213265241 1.216540024 16.0739047094 0 2.57110337382e-07 0.0717615520459
Te 0.4302246278 4.6177691737 17.2505263195 -0.0103450915349 0.00597241602704 -0.00189361763482
Te 2.1071086782 0.7286442486 10.9259760049 0 -0.0255343989364 0.0397122342706
Te 4.63674754 5.1101076233 10.9259760049 0.0221135458975 0.012767070913 0.039712491381
Te 6.3213269768 1.2165397626 11.4740873133 -0 2.57110337382e-07 0.0082735535466
Te -0.4225297125 5.1101073513 10.9259764282 -0.0221135458975 0.012767070913 0.039712491381
Te 0.3511276698 -0.2027237492 23.4116733662 -0.0188582719159 0.0108878514571 0.0294188219135
Te 2.1071093444 3.6496194471 22.7992362515 -2.57110337382e-07 -2.57110337382e-07 0.0313808308981
Te 3.8630901577 -0.2027232519 23.411673555 0.0188582719159 0.0108878514571 0.0294188219135
Te -2.1071093444 4.0550669455 23.411673555 0 -0.0217757029142 0.0294188219135
Te -0.0059450359 2.4296482161 27.5743006504 -2.39112613765e-05 -1.38839582186e-05 -0.0367094426403
Te 2.1071082308 6.0895638379 27.5743006504 2.57110337382e-07 2.75108060998e-05 -0.0367094426403
Te 4.2201628634 2.4296474275 27.5743006388 2.39112613765e-05 -1.33697375438e-05 -0.0367094426403
Te -2.1071082308 6.0826990986 27.603024336 -2.57110337382e-07 -0 -0.0339516771616
Te -0.4225297125 2.1891317681 20.1074612205 -0.0221135458975 -0.012767070913 -0.0397122342706
Te 2.1071091493 6.5705951429 20.1074612205 -0 0.0255343989364 -0.0397122342706
Te 4.63674754 2.1891320401 20.1074607972 0.0221135458975 -0.012767070913 -0.0397122342706
Te -2.1071091493 6.0826996289 19.5593499121 0 -2.57110337382e-07 -0.0082735535466
Sb -0.1329464459 2.3563214031 9.4713373599 0.0101743702709 0.0058744569885 0.0124603382805
Sb 2.1071103789 6.2362137431 9.4713373599 -2.57110337382e-07 -0.0117483997563 0.0124603382805
Sb 4.3471642734 2.3563230949 9.4713377492 -0.0101743702709 0.0058744569885 0.0124603382805
Sb -2.1071103789 6.0827003388 8.2952802845 2.57110337382e-07 -2.57110337382e-07 -0.0160868795893
Sb 0.0020414838 2.4342558763 1.8898432736 -0.00206485311951 -0.00119170641376 -0.0074474580326
Sb 2.1071111417 6.0803434756 1.8898432736 -2.57110337382e-07 0.00238418415854 -0.00744720092226
Sb 4.2121763437 2.4342584489 1.8898435617 0.00206485311951 -0.0011919635241 -0.00744771514293
Sb -2.1071111417 6.0827007792 1.8921799449 2.57110337382e-07 -2.57110337382e-07 -0.00791745572933
Sb -0.1752980049 0.1012083975 17.9460100908 -0.00669386763373 0.00386488259152 -0.0308496409411
Sb 2.107108188 3.6496201148 19.4164273363 0 -2.57110337382e-07 0.00844581747265
Sb 4.3895158324 0.1012075594 17.9460103359 0.00669361052339 0.00386488259152 -0.0308496409411
Sb 6.3213274671 3.4472033198 17.9460103359 -2.57110337382e-07 -0.0077295080727 -0.0308493838307
Sb 0.1752980049 -0.1012083975 13.0874271346 0.00669386763373 -0.00386462548118 0.0308496409411
Sb 2.1071096396 3.6496192767 11.6170098891 -0 -2.57110337382e-07 -0.00844581747265
Sb 4.0389198226 -0.1012075594 13.0874268895 -0.00669386763373 -0.00386462548118 0.0308493838307
Sb -2.1071096396 3.8520360717 13.0874268895 2.57110337382e-07 0.00772925096237 0.0308493838307
Sb 2.1071066858 1.2188959159 29.1435939518 2.57110337382e-07 -0.00238418415854 0.00744720092226
Sb 4.2121763437 4.8649835152 29.1435939518 0.00206485311951 0.00119170641376 0.00744720092226
Sb 6.3213289693 1.2165386123 29.1412572805 -2.57110337382e-07 2.57110337382e-07 0.00791745572933
Sb 0.0020414838 4.8649809425 29.1435936637 -0.00206485311951 0.00119222063444 0.0074474580326
Sb 2.1071074486 1.0630256484 21.5620998655 2.57110337382e-07 0.0117483997563 -0.0124603382805
Sb 4.3471642734 4.9429179883 21.5620998655 -0.0101743702709 -0.0058744569885 -0.0124603382805
Sb 6.3213282064 1.2165390527 22.7381569409 -2.57110337382e-07 2.57110337382e-07 0.0160868795893
Sb -0.1329464459 4.9429162965 21.5620994763 0.0101743702709 -0.0058744569885 -0.0124603382805
Cr 2.1071089138 3.6496196957 15.5167186127 0 0 0
61
Lattice="8.42843558953 0 0 -4.21421779477 7.29923593142 0 0 0 31.0334408416" Properties=species:S:1:pos:R:3:forces:R:3 energy=-133600.693858 ionic_step=27 pbc="T T T"
Te 2.1071095967 1.2093873599 3.4915117322 -2.57110337382e-07 8.12468666126e-05 0.0358355246036
Te 4.2204124464 4.8697352722 3.4915117322 -7.01911221052e-05 -4.06234333063e-05 0.0358357817139
Te 6.3213260584 1.2165402929 3.466527832 2.57110337382e-07 0 0.0295980278187
Te -0.0061946189 4.8697360608 3.4915117438 7.01911221052e-05 -4.08805436437e-05 0.0358357817139
Te -0.3438184575 0.1985037716 7.6071024964 0.0190315642833 -0.010987610268 -0.0294501893747
Te 2.1071084831 3.6496199444 8.195247536 2.57110337382e-07 -5.14220674763e-07 -0.0341653358519
Te 4.558036285 0.1985032743 7.6071023076 -0.0190315642833 -0.010987610268 -0.0294499322644
Te -2.1071084831 3.2526124013 7.6071023076 -0 0.0219754776463 -0.0294499322644
Te 0 -0 0 0 2.57110337382e-07 -2.57110337382e-07
Te 2.1071089138 3.6496196957 0 -0 -2.57110337382e-07 -2.57110337382e-07
Te 4.2142178275 -0 0 -0 2.57110337382e-07 -2.57110337382e-07
Te -2.1071089138 3.6496196957 0 0 -2.57110337382e-07 -2.57110337382e-07
Te 0.4428355711 2.6887514033 13.7658352905 -0.00760738066245 -0.00439195878315 0.00393018861722
Te 2.1071086966 5.5713566567 13.7658352905 0 0.00878443178698 0.00393018861722
Te 3.7713822564 2.6887511525 13.7658356789 0.00760738066245 -0.00439195878315 0.00393018861722
Te -2.1071086966 6.0826993675 14.9615193534 -0 -0 -0.0781129487103
Te 2.107109131 1.7278827348 17.2676019349 -0 -0.00878443178698 -0.00393018861722
Te 3.7713822564 4.6104879881 17.2676019349 0.00760738066245 0.00439195878315 -0.00393018861722
Te 6.3213265241 1.216540024 16.071917872 0 2.57110337382e-07 0.0781129487103
Te 0.4428355711 4.6104882389 17.2676015465 -0.00760738066245 0.00439195878315 -0.00393018861722
Te 2.1071086782 0.724569641 10.9054993183 0 -0.0262795046941 0.039461808802
Te 4.6402762521 5.1121449271 10.9054993183 0.0227588928443 0.0131396237919 0.039461808802
Te 6.3213269768 1.2165397626 11.4817018399 -0 2.57110337382e-07 0.00434670736377
Te -0.4260584246 5.1121446551 10.9054997416 -0.0227588928443 0.0131396237919 0.0394620659123
Te 0.3438184575 -0.1985037716 23.426334729 -0.019031307173 0.0109878673783 0.0294499322644
Te 2.1071093444 3.6496194471 22.8381896894 -2.57110337382e-07 -2.57110337382e-07 0.0341653358519
Te 3.87039937 -0.1985032743 23.4263349178 0.019031307173 0.010987610268 0.0294499322644
Te -2.1071093444 4.0466269902 23.4263349178 0 -0.0219754776463 0.0294499322644
Te -0.0061946189 2.4295041192 27.5419254932 7.01911221052e-05 4.06234333063e-05 -0.0358350103829
Te 2.1071082308 6.0898520316 27.5419254932 2.57110337382e-07 -8.12468666126e-05 -0.0358352674932
Te 4.2204124464 2.4295033306 27.5419254816 -7.01911221052e-05 4.08805436437e-05 -0.0358352674932
Te -2.1071082308 6.0826990986 27.5669093934 -2.57110337382e-07 -0 -0.0295977707084
Te -0.4260584246 2.1870944643 20.1279379071 -0.0227588928443 -0.0131396237919 -0.039461808802
Te 2.1071091493 6.5746697505 20.1279379071 -0 0.0262797618045 -0.039461808802
Te 4.6402762521 2.1870947363 20.1279374838 0.0227588928443 -0.0131396237919 -0.039461808802
Te -2.1071091493 6.0826996289 19.5517353855 0 -2.57110337382e-07 -0.00434670736377
Sb -0.123658966 2.3616835347 9.4880295174 0.00968406085748 0.00559163561738 0.0109932666954
Sb 2.1071103789 6.2254894801 9.4880295174 -2.57110337382e-07 -0.0111822427934 0.0109932666954
Sb 4.3378767935 2.3616852265 9.4880299066 -0.00968406085748 0.00559137850704 0.0109932666954
Sb -2.1071103789 6.0827003388 8.2772743655 2.57110337382e-07 -2.57110337382e-07 -0.0178509136141
Sb 0.0031452731 2.4348931496 1.9089490714 -0.00210007723573 -0.00121201813042 -0.00909399263319
Sb 2.1071111417 6.0790689289 1.9089490714 -2.57110337382e-07 0.00242480759185 -0.00909399263319
Sb 4.2110725544 2.4348957222 1.9089493595 0.00210007723573 -0.00121227524075 -0.00909424974353
Sb -2.1071111417 6.0827007792 1.9074166428 2.57110337382e-07 -2.57110337382e-07 -0.00969357393996
Sb -0.157704605 0.0910508386 17.9264585003 -0.00784597905554 0.00453002703433 -0.030928059594
Sb 2.107108188 3.6496201148 19.4638028251 0 -2.57110337382e-07 0.00857462975168
Sb 4.3719224325 0.0910500005 17.9264587454 0.0078457219452 0.00453002703433 -0.030928059594
Sb 6.3213274671 3.4675184377 17.9264587454 -2.57110337382e-07 -0.00905979695832 -0.0309278024836
Sb 0.157704605 -0.0910508386 13.1069787251 0.00784597905554 -0.00452976992399 0.030928059594
Sb 2.1071096396 3.6496192767 11.5696344003 -0 -2.57110337382e-07 -0.00857462975168
Sb 4.0565132225 -0.0910500005 13.10697848 -0.00784597905554 -0.00452976992399 0.0309278024836
Sb -2.1071096396 3.8317209538 13.10697848 2.57110337382e-07 0.00905979695832 0.0309278024836
Sb 2.1071066858 1.2201704626 29.124488154 2.57110337382e-07 -0.00242480759185 0.00909373552285
Sb 4.2110725544 4.8643462419 29.124488154 0.00210007723573 0.00121227524075 0.00909399263319
Sb 6.3213289693 1.2165386123 29.1260205826 -2.57110337382e-07 2.57110337382e-07 0.00969357393996
Sb 0.0031452731 4.8643436692 29.1244878659 -0.00210007723573 0.00121253235109 0.00909424974353
Sb 2.1071074486 1.0737499114 21.545407708 2.57110337382e-07 0.0111822427934 -0.0109932666954
Sb 4.3378767935 4.9375558567 21.545407708 -0.00968406085748 -0.00559163561738 -0.0109932666954
Sb 6.3213282064 1.2165390527 22.7561628599 -2.57110337382e-07 2.57110337382e-07 0.0178509136141
Sb -0.123658966 4.9375541649 21.5454073188 0.00968406085748 -0.00559137850704 -0.0109932666954
Cr 2.1071089138 3.6496196957 15.5167186127 0 0 0
61
Lattice="8.42843558953 0 0 -4.21421779477 7.29923593142 0 0 0 31.0334408416" Properties=species:S:1:pos:R:3:forces:R:3 energy=-133600.806576 ionic_step=28 pbc="T T T"
Te 2.1071095967 1.208913721 3.5179779368 -2.57110337382e-07 0.000268937412901 0.0346384188727
Te 4.2208226295 4.8699720917 3.5179779368 -0.000232941965668 -0.000134468706451 0.0346384188727
Te 6.3213260584 1.2165402929 3.4956353913 2.57110337382e-07 0 0.025805393232
Te -0.006604802 4.8699728803 3.5179779484 0.000232941965668 -0.000134725816788 0.0346384188727
Te -0.3445457091 0.1989236507 7.6073134709 0.0183196257591 -0.0105767479489 -0.0291845943962
Te 2.1071084831 3.6496199444 8.1750861364 2.57110337382e-07 -5.14220674763e-07 -0.0350752493359
Te 4.5587635366 0.1989231534 7.6073132821 -0.0183196257591 -0.0105767479489 -0.0291845943962
Te -2.1071084831 3.2517726431 7.6073132821 -0 0.0211537530081 -0.0291845943962
Te 0 -0 0 0 2.57110337382e-07 -2.57110337382e-07
Te 2.1071089138 3.6496196957 0 -0 -2.57110337382e-07 -2.57110337382e-07
Te 4.2142178275 -0 0 -0 2.57110337382e-07 -2.57110337382e-07
Te -2.1071089138 3.6496196957 0 0 -2.57110337382e-07 -2.57110337382e-07
Te 0.4626964381 2.7002180856 13.7466515634 -0.00368516246569 -0.00212758804183 0.00667561279978
Te 2.1071086966 5.5484232922 13.7466515634 0 0.004255433194 0.00667561279978
Te 3.7515213894 2.7002178348 13.7466519518 0.00368516246569 -0.00212758804183 0.00667561279978
Te -2.1071086966 6.0826993675 14.971258755 -0 -0 -0.0838616787438
Te 2.107109131 1.7508160993 17.286785662 -0 -0.00425517608367 -0.00667561279978
Te 3.7515213894 4.5990213058 17.286785662 0.00368516246569 0.00212758804183 -0.00667561279978
Te 6.3213265241 1.216540024 16.0621784704 0 2.57110337382e-07 0.0838616787438
Te 0.4626964381 4.5990215566 17.2867852736 -0.00368516246569 0.00212758804183 -0.00667561279978
Te 2.1071086782 0.7120939847 10.8949453735 0 -0.0283523282341 0.0394695221121
Te 4.6510804823 5.1183827552 10.8949453735 0.0245537801096 0.0141760355619 0.0394697792225
Te 6.3213269768 1.2165397626 11.5001392735 -0 2.57110337382e-07 0.00161053915336
Te -0.4368626548 5.1183824832 10.8949457968 -0.0245537801096 0.0141760355619 0.0394697792225
Te 0.3445457091 -0.1989236507 23.4261237545 -0.0183196257591 0.0105767479489 0.0291845943962
Te 2.1071093444 3.6496194471 22.858351089 -2.57110337382e-07 -2.57110337382e-07 0.0350752493359
Te 3.8696721184 -0.1989231534 23.4261239433 0.0183196257591 0.0105767479489 0.0291845943962
Te -2.1071093444 4.0474667484 23.4261239433 0 -0.0211534958977 0.0291843372859
Te -0.006604802 2.4292672997 27.5154592886 0.000232941965668 0.000134468706451 -0.0346379046521
Te 2.1071082308 6.0903256705 27.5154592886 2.57110337382e-07 -0.000269194523239 -0.0346381617624
Te 4.2208226295 2.4292665111 27.515459277 -0.000232941965668 0.000134725816788 -0.0346379046521
Te -2.1071082308 6.0826990986 27.5378018341 -2.57110337382e-07 -0 -0.0258051361216
Te -0.4368626548 2.1808566362 20.138491852 -0.0245537801096 -0.0141760355619 -0.0394697792225
Te 2.1071091493 6.5871454068 20.138491852 -0 0.0283523282341 -0.0394697792225
Te 4.6510804823 2.1808569082 20.1384914287 0.0245537801096 -0.0141760355619 -0.0394697792225
Te -2.1071091493 6.0826996289 19.5332979519 0 -2.57110337382e-07 -0.00161053915336
Sb -0.1177359637 2.3651031832 9.5128403933 0.00942926451313 0.00544431139406 0.00912690275637
Sb 2.1071103789 6.2186501829 9.5128403933 -2.57110337382e-07 -0.0108878514571 0.00912690275637
Sb 4.3319537912 2.365104875 9.5128407826 -0.00942926451313 0.00544405428372 0.00912690275637
Sb -2.1071103789 6.0827003388 8.2593602925 2.57110337382e-07 -2.57110337382e-07 -0.0195033617524
Sb 0.0038398915 2.4352941879 1.9255122761 -0.00209956301506 -0.00121176102008 -0.0106762496494
Sb 2.1071111417 6.0782668523 1.9255122761 -2.57110337382e-07 0.00242429337117 -0.0106759925391
Sb 4.210377936 2.4352967605 1.9255125642 0.00209956301506 -0.00121201813042 -0.0106762496494
Sb -2.1071111417 6.0827007792 1.9204153948 2.57110337382e-07 -2.57110337382e-07 -0.0114167274211
Sb -0.1452898747 0.0838831874 17.9004971808 -0.00862528048814 0.00497997012474 -0.030547793405
Sb 2.107108188 3.6496201148 19.5159158627 0 -2.57110337382e-07 0.00802441362968
Sb 4.3595077022 0.0838823493 17.9004974258 0.00862528048814 0.00498022723508 -0.0305475362946
Sb 6.3213274671 3.4818537401 17.9004974258 -2.57110337382e-07 -0.00995994024949 -0.0305475362946
Sb 0.1452898747 -0.0838831874 13.1329400446 0.00862528048814 -0.00497971301441 0.0305475362946
Sb 2.1071096396 3.6496192767 11.5175213627 -0 -0 -0.00802441362968
Sb 4.0689279528 -0.0838823493 13.1329397995 -0.00862528048814 -0.00497997012474 0.0305475362946
Sb -2.1071096396 3.8173856514 13.1329397995 2.57110337382e-07 0.00995968313915 0.0305475362946
Sb 2.1071066858 1.2209725392 29.1079249493 2.57110337382e-07 -0.00242403626083 0.0106759925391
Sb 4.210377936 4.8639452036 29.1079249493 0.00209956301506 0.00121176102008 0.0106759925391
Sb 6.3213289693 1.2165386123 29.1130218306 -2.57110337382e-07 2.57110337382e-07 0.0114167274211
Sb 0.0038398915 4.8639426309 29.1079246612 -0.00209956301506 0.00121201813042 0.0106762496494
Sb 2.1071074486 1.0805892086 21.5205968321 2.57110337382e-07 0.0108881085674 -0.00912690275637
Sb 4.3319537912 4.9341362082 21.5205968321 -0.00942926451313 -0.00544431139406 -0.00912690275637
Sb 6.3213282064 1.2165390527 22.7740769329 -2.57110337382e-07 2.57110337382e-07 0.0195033617524
Sb -0.1177359637 4.9341345164 21.5205964429 0.00942926451313 -0.00544405428372 -0.00912690275637
Cr 2.1071089138 3.6496196957 15.5167186127 0 0 0
61
Lattice="8.42843558953 0 0 -4.21421779477 7.29923593142 0 0 0 31.0334408416" Properties=species:S:1:pos:R:3:forces:R:3 energy=-133600.876045 ionic_step=29 pbc="T T T"
Te 2.1071095967 1.2087173322 3.542125379 -2.57110337382e-07 0.000441458449284 0.033639545212
Te 4.2209927071 4.870070286 3.542125379 -0.000382323071686 -0.000220857779811 0.033639545212
Te 6.3213260584 1.2165402929 3.5233376944 2.57110337382e-07 0 0.021569757534
Te -0.0067748796 4.8700710746 3.5421253906 0.000382323071686 -0.000221114890148 0.033639545212
Te -0.3486324974 0.2012831601 7.6055618721 0.0172443903282 -0.00995582648409 -0.0289346831483
Te 2.1071084831 3.6496199444 8.1365543872 2.57110337382e-07 -5.14220674763e-07 -0.0372133789016
Te 4.5628503249 0.2012826628 7.6055616833 -0.0172443903282 -0.00995582648409 -0.0289346831483
Te -2.1071084831 3.2470536243 7.6055616833 -0 0.0199119100785 -0.0289346831483
Te 0 -0 0 0 2.57110337382e-07 -2.57110337382e-07
Te 2.1071089138 3.6496196957 0 -0 -2.57110337382e-07 -2.57110337382e-07
Te 4.2142178275 -0 0 -0 2.57110337382e-07 -2.57110337382e-07
Te -2.1071089138 3.6496196957 0 0 -2.57110337382e-07 -2.57110337382e-07
Te 0.4871483785 2.7143354266 13.7259571634 0.00106649367946 0.000615779258029 0.00926985610396
Te 2.1071086966 5.5201886102 13.7259571634 -0 -0.00123130140572 0.00927011321429
Te 3.727069449 2.7143351758 13.7259575517 -0.00106623656912 0.000615779258029 0.00926985610396
Te -2.1071086966 6.0826993675 14.9669329554 -0 -0 -0.0881543929367
Te 2.107109131 1.7790507813 17.3074800621 0 0.00123130140572 -0.00926985610396
Te 3.727069449 4.5849039648 17.3074800621 -0.00106623656912 -0.000615779258029 -0.00926985610396
Te 6.3213265241 1.216540024 16.0665042699 0 2.57110337382e-07 0.0881543929367
Te 0.4871483785 4.5849042156 17.3074796736 0.00106623656912 -0.000615779258029 -0.00926985610396
Te 2.1071086782 0.699549883 10.8780351098 0 -0.0300289447442 0.0385467531113
Te 4.6619439879 5.124654806 10.8780351098 0.0260056821848 0.0150142152617 0.0385467531113
Te 6.3213269768 1.2165397626 11.514772002 -0 2.57110337382e-07 -0.000198489180459
Te -0.4477261604 5.124654534 10.8780355331 -0.0260056821848 0.0150142152617 0.0385470102216
Te 0.3486324974 -0.2012831601 23.4278753532 -0.0172441332178 0.00995608359443 0.0289346831483
Te 2.1071093444 3.6496194471 22.8968828382 -2.57110337382e-07 -2.57110337382e-07 0.0372133789016
Te 3.8655853301 -0.2012826628 23.4278755421 0.0172441332178 0.00995582648409 0.0289346831483
Te -2.1071093444 4.0521857672 23.4278755421 0 -0.0199116529682 0.0289346831483
Te -0.0067748796 2.4291691054 27.4913118464 0.000382323071686 0.000220600669473 -0.0336390309913
Te 2.1071082308 6.0905220593 27.4913118464 2.57110337382e-07 -0.000441715559622 -0.0336392881017
Te 4.2209927071 2.4291683168 27.4913118348 -0.000382323071686 0.000221114890148 -0.0336390309913
Te -2.1071082308 6.0826990986 27.510099531 -2.57110337382e-07 -0 -0.0215695004236
Te -0.4477261604 2.1745845854 20.1554021156 -0.0260056821848 -0.0150142152617 -0.0385467531113
Te 2.1071091493 6.5996895085 20.1554021156 -0 0.0300289447442 -0.0385467531113
Te 4.6619439879 2.1745848574 20.1554016923 0.0260056821848 -0.0150142152617 -0.0385467531113
Te -2.1071091493 6.0826996289 19.5186652234 0 -2.57110337382e-07 0.000198489180459
Sb -0.1107190473 2.3691544037 9.5337637171 0.00907779468193 0.00524145133786 0.00733098704976
Sb 2.1071103789 6.2105477419 9.5337637171 -2.57110337382e-07 -0.0104821313447 0.00733072993943
Sb 4.3249368748 2.3691560955 9.5337641064 -0.00907779468193 0.00524119422752 0.00733072993943
Sb -2.1071103789 6.0827003388 8.2402009631 2.57110337382e-07 -2.57110337382e-07 -0.0209074413049
Sb 0.0041551837 2.435476222 1.9407986434 -0.00203682809274 -0.00117550846251 -0.0119108934895
Sb 2.1071111417 6.0779027841 1.9407986434 -2.57110337382e-07 0.00235153114569 -0.0119108934895
Sb 4.2100626438 2.4354787946 1.9407989315 0.00203682809274 -0.00117576557285 -0.0119111505999
Sb -2.1071111417 6.0827007792 1.931898548 2.57110337382e-07 -2.57110337382e-07 -0.0128416329109
Sb -0.1300708896 0.0750964981 17.877229215 -0.00936344426676 0.00540600195379 -0.030038714937
Sb 2.107108188 3.6496201148 19.5723324316 0 -2.57110337382e-07 0.00599041375065
Sb 4.3442887171 0.07509566 17.8772294601 0.00936344426676 0.00540625906412 -0.030038714937
Sb 6.3213274671 3.4994271186 17.8772294601 -2.57110337382e-07 -0.0108122610179 -0.030038714937
Sb 0.1300708896 -0.0750964981 13.1562080104 0.00936344426676 -0.00540600195379 0.030038714937
Sb 2.1071096396 3.6496192767 11.4611047938 -0 -0 -0.00599041375065
Sb 4.0841469379 -0.07509566 13.1562077653 -0.00936344426676 -0.00540600195379 0.030038714937
Sb -2.1071096396 3.7998122729 13.1562077653 2.57110337382e-07 0.0108120039076 0.030038714937
Sb 2.1071066858 1.2213366074 29.092638582 2.57110337382e-07 -0.00235153114569 0.0119106363792
Sb 4.2100626438 4.8637631695 29.092638582 0.00203682809274 0.00117550846251 0.0119108934895
Sb 6.3213289693 1.2165386123 29.1015386774 -2.57110337382e-07 2.57110337382e-07 0.0128413758005
Sb 0.0041551837 4.8637605968 29.0926382939 -0.00203682809274 0.00117576557285 0.0119111505999
Sb 2.1071074486 1.0886916496 21.4996735083 2.57110337382e-07 0.010482388455 -0.00733098704976
Sb 4.3249368748 4.9300849877 21.4996735083 -0.00907779468193 -0.00524145133786 -0.00733072993943
Sb 6.3213282064 1.2165390527 22.7932362623 -2.57110337382e-07 2.57110337382e-07 0.0209074413049
Sb -0.1107190473 4.9300832959 21.4996731191 0.00907779468193 -0.00524119422752 -0.00733072993943
Cr 2.1071089138 3.6496196957 15.5167186127 0 0 0
61
Lattice="8.42843558953 0 0 -4.21421779477 7.29923593142 0 0 0 31.0334408416" Properties=species:S:1:pos:R:3:forces:R:3 energy=-133600.920024 ionic_step=30 pbc="T T T"
Te 2.1071095967 1.2091767463 3.5428349322 -2.57110337382e-07 0.00041240498116 0.0339532198236
Te 4.220594843 4.869840579 3.5428349322 -0.000357126258623 -0.00020620249058 0.0339532198236
Te 6.3213260584 1.2165402929 3.5253259273 2.57110337382e-07 0 0.0206847837527
Te -0.0063770155 4.8698413676 3.5428349438 0.000357126258623 -0.000206459600917 0.0339534769339
Te -0.3535702584 0.2041339791 7.59971316 0.0165208818388 -0.00953827929618 -0.0290138731322
Te 2.1071084831 3.6496199444 8.1022328413 2.57110337382e-07 -5.14220674763e-07 -0.0394659225674
Te 4.5677880859 0.2041334818 7.5997129712 -0.0165211389491 -0.00953802218585 -0.0290138731322
Te -2.1071084831 3.2413519863 7.5997129712 -0 0.0190768157027 -0.0290136160218
Te 0 -0 0 0 2.57110337382e-07 -2.57110337382e-07
Te 2.1071089138 3.6496196957 0 -0 -2.57110337382e-07 -2.57110337382e-07
Te 4.2142178275 -0 0 -0 2.57110337382e-07 -2.57110337382e-07
Te -2.1071089138 3.6496196957 0 0 -2.57110337382e-07 -2.57110337382e-07
Te 0.4960231487 2.7194592799 13.7209928273 0.00278501917452 0.00160796804998 0.00910556259837
Te 2.1071086966 5.5099409036 13.7209928273 -0 -0.00321593609997 0.00910556259837
Te 3.7181946788 2.7194590291 13.7209932157 -0.00278501917452 0.00160796804998 0.00910556259837
Te -2.1071086966 6.0826993675 14.945869703 -0 -0 -0.08773016088
Te 2.107109131 1.7892984879 17.3124443981 0 0.00321593609997 -0.00910556259837
Te 3.7181946788 4.5797801115 17.3124443981 -0.00278501917452 -0.00160822516032 -0.00910556259837
Te 6.3213265241 1.216540024 16.0875675224 0 2.57110337382e-07 0.08773016088
Te 0.4960231487 4.5797803623 17.3124440097 0.00278501917452 -0.00160822516032 -0.00910556259837
Te 2.1071086782 0.6990389904 10.8647698564 0 -0.0295797729847 0.0370801957468
Te 4.6623864337 5.1249102523 10.8647698564 0.0256166742443 0.0147897579372 0.0370804528572
Te 6.3213269768 1.2165397626 11.510894001 -0 2.57110337382e-07 0.000639176298731
Te -0.4481686062 5.1249099803 10.8647702797 -0.0256166742443 0.0147897579372 0.0370804528572
Te 0.3535702584 -0.2041339791 23.4337240654 -0.0165208818388 0.00953827929618 0.0290138731322
Te 2.1071093444 3.6496194471 22.9312043841 -2.57110337382e-07 -2.57110337382e-07 0.0394659225674
Te 3.8606475691 -0.2041334818 23.4337242542 0.0165208818388 0.00953827929618 0.0290138731322
Te -2.1071093444 4.0578874052 23.4337242542 0 -0.0190765585924 0.0290136160218
Te -0.0063770155 2.4293988124 27.4906022932 0.000357126258623 0.00020620249058 -0.0339527056029
Te 2.1071082308 6.0900626452 27.4906022932 2.57110337382e-07 -0.00041240498116 -0.0339529627133
Te 4.220594843 2.4293980238 27.4906022816 -0.000357126258623 0.000206459600917 -0.0339527056029
Te -2.1071082308 6.0826990986 27.5081112981 -2.57110337382e-07 -0 -0.020684269532
Te -0.4481686062 2.1743291391 20.168667369 -0.0256166742443 -0.0147897579372 -0.0370804528572
Te 2.1071091493 6.6002004011 20.168667369 -0 0.0295797729847 -0.0370804528572
Te 4.6623864337 2.1743294111 20.1686669457 0.0256166742443 -0.0147897579372 -0.0370804528572
Te -2.1071091493 6.0826996289 19.5225432244 0 -2.57110337382e-07 -0.000639176298731
Sb -0.1070054314 2.3712984619 9.5312521816 0.00890553075589 0.0051419496373 0.00734667078034
Sb 2.1071103789 6.2062596257 9.5312521816 -2.57110337382e-07 -0.0102831279436 0.00734641367001
Sb 4.3212232589 2.3713001537 9.5312525709 -0.00890553075589 0.00514169252696 0.00734667078034
Sb -2.1071103789 6.0827003388 8.236148773 2.57110337382e-07 -2.57110337382e-07 -0.0208326221967
Sb 0.0037298851 2.4352306757 1.9414830215 -0.0019458110333 -0.00112305795368 -0.011729887812
Sb 2.1071111417 6.0783938768 1.9414830215 -2.57110337382e-07 0.00224663012804 -0.011729887812
Sb 4.2104879424 2.4352332483 1.9414833096 0.0019458110333 -0.00112331506402 -0.0117301449224
Sb -2.1071111417 6.0827007792 1.9317457048 2.57110337382e-07 -2.57110337382e-07 -0.0127408456586
Sb -0.1224776209 0.0707125204 17.8777196348 -0.00961772639043 0.00555306906677 -0.0301436159546
Sb 2.107108188 3.6496201148 19.5877177978 0 -2.57110337382e-07 0.0049054081269
Sb 4.3366954484 0.0707116823 17.8777198798 0.00961772639043 0.00555306906677 -0.0301436159546
Sb 6.3213274671 3.5081950741 17.8777198798 -2.57110337382e-07 -0.0111058810232 -0.0301433588443
Sb 0.1224776209 -0.0707125204 13.1557175907 0.00961772639043 -0.00555281195643 0.0301436159546
Sb 2.1071096396 3.6496192767 11.4457194276 -0 -0 -0.0049054081269
Sb 4.0917402066 -0.0707116823 13.1557173456 -0.00961772639043 -0.00555281195643 0.0301436159546
Sb -2.1071096396 3.7910443174 13.1557173456 2.57110337382e-07 0.0111056239129 0.0301433588443
Sb 2.1071066858 1.2208455147 29.0919542039 2.57110337382e-07 -0.00224663012804 0.011729887812
Sb 4.2104879424 4.8640087158 29.0919542039 0.0019458110333 0.00112305795368 0.011729887812
Sb 6.3213289693 1.2165386123 29.1016915206 -2.57110337382e-07 2.57110337382e-07 0.0127408456586
Sb 0.0037298851 4.8640061431 29.0919539158 -0.0019458110333 0.00112331506402 0.0117301449224
Sb 2.1071074486 1.0929797658 21.5021850438 2.57110337382e-07 0.0102833850539 -0.00734667078034
Sb 4.3212232589 4.9279409295 21.5021850438 -0.00890553075589 -0.0051419496373 -0.00734641367001
Sb 6.3213282064 1.2165390527 22.7972884524 -2.57110337382e-07 2.57110337382e-07 0.0208326221967
Sb -0.1070054314 4.9279392377 21.5021846546 0.00890553075589 -0.00514169252696 -0.00734641367001
Cr 2.1071089138 3.6496196957 15.5167186127 0 0 0
61
Lattice="8.42843558953 0 0 -4.21421779477 7.29923593142 0 0 0 31.0334408416" Properties=species:S:1:pos:R:3:forces:R:3 energy=-133600.965573 ionic_step=31 pbc="T T T"
Te 2.1071095967 1.2093277341 3.5383471984 -2.57110337382e-07 0.000514220674763 0.0346463892932
Te 4.2204640838 4.8697650851 3.5383471984 -0.000445315104345 -0.000257110337382 0.0346463892932
Te 6.3213260584 1.2165402929 3.5214511198 2.57110337382e-07 0 0.0207840283429
Te -0.0062462563 4.8697658737 3.53834721 0.000445315104345 -0.000257367447719 0.0346463892932
Te -0.3586775276 0.2070826637 7.5941302745 0.0158454529825 -0.00914824291438 -0.029490812808
Te 2.1071084831 3.6496199444 8.0644791408 2.57110337382e-07 -5.14220674763e-07 -0.0416829850066
Te 4.5728953551 0.2070821664 7.5941300857 -0.0158454529825 -0.00914824291438 -0.029490812808
Te -2.1071084831 3.235454617 7.5941300857 -0 0.0182967429391 -0.0294905556977
Te 0 -0 0 0 2.57110337382e-07 -2.57110337382e-07
Te 2.1071089138 3.6496196957 0 -0 -2.57110337382e-07 -2.57110337382e-07
Te 4.2142178275 -0 0 -0 2.57110337382e-07 -2.57110337382e-07
Te -2.1071089138 3.6496196957 0 0 -2.57110337382e-07 -2.57110337382e-07
Te 0.5027097917 2.7233198169 13.7136609674 0.0041749576584 0.00241040941295 0.00843887549354
Te 2.1071086966 5.5022198297 13.7136609674 0 -0.00482056171557 0.00843887549354
Te 3.7115080358 2.7233195661 13.7136613558 -0.00417470054807 0.00241040941295 0.00843887549354
Te -2.1071086966 6.0826993675 14.9155785731 -0 -0 -0.0857768936469
Te 2.107109131 1.7970195618 17.319776258 -0 0.00482056171557 -0.00843887549354
Te 3.7115080358 4.5759195745 17.319776258 -0.00417470054807 -0.00241040941295 -0.00843887549354
Te 6.3213265241 1.216540024 16.1178586523 0 2.57110337382e-07 0.0857768936469
Te 0.5027097917 4.5759198253 17.3197758696 0.00417470054807 -0.00241040941295 -0.00843887549354
Te 2.1071086782 0.6997734879 10.8502066974 0 -0.0287871018146 0.035333645225
Te 4.6617503406 5.1245430036 10.8502066974 0.0249304467539 0.014393293797 0.0353339023353
Te 6.3213269768 1.2165397626 11.4977865119 -0 2.57110337382e-07 0.00281921484939
Te -0.4475325131 5.1245427316 10.8502071207 -0.0249304467539 0.0143935509073 0.0353339023353
Te 0.3586775276 -0.2070826637 23.4393069509 -0.0158451958722 0.00914824291438 0.029490812808
Te 2.1071093444 3.6496194471 22.9689580846 -2.57110337382e-07 -2.57110337382e-07 0.0416829850066
Te 3.8555402999 -0.2070821664 23.4393071397 0.0158451958722 0.00914824291438 0.0294905556977
Te -2.1071093444 4.0637847745 23.4393071397 0 -0.0182964858288 0.0294905556977
Te -0.0062462563 2.4294743063 27.495090027 0.000445315104345 0.000257110337382 -0.0346458750725
Te 2.1071082308 6.0899116574 27.495090027 2.57110337382e-07 -0.000514220674763 -0.0346461321828
Te 4.2204640838 2.4294735177 27.4950900154 -0.000445315104345 0.000257367447719 -0.0346458750725
Te -2.1071082308 6.0826990986 27.5119861056 -2.57110337382e-07 -0 -0.0207835141222
Te -0.4475325131 2.1746963878 20.183230528 -0.0249304467539 -0.014393293797 -0.0353339023353
Te 2.1071091493 6.5994659036 20.183230528 -0 0.0287873589249 -0.0353339023353
Te 4.6617503406 2.1746966598 20.1832301047 0.0249304467539 -0.0143935509073 -0.0353339023353
Te -2.1071091493 6.0826996289 19.5356507135 0 -2.57110337382e-07 -0.00281921484939
Sb -0.1016894216 2.374367663 9.5209235685 0.00859185614428 0.00496094395978 0.00745902799778
Sb 2.1071103789 6.2001212234 9.5209235685 -2.57110337382e-07 -0.00992111658854 0.00745877088744
Sb 4.3159072491 2.3743693548 9.5209239578 -0.00859185614428 0.00496068684944 0.00745902799778
Sb -2.1071103789 6.0827003388 8.2339033251 2.57110337382e-07 -2.57110337382e-07 -0.0204078759193
Sb 0.0032554607 2.4349567665 1.9393270141 -0.00184373822936 -0.00106392257609 -0.011243692164
Sb 2.1071111417 6.0789416952 1.9393270141 -2.57110337382e-07 0.00212861648318 -0.011243692164
Sb 4.2109623668 2.4349593391 1.9393273022 0.00184373822936 -0.00106443679676 -0.0112439492744
Sb -2.1071111417 6.0827007792 1.9286958974 2.57110337382e-07 -2.57110337382e-07 -0.0123490095044
Sb -0.11504157 0.0664193124 17.8866330285 -0.0097467957798 0.00562737395427 -0.0302359185657
Sb 2.107108188 3.6496201148 19.600411209 0 -2.57110337382e-07 0.00408368348863
Sb 4.3292593975 0.0664184743 17.8866332736 0.0097467957798 0.00562763106461 -0.0302359185657
Sb 6.3213274671 3.5167814901 17.8866332736 -2.57110337382e-07 -0.0112550050189 -0.0302359185657
Sb 0.11504157 -0.0664193124 13.1468041969 0.00974705289014 -0.00562737395427 0.0302359185657
Sb 2.1071096396 3.6496192767 11.4330260164 -0 -0 -0.00408368348863
Sb 4.0991762575 -0.0664184743 13.1468039518 -0.0097467957798 -0.00562737395427 0.0302359185657
Sb -2.1071096396 3.7824579014 13.1468039518 2.57110337382e-07 0.0112547479085 0.0302359185657
Sb 2.1071066858 1.2202976963 29.0941102113 2.57110337382e-07 -0.00212861648318 0.011243692164
Sb 4.2109623668 4.864282625 29.0941102113 0.00184373822936 0.00106417968642 0.011243692164
Sb 6.3213289693 1.2165386123 29.104741328 -2.57110337382e-07 2.57110337382e-07 0.0123490095044
Sb 0.0032554607 4.8642800523 29.0941099232 -0.00184373822936 0.00106443679676 0.0112439492744
Sb 2.1071074486 1.0991181681 21.5125136569 2.57110337382e-07 0.00992111658854 -0.00745902799778
Sb 4.3159072491 4.9248717284 21.5125136569 -0.00859185614428 -0.00496094395978 -0.00745877088744
Sb 6.3213282064 1.2165390527 22.7995339003 -2.57110337382e-07 2.57110337382e-07 0.0204078759193
Sb -0.1016894216 4.9248700366 21.5125132677 0.00859185614428 -0.00496068684944 -0.00745877088744
Cr 2.1071089138 3.6496196957 15.5167186127 0 0 0
61
Lattice="8.42843558953 0 0 -4.21421779477 7.29923593142 0 0 0 31.0334408416" Properties=species:S:1:pos:R:3:forces:R:3 energy=-133601.026023 ionic_step=32 pbc="T T T"
Te 2.1071095967 1.209623427 3.5259462443 -2.57110337382e-07 0.000659488015384 0.0360124165157
Te 4.2202080063 4.8696172386 3.5259462443 -0.000571299169662 -0.000329872562861 0.036012673626
Te 6.3213260584 1.2165402929 3.5097321389 2.57110337382e-07 0 0.0217867586587
Te -0.0059901788 4.8696180272 3.5259462559 0.000571299169662 -0.000330129673198 0.036012673626
Te -0.3676006091 0.2122344096 7.5855367758 0.014796442806 -0.0085424909595 -0.030379386134
Te 2.1071084831 3.6496199444 8.00784859 2.57110337382e-07 -5.14220674763e-07 -0.0447744797033
Te 4.5818184366 0.2122339123 7.585536587 -0.014796442806 -0.0085424909595 -0.030379386134
Te -2.1071084831 3.2251511252 7.585536587 -0 0.0170852390293 -0.030379386134
Te 0 -0 0 0 2.57110337382e-07 -2.57110337382e-07
Te 2.1071089138 3.6496196957 0 -0 -2.57110337382e-07 -2.57110337382e-07
Te 4.2142178275 -0 0 -0 2.57110337382e-07 -2.57110337382e-07
Te -2.1071089138 3.6496196957 0 0 -2.57110337382e-07 -2.57110337382e-07
Te 0.5095091368 2.7272454224 13.7041370912 0.00554664130833 0.00320256636243 0.00713712585538
Te 2.1071086966 5.4943686186 13.7041370912 0 -0.00640461850418 0.00713712585538
Te 3.7047086907 2.7272451716 13.7041374796 -0.00554664130833 0.00320256636243 0.00713712585538
Te -2.1071086966 6.0826993675 14.8669958545 -0 -2.57110337382e-07 -0.0811653626356
Te 2.107109131 1.8048707729 17.3293001342 -0 0.00640487561451 -0.00713712585538
Te 3.7047086907 4.571993969 17.3293001342 -0.00554664130833 -0.00320256636243 -0.00713712585538
Te 6.3213265241 1.216540024 16.1664413709 0 2.57110337382e-07 0.0811653626356
Te 0.5095091368 4.5719942198 17.3292997458 0.00554664130833 -0.00320256636243 -0.00713712585538
Te 2.1071086782 0.7013033006 10.8294892094 0 -0.0274071906339 0.0324478387982
Te 4.6604254845 5.1237780973 10.8294892094 0.0237353979057 0.0137034667618 0.0324480959086
Te 6.3213269768 1.2165397626 11.4724869218 -0 2.57110337382e-07 0.00637299393268
Te -0.446207657 5.1237778253 10.8294896327 -0.0237353979057 0.0137034667618 0.0324480959086
Te 0.3676006091 -0.2122344096 23.4479004496 -0.0147961856956 0.00854274806984 0.030379386134
Te 2.1071093444 3.6496194471 23.0255886354 -2.57110337382e-07 -2.57110337382e-07 0.0447744797033
Te 3.8466172184 -0.2122339123 23.4479006384 0.0147961856956 0.0085424909595 0.030379386134
Te -2.1071093444 4.0740882663 23.4479006384 0 -0.0170852390293 0.0303791290237
Te -0.0059901788 2.4296221528 27.5074909811 0.000571299169662 0.000329872562861 -0.0360121594054
Te 2.1071082308 6.0896159645 27.5074909811 2.57110337382e-07 -0.000659745125721 -0.0360121594054
Te 4.2202080063 2.4296213642 27.5074909695 -0.000571299169662 0.000330129673198 -0.0360121594054
Te -2.1071082308 6.0826990986 27.5237050865 -2.57110337382e-07 -0 -0.021786244438
Te -0.446207657 2.1754612941 20.203948016 -0.0237353979057 -0.0137034667618 -0.0324478387982
Te 2.1071091493 6.5979360909 20.203948016 -0 0.0274071906339 -0.0324478387982
Te 4.6604254845 2.1754615661 20.2039475927 0.0237351407954 -0.0137034667618 -0.0324478387982
Te -2.1071091493 6.0826996289 19.5609503036 0 -2.57110337382e-07 -0.00637325104302
Sb -0.092539958 2.3796501107 9.4999699877 0.00797016334849 0.00460201792879 0.00802389940901
Sb 2.1071103789 6.1895563279 9.4999699877 -2.57110337382e-07 -0.00920326452658 0.00802364229867
Sb 4.3067577855 2.3796518025 9.499970377 -0.00797016334849 0.00460176081846 0.00802389940901
Sb -2.1071103789 6.0827003388 8.2328955315 2.57110337382e-07 -2.57110337382e-07 -0.0194851069185
Sb 0.002399947 2.4344628352 1.9326482453 -0.00168150160648 -0.000970334413278 -0.0101856831257
Sb 2.1071111417 6.0799295578 1.9326482453 -2.57110337382e-07 0.00194144015757 -0.0101856831257
Sb 4.2118178805 2.4344654078 1.9326485334 0.00168150160648 -0.000970591523616 -0.010185940236
Sb -2.1071111417 6.0827007792 1.9215195803 2.57110337382e-07 -2.57110337382e-07 -0.011390759277
Sb -0.1055239532 0.0609243112 17.9045738907 -0.00962775369359 0.00555872549419 -0.0304871153654
Sb 2.107108188 3.6496201148 19.6137294621 0 -2.57110337382e-07 0.0030778678488
Sb 4.3197417807 0.0609234731 17.9045741358 0.00962749658326 0.00555872549419 -0.0304871153654
Sb 6.3213274671 3.5277714924 17.9045741358 -2.57110337382e-07 -0.0111174509884 -0.030486858255
Sb 0.1055239532 -0.0609243112 13.1288633347 0.00962775369359 -0.00555846838385 0.0304871153654
Sb 2.1071096396 3.6496192767 11.4197077633 -0 -0 -0.0030778678488
Sb 4.1086938743 -0.0609234731 13.1288630896 -0.00962775369359 -0.00555872549419 0.0304871153654
Sb -2.1071096396 3.7714678991 13.1288630896 2.57110337382e-07 0.011117193878 0.030486858255
Sb 2.1071066858 1.2193098337 29.1007889801 2.57110337382e-07 -0.00194118304723 0.0101854260154
Sb 4.2118178805 4.8647765563 29.1007889801 0.00168150160648 0.000970334413278 0.0101856831257
Sb 6.3213289693 1.2165386123 29.1119176451 -2.57110337382e-07 2.57110337382e-07 0.0113905021667
Sb 0.002399947 4.8647739836 29.100788692 -0.00168150160648 0.000970848633953 0.010185940236
Sb 2.1071074486 1.1096830636 21.5334672377 2.57110337382e-07 0.00920326452658 -0.00802389940901
Sb 4.3067577855 4.9195892807 21.5334672377 -0.00797016334849 -0.00460201792879 -0.00802364229867
Sb 6.3213282064 1.2165390527 22.8005416939 -2.57110337382e-07 2.57110337382e-07 0.0194851069185
Sb -0.092539958 4.9195875889 21.5334668485 0.00797016334849 -0.00460176081846 -0.00802364229867
Cr 2.1071089138 3.6496196957 15.5167186127 0 0 0
61
Lattice="8.42843558953 0 0 -4.21421779477 7.29923593142 0 0 0 31.0334408416" Properties=species:S:1:pos:R:3:forces:R:3 energy=-133601.07996 ionic_step=33 pbc="T T T"
Te 2.1071095967 1.2100360799 3.5053730824 -2.57110337382e-07 0.000895001084425 0.0381682866946
Te 4.2198506386 4.8694109122 3.5053730824 -0.000774930556868 -0.000447371987044 0.0381682866946
Te 6.3213260584 1.2165402929 3.4904645441 2.57110337382e-07 0 0.0234374070247
Te -0.0056328111 4.8694117008 3.505373094 0.000774930556868 -0.000447886207719 0.038168543805
Te -0.3809165257 0.2199223612 7.5713301846 0.0134610117136 -0.00777167416803 -0.0318567421326
Te 2.1071084831 3.6496199444 7.9229027638 2.57110337382e-07 -5.14220674763e-07 -0.0488270528411
Te 4.5951343532 0.2199218639 7.5713299958 -0.0134610117136 -0.0077714170577 -0.0318567421326
Te -2.1071084831 3.209775222 7.5713299958 -0 0.0155433483361 -0.0318567421326
Te 0 -0 0 0 2.57110337382e-07 -2.57110337382e-07
Te 2.1071089138 3.6496196957 0 -0 -2.57110337382e-07 -2.57110337382e-07
Te 4.2142178275 -0 0 -0 2.57110337382e-07 -2.57110337382e-07
Te -2.1071089138 3.6496196957 0 0 -2.57110337382e-07 -2.57110337382e-07
Te 0.5158551217 2.7309092802 13.6901289752 0.00663113271141 0.00382863003395 0.00549933300626
Te 2.1071086966 5.487040903 13.6901289752 0 -0.00765674584722 0.00549933300626
Te 3.6983627058 2.7309090294 13.6901293636 -0.00663113271141 0.00382863003395 0.00549933300626
Te -2.1071086966 6.0826993675 14.797348016 -0 -2.57110337382e-07 -0.0719497568129
Te 2.107109131 1.8121984885 17.3433082502 -0 0.00765700295756 -0.00549933300626
Te 3.6983627058 4.5683301112 17.3433082502 -0.00663113271141 -0.00382863003395 -0.00549933300626
Te 6.3213265241 1.216540024 16.2360892094 0 2.57110337382e-07 0.0719494997025
Te 0.5158551217 4.568330362 17.3433078618 0.00663087560107 -0.00382863003395 -0.00549933300626
Te 2.1071086782 0.7020169178 10.8006277454 0 -0.0253865604924 0.027859190607
Te 4.6598074741 5.1234212886 10.8006277454 0.0219855049495 0.0126930231359 0.0278594477173
Te 6.3213269768 1.2165397626 11.4276003255 -0 2.57110337382e-07 0.0109804111786
Te -0.4455896466 5.1234210166 10.8006281687 -0.0219855049495 0.0126932802462 0.0278594477173
Te 0.3809165257 -0.2199223612 23.4621070408 -0.0134607546033 0.00777167416803 0.0318567421326
Te 2.1071093444 3.6496194471 23.1105344616 -2.57110337382e-07 -2.57110337382e-07 0.0488270528411
Te 3.8333013018 -0.2199218639 23.4621072296 0.0134610117136 0.00777167416803 0.0318567421326
Te -2.1071093444 4.0894641695 23.4621072296 0 -0.0155433483361 0.0318567421326
Te -0.0056328111 2.4298284792 27.528064143 0.000774930556868 0.000447371987044 -0.038167772474
Te 2.1071082308 6.0892033116 27.528064143 2.57110337382e-07 -0.000895001084425 -0.0381680295843
Te 4.2198506386 2.4298276906 27.5280641314 -0.000774930556868 0.000447629097381 -0.038167772474
Te -2.1071082308 6.0826990986 27.5429726813 -2.57110337382e-07 -0 -0.0234371499144
Te -0.4455896466 2.1758181028 20.23280948 -0.0219855049495 -0.0126930231359 -0.0278594477173
Te 2.1071091493 6.5972224737 20.23280948 -0 0.0253868176027 -0.0278594477173
Te 4.6598074741 2.1758183748 20.2328090567 0.0219855049495 -0.0126932802462 -0.0278594477173
Te -2.1071091493 6.0826996289 19.6058368999 0 -2.57110337382e-07 -0.0109804111786
Sb -0.0761521538 2.3891116183 9.463449266 0.00661313498779 0.00381860273079 0.0093107366476
Sb 2.1071103789 6.1706333128 9.463449266 -2.57110337382e-07 -0.00763643413057 0.0093107366476
Sb 4.2903699813 2.3891133101 9.4634496553 -0.00661313498779 0.00381834562045 0.0093107366476
Sb -2.1071103789 6.0827003388 8.231555487 2.57110337382e-07 -2.57110337382e-07 -0.0181216507993
Sb 0.0011317158 2.4337306212 1.9216013836 -0.00145293051654 -0.000838436810201 -0.00844581747265
Sb 2.1071111417 6.0813939858 1.9216013836 -2.57110337382e-07 0.00167738784108 -0.00844581747265
Sb 4.2130861117 2.4337331938 1.9216016717 0.00145293051654 -0.000838693920539 -0.00844607458299
Sb -2.1071111417 6.0827007792 1.9106250848 2.57110337382e-07 -2.57110337382e-07 -0.00977456369624
Sb -0.0932263156 0.0538242635 17.9333453687 -0.00888624748058 0.00513063678245 -0.0309709970203
Sb 2.107108188 3.6496201148 19.6301190222 0 -2.57110337382e-07 0.00163856418013
Sb 4.3074441431 0.0538234254 17.9333456138 0.00888624748058 0.00513089389279 -0.03097073991
Sb 6.3213274671 3.5419715878 17.9333456138 -2.57110337382e-07 -0.0102612735649 -0.03097073991
Sb 0.0932263156 -0.0538242635 13.1000918567 0.00888650459092 -0.00513037967211 0.0309709970203
Sb 2.1071096396 3.6496192767 11.4033182032 -0 -0 -0.00163856418013
Sb 4.1209915119 -0.0538234254 13.1000916116 -0.00888650459092 -0.00513063678245 0.03097073991
Sb -2.1071096396 3.7572678037 13.1000916116 2.57110337382e-07 0.0102610164546 0.03097073991
Sb 2.1071066858 1.2178454057 29.1118358419 2.57110337382e-07 -0.00167738784108 0.00844581747265
Sb 4.2130861117 4.8655087703 29.1118358419 0.00145293051654 0.000838436810201 0.00844581747265
Sb 6.3213289693 1.2165386123 29.1228121406 -2.57110337382e-07 2.57110337382e-07 0.00977456369624
Sb 0.0011317158 4.8655061976 29.1118355537 -0.00145293051654 0.000838693920539 0.00844607458299
Sb 2.1071074486 1.1286060787 21.5699879594 2.57110337382e-07 0.00763643413057 -0.0093107366476
Sb 4.2903699813 4.9101277731 21.5699879594 -0.00661313498779 -0.00381860273079 -0.0093107366476
Sb 6.3213282064 1.2165390527 22.8018817384 -2.57110337382e-07 2.57110337382e-07 0.0181216507993
Sb -0.0761521538 4.9101260813 21.5699875702 0.00661313498779 -0.00381834562045 -0.0093107366476
Cr 2.1071089138 3.6496196957 15.5167186127 0 0 0
61
Lattice="8.42843558953 0 0 -4.21421779477 7.29923593142 0 0 0 31.0334408416" Properties=species:S:1:pos:R:3:forces:R:3 energy=-133601.103207 ionic_step=34 pbc="T T T"
Te 2.1071095967 1.2101491063 3.498290351 -2.57110337382e-07 0.00106983611384 0.0392139544368
Te 4.2197527549 4.869354399 3.498290351 -0.000926368545586 -0.000534789501754 0.0392139544368
Te 6.3213260584 1.2165402929 3.4846750198 2.57110337382e-07 0 0.0235050270434
Te -0.0055349274 4.8693551876 3.4982903626 0.000926368545586 -0.000535046612091 0.0392139544368
Te -0.3870317369 0.2234529817 7.5613940592 0.0131205976269 -0.00757498475994 -0.0327160048801
Te 2.1071084831 3.6496199444 7.8743066629 2.57110337382e-07 -5.14220674763e-07 -0.0505293803849
Te 4.6012495644 0.2234524844 7.5613938704 -0.0131205976269 -0.00757498475994 -0.0327160048801
Te -2.1071084831 3.202713981 7.5613938704 -0 0.0151504837405 -0.0327160048801
Te 0 -0 0 0 2.57110337382e-07 -2.57110337382e-07
Te 2.1071089138 3.6496196957 0 -0 -2.57110337382e-07 -2.57110337382e-07
Te 4.2142178275 -0 0 -0 2.57110337382e-07 -2.57110337382e-07
Te -2.1071089138 3.6496196957 0 0 -2.57110337382e-07 -2.57110337382e-07
Te 0.5175653541 2.7318966838 13.6803648025 0.00685559003594 0.00395821364399 0.00518025907757
Te 2.1071086966 5.4850660959 13.6803648025 0 -0.00791617017764 0.00518025907757
Te 3.6966524734 2.731896433 13.6803651909 -0.00685559003594 0.00395821364399 0.00518025907757
Te -2.1071086966 6.0826993675 14.7658409032 -0 -2.57110337382e-07 -0.066751757122
Te 2.107109131 1.8141732956 17.3530724229 -0 0.00791617017764 -0.00518025907757
Te 3.6966524734 4.5673427076 17.3530724229 -0.00685559003594 -0.00395821364399 -0.00518025907757
Te 6.3213265241 1.216540024 16.2675963222 0 2.57110337382e-07 0.066751757122
Te 0.5175653541 4.5673429584 17.3530720345 0.00685559003594 -0.00395821364399 -0.00518025907757
Te 2.1071086782 0.6986992459 10.7862948642 0 -0.0247869791856 0.0252526060066
Te 4.6626806609 5.1250801246 10.7862948642 0.021466142068 0.0123932324825 0.0252528631169
Te 6.3213269768 1.2165397626 11.3971002142 -0 2.57110337382e-07 0.0131000287999
Te -0.4484628334 5.1250798526 10.7862952875 -0.021466142068 0.0123932324825 0.0252528631169
Te 0.3870317369 -0.2234529817 23.4720431662 -0.0131203405166 0.00757524187027 0.0327160048801
Te 2.1071093444 3.6496194471 23.1591305625 -2.57110337382e-07 -2.57110337382e-07 0.0505293803849
Te 3.8271860906 -0.2234524844 23.472043355 0.0131205976269 0.00757524187027 0.0327160048801
Te -2.1071093444 4.0965254105 23.472043355 0 -0.0151502266302 0.0327160048801
Te -0.0055349274 2.4298849924 27.5351468744 0.000926368545586 0.000534789501754 -0.0392134402161
Te 2.1071082308 6.0890902852 27.5351468744 2.57110337382e-07 -0.00106983611384 -0.0392136973264
Te 4.2197527549 2.4298842038 27.5351468628 -0.000926368545586 0.000535046612091 -0.0392134402161
Te -2.1071082308 6.0826990986 27.5487622056 -2.57110337382e-07 -0 -0.0235047699331
Te -0.4484628334 2.1741592668 20.2471423612 -0.021466142068 -0.0123932324825 -0.0252528631169
Te 2.1071091493 6.6005401456 20.2471423612 -0 0.0247869791856 -0.0252526060066
Te 4.6626806609 2.1741595388 20.2471419379 0.021466142068 -0.0123932324825 -0.0252528631169
Te -2.1071091493 6.0826996289 19.6363370112 0 -2.57110337382e-07 -0.0131000287999
Sb -0.0635395651 2.3963935032 9.4404470617 0.00531652755638 0.00306989742834 0.0102859561573
Sb 2.1071103789 6.156069543 9.4404470617 -2.57110337382e-07 -0.00613902352566 0.010285699047
Sb 4.2777573926 2.396395195 9.440447451 -0.00531652755638 0.003069640318 0.010285699047
Sb -2.1071103789 6.0827003388 8.2267927314 2.57110337382e-07 -2.57110337382e-07 -0.0179007930195
Sb 0.000562946 2.4334022416 1.9176800451 -0.00135162904362 -0.000779815653278 -0.00765803139891
Sb 2.1071111417 6.0820507449 1.9176800451 -2.57110337382e-07 0.00156040263757 -0.00765803139891
Sb 4.2136548816 2.4334048142 1.9176803332 0.00135162904362 -0.000780329873953 -0.00765828850925
Sb -2.1071111417 6.0827007792 1.907369798 2.57110337382e-07 -2.57110337382e-07 -0.00903074349019
Sb -0.0872538956 0.0503760836 17.946448032 -0.00828666617381 0.004784309158 -0.0308529833755
Sb 2.107108188 3.6496201148 19.6407883305 0 -2.57110337382e-07 0.000646632498515
Sb 4.3014717231 0.0503752455 17.9464482771 0.00828640906347 0.00478456626833 -0.0308527262651
Sb 6.3213274671 3.5488679476 17.9464482771 -2.57110337382e-07 -0.00956861831599 -0.0308527262651
Sb 0.0872538956 -0.0503760836 13.0869891934 0.00828666617381 -0.00478405204766 0.0308529833755
Sb 2.1071096396 3.6496192767 11.3926488949 -0 -0 -0.000646632498515
Sb 4.1269639319 -0.0503752455 13.0869889483 -0.00828640906347 -0.004784309158 0.0308527262651
Sb -2.1071096396 3.7503714439 13.0869889483 2.57110337382e-07 0.00956836120566 0.0308527262651
Sb 2.1071066858 1.2171886466 29.1157571803 2.57110337382e-07 -0.00156040263757 0.00765803139891
Sb 4.2136548816 4.8658371499 29.1157571803 0.00135162904362 0.000780072763616 0.00765803139891
Sb 6.3213289693 1.2165386123 29.1260674274 -2.57110337382e-07 2.57110337382e-07 0.00903048637985
Sb 0.0005629459 4.8658345772 29.1157568922 -0.00135162904362 0.000780329873953 0.00765828850925
Sb 2.1071074486 1.1431698485 21.5929901637 2.57110337382e-07 0.00613902352566 -0.0102859561573
Sb 4.2777573926 4.9028458882 21.5929901637 -0.00531652755638 -0.00306989742834 -0.010285699047
Sb 6.3213282064 1.2165390527 22.806644494 -2.57110337382e-07 2.57110337382e-07 0.0179007930195
Sb -0.0635395651 4.9028441964 21.5929897745 0.00531652755638 -0.003069640318 -0.010285699047
Cr 2.1071089138 3.6496196957 15.5167186127 0 0 0
61
Lattice="8.42843558953 0 0 -4.21421779477 7.29923593142 0 0 0 31.0334408416" Properties=species:S:1:pos:R:3:forces:R:3 energy=-133601.134478 ionic_step=35 pbc="T T T"
Te 2.1071095967 1.2108141047 3.4917874125 -2.57110337382e-07 0.00106289413474 0.0403048735983
Te 4.2191768497 4.8690218998 3.4917874125 -0.000920455007826 -0.000531447067368 0.0403051307086
Te 6.3213260584 1.2165402929 3.4804273316 2.57110337382e-07 0 0.0228787062616
Te -0.0049590222 4.8690226884 3.4917874241 0.000920455007826 -0.000531704177705 0.0403051307086
Te -0.3940069356 0.2274801164 7.5472659987 0.0130236670297 -0.00751893470639 -0.0334798796925
Te 2.1071084831 3.6496199444 7.8208509518 2.57110337382e-07 -5.14220674763e-07 -0.0516061584779
Te 4.6082247631 0.2274796191 7.5472658099 -0.0130236670297 -0.00751893470639 -0.0334796225821
Te -2.1071084831 3.1946597116 7.5472658099 -0 0.0150383836335 -0.0334796225821
Te 0 -0 0 0 2.57110337382e-07 -2.57110337382e-07
Te 2.1071089138 3.6496196957 0 -0 -2.57110337382e-07 -2.57110337382e-07
Te 4.2142178275 -0 0 -0 2.57110337382e-07 -2.57110337382e-07
Te -2.1071089138 3.6496196957 0 0 -2.57110337382e-07 -2.57110337382e-07
Te 0.5160781314 2.731038035 13.6727091625 0.00658819528507 0.00380369033122 0.00497817035238
Te 2.1071086966 5.4867833935 13.6727091625 0 -0.00760738066245 0.00497817035238
Te 3.6981396961 2.7310377842 13.6727095508 -0.00658819528507 0.00380369033122 0.00497817035238
Te -2.1071086966 6.0826993675 14.7450053423 -0 -2.57110337382e-07 -0.0630905059177
Te 2.107109131 1.812455998 17.3607280629 -0 0.00760738066245 -0.00497817035238
Te 3.6981396961 4.5682013564 17.3607280629 -0.00658819528507 -0.00380394744156 -0.00497817035238
Te 6.3213265241 1.216540024 16.2884318831 0 2.57110337382e-07 0.0630905059177
Te 0.5160781314 4.5682016072 17.3607276745 0.00658819528507 -0.00380394744156 -0.00497817035238
Te 2.1071086782 0.691604122 10.7747067772 0 -0.0246591953479 0.02244316135
Te 4.6688252157 5.1286276866 10.7747067772 0.0213555846229 0.0123294691188 0.0224434184604
Te 6.3213269768 1.2165397626 11.3600976625 -0 2.57110337382e-07 0.0149882471177
Te -0.4546073882 5.1286274146 10.7747072005 -0.0213555846229 0.0123294691188 0.0224434184604
Te 0.3940069356 -0.2274801164 23.4861712267 -0.0130234099194 0.00751919181673 0.0334796225821
Te 2.1071093444 3.6496194471 23.2125862736 -2.57110337382e-07 -2.57110337382e-07 0.0516061584779
Te 3.8202108919 -0.2274796191 23.4861714155 0.0130234099194 0.00751919181673 0.0334796225821
Te -2.1071093444 4.1045796799 23.4861714155 0 -0.0150381265231 0.0334796225821
Te -0.0049590222 2.4302174916 27.5416498129 0.000920455007826 0.000531447067368 -0.0403046164879
Te 2.1071082308 6.0884252868 27.5416498129 2.57110337382e-07 -0.00106289413474 -0.0403046164879
Te 4.2191768497 2.430216703 27.5416498013 -0.000920455007826 0.000531704177705 -0.0403046164879
Te -2.1071082308 6.0826990986 27.5530098938 -2.57110337382e-07 -0 -0.0228781920409
Te -0.4546073882 2.1706117048 20.2587304482 -0.0213555846229 -0.0123294691188 -0.0224434184604
Te 2.1071091493 6.6076352695 20.2587304482 -0 0.0246594524583 -0.0224434184604
Te 4.6688252157 2.1706119768 20.2587300249 0.0213555846229 -0.0123294691188 -0.0224434184604
Te -2.1071091493 6.0826996289 19.6733395629 0 -2.57110337382e-07 -0.0149882471177
Sb -0.0455005243 2.4068083531 9.4144497704 0.00322416363077 0.00186199306332 0.0120366204445
Sb 2.1071103789 6.1352398433 9.4144497704 -2.57110337382e-07 -0.00372295768529 0.0120363633342
Sb 4.2597183518 2.4068100449 9.4144501597 -0.00322416363077 0.00186173595298 0.0120366204445
Sb -2.1071103789 6.0827003388 8.2171100379 2.57110337382e-07 -2.57110337382e-07 -0.0183471365652
Sb -0.0001059803 2.4330160367 1.9126161229 -0.00127269617004 -0.000734307123562 -0.006710836916
Sb 2.1071111417 6.0828231547 1.9126161229 -2.57110337382e-07 0.00146938557814 -0.006710836916
Sb 4.2143238078 2.4330186093 1.912616411 0.00127269617004 -0.000734821344237 -0.00671109402634
Sb -2.1071111417 6.0827007792 1.9050638531 2.57110337382e-07 -2.57110337382e-07 -0.00805295287713
Sb -0.0824644742 0.0476109086 17.9545480412 -0.00768322821198 0.00443592465085 -0.0301490152717
Sb 2.107108188 3.6496201148 19.6496422971 0 -2.57110337382e-07 -0.000594696210364
Sb 4.2966823017 0.0476100705 17.9545482863 0.00768322821198 0.00443618176118 -0.0301490152717
Sb 6.3213274671 3.5543982977 17.9545482863 -2.57110337382e-07 -0.00887210641203 -0.0301487581614
Sb 0.0824644742 -0.0476109086 13.0788891842 0.00768322821198 -0.00443592465085 0.0301490152717
Sb 2.1071096396 3.6496192767 11.3837949283 -0 -0 0.000594696210364
Sb 4.1317533533 -0.0476100705 13.0788889391 -0.00768322821198 -0.00443592465085 0.0301490152717
Sb -2.1071096396 3.7448410938 13.0788889391 2.57110337382e-07 0.00887184930169 0.0301487581614
Sb 2.1071066858 1.2164162368 29.1208211025 2.57110337382e-07 -0.00146938557814 0.006710836916
Sb 4.2143238078 4.8662233548 29.1208211025 0.00127269617004 0.000734564233899 0.006710836916
Sb 6.3213289693 1.2165386123 29.1283733723 -2.57110337382e-07 2.57110337382e-07 0.00805269576679
Sb -0.0001059803 4.8662207821 29.1208208144 -0.00127269617004 0.000734821344237 0.00671109402634
Sb 2.1071074486 1.1639995482 21.618987455 2.57110337382e-07 0.00372295768529 -0.0120366204445
Sb 4.2597183518 4.8924310383 21.618987455 -0.00322390652043 -0.00186199306332 -0.0120363633342
Sb 6.3213282064 1.2165390527 22.8163271875 -2.57110337382e-07 2.57110337382e-07 0.0183471365652
Sb -0.0455005243 4.8924293465 21.6189870658 0.00322416363077 -0.00186173595298 -0.0120363633342
Cr 2.1071089138 3.6496196957 15.5167186127 0 0 0
61
Lattice="8.42843558953 0 0 -4.21421779477 7.29923593142 0 0 0 31.0334408416" Properties=species:S:1:pos:R:3:forces:R:3 energy=-133601.166506 ionic_step=36 pbc="T T T"
Te 2.1071095967 1.2119755797 3.4876709493 -2.57110337382e-07 0.000800898700944 0.041025553874
Te 4.2181709833 4.8684411623 3.4876709493 -0.000693683690256 -0.000400577905641 0.0410258109843
Te 6.3213260584 1.2165402929 3.4787104289 2.57110337382e-07 0 0.0219446244059
Te -0.0039531558 4.8684419509 3.4876709609 0.000693683690256 -0.000400835015978 0.0410258109843
Te -0.3996331237 0.2307283991 7.5358822464 0.0131969593971 -0.00761920773797 -0.0339102823973
Te 2.1071084831 3.6496199444 7.7831748973 2.57110337382e-07 -5.14220674763e-07 -0.0510824247206
Te 4.6138509512 0.2307279018 7.5358820576 -0.0131972165075 -0.00761920773797 -0.0339100252869
Te -2.1071084831 3.1881631461 7.5358820576 -0 0.0152386725863 -0.0339100252869
Te 0 -0 0 0 2.57110337382e-07 -2.57110337382e-07
Te 2.1071089138 3.6496196957 0 -0 -2.57110337382e-07 -2.57110337382e-07
Te 4.2142178275 -0 0 -0 2.57110337382e-07 -2.57110337382e-07
Te -2.1071089138 3.6496196957 0 0 -2.57110337382e-07 -2.57110337382e-07
Te 0.5132581359 2.729409909 13.6679559396 0.00631720098947 0.0036473672461 0.00543685519427
Te 2.1071086966 5.4900396453 13.6679559396 0 -0.00729447738185 0.00543685519427
Te 3.7009596916 2.7294096582 13.667956328 -0.00631720098947 0.0036473672461 0.00543685519427
Te -2.1071086966 6.0826993675 14.7509309013 -0 -2.57110337382e-07 -0.0647208425671
Te 2.107109131 1.8091997462 17.3654812858 -0 0.00729473449219 -0.00543685519427
Te 3.7009596916 4.5698294824 17.3654812858 -0.00631720098947 -0.0036473672461 -0.00543685519427
Te 6.3213265241 1.216540024 16.2825063241 0 2.57110337382e-07 0.0647208425671
Te 0.5132581359 4.5698297332 17.3654808974 0.00631720098947 -0.0036473672461 -0.00543685519427
Te 2.1071086782 0.6809408712 10.7725254638 0 -0.0254840053103 0.020745976013
Te 4.6780598575 5.133959312 10.7725254638 0.0220698371402 0.0127418741 0.0207462331233
Te 6.3213269768 1.2165397626 11.3300712737 -0 2.57110337382e-07 0.0163095371415
Te -0.46384203 5.13395904 10.7725258871 -0.0220698371402 0.0127418741 0.0207462331233
Te 0.3996331237 -0.2307283991 23.497554979 -0.0131969593971 0.00761920773797 0.0339100252869
Te 2.1071093444 3.6496194471 23.2502623281 -2.57110337382e-07 -2.57110337382e-07 0.0510824247206
Te 3.8145847038 -0.2307279018 23.4975551678 0.0131969593971 0.00761920773797 0.0339100252869
Te -2.1071093444 4.1110762454 23.4975551678 0 -0.0152384154759 0.0339100252869
Te -0.0039531558 2.4307982291 27.5457662761 0.000693683690256 0.000400320795303 -0.0410252967636
Te 2.1071082308 6.0872638118 27.5457662761 2.57110337382e-07 -0.000800898700944 -0.0410252967636
Te 4.2181709833 2.4307974405 27.5457662645 -0.000693683690256 0.000400835015978 -0.0410252967636
Te -2.1071082308 6.0826990986 27.5547267965 -2.57110337382e-07 -0 -0.0219443672955
Te -0.46384203 2.1652800794 20.2609117616 -0.0220695800298 -0.0127418741 -0.020745976013
Te 2.1071091493 6.6182985203 20.2609117616 -0 0.0254840053103 -0.020745976013
Te 4.6780598575 2.1652803514 20.2609113383 0.0220695800298 -0.0127418741 -0.020745976013
Te -2.1071091493 6.0826996289 19.7033659517 0 -2.57110337382e-07 -0.0163095371415
Sb -0.0254311191 2.418395435 9.3986810013 0.000725565372091 0.000419346960269 0.0138055395657
Sb 2.1071103789 6.1120656794 9.3986810013 -2.57110337382e-07 -0.000837922589527 0.0138055395657
Sb 4.2396489466 2.4183971268 9.3986813906 -0.000725565372091 0.000419089849932 0.0138055395657
Sb -2.1071103789 6.0827003388 8.2009766222 2.57110337382e-07 -2.57110337382e-07 -0.0198319487636
Sb -0.0005334213 2.4327692534 1.9069895955 -0.0012572695498 -0.000725308261754 -0.00584951728577
Sb 2.1071111417 6.0833167213 1.9069895955 -2.57110337382e-07 0.00145138785452 -0.00584951728577
Sb 4.2147512488 2.432771826 1.9069898836 0.0012572695498 -0.000725822482428 -0.00584977439611
Sb -2.1071111417 6.0827007792 1.9038756822 2.57110337382e-07 -2.57110337382e-07 -0.00707824758812
Sb -0.07983493 0.0460927398 17.9504681769 -0.00769556950817 0.00444312374029 -0.0285299914772
Sb 2.107108188 3.6496201148 19.658295145 0 -2.57110337382e-07 -0.00179797258931
Sb 4.2940527575 0.0460919017 17.950468422 0.00769556950817 0.00444338085063 -0.0285297343669
Sb 6.3213274671 3.5574346352 17.950468422 -2.57110337382e-07 -0.00888624748058 -0.0285297343669
Sb 0.07983493 -0.0460927398 13.0829690485 0.00769556950817 -0.00444286662995 0.0285299914772
Sb 2.1071096396 3.6496192767 11.3751420804 -0 -0 0.00179797258931
Sb 4.1343828975 -0.0460919017 13.0829688034 -0.00769556950817 -0.00444312374029 0.0285297343669
Sb -2.1071096396 3.7418047563 13.0829688034 2.57110337382e-07 0.00888599037025 0.0285297343669
Sb 2.1071066858 1.2159226702 29.1264476299 2.57110337382e-07 -0.00145138785452 0.00584951728577
Sb 4.2147512488 4.8664701381 29.1264476299 0.0012572695498 0.000725565372091 0.00584951728577
Sb 6.3213289693 1.2165386123 29.1295615432 -2.57110337382e-07 2.57110337382e-07 0.00707824758812
Sb -0.0005334213 4.8664675654 29.1264473418 -0.0012572695498 0.000725822482428 0.00584977439611
Sb 2.1071074486 1.1871737121 21.6347562241 2.57110337382e-07 0.000837922589527 -0.0138055395657
Sb 4.2396489466 4.8808439564 21.6347562241 -0.000725565372091 -0.000419346960269 -0.0138055395657
Sb 6.3213282064 1.2165390527 22.8324606032 -2.57110337382e-07 2.57110337382e-07 0.0198319487636
Sb -0.0254311191 4.8808422646 21.6347558349 0.000725565372091 -0.000419089849932 -0.0138052824554
Cr 2.1071089138 3.6496196957 15.5167186127 0 0 0
61
Lattice="8.42843558953 0 0 -4.21421779477 7.29923593142 0 0 0 31.0334408416" Properties=species:S:1:pos:R:3:forces:R:3 energy=-133601.184747 ionic_step=37 pbc="T T T"
Te 2.1071095967 1.2132853556 3.4855843712 -2.57110337382e-07 0.000389779271471 0.0413731670501
Te 4.2170366846 4.8677862743 3.4855843712 -0.000337585872982 -0.000194889635735 0.0413734241604
Te 6.3213260584 1.2165402929 3.477876111 2.57110337382e-07 0 0.02133810112
Te -0.0028188571 4.8677870629 3.4855843828 0.000337585872982 -0.000195146746073 0.0413734241604
Te -0.3994845926 0.2306426446 7.5277501506 0.0138513052058 -0.00799690282358 -0.0340303529248
Te 2.1071084831 3.6496199444 7.7646139516 2.57110337382e-07 -5.14220674763e-07 -0.0507283837861
Te 4.6137024201 0.2306421473 7.5277499618 -0.0138513052058 -0.00799690282358 -0.0340303529248
Te -2.1071084831 3.1883346552 7.5277499618 -0 0.0159940627575 -0.0340300958145
Te 0 -0 0 0 2.57110337382e-07 -2.57110337382e-07
Te 2.1071089138 3.6496196957 0 -0 -2.57110337382e-07 -2.57110337382e-07
Te 4.2142178275 -0 0 -0 2.57110337382e-07 -2.57110337382e-07
Te -2.1071089138 3.6496196957 0 0 -2.57110337382e-07 -2.57110337382e-07
Te 0.5101908863 2.7276390309 13.6696208927 0.00600635459157 0.0034679042306 0.00554818397036
Te 2.1071086966 5.4935814017 13.6696208927 0 -0.00693529424053 0.00554818397036
Te 3.7040269412 2.7276387801 13.6696212811 -0.00600635459157 0.0034679042306 0.00554818397036
Te -2.1071086966 6.0826993675 14.7687793622 -0 -2.57110337382e-07 -0.0686165783991
Te 2.107109131 1.8056579898 17.3638163327 -0 0.00693555135087 -0.00554818397036
Te 3.7040269412 4.5716003605 17.3638163327 -0.00600609748123 -0.0034679042306 -0.00554818397036
Te 6.3213265241 1.216540024 16.2646578632 0 2.57110337382e-07 0.0686165783991
Te 0.5101908863 4.5716006113 17.3638159443 0.00600609748123 -0.0034679042306 -0.00554818397036
Te 2.1071086782 0.6768665516 10.7751871832 0 -0.0257503716198 0.0204991500891
Te 4.68158832 5.1359964717 10.7751871832 0.0223004651128 0.0128750572547 0.0204991500891
Te 6.3213269768 1.2165397626 11.3130912252 -0 2.57110337382e-07 0.0164056964076
Te -0.4673704925 5.1359961997 10.7751876065 -0.0223004651128 0.0128750572547 0.0204994071994
Te 0.3994845926 -0.2306426446 23.5056870748 -0.0138510480954 0.00799690282358 0.0340303529248
Te 2.1071093444 3.6496194471 23.2688232738 -2.57110337382e-07 -2.57110337382e-07 0.0507283837861
Te 3.8147332349 -0.2306421473 23.5056872636 0.0138510480954 0.00799690282358 0.0340303529248
Te -2.1071093444 4.1109047363 23.5056872636 0 -0.0159938056472 0.0340300958145
Te -0.0028188571 2.4314531171 27.5478528542 0.000337585872982 0.000194889635735 -0.0413729099398
Te 2.1071082308 6.0859540359 27.5478528542 2.57110337382e-07 -0.000390036381808 -0.0413729099398
Te 4.2170366846 2.4314523285 27.5478528426 -0.000337585872982 0.000195146746073 -0.0413729099398
Te -2.1071082308 6.0826990986 27.5555611144 -2.57110337382e-07 -0 -0.0213375868993
Te -0.4673704925 2.1632429196 20.2582500422 -0.0223004651128 -0.0128750572547 -0.0204991500891
Te 2.1071091493 6.6223728399 20.2582500422 -0 0.0257503716198 -0.0204991500891
Te 4.68158832 2.1632431917 20.2582496189 0.0223004651128 -0.0128750572547 -0.0204991500891
Te -2.1071091493 6.0826996289 19.7203460002 0 -2.57110337382e-07 -0.0164056964076
Sb -0.0129822476 2.4255827976 9.3929599354 -0.000883174008906 -0.000509335578353 0.0150867203769
Sb 2.1071103789 6.0976909541 9.3929599354 -2.57110337382e-07 0.00101944248772 0.0150867203769
Sb 4.2272000751 2.4255844894 9.3929603247 0.000882916898569 -0.00050959268869 0.0150867203769
Sb -2.1071103789 6.0827003388 8.1863254134 2.57110337382e-07 -2.57110337382e-07 -0.0215059941703
Sb -0.000620085 2.4327192181 1.9023032207 -0.00128118081117 -0.000739192219972 -0.00521162653873
Sb 2.1071111417 6.0834167921 1.9023032207 -2.57110337382e-07 0.00147915577096 -0.00521162653873
Sb 4.2148379125 2.4327217907 1.9023035088 0.00128118081117 -0.000739706440647 -0.00521188364906
Sb -2.1071111417 6.0827007792 1.90287842 2.57110337382e-07 -2.57110337382e-07 -0.0063195149825
Sb -0.0786166302 0.0453893538 17.9437215583 -0.00811568779945 0.00468583589878 -0.0273688811936
Sb 2.107108188 3.6496201148 19.6575908319 0 -2.57110337382e-07 -0.00241246629565
Sb 4.2928344577 0.0453885157 17.9437218034 0.00811568779945 0.00468583589878 -0.0273686240833
Sb 6.3213274671 3.5588414072 17.9437218034 -2.57110337382e-07 -0.00937141468722 -0.0273686240833
Sb 0.0786166302 -0.0453893538 13.0897156671 0.00811568779945 -0.00468557878844 0.0273688811936
Sb 2.1071096396 3.6496192767 11.3758463935 -0 -0 0.00241246629565
Sb 4.1356011973 -0.0453885157 13.089715422 -0.00811568779945 -0.00468557878844 0.0273686240833
Sb -2.1071096396 3.7403979843 13.089715422 2.57110337382e-07 0.00937115757689 0.0273686240833
Sb 2.1071066858 1.2158225994 29.1311340047 2.57110337382e-07 -0.00147915577096 0.00521136942839
Sb 4.2148379125 4.8665201734 29.1311340047 0.00128118081117 0.00073944933031 0.00521162653873
Sb 6.3213289693 1.2165386123 29.1305588054 -2.57110337382e-07 2.57110337382e-07 0.0063195149825
Sb -0.000620085 4.8665176007 29.1311337166 -0.00128118081117 0.000739706440647 0.00521188364906
Sb 2.1071074486 1.2015484374 21.64047729 2.57110337382e-07 -0.00101944248772 -0.0150867203769
Sb 4.2272000751 4.8736565938 21.64047729 0.000883174008906 0.000509335578353 -0.0150867203769
Sb 6.3213282064 1.2165390527 22.847111812 -2.57110337382e-07 2.57110337382e-07 0.0215059941703
Sb -0.0129822476 4.873654902 21.6404769008 -0.000882916898569 0.00050959268869 -0.0150867203769
Cr 2.1071089138 3.6496196957 15.5167186127 0 0 0
61
Lattice="8.42843558953 0 0 -4.21421779477 7.29923593142 0 0 0 31.0334408416" Properties=species:S:1:pos:R:3:forces:R:3 energy=-133601.197776 ionic_step=38 pbc="T T T"
Te 2.1071095967 1.2143283816 3.4854953572 -2.57110337382e-07 2.8282137112e-06 0.0414137904834
Te 4.216133398 4.8672647613 3.4854953572 -2.31399303643e-06 -1.54266202429e-06 0.0414137904834
Te 6.3213260584 1.2165402929 3.4777695986 2.57110337382e-07 0 0.0214041784767
Te -0.0019155705 4.8672655499 3.4854953688 2.31399303643e-06 -1.79977236167e-06 0.0414137904834
Te -0.3965867333 0.228969564 7.5265591583 0.0144979377043 -0.00837022703346 -0.0341517090041
Te 2.1071084831 3.6496199444 7.7602589003 2.57110337382e-07 -5.14220674763e-07 -0.0503460607144
Te 4.6108045608 0.2289690667 7.5265589695 -0.0144981948146 -0.00837022703346 -0.0341517090041
Te -2.1071084831 3.1916808164 7.5265589695 -0 0.0167409682876 -0.0341517090041
Te 0 -0 0 0 2.57110337382e-07 -2.57110337382e-07
Te 2.1071089138 3.6496196957 0 -0 -2.57110337382e-07 -2.57110337382e-07
Te 4.2142178275 -0 0 -0 2.57110337382e-07 -2.57110337382e-07
Te -2.1071089138 3.6496196957 0 0 -2.57110337382e-07 -2.57110337382e-07
Te 0.5115675126 2.7284338268 13.6712398751 0.00632645696161 0.00365250945284 0.00604389270083
Te 2.1071086966 5.4919918098 13.6712398751 0 -0.00730501890569 0.00604389270083
Te 3.7026503149 2.728433576 13.6712402635 -0.00632645696161 0.00365250945284 0.00604389270083
Te -2.1071086966 6.0826993675 14.7922713397 -0 -2.57110337382e-07 -0.0730095656236
Te 2.107109131 1.8072475817 17.3621973503 -0 0.00730527601602 -0.00604389270083
Te 3.7026503149 4.5708055646 17.3621973503 -0.00632645696161 -0.00365276656318 -0.00604389270083
Te 6.3213265241 1.216540024 16.2411658857 0 2.57110337382e-07 0.0730095656236
Te 0.5115675126 4.5708058154 17.3621969619 0.00632619985127 -0.00365276656318 -0.00604389270083
Te 2.1071086782 0.6751517649 10.7810883289 0 -0.0259619734274 0.0212563400327
Te 4.6830733682 5.1368538651 10.7810883289 0.0224837847833 0.0129807296034 0.021256597143
Te 6.3213269768 1.2165397626 11.3079649658 -0 2.57110337382e-07 0.0162388317987
Te -0.4688555407 5.1368535931 10.7810887522 -0.0224837847833 0.0129807296034 0.021256597143
Te 0.3965867333 -0.228969564 23.5068780671 -0.0144979377043 0.0083704841438 0.0341517090041
Te 2.1071093444 3.6496194471 23.2731783251 -2.57110337382e-07 -2.57110337382e-07 0.0503460607144
Te 3.8176310942 -0.2289690667 23.5068782559 0.0144979377043 0.00837022703346 0.0341517090041
Te -2.1071093444 4.1075585751 23.5068782559 0 -0.0167407111773 0.0341517090041
Te -0.0019155705 2.4319746301 27.5479418682 2.31399303643e-06 1.28555168691e-06 -0.0414132762627
Te 2.1071082308 6.0849110099 27.5479418682 2.57110337382e-07 -2.8282137112e-06 -0.0414132762627
Te 4.216133398 2.4319738415 27.5479418566 -2.31399303643e-06 1.79977236167e-06 -0.0414132762627
Te -2.1071082308 6.0826990986 27.5556676268 -2.57110337382e-07 -0 -0.0214039213663
Te -0.4688555407 2.1623855263 20.2523488965 -0.0224837847833 -0.0129807296034 -0.0212563400327
Te 2.1071091493 6.6240876266 20.2523488965 -0 0.0259619734274 -0.0212563400327
Te 4.6830733682 2.1623857983 20.2523484732 0.0224837847833 -0.0129807296034 -0.021256597143
Te -2.1071091493 6.0826996289 19.7254722596 0 -2.57110337382e-07 -0.0162388317987
Sb -0.0070604483 2.4290017516 9.3963813048 -0.00168407270985 -0.000971877075303 0.0156073688101
Sb 2.1071103789 6.0908530461 9.3963813048 -2.57110337382e-07 0.00194426837128 0.0156073688101
Sb 4.2212782758 2.4290034434 9.3963816941 0.00168381559951 -0.00097213418564 0.0156073688101
Sb -2.1071103789 6.0827003388 8.1711869688 2.57110337382e-07 -2.57110337382e-07 -0.0233487039583
Sb -0.0004766401 2.4328020361 1.8997468721 -0.00131254827233 -0.000757189943589 -0.00492906227794
Sb 2.1071111417 6.0832511561 1.8997468721 -2.57110337382e-07 0.00151515121819 -0.00492906227794
Sb 4.2146944676 2.4328046086 1.8997471602 0.00131254827233 -0.000757704164264 -0.00492931938828
Sb -2.1071111417 6.0827007792 1.9024939488 2.57110337382e-07 -2.57110337382e-07 -0.00595107586904
Sb -0.0778091036 0.0449231278 17.9339107967 -0.008721953975 0.00503576306796 -0.0264713090058
Sb 2.107108188 3.6496201148 19.6569850088 0 -2.57110337382e-07 -0.00286420915843
Sb 4.2920269311 0.0449222897 17.9339110418 0.008721953975 0.00503602017829 -0.0264710518955
Sb 6.3213274671 3.5597738592 17.9339110418 -2.57110337382e-07 -0.0100715261359 -0.0264710518955
Sb 0.0778091036 -0.0449231278 13.0995264287 0.008721953975 -0.00503550595762 0.0264713090058
Sb 2.1071096396 3.6496192767 11.3764522166 -0 -0 0.00286420915843
Sb 4.1364087239 -0.0449222897 13.0995261836 -0.008721953975 -0.00503576306796 0.0264710518955
Sb -2.1071096396 3.7394655323 13.0995261836 2.57110337382e-07 0.0100712690256 0.0264710518955
Sb 2.1071066858 1.2159882354 29.1336903533 2.57110337382e-07 -0.00151515121819 0.00492880516761
Sb 4.2146944676 4.8664373555 29.1336903533 0.00131254827233 0.000757447053926 0.00492906227794
Sb 6.3213289693 1.2165386123 29.1309432766 -2.57110337382e-07 2.57110337382e-07 0.00595107586904
Sb -0.0004766401 4.8664347828 29.1336900652 -0.00131254827233 0.000757704164264 0.00492906227794
Sb 2.1071074486 1.2083863454 21.6370559206 2.57110337382e-07 -0.00194426837128 -0.0156073688101
Sb 4.2212782758 4.8702376398 21.6370559206 0.00168407270985 0.000971877075303 -0.0156073688101
Sb 6.3213282064 1.2165390527 22.8622502566 -2.57110337382e-07 2.57110337382e-07 0.023348446848
Sb -0.0070604483 4.870235948 21.6370555314 -0.00168381559951 0.00097213418564 -0.0156073688101
Cr 2.1071089138 3.6496196957 15.5167186127 0 0 0
61
Lattice="8.42843558953 0 0 -4.21421779477 7.29923593142 0 0 0 31.0334408416" Properties=species:S:1:pos:R:3:forces:R:3 energy=-133601.209103 ionic_step=39 pbc="T T T"
Te 2.1071095967 1.2154439417 3.4832808437 -2.57110337382e-07 -0.000419346960269 0.0415708848995
Te 4.2151672951 4.8667069813 3.4832808437 0.00036329690672 0.000209802035303 0.0415711420099
Te 6.3213260584 1.2165402929 3.4745776559 2.57110337382e-07 0 0.0222562421348
Te -0.0009494676 4.8667077699 3.4832808553 -0.00036329690672 0.000209287814629 0.0415711420099
Te -0.3920569962 0.2263543179 7.5266492936 0.0152412436896 -0.00879934418655 -0.034485438222
Te 2.1071084831 3.6496199444 7.7538426246 2.57110337382e-07 -5.14220674763e-07 -0.0504743587727
Te 4.6062748237 0.2263538206 7.5266491048 -0.0152412436896 -0.00879934418655 -0.034485438222
Te -2.1071084831 3.1969113087 7.5266491048 -0 0.0175989454834 -0.034485438222
Te -0 -0 0 0 2.57110337382e-07 -2.57110337382e-07
Te 2.1071089138 3.6496196957 0 -0 -2.57110337382e-07 -2.57110337382e-07
Te 4.2142178275 -0 0 -0 2.57110337382e-07 -2.57110337382e-07
Te -2.1071089138 3.6496196957 0 0 -2.57110337382e-07 -2.57110337382e-07
Te 0.5145887219 2.7301781236 13.673930658 0.0067892555689 0.00391990420372 0.00617476186256
Te 2.1071086966 5.4885032162 13.673930658 0 -0.0078395512971 0.00617476186256
Te 3.6996291056 2.7301778728 13.6739310464 -0.0067892555689 0.00391990420372 0.00617476186256
Te -2.1071086966 6.0826993675 14.8116312448 -0 -2.57110337382e-07 -0.0762560978537
Te 2.107109131 1.8107361753 17.3595065674 -0 0.0078395512971 -0.00617476186256
Te 3.6996291056 4.5690612678 17.3595065674 -0.0067892555689 -0.00391990420372 -0.00617476186256
Te 6.3213265241 1.216540024 16.2218059806 0 2.57110337382e-07 0.0762558407433
Te 0.5145887219 4.5690615186 17.359506179 0.0067892555689 -0.00391990420372 -0.00617476186256
Te 2.1071086782 0.6770502201 10.7864313634 0 -0.0254567516145 0.0221377142692
Te 4.6814292585 5.1359046375 10.7864313634 0.0220461829891 0.0127282472521 0.0221377142692
Te 6.3213269768 1.2165397626 11.3026142928 -0 2.57110337382e-07 0.0161799535314
Te -0.467211431 5.1359043655 10.7864317867 -0.0220461829891 0.0127282472521 0.0221379713796
Te 0.3920569962 -0.2263543179 23.5067879318 -0.0152409865793 0.00879934418655 0.034485438222
Te 2.1071093444 3.6496194471 23.2795946008 -2.57110337382e-07 -2.57110337382e-07 0.0504743587727
Te 3.8221608313 -0.2263538206 23.5067881206 0.0152409865793 0.00879934418655 0.034485438222
Te -2.1071093444 4.1023280828 23.5067881206 0 -0.0175986883731 0.034485438222
Te -0.0009494676 2.4325324101 27.5501563817 -0.00036329690672 -0.000209802035303 -0.0415706277892
Te 2.1071082308 6.0837954498 27.5501563817 2.57110337382e-07 0.000419346960269 -0.0415706277892
Te 4.2151672951 2.4325316215 27.5501563701 0.00036329690672 -0.000209544924966 -0.0415706277892
Te -2.1071082308 6.0826990986 27.5588595695 -2.57110337382e-07 -0 -0.0222557279141
Te -0.467211431 2.1633347539 20.247005862 -0.0220461829891 -0.0127282472521 -0.0221377142692
Te 2.1071091493 6.6221891714 20.247005862 -0 0.0254567516145 -0.0221377142692
Te 4.6814292585 2.1633350259 20.2470054387 0.0220461829891 -0.0127282472521 -0.0221377142692
Te -2.1071091493 6.0826996289 19.7308229326 0 -2.57110337382e-07 -0.0161799535314
Sb -0.0043133118 2.4305878124 9.3984160563 -0.002117046518 -0.00122178832324 0.016132388119
Sb 2.1071103789 6.0876809246 9.3984160563 -2.57110337382e-07 0.00244460508782 0.0161321310087
Sb 4.2185311393 2.4305895042 9.3984164456 0.002117046518 -0.00122204543357 0.016132388119
Sb -2.1071103789 6.0827003388 8.1545973059 2.57110337382e-07 -2.57110337382e-07 -0.0253294819975
Sb -0.0003789246 2.4328584522 1.8963851565 -0.0013212900238 -0.000762589260674 -0.00454442521322
Sb 2.1071111417 6.0831383238 1.8963851565 -2.57110337382e-07 0.00152569274202 -0.00454416810288
Sb 4.2145967521 2.4328610248 1.8963854446 0.0013212900238 -0.000762846371011 -0.00454442521322
Sb -2.1071111417 6.0827007792 1.9007821201 2.57110337382e-07 -2.57110337382e-07 -0.00549727612356
Sb -0.0764893422 0.0441611629 17.926562841 -0.00924028841516 0.00533503950067 -0.0259483465796
Sb 2.107108188 3.6496201148 19.651987789 0 -2.57110337382e-07 -0.00324010447168
Sb 4.2907071697 0.0441603248 17.9265630861 0.00924028841516 0.00533529661101 -0.0259483465796
Sb 6.3213274671 3.561297789 17.9265630861 -2.57110337382e-07 -0.0106700790013 -0.0259480894692
Sb 0.0764893422 -0.0441611629 13.1068743844 0.00924028841516 -0.00533478239033 0.0259483465796
Sb 2.1071096396 3.6496192767 11.3814494364 -0 -0 0.00324010447168
Sb 4.1377284853 -0.0441603248 13.1068741393 -0.00924028841516 -0.00533503950067 0.0259483465796
Sb -2.1071096396 3.7379416025 13.1068741393 2.57110337382e-07 0.010669821891 0.0259480894692
Sb 2.1071066858 1.2161010677 29.1370520689 2.57110337382e-07 -0.00152569274202 0.00454416810288
Sb 4.2145967521 4.8663809393 29.1370520689 0.00132154713414 0.000762589260674 0.00454416810288
Sb 6.3213289693 1.2165386123 29.1326551053 -2.57110337382e-07 2.57110337382e-07 0.00549727612356
Sb -0.0003789246 4.8663783666 29.1370517808 -0.0013212900238 0.000762846371011 0.00454442521322
Sb 2.1071074486 1.2115584669 21.6350211691 2.57110337382e-07 -0.00244434797749 -0.016132388119
Sb 4.2185311393 4.868651579 21.6350211691 0.00211730362834 0.00122178832324 -0.0161321310087
Sb 6.3213282064 1.2165390527 22.8788399195 -2.57110337382e-07 2.57110337382e-07 0.0253294819975
Sb -0.0043133118 4.8686498872 21.6350207799 -0.002117046518 0.00122204543357 -0.0161321310087
Cr 2.1071089138 3.6496196957 15.5167186127 0 0 0
61
Lattice="8.42843558953 0 0 -4.21421779477 7.29923593142 0 0 0 31.0334408416" Properties=species:S:1:pos:R:3:forces:R:3 energy=-133601.216627 ionic_step=40 pbc="T T T"
Te 2.1071095967 1.2163221252 3.478342761 -2.57110337382e-07 -0.000757961274601 0.0418141112787
Te 4.2144067662 4.8662678895 3.478342761 0.000656402691335 0.000378980637301 0.0418141112787
Te 6.3213260584 1.2165402929 3.4679014835 2.57110337382e-07 0 0.0239266879967
Te -0.0001889387 4.8662686781 3.4783427726 -0.000656402691335 0.000378723526963 0.0418141112787
Te -0.3896195785 0.2249470734 7.5306321966 0.0155479763221 -0.008976493209 -0.0349407806295
Te 2.1071084831 3.6496199444 7.7485052417 2.57110337382e-07 -5.14220674763e-07 -0.0504969844824
Te 4.603837406 0.2249465761 7.5306320078 -0.0155479763221 -0.008976493209 -0.0349405235192
Te -2.1071084831 3.1997257975 7.5306320078 -0 0.0179532435283 -0.0349405235192
Te -0 -0 0 0 2.57110337382e-07 -2.57110337382e-07
Te 2.1071089138 3.6496196957 0 -0 -2.57110337382e-07 -2.57110337382e-07
Te 4.2142178275 -0 0 -0 2.57110337382e-07 -2.57110337382e-07
Te -2.1071089138 3.6496196957 0 0 -2.57110337382e-07 -2.57110337382e-07
Te 0.5193368409 2.7329194527 13.6750209519 0.00745285734968 0.00430299860642 0.00631205878272
Te 2.1071086966 5.4830205581 13.6750209519 0 -0.0086057401025 0.00631205878272
Te 3.6948809866 2.7329192019 13.6750213403 -0.00745285734968 0.00430299860642 0.00631205878272
Te -2.1071086966 6.0826993675 14.8246325129 -0 -2.57110337382e-07 -0.0780725823873
Te 2.107109131 1.8162188334 17.3584162735 -0 0.00860599721284 -0.00631205878272
Te 3.6948809866 4.5663199387 17.3584162735 -0.00745285734968 -0.00430299860642 -0.00631205878272
Te 6.3213265241 1.216540024 16.2088047125 0 2.57110337382e-07 0.0780723252769
Te 0.5193368409 4.5663201895 17.3584158851 0.00745285734968 -0.00430299860642 -0.00631205878272
Te 2.1071086782 0.678939396 10.7917933526 0 -0.0248432863495 0.0228681647377
Te 4.679793185 5.1349600495 10.7917933526 0.0215147359218 0.0124215146196 0.0228684218481
Te 6.3213269768 1.2165397626 11.3000759606 -0 2.57110337382e-07 0.016701630406
Te -0.4655753575 5.1349597775 10.7917937759 -0.0215147359218 0.0124215146196 0.0228684218481
Te 0.3896195785 -0.2249470734 23.5028050288 -0.0155479763221 0.00897675031934 0.0349405235192
Te 2.1071093444 3.6496194471 23.2849319837 -2.57110337382e-07 -2.57110337382e-07 0.0504969844824
Te 3.824598249 -0.2249465761 23.5028052176 0.0155479763221 0.008976493209 0.0349405235192
Te -2.1071093444 4.099513594 23.5028052176 0 -0.017952986418 0.0349405235192
Te -0.0001889387 2.4329715019 27.5550944644 -0.000656402691335 -0.000378980637301 -0.041813597058
Te 2.1071082308 6.0829172663 27.5550944644 2.57110337382e-07 0.000757961274601 -0.041813597058
Te 4.2144067662 2.4329707133 27.5550944528 0.000656402691335 -0.000378723526963 -0.041813597058
Te -2.1071082308 6.0826990986 27.5655357419 -2.57110337382e-07 -0 -0.0239261737761
Te -0.4655753575 2.1642793419 20.2416438728 -0.0215147359218 -0.0124215146196 -0.0228681647377
Te 2.1071091493 6.6202999955 20.2416438728 -0 0.0248432863495 -0.0228681647377
Te 4.679793185 2.1642796139 20.2416434495 0.0215147359218 -0.0124215146196 -0.0228684218481
Te -2.1071091493 6.0826996289 19.7333612648 0 -2.57110337382e-07 -0.0167018875163
Sb -0.0041663628 2.4306726535 9.4002586037 -0.00225999986558 -0.00130432074154 0.0164872003846
Sb 2.1071103789 6.0875112425 9.4002586037 -2.57110337382e-07 0.00260941281409 0.0164869432743
Sb 4.2183841903 2.4306743453 9.400258993 0.00225999986558 -0.00130457785187 0.0164872003846
Sb -2.1071103789 6.0827003388 8.1389740747 2.57110337382e-07 -2.57110337382e-07 -0.0270896593672
Sb -0.0003912732 2.4328513227 1.8924339498 -0.00130894872761 -0.00075513306089 -0.00413536266645
Sb 2.1071111417 6.0831525828 1.8924339498 -2.57110337382e-07 0.00151103745279 -0.00413536266645
Sb 4.2146091007 2.4328538953 1.8924342379 0.00130894872761 -0.000755647281565 -0.00413561977678
Sb -2.1071111417 6.0827007792 1.8978922193 2.57110337382e-07 -2.57110337382e-07 -0.00505196101921
Sb -0.0751460531 0.0433856142 17.9201944767 -0.00958250227421 0.00553275735012 -0.0255557390944
Sb 2.107108188 3.6496201148 19.6485290332 0 -2.57110337382e-07 -0.00363322617754
Sb 4.2893638806 0.0433847761 17.9201947218 0.00958250227421 0.00553275735012 -0.025555481984
Sb 6.3213274671 3.5628488863 17.9201947218 -2.57110337382e-07 -0.0110652575899 -0.025555481984
Sb 0.0751460531 -0.0433856142 13.1132427487 0.00958275938455 -0.00553250023978 0.0255557390944
Sb 2.1071096396 3.6496192767 11.3849081922 -0 -0 0.00363322617754
Sb 4.1390717744 -0.0433847761 13.1132425036 -0.00958250227421 -0.00553250023978 0.025555481984
Sb -2.1071096396 3.7363905052 13.1132425036 2.57110337382e-07 0.0110650004796 0.025555481984
Sb 2.1071066858 1.2160868087 29.1410032756 2.57110337382e-07 -0.00151103745279 0.00413510555611
Sb 4.2146091007 4.8663880688 29.1410032756 0.00130894872761 0.000755390171227 0.00413536266645
Sb 6.3213289693 1.2165386123 29.1355450061 -2.57110337382e-07 2.57110337382e-07 0.00505196101921
Sb -0.0003912732 4.8663854961 29.1410029875 -0.00130894872761 0.000755647281565 0.00413536266645
Sb 2.1071074486 1.211728149 21.6331786217 2.57110337382e-07 -0.00260941281409 -0.0164872003846
Sb 4.2183841903 4.8685667379 21.6331786217 0.00225999986558 0.00130432074154 -0.0164872003846
Sb 6.3213282064 1.2165390527 22.8944631507 -2.57110337382e-07 2.57110337382e-07 0.0270896593672
Sb -0.0041663628 4.8685650461 21.6331782325 -0.00225999986558 0.00130457785187 -0.0164869432743
Cr 2.1071089138 3.6496196957 15.5167186127 0 0 0
61
Lattice="8.42843558953 0 0 -4.21421779477 7.29923593142 0 0 0 31.0334408416" Properties=species:S:1:pos:R:3:forces:R:3 energy=-133601.220734 ionic_step=41 pbc="T T T"
Te 2.1071095967 1.2167399885 3.4723733997 -2.57110337382e-07 -0.000904771277246 0.0421378131935
Te 4.2140448862 4.8660589579 3.4723733997 0.000783672308339 0.000452514193792 0.0421378131935
Te 6.3213260584 1.2165402929 3.4604212522 2.57110337382e-07 0 0.025469350021
Te 0.0001729413 4.8660597465 3.4723734113 -0.000783672308339 0.000452257083454 0.0421378131935
Te -0.3894467878 0.2248473126 7.5335516295 0.0155356350259 -0.00896929411956 -0.0353166759427
Te 2.1071084831 3.6496199444 7.7406439055 2.57110337382e-07 -5.14220674763e-07 -0.0506098559205
Te 4.6036646153 0.2248468153 7.5335514407 -0.0155358921363 -0.00896929411956 -0.0353166759427
Te -2.1071084831 3.1999253191 7.5335514407 -0 0.0179391024598 -0.0353166759427
Te -0 -0 0 0 2.57110337382e-07 -2.57110337382e-07
Te 2.1071089138 3.6496196957 0 -0 -2.57110337382e-07 -2.57110337382e-07
Te 4.2142178275 -0 0 -0 2.57110337382e-07 -2.57110337382e-07
Te -2.1071089138 3.6496196957 0 0 -2.57110337382e-07 -2.57110337382e-07
Te 0.5214836019 2.7341588863 13.6746694461 0.00771305301111 0.00445315104345 0.00620535799271
Te 2.1071086966 5.4805416908 13.6746694461 0 -0.0089063020869 0.00620535799271
Te 3.6927342256 2.7341586355 13.6746698344 -0.00771305301111 0.00445315104345 0.00620535799271
Te -2.1071086966 6.0826993675 14.8247192112 -0 -2.57110337382e-07 -0.0780021341548
Te 2.107109131 1.8186977007 17.3587677794 -0 0.0089063020869 -0.00620535799271
Te 3.6927342256 4.5650805051 17.3587677794 -0.00771305301111 -0.00445315104345 -0.00620535799271
Te 6.3213265241 1.216540024 16.2087180142 0 2.57110337382e-07 0.0780021341548
Te 0.5214836019 4.5650807559 17.3587673909 0.00771305301111 -0.00445315104345 -0.00620535799271
Te 2.1071086782 0.6809488056 10.7938689132 0 -0.0240997232538 0.0229355276461
Te 4.678052986 5.1339553447 10.7938689132 0.020870931637 0.0120497330717 0.0229357847565
Te 6.3213269768 1.2165397626 11.2966531226 -0 2.57110337382e-07 0.0174498214878
Te -0.4638351585 5.1339550727 10.7938693365 -0.020870931637 0.0120497330717 0.0229357847565
Te 0.3894467878 -0.2248473126 23.4998855959 -0.0155356350259 0.0089695512299 0.0353166759427
Te 2.1071093444 3.6496194471 23.2927933199 -2.57110337382e-07 -2.57110337382e-07 0.0506098559205
Te 3.8247710397 -0.2248468153 23.4998857847 0.0155356350259 0.0089695512299 0.0353166759427
Te -2.1071093444 4.0993140724 23.4998857847 0 -0.0179388453495 0.0353164188324
Te 0.0001729413 2.4331804335 27.5610638257 -0.000783672308339 -0.000452514193792 -0.0421372989728
Te 2.1071082308 6.082499403 27.5610638257 2.57110337382e-07 0.000904771277246 -0.0421372989728
Te 4.2140448862 2.4331796449 27.5610638141 0.000783672308339 -0.000452257083454 -0.0421372989728
Te -2.1071082308 6.0826990986 27.5730159732 -2.57110337382e-07 -0 -0.0254688358003
Te -0.4638351585 2.1652840467 20.2395683122 -0.020870931637 -0.0120497330717 -0.0229355276461
Te 2.1071091493 6.6182905859 20.2395683122 -0 0.0240997232538 -0.0229355276461
Te 4.678052986 2.1652843187 20.2395678889 0.020870931637 -0.0120497330717 -0.0229357847565
Te -2.1071091493 6.0826996289 19.7367841028 0 -2.57110337382e-07 -0.0174498214878
Sb -0.0045671654 2.4304412499 9.3976828942 -0.00231656413981 -0.00133697375438 0.0168152731751
Sb 2.1071103789 6.0879740497 9.3976828942 -2.57110337382e-07 0.00267471883978 0.0168152731751
Sb 4.2187849929 2.4304429417 9.3976832835 0.00231656413981 -0.00133723086472 0.0168152731751
Sb -2.1071103789 6.0827003388 8.1290712799 2.57110337382e-07 -2.57110337382e-07 -0.0281016456551
Sb -0.0004634974 2.432809624 1.8886626693 -0.00128812279028 -0.00074330598537 -0.00370650262369
Sb 2.1071111417 6.0832359802 1.8886626693 -2.57110337382e-07 0.00148712619142 -0.00370650262369
Sb 4.2146813249 2.4328121966 1.8886629574 0.00128812279028 -0.000743563095708 -0.00370675973403
Sb -2.1071111417 6.0827007792 1.8946548296 2.57110337382e-07 -2.57110337382e-07 -0.00462310097646
Sb -0.073616109 0.0425023002 17.9187851197 -0.00969125994693 0.00559549227244 -0.0253860462717
Sb 2.107108188 3.6496201148 19.6465489067 0 -2.57110337382e-07 -0.00389522161133
Sb 4.2878339365 0.0425014621 17.9187853648 0.00969125994693 0.00559549227244 -0.0253860462717
Sb 6.3213274671 3.5646155145 17.9187853648 -2.57110337382e-07 -0.0111909845449 -0.0253857891614
Sb 0.073616109 -0.0425023002 13.1146521057 0.00969151705726 -0.0055952351621 0.0253860462717
Sb 2.1071096396 3.6496192767 11.3868883187 -0 -0 0.00389522161133
Sb 4.1406017185 -0.0425014621 13.1146518606 -0.00969125994693 -0.0055952351621 0.0253860462717
Sb -2.1071096396 3.734623877 13.1146518606 2.57110337382e-07 0.0111907274345 0.0253857891614
Sb 2.1071066858 1.2160034114 29.1447745561 2.57110337382e-07 -0.00148686908108 0.00370650262369
Sb 4.2146813249 4.8664297675 29.1447745561 0.00128812279028 0.00074330598537 0.00370650262369
Sb 6.3213289693 1.2165386123 29.1387823958 -2.57110337382e-07 2.57110337382e-07 0.00462310097646
Sb -0.0004634974 4.8664271948 29.144774268 -0.00128812279028 0.000743563095708 0.00370675973403
Sb 2.1071074486 1.2112653418 21.6357543312 2.57110337382e-07 -0.00267471883978 -0.0168152731751
Sb 4.2187849929 4.8687981415 21.6357543312 0.00231656413981 0.00133697375438 -0.0168152731751
Sb 6.3213282064 1.2165390527 22.9043659455 -2.57110337382e-07 2.57110337382e-07 0.0281016456551
Sb -0.0045671654 4.8687964497 21.635753942 -0.00231656413981 0.00133723086472 -0.0168152731751
Cr 2.1071089138 3.6496196957 15.5167186127 0 0 0
61
Lattice="8.42843558953 0 0 -4.21421779477 7.29923593142 0 0 0 31.0334408416" Properties=species:S:1:pos:R:3:forces:R:3 energy=-133601.223462 ionic_step=42 pbc="T T T"
Te 2.1071095967 1.2168743002 3.4670071061 -2.57110337382e-07 -0.000944366269203 0.0424085503787
Te 4.2139285688 4.865991802 3.4670071061 0.000817867983211 0.00047231168977 0.0424088074891
Te 6.3213260584 1.2165402929 3.453842756 2.57110337382e-07 0 0.0267700712178
Te 0.0002892587 4.8659925906 3.4670071177 -0.000817867983211 0.000471797469095 0.0424088074891
Te -0.3910386022 0.2257663475 7.536988813 0.0152677260544 -0.00881477080679 -0.0355282777504
Te 2.1071084831 3.6496199444 7.7338222647 2.57110337382e-07 -5.14220674763e-07 -0.0504810436415
Te 4.6052564297 0.2257658502 7.5369886242 -0.0152677260544 -0.00881451369645 -0.0355280206401
Te -2.1071084831 3.1980872493 7.5369886242 -0 0.0176297987239 -0.0355280206401
Te -0 -0 0 0 2.57110337382e-07 -2.57110337382e-07
Te 2.1071089138 3.6496196957 0 -0 -2.57110337382e-07 -2.57110337382e-07
Te 4.2142178275 -0 0 -0 2.57110337382e-07 -2.57110337382e-07
Te -2.1071089138 3.6496196957 0 0 -2.57110337382e-07 -2.57110337382e-07
Te 0.5227192476 2.734872287 13.672785395 0.00785754902072 0.0045367119031 0.00632311452723
Te 2.1071086966 5.4791148895 13.672785395 0 -0.00907316669586 0.00632311452723
Te 3.6914985799 2.7348720362 13.6727857834 -0.00785754902072 0.0045367119031 0.00632311452723
Te -2.1071086966 6.0826993675 14.8214566714 -0 -2.57110337382e-07 -0.0774424049504
Te 2.107109131 1.820124502 17.3606518304 -0 0.00907316669586 -0.00632311452723
Te 3.6914985799 4.5643671044 17.3606518304 -0.00785754902072 -0.0045367119031 -0.00632311452723
Te 6.3213265241 1.216540024 16.211980554 0 2.57110337382e-07 0.0774424049504
Te 0.5227192476 4.5643673552 17.360651442 0.00785754902072 -0.0045367119031 -0.00632311452723
Te 2.1071086782 0.68134728 10.7957104144 0 -0.0235829314757 0.0227252113902
Te 4.6777078972 5.1337561075 10.7957104144 0.0204233025396 0.0117913371827 0.0227254685005
Te 6.3213269768 1.2165397626 11.295701776 -0 2.57110337382e-07 0.0182448066509
Te -0.4634900697 5.1337558355 10.7957108377 -0.0204233025396 0.0117913371827 0.0227254685005
Te 0.3910386022 -0.2257663475 23.4964484124 -0.0152677260544 0.00881477080679 0.0355280206401
Te 2.1071093444 3.6496194471 23.2996149607 -2.57110337382e-07 -2.57110337382e-07 0.0504810436415
Te 3.8231792253 -0.2257658502 23.4964486012 0.0152677260544 0.00881477080679 0.0355280206401
Te -2.1071093444 4.1011521422 23.4964486012 0 -0.0176295416136 0.0355280206401
Te 0.0002892587 2.4332475894 27.5664301193 -0.000817867983211 -0.00047231168977 -0.0424082932684
Te 2.1071082308 6.0823650913 27.5664301193 2.57110337382e-07 0.000944366269203 -0.0424082932684
Te 4.2139285688 2.4332468008 27.5664301077 0.000817867983211 -0.000472054579433 -0.0424082932684
Te -2.1071082308 6.0826990986 27.5795944694 -2.57110337382e-07 -0 -0.0267698141075
Te -0.4634900697 2.1654832839 20.237726811 -0.0204233025396 -0.0117913371827 -0.0227254685005
Te 2.1071091493 6.6178921115 20.237726811 -0 0.0235829314757 -0.0227254685005
Te 4.6777078972 2.1654835559 20.2377263877 0.0204233025396 -0.0117913371827 -0.0227254685005
Te -2.1071091493 6.0826996289 19.7377354494 0 -2.57110337382e-07 -0.0182450637613
Sb -0.0048302602 2.430289352 9.3953994001 -0.00239241168934 -0.00138093962208 0.0170474438098
Sb 2.1071103789 6.0882778455 9.3953994001 -2.57110337382e-07 0.00276239346483 0.0170471866994
Sb 4.2190480877 2.4302910438 9.3953997894 0.00239241168934 -0.00138119673241 0.0170474438098
Sb -2.1071103789 6.0827003388 8.1204082919 2.57110337382e-07 -2.57110337382e-07 -0.0289285125002
Sb -0.000472338 2.4328045199 1.8856362844 -0.00127912392847 -0.000737906668285 -0.00336583142666
Sb 2.1071111417 6.0832461885 1.8856362844 -2.57110337382e-07 0.00147658466758 -0.00336557431633
Sb 4.2146901655 2.4328070925 1.8856365725 0.00127912392847 -0.00073842088896 -0.003366088537
Sb -2.1071111417 6.0827007792 1.8919681667 2.57110337382e-07 -2.57110337382e-07 -0.00430608393047
Sb -0.0719955952 0.0415666957 17.9165574817 -0.00975270931756 0.005630973499 -0.0251502760923
Sb 2.107108188 3.6496201148 19.6484632094 0 -2.57110337382e-07 -0.00423255037398
Sb 4.2862134227 0.0415658576 17.9165577268 0.00975270931756 0.005630973499 -0.0251502760923
Sb 6.3213274671 3.5664867235 17.9165577268 -2.57110337382e-07 -0.0112616898877 -0.025150018982
Sb 0.0719955952 -0.0415666957 13.1168797437 0.00975270931756 -0.00563071638866 0.0251502760923
Sb 2.1071096396 3.6496192767 11.384974016 -0 -0 0.00423255037398
Sb 4.1422222323 -0.0415658576 13.1168794986 -0.00975270931756 -0.00563071638866 0.0251502760923
Sb -2.1071096396 3.732752668 13.1168794986 2.57110337382e-07 0.0112614327773 0.025150018982
Sb 2.1071066858 1.215993203 29.147800941 2.57110337382e-07 -0.00147658466758 0.00336557431633
Sb 4.2146901655 4.8664348716 29.147800941 0.00127912392847 0.000738163778623 0.00336557431633
Sb 6.3213289693 1.2165386123 29.1414690587 -2.57110337382e-07 2.57110337382e-07 0.00430582682013
Sb -0.000472338 4.8664322989 29.1478006529 -0.00127912392847 0.00073842088896 0.00336583142666
Sb 2.1071074486 1.210961546 21.6380378253 2.57110337382e-07 -0.00276239346483 -0.0170474438098
Sb 4.2190480877 4.8689500394 21.6380378253 0.00239266879967 0.00138093962208 -0.0170474438098
Sb 6.3213282064 1.2165390527 22.9130289335 -2.57110337382e-07 2.57110337382e-07 0.0289285125002
Sb -0.0048302602 4.8689483476 21.6380374361 -0.00239241168934 0.00138119673241 -0.0170471866994
Cr 2.1071089138 3.6496196957 15.5167186127 0 0 0
61
Lattice="8.42843558953 0 0 -4.21421779477 7.29923593142 0 0 0 31.0334408416" Properties=species:S:1:pos:R:3:forces:R:3 energy=-133601.225182 ionic_step=43 pbc="T T T"
Te 2.1071095967 1.2168275711 3.4646927571 -2.57110337382e-07 -0.000927396986936 0.0425422477542
Te 4.2139690375 4.8660151666 3.4646927571 0.00080321269398 0.000463569938299 0.0425422477542
Te 6.3213260584 1.2165402929 3.4508735997 2.57110337382e-07 0 0.0273403419462
Te 0.00024879 4.8660159552 3.4646927687 -0.00080321269398 0.000463312827962 0.0425422477542
Te -0.3923359647 0.2265153805 7.5386058041 0.0150728364187 -0.00870215647902 -0.0354701708142
Te 2.1071084831 3.6496199444 7.7295805864 2.57110337382e-07 -5.14220674763e-07 -0.0503296056528
Te 4.6065537922 0.2265148832 7.5386056153 -0.0150728364187 -0.00870215647902 -0.0354699137038
Te -2.1071084831 3.1965891835 7.5386056153 -0 0.0174045700684 -0.0354699137038
Te -0 -0 0 0 2.57110337382e-07 -2.57110337382e-07
Te 2.1071089138 3.6496196957 0 -0 -2.57110337382e-07 -2.57110337382e-07
Te 4.2142178275 -0 0 -0 2.57110337382e-07 -2.57110337382e-07
Te -2.1071089138 3.6496196957 0 0 -2.57110337382e-07 -2.57110337382e-07
Te 0.5223088763 2.7346353589 13.6715044093 0.00777527371276 0.00448914649068 0.00649743533597
Te 2.1071086966 5.4795887456 13.6715044093 0 -0.00897803587103 0.00649743533597
Te 3.6919089512 2.7346351081 13.6715047977 -0.00777527371276 0.00448914649068 0.00649743533597
Te -2.1071086966 6.0826993675 14.8185643256 -0 -2.57110337382e-07 -0.0769690648192
Te 2.107109131 1.8196506459 17.3619328161 -0 0.00897803587103 -0.00649743533597
Te 3.6919089512 4.5646040325 17.3619328161 -0.00777501660242 -0.00448914649068 -0.00649743533597
Te 6.3213265241 1.216540024 16.2148728998 0 2.57110337382e-07 0.0769690648192
Te 0.5223088763 4.5646042833 17.3619324277 0.00777501660242 -0.00448914649068 -0.00649743533597
Te 2.1071086782 0.6811539211 10.7974589719 0 -0.0232605151126 0.0224462466741
Te 4.6778753509 5.133852787 10.7974589719 0.0201443378235 0.0116301290011 0.0224465037844
Te 6.3213269768 1.2165397626 11.297174497 -0 2.57110337382e-07 0.01852608536
Te -0.4636575234 5.133852515 10.7974593952 -0.0201443378235 0.0116301290011 0.0224465037844
Te 0.3923359647 -0.2265153805 23.4948314213 -0.0150728364187 0.00870241358936 0.0354699137038
Te 2.1071093444 3.6496194471 23.303856639 -2.57110337382e-07 -2.57110337382e-07 0.0503296056528
Te 3.8218818628 -0.2265148832 23.4948316101 0.0150728364187 0.00870215647902 0.0354699137038
Te -2.1071093444 4.102650208 23.4948316101 0 -0.0174045700684 0.0354699137038
Te 0.00024879 2.4332242248 27.5687444683 -0.00080321269398 -0.000463827048636 -0.0425417335335
Te 2.1071082308 6.0824118204 27.5687444683 2.57110337382e-07 0.000927396986936 -0.0425417335335
Te 4.2139690375 2.4332234362 27.5687444567 0.00080321269398 -0.000463312827962 -0.0425417335335
Te -2.1071082308 6.0826990986 27.5825636257 -2.57110337382e-07 -0 -0.0273400848358
Te -0.4636575234 2.1653866044 20.2359782535 -0.0201440807132 -0.0116301290011 -0.0224462466741
Te 2.1071091493 6.6180854704 20.2359782535 -0 0.0232605151126 -0.0224462466741
Te 4.6778753509 2.1653868764 20.2359778302 0.0201440807132 -0.0116301290011 -0.0224465037844
Te -2.1071091493 6.0826996289 19.7362627284 0 -2.57110337382e-07 -0.01852608536
Sb -0.0050936482 2.4301372847 9.3940010496 -0.00245746060469 -0.001418220621 0.0172379625698
Sb 2.1071103789 6.0885819799 9.3940010496 -2.57110337382e-07 0.00283746968334 0.0172377054594
Sb 4.2193114757 2.4301389765 9.3940014389 0.00245720349436 -0.00141847773133 0.0172379625698
Sb -2.1071103789 6.0827003388 8.1137681401 2.57110337382e-07 -2.57110337382e-07 -0.0296260528455
Sb -0.0003723222 2.432862264 1.8844102503 -0.00128863701096 -0.000743563095708 -0.00321773587233
Sb 2.1071111417 6.0831307001 1.8844102503 -2.57110337382e-07 0.00148789752243 -0.00321747876199
Sb 4.2145901497 2.4328648366 1.8844105384 0.00128863701096 -0.000743820206045 -0.00321799298267
Sb -2.1071111417 6.0827007792 1.8909568144 2.57110337382e-07 -2.57110337382e-07 -0.00418009986515
Sb -0.0707961704 0.0408742071 17.9134556191 -0.00980284583335 0.00565976985678 -0.0249417596087
Sb 2.107108188 3.6496201148 19.6508066081 0 -2.57110337382e-07 -0.00453722612377
Sb 4.2850139979 0.040873369 17.9134558642 0.00980284583335 0.00566002696712 -0.0249417596087
Sb 6.3213274671 3.5678717006 17.9134558642 -2.57110337382e-07 -0.0113195397136 -0.0249417596087
Sb 0.0707961704 -0.0408742071 13.1199816063 0.00980284583335 -0.00565951274644 0.0249417596087
Sb 2.1071096396 3.6496192767 11.3826306173 -0 -0 0.00453722612377
Sb 4.1434216571 -0.040873369 13.1199813612 -0.00980284583335 -0.00565976985678 0.0249417596087
Sb -2.1071096396 3.7313676909 13.1199813612 2.57110337382e-07 0.0113192826032 0.0249417596087
Sb 2.1071066858 1.2161086914 29.1490269751 2.57110337382e-07 -0.00148789752243 0.00321747876199
Sb 4.2145901497 4.8663771275 29.1490269751 0.00128863701096 0.000743563095708 0.00321747876199
Sb 6.3213289693 1.2165386123 29.142480411 -2.57110337382e-07 2.57110337382e-07 0.00418009986515
Sb -0.0003723222 4.8663745548 29.149026687 -0.00128863701096 0.000744077316382 0.00321773587233
Sb 2.1071074486 1.2106574116 21.6394361758 2.57110337382e-07 -0.00283721257301 -0.0172379625698
Sb 4.2193114757 4.8691021067 21.6394361758 0.00245746060469 0.001418220621 -0.0172377054594
Sb 6.3213282064 1.2165390527 22.9196690853 -2.57110337382e-07 2.57110337382e-07 0.0296260528455
Sb -0.0050936482 4.8691004149 21.6394357866 -0.00245720349436 0.00141847773133 -0.0172377054594
Cr 2.1071089138 3.6496196957 15.5167186127 0 0 0
61
Lattice="8.42843558953 0 0 -4.21421779477 7.29923593142 0 0 0 31.0334408416" Properties=species:S:1:pos:R:3:forces:R:3 energy=-133601.226735 ionic_step=44 pbc="T T T"
Te 2.1071095967 1.216651556 3.4649245537 -2.57110337382e-07 -0.000873660926423 0.0426011260214
Te 4.2141214709 4.8661031741 3.4649245537 0.000756675722914 0.000436830463211 0.0426013831318
Te 6.3213260584 1.2165402929 3.4507022365 2.57110337382e-07 0 0.0274020484271
Te 9.63566e-05 4.8661039627 3.4649245653 -0.000756675722914 0.000436573352874 0.0426013831318
Te -0.3931790686 0.227002147 7.5388298833 0.0149800195869 -0.00864842041851 -0.0352153744698
Te 2.1071084831 3.6496199444 7.7248505119 2.57110337382e-07 -5.14220674763e-07 -0.0501041198869
Te 4.6073968961 0.2270016497 7.5388296945 -0.0149800195869 -0.00864842041851 -0.0352151173595
Te -2.1071084831 3.1956156505 7.5388296945 -0 0.0172973550577 -0.0352151173595
Te -0 -0 0 0 2.57110337382e-07 -2.57110337382e-07
Te 2.1071089138 3.6496196957 0 -0 -2.57110337382e-07 -2.57110337382e-07
Te 4.2142178275 -0 0 -0 2.57110337382e-07 -2.57110337382e-07
Te -2.1071089138 3.6496196957 0 0 -2.57110337382e-07 -2.57110337382e-07
Te 0.5216495864 2.7342547175 13.6698693105 0.00767037269511 0.00442846845106 0.00684247740874
Te 2.1071086966 5.4803500284 13.6698693105 0 -0.00885693690212 0.00684247740874
Te 3.6925682411 2.7342544667 13.6698696989 -0.00767037269511 0.00442846845106 0.00684247740874
Te -2.1071086966 6.0826993675 14.8164552682 -0 -2.57110337382e-07 -0.0766494766699
Te 2.107109131 1.8188893631 17.3635679149 -0 0.00885693690212 -0.00684247740874
Te 3.6925682411 4.5649846739 17.3635679149 -0.00767037269511 -0.0044287255614 -0.00684247740874
Te 6.3213265241 1.216540024 16.2169819572 0 2.57110337382e-07 0.0766494766699
Te 0.5216495864 4.5649849247 17.3635675265 0.00767037269511 -0.0044287255614 -0.00684247740874
Te 2.1071086782 0.6801509751 10.7996235783 0 -0.0230142034094 0.0220572387336
Te 4.6787439272 5.13435426 10.7996235783 0.0199309362435 0.0115069731495 0.0220572387336
Te 6.3213269768 1.2165397626 11.3001284267 -0 2.57110337382e-07 0.0184440671624
Te -0.4645260997 5.134353988 10.7996240015 -0.0199309362435 0.0115069731495 0.022057495844
Te 0.3931790686 -0.227002147 23.4946073421 -0.0149797624765 0.00864867752884 0.0352151173595
Te 2.1071093444 3.6496194471 23.3085867135 -2.57110337382e-07 -2.57110337382e-07 0.0501041198869
Te 3.8210387589 -0.2270016497 23.4946075309 0.0149797624765 0.00864867752884 0.0352151173595
Te -2.1071093444 4.103623741 23.4946075309 0 -0.0172970979473 0.0352151173595
Te 9.63566e-05 2.4331362173 27.5685126717 -0.000756675722914 -0.000436830463211 -0.0426006118008
Te 2.1071082308 6.0825878355 27.5685126717 2.57110337382e-07 0.000873660926423 -0.0426008689111
Te 4.2141214709 2.4331354287 27.5685126601 0.000756675722914 -0.000436573352874 -0.0426008689111
Te -2.1071082308 6.0826990986 27.5827349889 -2.57110337382e-07 -0 -0.0274015342064
Te -0.4645260997 2.1648851314 20.2338136472 -0.0199309362435 -0.0115069731495 -0.0220572387336
Te 2.1071091493 6.6190884164 20.2338136472 -0 0.0230142034094 -0.0220572387336
Te 4.6787439272 2.1648854034 20.2338132239 0.0199309362435 -0.0115069731495 -0.0220572387336
Te -2.1071091493 6.0826996289 19.7333087987 0 -2.57110337382e-07 -0.0184443242727
Sb -0.0047245174 2.4303504026 9.3930966989 -0.0026101841451 -0.00150640946672 0.017442365288
Sb 2.1071103789 6.0881557442 9.3930966989 -2.57110337382e-07 0.00301384737479 0.017442365288
Sb 4.2189423449 2.4303520944 9.3930970882 0.00260992703476 -0.00150666657706 0.017442365288
Sb -2.1071103789 6.0827003388 8.105237356 2.57110337382e-07 -2.57110337382e-07 -0.03058970239
Sb -0.0001404168 2.4329961548 1.8846330613 -0.00131460515503 -0.000758475495276 -0.00320230925209
Sb 2.1071111417 6.0828629186 1.8846330613 -2.57110337382e-07 0.0015179794319 -0.00320205214175
Sb 4.2143582443 2.4329987274 1.8846333494 0.00131460515503 -0.000758989715951 -0.00320256636243
Sb -2.1071111417 6.0827007792 1.8912959195 2.57110337382e-07 -2.57110337382e-07 -0.00419449804404
Sb -0.0692615217 0.0399881768 17.9083688881 -0.00990234753392 0.00571736257236 -0.0246278278868
Sb 2.107108188 3.6496201148 19.6547219279 0 -2.57110337382e-07 -0.00497868457306
Sb 4.2834793492 0.0399873387 17.9083691332 0.00990234753392 0.00571736257236 -0.0246275707764
Sb 6.3213274671 3.5696437611 17.9083691332 -2.57110337382e-07 -0.0114344680344 -0.0246275707764
Sb 0.0692615217 -0.0399881768 13.1250683373 0.00990234753392 -0.00571710546202 0.0246278278868
Sb 2.1071096396 3.6496192767 11.3787152975 -0 -0 0.00497868457306
Sb 4.1449563058 -0.0399873387 13.1250680922 -0.00990234753392 -0.00571710546202 0.0246275707764
Sb -2.1071096396 3.7295956304 13.1250680922 2.57110337382e-07 0.011434210924 0.0246275707764
Sb 2.1071066858 1.2163764729 29.1488041641 2.57110337382e-07 -0.00151772232156 0.00320205214175
Sb 4.2143582443 4.8662432367 29.1488041641 0.00131460515503 0.000758732605613 0.00320230925209
Sb 6.3213289693 1.2165386123 29.1421413059 -2.57110337382e-07 2.57110337382e-07 0.00419424093371
Sb -0.0001404168 4.866240664 29.148803876 -0.00131460515503 0.000758989715951 0.00320230925209
Sb 2.1071074486 1.2110836473 21.6403405265 2.57110337382e-07 -0.00301359026445 -0.017442365288
Sb 4.2189423449 4.8688889888 21.6403405265 0.0026101841451 0.00150640946672 -0.017442365288
Sb 6.3213282064 1.2165390527 22.9281998694 -2.57110337382e-07 2.57110337382e-07 0.03058970239
Sb -0.0047245174 4.868887297 21.6403401373 -0.00260992703476 0.00150666657706 -0.017442365288
Cr 2.1071089138 3.6496196957 15.5167186127 0 0 -0
61
Lattice="8.42843558953 0 0 -4.21421779477 7.29923593142 0 0 0 31.0334408416" Properties=species:S:1:pos:R:3:forces:R:3 energy=-133601.227691 ionic_step=45 pbc="T T T"
Te 2.1071095967 1.2164985558 3.4666367865 -2.57110337382e-07 -0.000841779244587 0.0425803000841
Te 4.2142539729 4.8661796742 3.4666367865 0.000728907806477 0.000420889622294 0.0425803000841
Te 6.3213260584 1.2165402929 3.452189943 2.57110337382e-07 0 0.0271441667587
Te -3.61454e-05 4.8661804628 3.4666367981 -0.000728907806477 0.000420632511956 0.0425805571944
Te -0.3928563682 0.2268158357 7.537904841 0.0150697510946 -0.00870035670666 -0.0348551628871
Te 2.1071084831 3.6496199444 7.7233438253 2.57110337382e-07 -5.14220674763e-07 -0.0499177148923
Te 4.6070741957 0.2268153384 7.5379046522 -0.0150697510946 -0.00870035670666 -0.0348551628871
Te -2.1071084831 3.195988273 7.5379046522 -0 0.0174009705237 -0.0348549057768
Te -0 -0 0 0 2.57110337382e-07 -2.57110337382e-07
Te 2.1071089138 3.6496196957 0 -0 -2.57110337382e-07 -2.57110337382e-07
Te 4.2142178275 -0 0 -0 2.57110337382e-07 -2.57110337382e-07
Te -2.1071089138 3.6496196957 0 0 -2.57110337382e-07 -2.57110337382e-07
Te 0.5210447603 2.7339055208 13.6698028097 0.00756958544285 0.00437036151481 0.00704559457527
Te 2.1071086966 5.4810484218 13.6698028097 0 -0.00874072302963 0.00704559457527
Te 3.6931730672 2.73390527 13.6698031981 -0.00756958544285 0.00437036151481 0.00704559457527
Te -2.1071086966 6.0826993675 14.8170752313 -0 -2.57110337382e-07 -0.0766150238847
Te 2.107109131 1.8181909697 17.3636344157 -0 0.00874072302963 -0.00704559457527
Te 3.6931730672 4.5653338706 17.3636344157 -0.00756958544285 -0.00437036151481 -0.00704559457527
Te 6.3213265241 1.216540024 16.2163619941 0 2.57110337382e-07 0.0766150238847
Te 0.5210447603 4.5653341214 17.3636340273 0.00756958544285 -0.00437036151481 -0.00704559457527
Te 2.1071086782 0.6794717601 10.8023921586 0 -0.0228617369793 0.0218569497808
Te 4.6793321444 5.1346938675 10.8023921586 0.0197987815301 0.0114306113793 0.0218572068911
Te 6.3213269768 1.2165397626 11.3039310507 -0 2.57110337382e-07 0.0180064653682
Te -0.4651143169 5.1346935955 10.8023925819 -0.0197987815301 0.0114308684896 0.0218572068911
Te 0.3928563682 -0.2268158357 23.4955323844 -0.0150694939843 0.00870061381699 0.0348551628871
Te 2.1071093444 3.6496194471 23.3100934001 -2.57110337382e-07 -2.57110337382e-07 0.0499177148923
Te 3.8213614593 -0.2268153384 23.4955325732 0.0150697510946 0.00870035670666 0.0348551628871
Te -2.1071093444 4.1032511185 23.4955325732 0 -0.0174007134133 0.0348549057768
Te -3.61454e-05 2.4330597172 27.5668004389 -0.000728907806477 -0.000420889622294 -0.0425797858634
Te 2.1071082308 6.0827408356 27.5668004389 2.57110337382e-07 0.000841779244587 -0.0425800429738
Te 4.2142539729 2.4330589286 27.5668004273 0.000728907806477 -0.000420632511956 -0.0425797858634
Te -2.1071082308 6.0826990986 27.5812472825 -2.57110337382e-07 -0 -0.0271439096484
Te -0.4651143169 2.1645455239 20.2310450668 -0.0197987815301 -0.0114306113793 -0.0218569497808
Te 2.1071091493 6.6197676314 20.2310450668 -0 0.0228617369793 -0.0218569497808
Te 4.6793321444 2.1645457959 20.2310446435 0.0197987815301 -0.0114306113793 -0.0218569497808
Te -2.1071091493 6.0826996289 19.7295061747 0 -2.57110337382e-07 -0.0180067224785
Sb -0.004533174 2.4304608748 9.3932701467 -0.00271071428701 -0.00156451640297 0.0176192572001
Sb 2.1071103789 6.0879347997 9.3932701467 -2.57110337382e-07 0.00312980413695 0.0176190000898
Sb 4.2187510015 2.4304625666 9.393270536 0.00271045717668 -0.0015647735133 0.0176192572001
Sb -2.1071103789 6.0827003388 8.0979242403 2.57110337382e-07 -2.57110337382e-07 -0.0315060436324
Sb 0.000100005 2.4331349625 1.8854559146 -0.00134597261619 -0.00077673032923 -0.00325655953328
Sb 2.1071111417 6.0825853033 1.8854559146 -2.57110337382e-07 0.00155397487913 -0.00325655953328
Sb 4.2141178225 2.4331375351 1.8854562027 0.00134597261619 -0.000776987439567 -0.00325681664361
Sb -2.1071111417 6.0827007792 1.8921882374 2.57110337382e-07 -2.57110337382e-07 -0.0042636607248
Sb -0.0683973833 0.0394892661 17.9035244247 -0.00999799257942 0.00577238418455 -0.024388715273
Sb 2.107108188 3.6496201148 19.656073888 0 -2.57110337382e-07 -0.00528310321252
Sb 4.2826152108 0.039488428 17.9035246698 0.00999799257942 0.00577264129489 -0.024388715273
Sb 6.3213274671 3.5706415826 17.9035246698 -2.57110337382e-07 -0.0115450254794 -0.0243884581627
Sb 0.0683973833 -0.0394892661 13.1299128007 0.00999799257942 -0.00577238418455 0.024388715273
Sb 2.1071096396 3.6496192767 11.3773633374 -0 -0 0.00528310321252
Sb 4.1458204442 -0.039488428 13.1299125556 -0.00999799257942 -0.00577238418455 0.024388715273
Sb -2.1071096396 3.7285978089 13.1299125556 2.57110337382e-07 0.0115447683691 0.0243884581627
Sb 2.1071066858 1.2166540882 29.1479813108 2.57110337382e-07 -0.00155397487913 0.00325630242294
Sb 4.2141178225 4.866104429 29.1479813108 0.00134597261619 0.00077673032923 0.00325655953328
Sb 6.3213289693 1.2165386123 29.141248988 -2.57110337382e-07 2.57110337382e-07 0.0042636607248
Sb 0.000100005 4.8661018563 29.1479810227 -0.00134597261619 0.000776987439567 0.00325681664361
Sb 2.1071074486 1.2113045918 21.6401670787 2.57110337382e-07 -0.00312980413695 -0.0176192572001
Sb 4.2187510015 4.8687785166 21.6401670787 0.00271071428701 0.00156451640297 -0.0176190000898
Sb 6.3213282064 1.2165390527 22.9355129852 -2.57110337382e-07 2.57110337382e-07 0.0315060436324
Sb -0.004533174 4.8687768248 21.6401666895 -0.00271045717668 0.0015647735133 -0.0176190000898
Cr 2.1071089138 3.6496196957 15.5167186127 0 0 -0
61
Lattice="8.42843558953 0 0 -4.21421779477 7.29923593142 0 0 0 31.0334408416" Properties=species:S:1:pos:R:3:forces:R:3 energy=-133601.228438 ionic_step=46 pbc="T T T"
Te 2.1071095967 1.2162937348 3.4686367283 -2.57110337382e-07 -0.000798070487233 0.0425373626578
Te 4.214431353 4.8662820847 3.4686367283 0.000691112586882 0.000399035243616 0.0425376197681
Te 6.3213260584 1.2165402929 3.4539479877 2.57110337382e-07 0 0.0268271497127
Te -0.0002135255 4.8662828733 3.4686367399 -0.000691112586882 0.000398778133279 0.0425376197681
Te -0.3919502807 0.2262927056 7.5366588546 0.0152481856688 -0.00880320084161 -0.0344764393602
Te 2.1071084831 3.6496199444 7.7236080734 2.57110337382e-07 -5.14220674763e-07 -0.0497027706503
Te 4.6061681082 0.2262922083 7.5366586658 -0.0152481856688 -0.00880320084161 -0.0344764393602
Te -2.1071084831 3.1970345332 7.5366586658 -0 0.0176069159039 -0.0344764393602
Te -0 -0 0 0 2.57110337382e-07 -2.57110337382e-07
Te 2.1071089138 3.6496196957 0 -0 -2.57110337382e-07 -2.57110337382e-07
Te 4.2142178275 -0 0 -0 2.57110337382e-07 -2.57110337382e-07
Te -2.1071089138 3.6496196957 0 0 -2.57110337382e-07 -2.57110337382e-07
Te 0.5211234926 2.733950977 13.6699883134 0.00757575609095 0.00437396105954 0.007176463737
Te 2.1071086966 5.4809575094 13.6699883134 0 -0.00874766500874 0.00717672084733
Te 3.6930943349 2.7339507262 13.6699887018 -0.00757575609095 0.00437396105954 0.007176463737
Te -2.1071086966 6.0826993675 14.8181190223 -0 -2.57110337382e-07 -0.0765049806603
Te 2.107109131 1.8182818821 17.363448912 -0 0.00874766500874 -0.007176463737
Te 3.6930943349 4.5652884144 17.363448912 -0.00757549898061 -0.00437396105954 -0.007176463737
Te 6.3213265241 1.216540024 16.2153182031 0 2.57110337382e-07 0.0765049806603
Te 0.5211234926 4.5652886652 17.3634485236 0.00757549898061 -0.00437396105954 -0.007176463737
Te 2.1071086782 0.6788953468 10.8054328365 0 -0.0227622352787 0.0217445925634
Te 4.6798313327 5.1349820741 10.8054328365 0.019712649567 0.0113809890842 0.0217445925634
Te 6.3213269768 1.2165397626 11.3076019295 -0 2.57110337382e-07 0.0174948157968
Te -0.4656135052 5.1349818021 10.8054332598 -0.019712649567 0.0113809890842 0.0217448496737
Te 0.3919502807 -0.2262927056 23.4967783708 -0.0152479285584 0.00880345795195 0.0344764393602
Te 2.1071093444 3.6496194471 23.309829152 -2.57110337382e-07 -2.57110337382e-07 0.0497027706503
Te 3.8222675468 -0.2262922083 23.4967785596 0.0152479285584 0.00880345795195 0.0344764393602
Te -2.1071093444 4.1022048583 23.4967785596 0 -0.0176066587936 0.0344764393602
Te -0.0002135255 2.4329573067 27.5648004971 -0.000691112586882 -0.000399035243616 -0.0425371055474
Te 2.1071082308 6.0829456567 27.5648004971 2.57110337382e-07 0.000798070487233 -0.0425371055474
Te 4.214431353 2.4329565181 27.5648004855 0.000691112586882 -0.000398778133279 -0.0425371055474
Te -2.1071082308 6.0826990986 27.5794892377 -2.57110337382e-07 -0 -0.0268266354921
Te -0.4656135052 2.1642573173 20.2280043889 -0.019712649567 -0.0113809890842 -0.0217445925634
Te 2.1071091493 6.6203440447 20.2280043889 -0 0.0227622352787 -0.0217445925634
Te 4.6798313327 2.1642575893 20.2280039656 0.019712649567 -0.0113809890842 -0.0217445925634
Te -2.1071091493 6.0826996289 19.7258352959 0 -2.57110337382e-07 -0.0174948157968
Sb -0.0042045959 2.4306505796 9.3937905924 -0.00278990427093 -0.00161028204302 0.0177105313699
Sb 2.1071103789 6.0875553902 9.3937905924 -2.57110337382e-07 0.00322133541705 0.0177102742595
Sb 4.2184224234 2.4306522714 9.3937909817 0.00278990427093 -0.00161053915336 0.0177105313699
Sb -2.1071103789 6.0827003388 8.0910473536 2.57110337382e-07 -2.57110337382e-07 -0.0323825327725
Sb 0.0003281067 2.4332666571 1.8863148209 -0.0013742547533 -0.000792928280485 -0.00331209536615
Sb 2.1071111417 6.0823219141 1.8863148209 -2.57110337382e-07 0.00158688500232 -0.00331183825581
Sb 4.2138897208 2.4332692297 1.886315109 0.0013742547533 -0.00079344250116 -0.00331209536615
Sb -2.1071111417 6.0827007792 1.8929162666 2.57110337382e-07 -2.57110337382e-07 -0.00433128074353
Sb -0.0677039686 0.0390889227 17.899846426 -0.0100902951905 0.00582586313473 -0.0242056527128
Sb 2.107108188 3.6496201148 19.6563491469 0 -2.57110337382e-07 -0.00548056395163
Sb 4.2819217961 0.0390880846 17.8998466711 0.0100902951905 0.00582586313473 -0.0242056527128
Sb 6.3213274671 3.5714422694 17.8998466711 -2.57110337382e-07 -0.0116514691591 -0.0242056527128
Sb 0.0677039686 -0.0390889227 13.1335907994 0.0100902951905 -0.00582560602439 0.0242056527128
Sb 2.1071096396 3.6496192767 11.3770880785 -0 -0 0.00548056395163
Sb 4.1465138589 -0.0390880846 13.1335905543 -0.0100902951905 -0.00582560602439 0.0242056527128
Sb -2.1071096396 3.7277971221 13.1335905543 2.57110337382e-07 0.0116512120488 0.0242056527128
Sb 2.1071066858 1.2169174774 29.1471224046 2.57110337382e-07 -0.00158662789198 0.00331183825581
Sb 4.2138897208 4.8659727344 29.1471224046 0.0013742547533 0.000793185390822 0.00331183825581
Sb 6.3213289693 1.2165386123 29.1405209588 -2.57110337382e-07 2.57110337382e-07 0.00433128074353
Sb 0.0003281067 4.8659701617 29.1471221164 -0.0013742547533 0.00079344250116 0.00331209536615
Sb 2.1071074486 1.2116840013 21.639646633 2.57110337382e-07 -0.00322133541705 -0.0177105313699
Sb 4.2184224234 4.8685888118 21.639646633 0.00278990427093 0.00161028204302 -0.0177105313699
Sb 6.3213282064 1.2165390527 22.9423898718 -2.57110337382e-07 2.57110337382e-07 0.0323825327725
Sb -0.0042045959 4.86858712 21.6396462438 -0.00278990427093 0.00161053915336 -0.0177102742595
Cr 2.1071089138 3.6496196957 15.5167186127 0 0 -0
61
Lattice="8.42843558953 0 0 -4.21421779477 7.29923593142 0 0 0 31.0334408416" Properties=species:S:1:pos:R:3:forces:R:3 energy=-133601.229142 ionic_step=47 pbc="T T T"
Te 2.1071095967 1.2160299438 3.470041902 -2.57110337382e-07 -0.000735078454574 0.0425355628854
Te 4.2146598026 4.8664139802 3.470041902 0.000636605195357 0.000367667782456 0.0425355628854
Te 6.3213260584 1.2165402929 3.4550242253 2.57110337382e-07 0 0.0265525558724
Te -0.0004419751 4.8664147688 3.4700419136 -0.000636605195357 0.000367410672118 0.0425355628854
Te -0.3907686977 0.225610518 7.5346325611 0.0154957829237 -0.00894641129953 -0.0340871743094
Te 2.1071084831 3.6496199444 7.7238074276 2.57110337382e-07 -5.14220674763e-07 -0.0494885977392
Te 4.6049865252 0.2256100207 7.5346323723 -0.0154957829237 -0.00894641129953 -0.0340871743094
Te -2.1071084831 3.1983989083 7.5346323723 -0 0.0178930797094 -0.0340871743094
Te -0 -0 0 0 2.57110337382e-07 -2.57110337382e-07
Te 2.1071089138 3.6496196957 0 -0 -2.57110337382e-07 -2.57110337382e-07
Te 4.2142178275 -0 0 -0 2.57110337382e-07 -2.57110337382e-07
Te -2.1071089138 3.6496196957 0 0 -2.57110337382e-07 -2.57110337382e-07
Te 0.5214698412 2.7341509415 13.6704338686 0.00761637952426 0.00439735810024 0.00713506897268
Te 2.1071086966 5.4805575804 13.6704338686 0 -0.00879471620048 0.00713506897268
Te 3.6927479863 2.7341506907 13.670434257 -0.00761637952426 0.00439735810024 0.00713506897268
Te -2.1071086966 6.0826993675 14.8173456776 -0 -2.57110337382e-07 -0.0759887031028
Te 2.107109131 1.8186818111 17.3630033568 -0 0.00879471620048 -0.00713506897268
Te 3.6927479863 4.5650884499 17.3630033568 -0.00761637952426 -0.00439761521058 -0.00713506897268
Te 6.3213265241 1.216540024 16.2160915478 0 2.57110337382e-07 0.0759887031028
Te 0.5214698412 4.5650887007 17.3630029684 0.00761637952426 -0.00439761521058 -0.00713506897268
Te 2.1071086782 0.6786838623 10.8084391402 0 -0.0225899713527 0.021572842858
Te 4.6800144836 5.1350878164 10.8084391402 0.0195635255714 0.0112948571212 0.0215730999683
Te 6.3213269768 1.2165397626 11.310065005 -0 2.57110337382e-07 0.0169841946668
Te -0.4657966561 5.1350875444 10.8084395635 -0.0195635255714 0.0112948571212 0.0215730999683
Te 0.3907686977 -0.225610518 23.4988046643 -0.0154957829237 0.00894641129953 0.0340871743094
Te 2.1071093444 3.6496194471 23.3096297978 -2.57110337382e-07 -2.57110337382e-07 0.0494885977392
Te 3.8234491298 -0.2256100207 23.4988048531 0.0154957829237 0.00894641129953 0.0340871743094
Te -2.1071093444 4.1008404832 23.4988048531 0 -0.0178928225991 0.034086917199
Te -0.0004419751 2.4328254112 27.5633953234 -0.000636605195357 -0.000367667782456 -0.0425350486647
Te 2.1071082308 6.0832094477 27.5633953234 2.57110337382e-07 0.000735078454574 -0.0425350486647
Te 4.2146598026 2.4328246226 27.5633953118 0.000636605195357 -0.000367410672118 -0.0425350486647
Te -2.1071082308 6.0826990986 27.5784130001 -2.57110337382e-07 -0 -0.0265522987621
Te -0.4657966561 2.164151575 20.2249980852 -0.0195635255714 -0.0112948571212 -0.021572842858
Te 2.1071091493 6.6205555292 20.2249980852 -0 0.0225899713527 -0.021572842858
Te 4.6800144836 2.164151847 20.2249976619 0.0195635255714 -0.0112948571212 -0.021572842858
Te -2.1071091493 6.0826996289 19.7233722204 0 -2.57110337382e-07 -0.0169841946668
Sb -0.0035847026 2.4310084753 9.3932254721 -0.00286858003417 -0.00165579057274 0.0177884358021
Sb 2.1071103789 6.0868395988 9.3932254721 -2.57110337382e-07 0.00331209536615 0.0177884358021
Sb 4.2178025301 2.4310101671 9.3932258614 0.00286858003417 -0.00165604768308 0.0177884358021
Sb -2.1071103789 6.0827003388 8.0840224882 2.57110337382e-07 -2.57110337382e-07 -0.033260050354
Sb 0.0005173296 2.433375905 1.8867058931 -0.00139610913198 -0.000805783797354 -0.00329435475287
Sb 2.1071111417 6.0821034182 1.8867058931 -2.57110337382e-07 0.00161208181538 -0.00329409764253
Sb 4.2137004979 2.4333784776 1.8867061812 0.00139610913198 -0.000806040907691 -0.00329461186321
Sb -2.1071111417 6.0827007792 1.8929901644 2.57110337382e-07 -2.57110337382e-07 -0.00432639564712
Sb -0.066896322 0.0386226275 17.8982885477 -0.0101671711814 0.00587008611276 -0.024111293219
Sb 2.107108188 3.6496201148 19.6551234857 0 -2.57110337382e-07 -0.00556489614229
Sb 4.2811141495 0.0386217894 17.8982887928 0.0101671711814 0.0058703432231 -0.0241110361086
Sb 6.3213274671 3.5723748597 17.8982887928 -2.57110337382e-07 -0.0117401722255 -0.0241110361086
Sb 0.066896322 -0.0386226275 13.1351486777 0.0101671711814 -0.00586982900242 0.0241110361086
Sb 2.1071096396 3.6496192767 11.3783137397 -0 -0 0.00556489614229
Sb 4.1473215055 -0.0386217894 13.1351484326 -0.0101671711814 -0.00587008611276 0.0241110361086
Sb -2.1071096396 3.7268645318 13.1351484326 2.57110337382e-07 0.0117399151152 0.0241110361086
Sb 2.1071066858 1.2171359733 29.1467313323 2.57110337382e-07 -0.00161208181538 0.00329409764253
Sb 4.2137004979 4.8658634865 29.1467313323 0.00139610913198 0.000805783797354 0.00329409764253
Sb 6.3213289693 1.2165386123 29.140447061 -2.57110337382e-07 2.57110337382e-07 0.00432613853678
Sb 0.0005173296 4.8658609138 29.1467310442 -0.00139610913198 0.000806040907691 0.00329435475287
Sb 2.1071074486 1.2123997927 21.6402117533 2.57110337382e-07 -0.00331209536615 -0.0177884358021
Sb 4.2178025301 4.8682309161 21.6402117533 0.00286858003417 0.00165579057274 -0.0177884358021
Sb 6.3213282064 1.2165390527 22.9494147372 -2.57110337382e-07 2.57110337382e-07 0.033260050354
Sb -0.0035847026 4.8682292243 21.6402113641 -0.00286858003417 0.00165604768308 -0.0177884358021
Cr 2.1071089138 3.6496196957 15.5167186127 0 0 -0
61
Lattice="8.42843558953 0 0 -4.21421779477 7.29923593142 0 0 0 31.0334408416" Properties=species:S:1:pos:R:3:forces:R:3 energy=-133601.229813 ionic_step=48 pbc="T T T"
Te 2.1071095967 1.2156933051 3.4703452592 -2.57110337382e-07 -0.000643032953791 0.0426008689111
Te 4.2149513402 4.8665822996 3.4703452592 0.000556900990769 0.000321645032064 0.0426011260214
Te 6.3213260584 1.2165402929 3.4549150582 2.57110337382e-07 0 0.0264062600904
Te -0.0007335127 4.8665830882 3.4703452708 -0.000556900990769 0.00032113081139 0.0426011260214
Te -0.3899315119 0.2251271683 7.5322035726 0.0157243540136 -0.00907830890261 -0.0337297909404
Te 2.1071084831 3.6496199444 7.7230067742 2.57110337382e-07 -5.14220674763e-07 -0.0492350869466
Te 4.6041493394 0.225126671 7.5322033838 -0.0157243540136 -0.00907830890261 -0.0337297909404
Te -2.1071084831 3.1993656077 7.5322033838 -0 0.0181568749156 -0.0337295338301
Te -0 -0 0 0 2.57110337382e-07 -2.57110337382e-07
Te 2.1071089138 3.6496196957 0 -0 -2.57110337382e-07 -2.57110337382e-07
Te 4.2142178275 -0 0 -0 2.57110337382e-07 -2.57110337382e-07
Te -2.1071089138 3.6496196957 0 0 -2.57110337382e-07 -2.57110337382e-07
Te 0.5222448615 2.7345983999 13.6704870921 0.00772076632123 0.00445777902952 0.00697694611519
Te 2.1071086966 5.4796626636 13.6704870921 0 -0.00891530094871 0.00697694611519
Te 3.691972966 2.7345981491 13.6704874805 -0.00772076632123 0.00445777902952 0.00697694611519
Te -2.1071086966 6.0826993675 14.8136402289 -0 -2.57110337382e-07 -0.0749296656231
Te 2.107109131 1.8195767279 17.3629501333 -0 0.00891530094871 -0.00697694611519
Te 3.691972966 4.5646409915 17.3629501333 -0.00772076632123 -0.00445777902952 -0.00697694611519
Te 6.3213265241 1.216540024 16.2197969965 0 2.57110337382e-07 0.0749296656231
Te 0.5222448615 4.5646412423 17.3629497449 0.00772076632123 -0.00445777902952 -0.00697694611519
Te 2.1071086782 0.6784871224 10.8109933345 0 -0.0223649998075 0.0212617393498
Te 4.6801848652 5.1351861864 10.8109933345 0.0193686359356 0.0111822427934 0.0212619964601
Te 6.3213269768 1.2165397626 11.3108764641 -0 2.57110337382e-07 0.0166188408773
Te -0.4659670377 5.1351859144 10.8109937578 -0.0193686359356 0.0111822427934 0.0212619964601
Te 0.3899315119 -0.2251271683 23.5012336528 -0.0157240969032 0.00907856601295 0.0337297909404
Te 2.1071093444 3.6496194471 23.3104304512 -2.57110337382e-07 -2.57110337382e-07 0.0492350869466
Te 3.8242863156 -0.225126671 23.5012338416 0.0157243540136 0.00907830890261 0.0337297909404
Te -2.1071093444 4.0998737838 23.5012338416 0 -0.0181566178052 0.0337295338301
Te -0.0007335127 2.4326570918 27.5630919662 -0.000556900990769 -0.000321645032064 -0.0426003546904
Te 2.1071082308 6.0835460864 27.5630919662 2.57110337382e-07 0.000643032953791 -0.0426006118008
Te 4.2149513402 2.4326563032 27.5630919546 0.000556900990769 -0.000321387921727 -0.0426006118008
Te -2.1071082308 6.0826990986 27.5785221672 -2.57110337382e-07 -0 -0.0264057458698
Te -0.4659670377 2.164053205 20.2224438909 -0.0193686359356 -0.0111822427934 -0.0212619964601
Te 2.1071091493 6.6207522691 20.2224438909 -0 0.0223649998075 -0.0212619964601
Te 4.6801848652 2.164053477 20.2224434676 0.0193686359356 -0.0111822427934 -0.0212619964601
Te -2.1071091493 6.0826996289 19.7225607613 0 -2.57110337382e-07 -0.0166190979877
Sb -0.0025353434 2.4316143234 9.3913675678 -0.00296319663832 -0.00171029796426 0.0178203174839
Sb 2.1071103789 6.0856279026 9.3913675678 -2.57110337382e-07 0.00342136725954 0.0178200603736
Sb 4.2167531709 2.4316160152 9.3913679571 0.00296293952799 -0.0017105550746 0.0178203174839
Sb -2.1071103789 6.0827003388 8.0767278974 2.57110337382e-07 -2.57110337382e-07 -0.0340997727159
Sb 0.0006371654 2.4334450923 1.886495953 -0.00140562221447 -0.000811183114439 -0.00318791107319
Sb 2.1071111417 6.0819650437 1.886495953 -2.57110337382e-07 0.00162288044955 -0.00318765396286
Sb 4.2135806621 2.4334476649 1.8864962411 0.00140562221447 -0.000811440224776 -0.00318816818353
Sb -2.1071111417 6.0827007792 1.8922189514 2.57110337382e-07 -2.57110337382e-07 -0.00423846391174
Sb -0.0657060373 0.037935416 17.8992027691 -0.0102350483105 0.00590942399438 -0.0241025514675
Sb 2.107108188 3.6496201148 19.6535980959 0 -2.57110337382e-07 -0.00556669591465
Sb 4.2799238648 0.0379345779 17.8992030142 0.0102350483105 0.00590942399438 -0.0241022943572
Sb 6.3213274671 3.5737492828 17.8992030142 -2.57110337382e-07 -0.0118188479888 -0.0241022943572
Sb 0.0657060373 -0.037935416 13.1342344563 0.0102353054208 -0.00590916688404 0.0241022943572
Sb 2.1071096396 3.6496192767 11.3798391295 -0 -0 0.00556669591465
Sb 4.1485117902 -0.0379345779 13.1342342112 -0.0102350483105 -0.00590942399438 0.0241022943572
Sb -2.1071096396 3.7254901087 13.1342342112 2.57110337382e-07 0.0118185908784 0.0241022943572
Sb 2.1071066858 1.2172743478 29.1469412724 2.57110337382e-07 -0.00162288044955 0.00318765396286
Sb 4.2135806621 4.8657942992 29.1469412724 0.00140562221447 0.000811183114439 0.00318765396286
Sb 6.3213289693 1.2165386123 29.141218274 -2.57110337382e-07 2.57110337382e-07 0.0042382068014
Sb 0.0006371654 4.8657917265 29.1469409843 -0.00140562221447 0.000811440224776 0.00318791107319
Sb 2.1071074486 1.2136114889 21.6420696576 2.57110337382e-07 -0.00342136725954 -0.0178203174839
Sb 4.2167531709 4.867625068 21.6420696576 0.00296319663832 0.00171029796426 -0.0178200603736
Sb 6.3213282064 1.2165390527 22.956709328 -2.57110337382e-07 2.57110337382e-07 0.0340997727159
Sb -0.0025353434 4.8676233762 21.6420692684 -0.00296293952799 0.0017105550746 -0.0178200603736
Cr 2.1071089138 3.6496196957 15.5167186127 0 0 -0
