61
Lattice="8.42843558953 0 0 -4.21421779477 7.29923593142 0 0 0 31.0334408416" Properties=species:S:1:pos:R:3:forces:R:3 energy=-133599.791767 ionic_step=0 pbc="T T T"
Te 1.7840913749 1.0300455485 3.3152130671 0.000143467568259 6.1963591309e-05 -0.0015282638454
Te 4.2142178275 5.2391482947 3.3152130671 -6.11922602968e-05 -6.42775843454e-06 -0.00150872345976
Te 6.6443442802 1.0300455485 3.3152130671 -0.000101815693603 -1.85119442915e-05 -0.00153134916944
Te 0 4.8661595943 3.0892423194 -2.57110337382e-06 5.14220674763e-07 -0.0036054582611
Te -0 0 6.9274163382 -7.63617702023e-05 -4.67940814035e-05 0.0115460539208
Te 2.6253076183 3.3504373951 7.7170479219 0.00106160858305 -0.000565385631902 0.0130594053666
Te 4.2142178275 0.5983646012 7.7170479219 4.93651847773e-05 0.00130689184491 0.0130694326698
Te -2.6253076183 3.3504373951 7.7170479219 -0.00105698059698 -0.000621435685451 0.0130622335803
Te -0 -0 -0.3410777183 -4.96222951147e-05 5.39931708501e-06 -0.0160814802722
Te 2.4460427195 3.4539360811 0.0121053473 0.00259372908351 -0.00148995440513 -0.0171258624627
Te 4.2142178275 0.3913672294 0.0121053473 4.21660953306e-05 0.00304470061527 -0.0170800968226
Te -2.4460427195 3.4539360811 0.0121053473 -0.00255079165716 -0.0015097519011 -0.0171927111504
Te 0 2.8214614271 13.8097649368 1.54266202429e-06 -0.0072934489405 0.00299970630623
Te 1.77076071 5.8885086779 13.8097649368 0.00661467764982 0.00362808397079 0.00303235931908
Te 4.2142178275 2.4330797971 13.8172988327 2.98247991363e-05 0.000148352664669 0.00852346479454
Te -1.77076071 5.8885086779 13.8097649368 -0.00654088698299 0.00359517384761 0.00301616136782
Te 1.5426768726 0.8906647467 17.3891477643 0.00770174015627 0.00439530121754 -0.0187104334719
Te 4.2142178275 5.5179098982 17.3891477643 -4.29374263427e-05 -0.00883379697176 -0.0187328020713
Te 6.8857587825 0.8906647467 17.3891477643 -0.00772436586596 0.00434902135681 -0.0186998919481
Te 0 4.8661595943 16.0361812264 -3.34243438596e-06 -4.62798607287e-06 -0.0112755738459
Te 1.5741530204 0.908837527 10.8106590237 -0.00506224543271 -0.00296602485203 0.0241742852516
Te 4.2142178275 5.4815643375 10.8106590237 -0.000132926044426 0.00582663446574 0.024240876829
Te 6.8542826346 0.908837527 10.8106590237 0.00500825226186 -0.00308558115892 0.024179170348
Te 0 4.8661595943 10.3568832232 0.00010412968664 6.78771290688e-05 0.0212056892962
Te -0 0 23.8709199238 -1.02844134953e-06 0.000127012506667 0.0113578491538
Te 2.4811979983 3.4336391544 23.7831364744 0.00512189503098 -0.00303827285684 0.0109801540682
Te 4.2142178275 0.4319610827 23.7831364744 -1.90261649662e-05 0.00609325788561 0.0109058491807
Te -2.4811979983 3.4336391544 23.7831364744 -0.0051082681831 -0.00305421369776 0.0109991802332
Te -0 2.9407310631 27.7979124632 -8.92172870714e-05 -0.00251016822386 -0.00112202951233
Te 1.6674702228 5.8288738599 27.7979124632 0.00226694184469 0.00129275077635 -0.00120610459266
Te 4.2142178275 2.4330797971 27.2532370042 4.55085297165e-05 0.000117499424183 0.00538260491308
Te -1.6674702228 5.8288738599 27.7979124632 -0.00231245037441 0.00115134009079 -0.00116470982834
Te 0 2.9375454914 20.4407498444 -0.000110043224399 -0.00302464600896 -0.0163804995946
Te 1.6702290193 5.8304666457 20.4407498444 0.00261866878623 0.00161670980146 -0.0165311662523
Te 4.2142178275 2.4330797971 20.5026339227 6.14493706342e-05 -0.000106957900351 -0.0294651017743
Te -1.6702290193 5.8304666457 20.4407498444 -0.00257984512529 0.00153623426586 -0.0165018556738
Sb -0 2.4372319984 8.4765211655 -2.23685993522e-05 -0.00397544003659 0.0181638168947
Sb 2.1035130043 6.0806233923 8.4765211655 0.00355197931093 0.00198849134931 0.0183293959519
Sb 4.2142178275 2.4330797971 9.8430403613 2.87963577867e-05 -9.25597214574e-06 0.0204451569182
Sb -2.1035130043 6.0806233923 8.4765211655 -0.00358051855838 0.00194401126094 0.0182589477195
Sb 0 2.4121373304 1.4980976536 -0.000139610913198 0.000360982913684 -0.0120173371692
Sb 2.1252456137 6.0931707262 1.4980976536 -0.000162493733225 -0.000107729231363 -0.0116995487922
Sb 4.2142178275 2.4330797971 2.2877284452 0.000132154713414 0.000123927182618 -0.00937218601824
Sb -2.1252456137 6.0931707262 1.4980976536 0.000181262787854 -0.000336043210958 -0.011854843436
Sb -0 -0 19.7813552683 -1.85119442915e-05 3.08532404858e-06 -0.0169476849988
Sb 2.0024323279 3.7100547436 18.0072151029 0.0165921014022 -0.0095501063717 -0.0174917304727
Sb 4.2142178275 -0.1208700956 18.0072151029 -1.02844134953e-05 0.0191804311687 -0.017400456303
Sb 6.4260033272 3.7100547436 18.0072151029 -0.0166062424708 -0.00953545108247 -0.0174750183008
Sb -0 -0 14.1381720517 -6.86484600809e-05 -0.000131126272065 -0.000913513028717
Sb 2.2396342558 3.5731061174 11.9724495791 0.00263949472356 -0.00132308979617 0.0159449546831
Sb 4.2142178275 0.1530271568 11.9724495791 9.64163765181e-05 0.00289866194364 0.0158544518443
Sb -2.2396342558 3.5731061174 11.9724495791 -0.00260735593139 -0.00145010230283 0.0159470115658
Sb 2.1511040139 1.2419404934 28.9058393736 0.00224585879703 0.00131486226537 -0.0102180790282
Sb 4.2142178275 4.8153584047 28.9058393736 8.40750803238e-05 -0.00262689631703 -0.0102597309029
Sb 6.2773316412 1.2419404934 28.9058393736 -0.00224380191433 0.00139559491131 -0.0101735989399
Sb 0 4.8661595943 29.9113790183 -0.000154780423104 -0.000162493733225 -0.0134008478947
Sb 1.9861376824 1.1466971099 22.0363567848 0.00216075527536 0.00131563359638 -0.00103358355627
Sb 4.2142178275 5.0058451715 22.0363567848 6.17064809716e-06 -0.00253716480928 -0.0011582820699
Sb 6.4422979726 1.1466971099 22.0363567848 -0.00219855049495 0.00130689184491 -0.00110660289209
Sb 0 4.8661595943 23.3758790985 1.7483502942e-05 -0.000134982927125 0.00780741250493
Cr 4.2142178275 2.4330797972 18.0899940061 -1.7483502942e-05 -3.34243438596e-06 -0.0171682856683
61
Lattice="8.42843558953 0 0 -4.21421779477 7.29923593142 0 0 0 31.0334408416" Properties=species:S:1:pos:R:3:forces:R:3 energy=-133599.791881 ionic_step=1 pbc="T T T"
Te 1.7840462099 1.0300194725 3.3150475161 0.00152852095573 0.000891658650039 0.00442384046499
Te 4.2142178275 5.2392004468 3.3150475161 2.31399303643e-06 -0.00178460285177 0.00435493489457
Te 6.6443894452 1.0300194725 3.3150475161 -0.00153546293484 0.000903742835896 0.00435467778423
Te 0 4.8661595943 3.0892573713 -4.52514193792e-05 -3.29101231848e-05 -0.000854377651119
Te 0 0 6.9276059248 -4.31945366801e-05 -2.54539234008e-05 0.00429631373765
Te 2.6254759238 3.3503402238 7.7170338261 -0.00270017276318 0.00160925360167 0.00676688696955
Te 4.2142178275 0.5985589437 7.7170338261 7.71331012145e-07 -0.00314085988145 0.00675223168032
Te -2.6254759238 3.3503402238 7.7170338261 0.00270942873533 0.0016025687329 0.00676868674191
Te 0 0 -0.3412197388 -2.46825923886e-05 -2.15972683401e-05 -0.0103828867545
Te 2.4460627372 3.4539245238 0.0121797837 0.00173549477733 -0.000995531226342 -0.00881811324118
Te 4.2142178275 0.3913903439 0.0121797837 3.08532404858e-06 0.00201060283832 -0.00883611096479
Te -2.4460627372 3.4539245238 0.0121797837 -0.00169101468896 -0.00097213418564 -0.00876591984269
Te 0 2.8213151448 13.8096792679 1.7483502942e-05 -0.00152389296966 0.0245075002489
Te 1.7708873941 5.8885818191 13.8096792679 0.00144933097182 0.000809640452415 0.0244370520164
Te 4.2142178275 2.4330797971 13.817474279 -2.2882820027e-05 1.43981788934e-05 0.0232240054447
Te -1.7708873941 5.8885818191 13.8096792679 -0.00137991118073 0.000785729191038 0.0244951589527
Te 1.542660036 0.8906550261 17.389115341 0.00367616360388 0.00207153798828 0.00314754475023
Te 4.2142178275 5.5179293395 17.389115341 8.22753079621e-06 -0.00425389053198 0.00312826147492
Te 6.8857756191 0.8906550261 17.389115341 -0.00368284847265 0.00206279623681 0.00314703052955
Te 0 4.8661595943 16.0361949938 3.05961301484e-05 2.72536957625e-05 0.0136872688105
Te 1.5741526066 0.9088372881 10.8103699898 -0.000535817943103 -0.000304675749797 0.0197141922291
Te 4.2142178275 5.4815648154 10.8103699898 -6.99340117678e-05 0.000584411796868 0.0197363037181
Te 6.8542830484 0.9088372881 10.8103699898 0.00052039132286 -0.000359954472334 0.0197288475183
Te 0 4.8661595943 10.3567138421 2.69965854251e-05 2.33970407017e-05 0.0140850185024
Te -0 -0 23.8710037109 -2.18543786774e-05 1.87690546289e-05 -0.0168846929662
Te 2.4811763905 3.4336516297 23.7831195302 0.00229702375417 -0.00133517398202 -0.0164242083519
Te 4.2142178275 0.4319361321 23.7831195302 -3.59954472334e-06 0.00268011815687 -0.0164640604542
Te -2.4811763905 3.4336516297 23.7831195302 -0.00229625242316 -0.00134854371957 -0.0164524904891
Te 0 2.9409698769 27.7978870753 -4.19089849932e-05 -0.00416338769322 -0.0117170322952
Te 1.667263404 5.828754453 27.7978870753 0.00364813857711 0.00207436620199 -0.011704690999
Te 4.2142178275 2.4330797971 27.2534593104 1.46552892308e-05 5.73356052361e-05 -0.0160958784511
Te -1.667263404 5.828754453 27.7978870753 -0.00366845029376 0.00202911478262 -0.0116797512962
Te 0 2.9375888691 20.4409261271 -1.72263926046e-05 -0.00318996795589 -0.0153669706446
Te 1.6701914532 5.8304449569 20.4409261271 0.00275108060998 0.00162030934618 -0.0154037374229
Te 4.2142178275 2.4330797971 20.5030487414 3.21387921727e-05 -2.46825923886e-05 -0.0276020802696
Te -1.6701914532 5.8304449569 20.4409261271 -0.00275750836842 0.00159279854008 -0.0154207067051
Sb 0 2.4370341564 8.4764558835 -3.49670058839e-05 0.00118759264837 0.00811645913046
Sb 2.1036843404 6.0807223133 8.4764558835 -0.000970334413278 -0.00060780883757 0.00818947846628
Sb 4.2142178275 2.4330797971 9.842863719 -3.26530128475e-05 4.11376539811e-05 0.0141544382935
Sb -2.1036843404 6.0807223133 8.4764558835 0.000985761033521 -0.00064020474008 0.00816505298423
Sb 0 2.4121094008 1.4980499796 -7.76473218893e-05 -0.000226514207233 -0.00320050947973
Sb 2.1252698014 6.093184691 1.4980499796 0.000248111475573 0.000127012506667 -0.00318328308712
Sb 4.2142178275 2.4330797971 2.2876553193 7.01911221052e-05 7.04482324426e-05 -0.000586982900242
Sb -2.1252698014 6.093184691 1.4980499796 -0.000256339006369 4.4480088367e-05 -0.00320153792108
Sb -0 -0 19.7814498603 -8.48464113359e-06 -4.88509641025e-06 -0.0141824633203
Sb 2.0027842148 3.7098515815 18.0074856458 0.00929505291702 -0.00530727158423 -0.00586674367837
Sb 4.2142178275 -0.1204637714 18.0074856458 2.85392474494e-05 0.0106849914009 -0.00585517371319
Sb 6.4256514403 3.7098515815 18.0074856458 -0.00928014051745 -0.00533298261797 -0.00585208838914
Sb -0 -0 14.1382212741 -2.98247991363e-05 -3.54812265587e-05 0.0205387450811
Sb 2.2395565008 3.5731510093 11.9726176768 0.00268474614294 -0.00142361993808 0.0188603287986
Sb 4.2142178275 0.152937373 11.9726176768 6.04209292847e-05 0.00301076205074 0.018885782722
Sb -2.2395565008 3.5731510093 11.9726176768 -0.00267780416383 -0.00149355394985 0.0188248475721
Sb 2.1511692857 1.2419781781 28.9056000995 -0.000691626807557 -0.000387208168097 -0.00601458212237
Sb 4.2142178275 4.8152830353 28.9056000995 2.54539234008e-05 0.000764389033036 -0.00600506903989
Sb 6.2772663694 1.2419781781 28.9056000995 0.000674400414952 -0.000344784962429 -0.00597498713041
Sb 0 4.8661595943 29.9112876192 -4.49943090418e-05 -1.6197951255e-05 -0.00682473679546
Sb 1.9861327564 1.1466942659 22.036358697 -0.00065100337425 -0.000355840706936 -0.0111876421105
Sb 4.2142178275 5.0058508596 22.036358697 -2.31399303643e-06 0.00073353579255 -0.0111884134415
Sb 6.4423028986 1.1466942659 22.036358697 0.000653060256949 -0.00035738336896 -0.0112151529166
Sb 0 4.8661595943 23.3763492708 -1.54266202429e-06 -2.36541510391e-05 -0.0136970390033
Cr 4.2142178275 2.4330797972 18.0897880142 -1.54266202429e-06 -1.69692822672e-05 -0.00218723764011
61
Lattice="8.42843558953 0 0 -4.21421779477 7.29923593142 0 0 0 31.0334408416" Properties=species:S:1:pos:R:3:forces:R:3 energy=-133599.791973 ionic_step=2 pbc="T T T"
Te 1.7840138267 1.030000776 3.3148433505 0.000104901017652 3.16245714979e-05 -0.000795499383859
Te 4.2142178275 5.2392378397 3.3148433505 7.97042045883e-06 -9.87303695545e-05 -0.000788300294412
Te 6.6444218284 1.030000776 3.3148433505 -0.000109529003725 4.70511917408e-05 -0.000776216108555
Te 0 4.8661595943 3.089238385 -1.31126272065e-05 2.03117166531e-05 -0.000743048875033
Te 0 0 6.92774787 -0.000105415238326 -2.98247991363e-05 0.000285649584831
Te 2.6256187658 3.3502577539 7.7169818095 -0.000277422054035 0.00026122410278 4.75654124156e-05
Te 4.2142178275 0.5987238835 7.7169818095 0.000128812279028 -0.000362525575708 6.27349223211e-05
Te -2.6256187658 3.3502577539 7.7169818095 0.000277422054035 0.000116985203509 6.47918050202e-05
Te 0 -0 -0.3414029718 1.82548339541e-05 -1.72263926046e-05 0.00154934689306
Te 2.4460479728 3.4539330481 0.0122743068 0.00015220931973 -8.04755356005e-05 0.00150332414267
Te 4.2142178275 0.3913732954 0.0122743068 -4.62798607287e-06 0.000141667795897 0.00152029342494
Te -2.4460479728 3.4539330481 0.0122743068 -0.000129326499703 -5.52787225371e-05 0.00152106475595
Te -0 2.8211829484 13.8095872635 -1.10557445074e-05 -0.000258910109743 -0.00166273255185
Te 1.7710018795 5.8886479173 13.8095872635 0.000294905556977 0.000177920353468 -0.0016809873858
Te 4.2142178275 2.4330797971 13.817679662 5.6564274224e-06 -5.39931708501e-06 -0.00158765633333
Te -1.7710018795 5.8886479173 13.8095872635 -0.000222143331498 0.000136782699487 -0.00164987703498
Te 1.5426344658 0.8906402631 17.3891052156 -0.000463055717624 -0.000327301459487 -0.000867233167988
Te 4.2142178275 5.5179588654 17.3891052156 2.05688269905e-05 0.000534532391416 -0.000883431119243
Te 6.8858011893 0.8906402631 17.3891052156 0.000443258221646 -0.000293877115627 -0.000918398125127
Te 0 4.8661595943 16.036254737 2.69965854251e-05 5.96495982725e-05 -3.5738336896e-05
Te 1.5741837592 0.9088552741 10.8100284519 -8.07326459378e-05 -2.21114890148e-05 -0.0032092512312
Te 4.2142178275 5.4815288434 10.8100284519 -0.000165579057274 2.21114890148e-05 -0.00321465054828
Te 6.8542518958 0.9088552741 10.8100284519 -7.04482324426e-05 -0.000130097830715 -0.00324524667843
Te 0 4.8661595943 10.356500446 0.00011981341722 5.73356052361e-05 -0.00301410448512
Te 0 -0 23.8710768414 2.75108060998e-05 -1.33697375438e-05 0.00255156298818
Te 2.4811737772 3.4336531385 23.7830914841 1.77406132793e-05 -1.69692822672e-05 0.00276830700259
Te 4.2142178275 0.4319331145 23.7830914841 -2.31399303643e-05 -4.11376539811e-06 0.002751851941
Te -2.4811737772 3.4336531385 23.7830914841 -2.44254820513e-05 3.59954472334e-06 0.00276033658213
Te -0 2.9411816742 27.7978505133 -8.48464113359e-06 -0.000637633636706 0.00036921044448
Te 1.6670799823 5.8286485544 27.7978505133 0.000535303722429 0.00033681454197 0.000363811127395
Te 4.2142178275 2.4330797971 27.2536377634 -2.8282137112e-06 -1.59408409177e-05 0.000851806547745
Te -1.6670799823 5.8286485544 27.7978505133 -0.000563071638866 0.000338871424669 0.000373324209878
Te 0 2.9376231473 20.4411429772 -5.50216121997e-05 0.000152723540405 0.000664630222132
Te 1.6701617674 5.8304278178 20.4411429772 -0.000138325361511 -3.9080771282e-05 0.000656145580998
Te 4.2142178275 2.4330797971 20.5034187536 3.93378816194e-05 -2.05688269905e-06 0.0014691284678
Te -1.6701617674 5.8304278178 20.4411429772 8.48464113359e-05 -6.68486877192e-05 0.00066180200842
Sb -0 2.4368515391 8.4763765741 -8.07326459378e-05 0.000292848674278 -0.000435287801187
Sb 2.1038424916 6.080813622 8.4763765741 -0.000234741738029 -9.38452731443e-05 -0.000368439113468
Sb 4.2142178275 2.4330797971 9.8427493064 8.09897562752e-05 1.4141068556e-05 -0.00162056645652
Sb -2.1038424916 6.080813622 8.4763765741 0.000247340144561 -0.000196175187422 -0.000451485752442
Sb 0 2.4120869624 1.4979818669 -2.26257096896e-05 -0.000308275294521 0.000323444804426
Sb 2.1252892336 6.0931959102 1.4979818669 0.000257367447719 0.000170721264021 0.000330643893873
Sb 4.2142178275 2.4330797971 2.2875671104 2.18543786774e-05 -1.6197951255e-05 -3.54812265587e-05
Sb -2.1252892336 6.0931959102 1.4979818669 -0.000257624558056 0.000143981788934 0.000310075066882
Sb 0 0 19.7815876107 3.9080771282e-05 -3.80523299325e-05 -0.000238855503428
Sb 2.0031145396 3.7096608683 18.0078168017 -0.000622721237138 0.000413176312172 -0.00102767001851
Sb 4.2142178275 -0.120082345 18.0078168017 8.48464113359e-06 -0.000807326459378 -0.0010055585295
Sb 6.4253211155 3.7096608683 18.0078168017 0.000642004512442 0.000410605208798 -0.000982161488798
Sb -0 -0 14.1382786095 -0.000162493733225 -7.91899839135e-05 -0.00100375875714
Sb 2.2394705498 3.5732006332 11.9727805477 2.72536957625e-05 0.000164036395249 -0.00317865510105
Sb 4.2142178275 0.1528381253 11.9727805477 0.000190261649662 -3.72809989203e-05 -0.00317994065274
Sb -2.2394705498 3.5732006332 11.9727805477 -4.42229780296e-05 -6.78771290688e-05 -0.00322004986537
Sb 2.1511936718 1.2419922575 28.9053656763 -0.000169435712334 -0.000143467568259 0.000832523272442
Sb 4.2142178275 4.8152548766 28.9053656763 3.11103508232e-05 0.000222143331498 0.000849492554709
Sb 6.2772419833 1.2419922575 28.9053656763 0.000173292367395 -0.000108243452038 0.00086311940259
Sb 0 4.8661595943 29.9112568558 -3.44527852091e-05 2.44254820513e-05 0.00142284860707
Sb 1.9861103252 1.1466813152 22.0363594292 -0.000242969268826 -0.000196946518434 0.00300047763724
Sb 4.2142178275 5.0058767609 22.0363594292 3.9080771282e-05 0.000324473245776 0.0029657677417
Sb 6.4423253298 1.1466813152 22.0363594292 0.000251453909959 -0.000159408409177 0.0029953354305
Sb 0 4.8661595943 23.3768862385 -1.87690546289e-05 5.3221839838e-05 0.00286549471012
Cr 4.2142178275 2.4330797972 18.0896968067 0.000100530141916 2.98247991363e-05 -0.00102098514974
61
Lattice="8.42843558953 0 0 -4.21421779477 7.29923593142 0 0 0 31.0334408416" Properties=species:S:1:pos:R:3:forces:R:3 energy=-133599.792077 ionic_step=3 pbc="T T T"
Te 1.7840531872 1.0300235008 3.3145807306 -0.000347098955465 -0.000202602945857 0.000142182016572
Te 4.2142178275 5.23919239 3.3145807306 -5.14220674763e-07 0.000405205891713 0.000142953347584
Te 6.6443824679 1.0300235008 3.3145807306 0.000349412948502 -0.000204145607881 0.00014732422332
Te 0 4.8661595943 3.0892758068 -1.54266202429e-06 2.8282137112e-06 0.000148095554332
Te 0 -0 6.9278288296 -8.99886180836e-06 -1.79977236167e-06 -3.80523299325e-05
Te 2.6258110534 3.3501467366 7.7168907906 -1.59408409177e-05 1.23412961943e-05 -0.000232941965668
Te 4.2142178275 0.5989459183 7.7168907906 5.91353775978e-06 -1.64550615924e-05 -0.000235255958704
Te -2.6258110534 3.3501467366 7.7168907906 1.49123995681e-05 4.62798607287e-06 -0.000237827062078
Te -0 -0 -0.3418081662 5.14220674763e-06 -1.28555168691e-06 -0.000170207043347
Te 2.445900073 3.4540184381 0.012397467 1.15699651822e-05 -8.74175147098e-06 -0.000170721264021
Te 4.2142178275 0.3912025153 0.012397467 -5.39931708501e-06 1.18270755196e-05 -0.000175606360432
Te -2.445900073 3.4540184381 0.012397467 -1.18270755196e-05 -2.57110337382e-06 -0.000169949933009
Te -0 2.8209870465 13.8094732317 -7.71331012145e-06 -0.000208259373279 -0.000899371960161
Te 1.7711715355 5.8887458682 13.8094732317 0.000181262787854 0.000103358355627 -0.000907599490957
Te 4.2142178275 2.4330797971 13.8180179227 8.74175147098e-06 3.08532404858e-06 -0.00119710573085
Te -1.7711715355 5.8887458682 13.8094732317 -0.000181262787854 9.53879351686e-05 -0.000897057967125
Te 1.5425968504 0.8906185458 17.3890912713 -0.000235513069042 -0.000134211596113 0.000320616590715
Te 4.2142178275 5.5180022999 17.3890912713 1.90261649662e-05 0.000263280985479 0.000317274156329
Te 6.8858388047 0.8906185458 17.3890912713 0.000238084172415 -0.00011389987946 0.000317017045992
Te 0 4.8661595943 16.0363820862 -1.20841858569e-05 -1.23412961943e-05 6.55631360323e-05
Te 1.5742426636 0.9088892825 10.8095019157 -1.97974959784e-05 -5.14220674763e-07 -0.00156245952027
Te 4.2142178275 5.4814608264 10.8095019157 -5.39931708501e-06 1.69692822672e-05 -0.00156400218229
Te 6.8541929914 0.9088892825 10.8095019157 1.85119442915e-05 -6.9419791093e-06 -0.00156297374094
Te 0 4.8661595943 10.3561717813 7.71331012145e-07 -5.39931708501e-06 -0.00154574734834
Te 0 -0 23.8711965786 5.91353775978e-06 1.02844134953e-06 -1.28555168691e-05
Te 2.4811864819 3.4336458034 23.7831191544 0.000154009092092 -9.38452731443e-05 -0.00010412968664
Te 4.2142178275 0.4319477847 23.7831191544 -3.34243438596e-06 0.000179205905155 -0.000104643907314
Te -2.4811864819 3.4336458034 23.7831191544 -0.000153751981754 -8.87030663967e-05 -0.000109529003725
Te -0 2.9413180357 27.797767209 5.14220674763e-07 -0.000379237747638 0.000845893009986
Te 1.6669618899 5.8285803736 27.797767209 0.000325758797463 0.000190775870337 0.000844607458299
Te 4.2142178275 2.4330797971 27.2535889231 -1.28555168691e-06 -4.37087573549e-06 0.00136422745015
Te -1.6669618899 5.8285803736 27.797767209 -0.000328844121511 0.000192832753036 0.00084640723066
Te 0 2.9376446195 20.441472963 -1.25984065317e-05 0.000242969268826 0.000974191068339
Te 1.6701431719 5.8304170817 20.441472963 -0.000215972683401 -0.000122384520594 0.000983189930147
Te 4.2142178275 2.4330797971 20.5039122116 6.9419791093e-06 1.28555168691e-06 0.00173575188766
Te -1.6701431719 5.8304170817 20.441472963 0.000204916938893 -0.000130354941052 0.000974962399351
Sb -0 2.4366154064 8.4762541328 -4.88509641025e-06 -3.72809989203e-05 -0.000230370862294
Sb 2.1040469884 6.0809316883 8.4762541328 3.00819094737e-05 1.92832753036e-05 -0.000229856641619
Sb 4.2142178275 2.4330797971 9.8426028975 -3.85665506072e-06 1.79977236167e-06 -0.000583383355519
Sb -2.1040469884 6.0809316883 8.4762541328 -3.59954472334e-05 1.82548339541e-05 -0.000234741738029
Sb 0 2.4120709371 1.4978842514 3.08532404858e-06 -0.000312903280593 0.000459970393576
Sb 2.125303112 6.0932039228 1.4978842514 0.00026713764054 0.000155808864453 0.000457656400539
Sb 4.2142178275 2.4330797971 2.2873931014 -4.11376539811e-06 -2.8282137112e-06 0.000726079592766
Sb -2.125303112 6.0932039228 1.4978842514 -0.000267394750877 0.000159665519514 0.000455085297165
Sb 0 0 19.7818162456 9.51308248312e-06 5.6564274224e-06 0.00109271893387
Sb 2.0035706807 3.709397515 18.0083307559 -0.00085823430618 0.00048413876529 0.000544816804912
Sb 4.2142178275 -0.1195556383 18.0083307559 -7.45619978407e-06 -0.000981133047448 0.000548673459972
Sb 6.4248649744 3.709397515 18.0083307559 0.000853092099432 0.000490823634062 0.000553044335708
Sb -0 -0 14.1383726561 -5.39931708501e-06 6.68486877192e-06 -0.0009230261112
Sb 2.2393499546 3.5732702589 11.9730126006 0.000319845259703 -0.000185376553252 -0.00126858240464
Sb 4.2142178275 0.1526988738 11.9730126006 8.99886180836e-06 0.000378466416626 -0.00127115350801
Sb -2.2393499546 3.5732702589 11.9730126006 -0.000322416363077 -0.000196175187422 -0.00126755396329
Sb 2.1510905497 1.2419327199 28.9050689213 0.000150409547368 8.27895286369e-05 0.000263538095816
Sb 4.2142178275 4.8153739518 28.9050689213 1.54266202429e-06 -0.000164036395249 0.000257624558056
Sb 6.2773451054 1.2419327199 28.9050689213 -0.000148609775007 8.43321906612e-05 0.000259424330418
Sb 0 4.8661595943 29.9112312981 -7.71331012145e-07 6.17064809716e-06 6.11922602968e-05
Sb 1.9860606323 1.146652625 22.0363591291 0.000172521036383 9.61592661807e-05 -0.000173035257058
Sb 4.2142178275 5.0059341413 22.0363591291 1.4141068556e-05 -0.000203117166531 -0.000172263926046
Sb 6.4423750227 1.146652625 22.0363591291 -0.000171749705371 0.000111842996761 -0.00017277814672
Sb 0 4.8661595943 23.37769169 -8.22753079621e-06 -3.85665506072e-06 -0.000372809989203
Cr 4.2142178275 2.4330797972 18.0896453934 1.02844134953e-05 6.68486877192e-06 0.000585440238218
61
Lattice="8.42843558953 0 0 -4.21421779477 7.29923593142 0 0 0 31.0334408416" Properties=species:S:1:pos:R:3:forces:R:3 energy=-133599.792193 ionic_step=4 pbc="T T T"
Te 1.7841050037 1.0300534171 3.3142191353 -0.000480539220566 -0.000276650723023 9.7701928205e-05
Te 4.2142178275 5.2391325575 3.3142191353 -2.05688269905e-06 0.000554586997732 9.59021558433e-05
Te 6.6443306514 1.0300534171 3.3142191353 0.000482596103265 -0.000280250267746 9.74448178676e-05
Te 0 4.8661595943 3.0893310759 1.79977236167e-06 7.71331012145e-07 -5.19362881511e-05
Te 0 0 6.9278505074 -5.91353775978e-06 -1.79977236167e-06 -0.000851035216733
Te 2.6260113113 3.3500311176 7.7167173544 7.50762185154e-05 -4.19089849932e-05 -0.000858748526855
Te 4.2142178275 0.5991771563 7.7167173544 2.57110337382e-07 8.87030663967e-05 -0.000864919174952
Te -2.6260113113 3.3500311176 7.7167173544 -7.94470942509e-05 -4.47371987044e-05 -0.000867747388663
Te -0 -0 -0.3423726109 2.57110337382e-07 0 0.000419861180944
Te 2.4457076607 3.4541295275 0.0125306281 -4.01092126315e-05 2.44254820513e-05 0.00049493739946
Te 4.2142178275 0.3909803367 0.0125306281 7.71331012145e-07 -4.49943090418e-05 0.000494166068447
Te -2.4457076607 3.4541295275 0.0125306281 3.93378816194e-05 2.21114890148e-05 0.000493651847773
Te -0 2.820752896 13.8093604768 -7.71331012145e-06 -0.000245797482537 -0.000902971504884
Te 1.7713743156 5.8888629434 13.8093604768 0.000211858918002 0.000125469844642 -0.000898857739486
Te 4.2142178275 2.4330797971 13.8185133682 9.51308248312e-06 -0 -0.00126009776351
Te -1.7713743156 5.8888629434 13.8093604768 -0.000213915800702 0.000119042086208 -0.00090040040151
Te 1.5425249788 0.8905770507 17.3890977525 0.000102072803941 5.73356052361e-05 -0.00135985657441
Te 4.2142178275 5.5180852901 17.3890977525 -2.31399303643e-06 -0.000119299196545 -0.00136011368475
Te 6.8859106763 0.8905770507 17.3890977525 -0.000105158127989 5.60500535492e-05 -0.00136345611913
Te 0 4.8661595943 16.0366278298 2.31399303643e-06 4.88509641025e-06 -0.00188024789727
Te 1.5743632354 0.9089588947 10.8087261556 -0.000212373138677 -0.000120584748232 0.000154266202429
Te 4.2142178275 5.481321602 10.8087261556 -2.57110337382e-06 0.000243740599838 0.000155037533441
Te 6.8540724196 0.9089588947 10.8087261556 0.000210830476653 -0.000121098968907 0.000158637078164
Te 0 4.8661595943 10.3556745685 -2.8282137112e-06 -1.02844134953e-06 -2.77679164372e-05
Te 0 -0 23.8713694227 1.54266202429e-06 1.28555168691e-06 0.000502136488906
Te 2.4812243195 3.4336239578 23.7831688675 0.000263795206154 -0.000154523312766 0.000454571076491
Te 4.2142178275 0.4319914758 23.7831688675 -1.79977236167e-06 0.000307246853171 0.00045174286278
Te -2.4812243195 3.4336239578 23.7831688675 -0.000264823647503 -0.000154780423104 0.000453285524804
Te 0 2.9414944704 27.7976222889 -5.14220674763e-07 -0.000305961301484 1.97974959784e-05
Te 1.666809093 5.8284921562 27.7976222889 0.000263538095816 0.000153494871417 2.33970407017e-05
Te 4.2142178275 2.4330797971 27.2534630718 -1.28555168691e-06 -1.02844134953e-06 0.000502136488906
Te -1.666809093 5.8284921562 27.7976222889 -0.000264309426828 0.00015220931973 2.18543786774e-05
Te 0 2.9376680777 20.4419642889 7.71331012145e-07 0.000101301472928 0.00203579965139
Te 1.6701228565 5.8304053526 20.4419642889 -8.51035216733e-05 -4.93651847773e-05 0.00203708520307
Te 4.2142178275 2.4330797971 20.5044931025 -1.02844134953e-06 -2.57110337382e-07 0.00211241853193
Te -1.6701228565 5.8304053526 20.4419642889 8.3560859649e-05 -4.62798607287e-05 0.00203477121004
Sb -0 2.436324365 8.4760698144 4.62798607287e-06 -0.0003260159078 -0.000176634801781
Sb 2.1042990375 6.081077209 8.4760698144 0.000280507378083 0.000156323085128 -0.00017972012583
Sb 4.2142178275 2.4330797971 9.8424980869 -1.9540385641e-05 -7.71331012145e-07 0.000359697361997
Sb -2.1042990375 6.081077209 8.4760698144 -0.000285392474494 0.000166350388286 -0.000178434574143
Sb 0 2.4120515733 1.497732173 1.79977236167e-06 -0.000274336729986 0.00148069843298
Sb 2.1253198815 6.0932136048 1.497732173 0.00023962683444 0.000138325361511 0.00148172687433
Sb 4.2142178275 2.4330797971 2.287110145 -5.14220674763e-07 -2.57110337382e-07 0.00151052323212
Sb -2.1253198815 6.0932136048 1.497732173 -0.000237569951741 0.000138582471849 0.00148018421231
Sb 0 -0 19.7821318499 4.11376539811e-06 -2.31399303643e-06 0.00147966999163
Sb 2.0040916368 3.7090967407 18.0090647851 -0.000385665506072 0.000226514207233 -0.000778787211929
Sb 4.2142178275 -0.1189540899 18.0090647851 4.37087573549e-06 -0.000449428869743 -0.000776473218893
Sb 6.4243440183 3.7090967407 18.0090647851 0.000389779271471 0.000224971545209 -0.000773902115519
Sb -0 -0 14.138523181 -1.43981788934e-05 -1.79977236167e-06 -0.00138968137355
Sb 2.2391984247 3.5733577447 11.9733205122 0.00045174286278 -0.000260452771768 0.000205174049231
Sb 4.2142178275 0.1525239022 11.9733205122 3.85665506072e-06 0.000525276419271 0.00020723093193
Sb -2.2391984247 3.5733577447 11.9733205122 -0.000456370848852 -0.00026713764054 0.000205945380243
Sb 2.1509562104 1.241855159 28.9046459203 0.00016197951255 9.41023834817e-05 -0.000152466430067
Sb 4.2142178275 4.8155290735 28.9046459203 -2.57110337382e-07 -0.000189747428988 -0.000149123995681
Sb 6.2774794447 1.241855159 28.9046459203 -0.000168150160648 9.71877075303e-05 -0.000147581333657
Sb 0 4.8661595943 29.9111898782 2.57110337382e-07 7.71331012145e-07 0.000137039809824
Sb 1.9859767714 1.1466042078 22.0363785909 0.000204145607881 0.000115185431147 0.00126986795633
Sb 4.2142178275 5.0060309756 22.0363785909 -1.54266202429e-06 -0.000236541510391 0.00126755396329
Sb 6.4424588836 1.1466042078 22.0363785909 -0.000205688269905 0.000116728093171 0.00126986795633
Sb 0 4.8661595943 23.3788998673 3.85665506072e-06 5.14220674763e-07 0.000562814528528
Cr 4.2142178275 2.4330797972 18.089773254 3.85665506072e-06 1.54266202429e-06 -0.000658459574034
61
Lattice="8.42843558953 0 0 -4.21421779477 7.29923593142 0 0 0 31.0334408416" Properties=species:S:1:pos:R:3:forces:R:3 energy=-133599.792304 ionic_step=5 pbc="T T T"
Te 1.7841716329 1.0300918855 3.3137215912 -0.00028873490888 -0.000167378829635 0.000439658676923
Te 4.2142178275 5.2390556207 3.3137215912 2.05688269905e-06 0.000333472107584 0.00043888734591
Te 6.6442640222 1.0300918855 3.3137215912 0.000286935136518 -0.000164550615924 0.000436830463211
Te 0 4.8661595943 3.0894002986 -2.05688269905e-06 -0 0.00076593169506
Te 0 0 6.927743871 -2.31399303643e-06 -2.57110337382e-07 0.00254153568502
Te 2.6262124264 3.3499150037 7.7164207445 -6.11922602968e-05 3.75381092577e-05 0.00290226148836
Te 4.2142178275 0.5994093841 7.7164207445 2.57110337382e-06 -6.9419791093e-05 0.00289943327465
Te -2.6262124264 3.3499150037 7.7164207445 5.8621156923e-05 3.18816818353e-05 0.00289609084027
Te -0 -0 -0.3431510286 -2.8282137112e-06 0 -0.00073842088896
Te 2.4454667868 3.4542685961 0.0126430865 -1.18270755196e-05 7.97042045883e-06 -0.00104695329382
Te 4.2142178275 0.3907021993 0.0126430865 1.54266202429e-06 -1.25984065317e-05 -0.00104592485247
Te -2.4454667868 3.4542685961 0.0126430865 9.7701928205e-06 5.39931708501e-06 -0.00104515352146
Te -0 2.820485454 13.8092738056 -6.42775843454e-06 -0.000434259359838 -0.00313314657133
Te 1.7716059271 5.8889966645 13.8092738056 0.000378723526963 0.00022188622116 -0.00313417501268
Te 4.2142178275 2.4330797971 13.8192266759 -2.31399303643e-06 -1.02844134953e-06 -0.00312157660615
Te -1.7716059271 5.8889966645 13.8092738056 -0.000374352651228 0.000211858918002 -0.00313186101965
Te 1.5424110673 0.8905112839 17.3891494155 0.000186662104939 0.000106957900351 0.000720423165343
Te 4.2142178275 5.5182168239 17.3891494155 1.02844134953e-06 -0.000215201352388 0.000717594951632
Te 6.8860245878 0.8905112839 17.3891494155 -0.000186662104939 0.000107729231363 0.000717080730957
Te 0 4.8661595943 16.037068247 -3.85665506072e-06 1.28555168691e-06 -0.000715280958596
Te 1.5745793776 0.9090836845 10.8075947598 -0.000112614327773 -6.58202463697e-05 -0.00115005453911
Te 4.2142178275 5.4810720224 10.8075947598 4.37087573549e-06 0.000132411823752 -0.00114465522202
Te 6.8538562774 0.9090836845 10.8075947598 0.000120070527557 -6.45346946828e-05 -0.00114131278764
Te 0 4.8661595943 10.3549502404 -1.18270755196e-05 -1.28555168691e-06 -0.000353269603562
Te 0 -0 23.871633882 1.28555168691e-06 -7.71331012145e-07 -0.0010942615959
Te 2.4813126749 3.4335729458 23.7832764215 0.000127269617004 -7.22480048042e-05 -0.0013804254014
Te 4.2142178275 0.4320934999 23.7832764215 5.14220674763e-07 0.000148866885344 -0.00138093962208
Te -2.4813126749 3.4335729458 23.7832764215 -0.000130354941052 -7.6104659865e-05 -0.00138196806343
Te 0 2.9417243973 27.7973764568 0 -6.29920326585e-05 0.000602666630823
Te 1.6666099706 5.8283771928 27.7973764568 5.57929432118e-05 3.16245714979e-05 0.000603695072172
Te 4.2142178275 2.4330797971 27.2531988256 -7.71331012145e-07 5.14220674763e-07 0.000792671170148
Te -1.6666099706 5.8283771928 27.7973764568 -5.42502811875e-05 3.08532404858e-05 0.00060189529981
Te 0 2.9376980928 20.4426851131 -2.57110337382e-06 -2.4939702726e-05 0.00125829799115
Te 1.6700968626 5.830390345 20.4426851131 2.46825923886e-05 1.46552892308e-05 0.00126215464621
Te 4.2142178275 2.4330797971 20.505199935 5.14220674763e-06 1.02844134953e-06 0.00109991802332
Te -1.6700968626 5.830390345 20.4426851131 -2.03117166531e-05 9.7701928205e-06 0.00125572688777
Sb -0 2.4359754904 8.4757943064 3.08532404858e-06 7.86757632388e-05 0.00333549240685
Sb 2.1046011716 6.0812516463 8.4757943064 -6.96769014304e-05 -4.2423205668e-05 0.00333137864145
Sb 4.2142178275 2.4330797971 9.8424434593 -1.72263926046e-05 -5.14220674763e-07 0.00147709888826
Sb -2.1046011716 6.0812516463 8.4757943064 6.68486877192e-05 -3.72809989203e-05 0.00333754928955
Sb 0 2.4120331147 1.4974899075 -3.34243438596e-06 -0.0005440454739 -0.000302361756761
Sb 2.1253358671 6.0932228341 1.4974899075 0.000470769027746 0.000273822509311 -0.000305447080809
Sb 4.2142178275 2.4330797971 2.2866544901 2.8282137112e-06 -1.79977236167e-06 0.000304161529122
Sb -2.1253358671 6.0932228341 1.4974899075 -0.000471540358758 0.000270222964588 -0.000299019322375
Sb 0 -0 19.7825531578 -1.54266202429e-06 -5.14220674763e-07 0.00160539694661
Sb 2.0046419046 3.7087790433 18.0100969024 -0.000196689408097 0.000112100107098 0.00113642769123
Sb 4.2142178275 -0.118318695 18.0100969024 -1.79977236167e-06 -0.000225228655546 0.00113668480156
Sb 6.4237937505 3.7087790433 18.0100969024 0.000190261649662 0.000111585886424 0.00114131278764
Sb -0 -0 14.1387555321 -1.20841858569e-05 -1.02844134953e-06 -0.00299867786488
Sb 2.2390090314 3.5734670911 11.9737151673 0.000292848674278 -0.000169435712334 -0.00273025467266
Sb 4.2142178275 0.1523052095 11.9737151673 -1.02844134953e-06 0.00033681454197 -0.00273282577603
Sb -2.2390090314 3.5734670911 11.9737151673 -0.000292077343266 -0.000167121719298 -0.00274028197581
Sb 2.1507829724 1.2417551399 28.9040503665 7.17337841295e-05 4.08805436437e-05 4.88509641025e-06
Sb 4.2142178275 4.8157291116 28.9040503665 1.02844134953e-06 -8.53606320107e-05 5.91353775978e-06
Sb 6.2776526827 1.2417551399 28.9040503665 -7.53333288528e-05 4.39658676923e-05 7.19908944669e-06
Sb 0 4.8661595943 29.9111217276 1.79977236167e-06 0 -0.000649717822563
Sb 1.9858412575 1.1465259688 22.0364569792 0.000300819094737 0.00017483502942 -0.00157737191984
Sb 4.2142178275 5.0061874537 22.0364569792 -3.34243438596e-06 -0.000348384507152 -0.00157788614051
Sb 6.4425943975 1.1465259688 22.0364569792 -0.000302875977436 0.000173292367395 -0.00157762903017
Sb 0 4.8661595943 23.3807121333 2.8282137112e-06 -7.71331012145e-07 -0.00174526497015
Cr 4.2142178275 2.4330797972 18.090186311 6.42775843454e-06 -5.14220674763e-07 0.000906571049608
61
Lattice="8.42843558953 0 0 -4.21421779477 7.29923593142 0 0 0 31.0334408416" Properties=species:S:1:pos:R:3:forces:R:3 energy=-133599.792425 ionic_step=6 pbc="T T T"
Te 1.7842507215 1.0301375473 3.3130456386 -0.000552787225371 -0.000317788377004 0.000208516483617
Te 4.2142178275 5.238964297 3.3130456386 -0 0.000636605195357 0.000208773593954
Te 6.6441849336 1.0301375473 3.3130456386 0.000553044335708 -0.000317531266666 0.000209544924966
Te 0 4.8661595943 3.0894663778 -5.14220674763e-07 -1.02844134953e-06 0.000512420902402
Te 0 -0 6.9273703816 -5.91353775978e-06 -2.57110337382e-07 0.000776216108555
Te 2.626383833 3.349816042 7.7159351421 0.000389007940458 -0.000218286676437 0.00113179970515
Te 4.2142178275 0.5996073075 7.7159351421 8.74175147098e-06 0.000449171759406 0.00113025704313
Te -2.626383833 3.349816042 7.7159351421 -0.000389265050796 -0.000229342420944 0.00112845727077
Te -0 0 -0.3441936341 2.05688269905e-06 -5.14220674763e-07 -0.000900143291173
Te 2.4451908782 3.4544278921 0.0126617088 -0.000439401566585 0.000254025013333 -0.0010922047132
Te 4.2142178275 0.3903836073 0.0126617088 7.71331012145e-07 -0.000505993143967 -0.00108783383746
Te -2.4451908782 3.4544278921 0.0126617088 0.000438630235573 0.000252996571984 -0.00108680539611
Te -0 2.8202154475 13.8092784658 -6.42775843454e-06 -7.30193358164e-05 0.000739192219972
Te 1.7718397595 5.8891316677 13.8092784658 6.35062533333e-05 4.06234333063e-05 0.000740991992334
Te 4.2142178275 2.4330797971 13.8202365591 4.62798607287e-06 0 0.000329358342186
Te -1.7718397595 5.8891316677 13.8092784658 -6.29920326585e-05 3.16245714979e-05 0.00073944933031
Te 1.5422506039 0.8904186402 17.3893154065 -0.000236027289716 -0.000133697375438 0.00179385882391
Te 4.2142178275 5.5184021111 17.3893154065 -5.14220674763e-06 0.000275365171336 0.00179334460324
Te 6.8861850512 0.8904186402 17.3893154065 0.000239883944777 -0.000141153575223 0.00179540148594
Te 0 4.8661595943 16.0378422316 5.39931708501e-06 5.14220674763e-07 0.00101044362591
Te 1.5749433948 0.9092938501 10.8059560556 -0.000217258235087 -0.000125469844642 0.000436573352874
Te 4.2142178275 5.4806516914 10.8059560556 -2.57110337382e-07 0.000250939689284 0.000437344683886
Te 6.8534922602 0.9092938501 10.8059560556 0.000216486904075 -0.00012469851363 0.00043888734591
Te 0 4.8661595943 10.3539186991 -1.79977236167e-06 0 0.000525790639945
Te 0 -0 23.8720394037 5.14220674763e-07 -5.14220674763e-07 -0.00192189977193
Te 2.4814903757 3.4334703501 23.783489096 -0.000170721264021 9.82161488798e-05 -0.00190467337932
Te 4.2142178275 0.4322986912 23.783489096 -1.02844134953e-06 -0.000197974959784 -0.0019051876
Te -2.4814903757 3.4334703501 23.783489096 0.000172263926046 0.000100015921241 -0.00190493048966
Te -0 2.9420153338 27.7969627355 2.57110337382e-06 -0.00011492832081 0.0010667507898
Te 1.6663580122 5.8282317245 27.7969627355 9.7701928205e-05 5.57929432118e-05 0.00106597945878
Te 4.2142178275 2.4330797971 27.2526941147 -5.14220674763e-07 -2.57110337382e-07 0.00072762225479
Te -1.6663580122 5.8282317245 27.7969627355 -0.000101301472928 5.96495982725e-05 0.00106726501047
Te 0 2.9377416037 20.4437322357 3.85665506072e-06 -0.000436316242537 -0.00174475074947
Te 1.6700591811 5.8303685895 20.4437322357 0.000377952195951 0.00021700112475 -0.00174397941846
Te 4.2142178275 2.4330797971 20.506089109 -5.14220674763e-06 -1.28555168691e-06 -0.00219983604664
Te -1.6700591811 5.8303685895 20.4437322357 -0.000375895313252 0.000220086448799 -0.00174552208048
Sb -0 2.4355854005 8.475372926 7.71331012145e-07 -0.000142696237247 0.00152646407303
Sb 2.1049389992 6.0814466912 8.475372926 0.000118527865533 6.81342394061e-05 0.00151849365258
Sb 4.2142178275 2.4330797971 9.8424352808 -6.42775843454e-06 -0 0.000905285497921
Sb -2.1049389992 6.0814466912 8.475372926 -0.000127526727341 7.40477771659e-05 0.00153417738316
Sb 0 2.4120222521 1.4971042301 -1.28555168691e-06 -0.00035944025166 -0.000425517608367
Sb 2.1253452744 6.0932282653 1.4971042301 0.000313160390931 0.000181005677517 -0.00042423205668
Sb 4.2142178275 2.4330797971 2.2859297158 3.34243438596e-06 7.71331012145e-07 0.000119556306882
Sb -2.1253452744 6.0932282653 1.4971042301 -0.000311360618569 0.00017869168448 -0.000428860042753
Sb 0 -0 19.7830998215 7.71331012145e-07 1.28555168691e-06 -0.000457142179865
Sb 2.0051114767 3.7085079356 18.0115416103 -0.000263795206154 0.000150923768043 0.00121278946143
Sb 4.2142178275 -0.1177764795 18.0115416103 -1.54266202429e-06 -0.000307246853171 0.00121433212345
Sb 6.4233241784 3.7085079356 18.0115416103 0.000271251405938 0.000156837305803 0.00121793166818
Sb -0 -0 14.1391148845 -8.48464113359e-06 -5.14220674763e-07 0.000100273031579
Sb 2.2387780906 3.5736004248 11.9741952454 0.000382837292361 -0.000218543786774 8.79317353845e-05
Sb 4.2142178275 0.1520385419 11.9741952454 4.37087573549e-06 0.000442229780296 8.81888457219e-05
Sb -2.2387780906 3.5736004248 11.9741952454 -0.000383608623373 -0.000223685993522 8.79317353845e-05
Sb 2.1505769968 1.2416362198 28.9032194947 -0.000417032967233 -0.000240655275789 0.000375381092577
Sb 4.2142178275 4.8159669519 28.9032194947 1.54266202429e-06 0.000481310551578 0.000376923754601
Sb 6.2778586583 1.2416362198 28.9032194947 0.000416775856896 -0.00023962683444 0.000376666644264
Sb 0 4.8661595943 29.9110023503 5.14220674763e-06 -5.14220674763e-07 -0.000331672335222
Sb 1.9856245878 1.1464008745 22.0366550999 -0.000208002262942 -0.000119556306882 -0.00394561523746
Sb 4.2142178275 5.0064376424 22.0366550999 -1.54266202429e-06 0.000240398165452 -0.0039417585824
Sb 6.4428110672 1.1464008745 22.0366550999 0.00020723093193 -0.000120841858569 -0.00394124436172
Sb 0 4.8661595943 23.3834305322 -1.28555168691e-06 -5.14220674763e-07 -0.00293388605986
Cr 4.2142178275 2.4330797972 18.0910617288 -8.74175147098e-06 -1.54266202429e-06 0.000787014742725
61
Lattice="8.42843558953 0 0 -4.21421779477 7.29923593142 0 0 0 31.0334408416" Properties=species:S:1:pos:R:3:forces:R:3 energy=-133599.792557 ionic_step=7 pbc="T T T"
Te 1.78431627 1.0301753918 3.3122951125 -0.000524247977921 -0.000301590425749 0.000997330998703
Te 4.2142178275 5.2388886081 3.3122951125 -2.05688269905e-06 0.000605751954871 0.000995531226342
Te 6.6441193851 1.0301753918 3.3122951125 0.000524247977921 -0.000304161529122 0.000994502784992
Te 0 4.8661595943 3.0894682238 2.31399303643e-06 0 0.00170798397123
Te 0 -0 6.9266274847 -2.57110337382e-07 -0 0.000645089836491
Te 2.6264546044 3.3497751821 7.7152821304 0.000599838417111 -0.000343242300404 0.00112717171908
Te 4.2142178275 0.5996890273 7.7152821304 4.11376539811e-06 0.000691369697219 0.00112511483638
Te -2.6264546044 3.3497751821 7.7152821304 -0.000598295755087 -0.000347870286477 0.0011238292847
Te -0 0 -0.3452938122 5.14220674763e-07 2.57110337382e-07 -0.00138222517376
Te 2.4449769976 3.4545513762 0.0124682015 -0.000466655262348 0.000269451633576 -0.00130894872761
Te 4.2142178275 0.3901366392 0.0124682015 5.14220674763e-07 -0.000539931708501 -0.00130946294828
Te -2.4449769976 3.4545513762 0.0124682015 0.000468969255384 0.000269965854251 -0.00131100561031
Te -0 2.8200523808 13.8094782143 5.14220674763e-07 0.000255053454683 0.00284209766942
Te 1.7719809793 5.889213201 13.8094782143 -0.000219315117787 -0.000127012506667 0.00284441166245
Te 4.2142178275 2.4330797971 13.8213935338 -3.34243438596e-06 -5.14220674763e-07 0.00250708289981
Te -1.7719809793 5.889213201 13.8094782143 0.000221629110823 -0.000127526727341 0.00284106922807
Te 1.5420929333 0.8903276091 17.3896665184 0.000151695099055 8.76746250471e-05 0.00140767909716
Te 4.2142178275 5.5185841735 17.3896665184 -1.79977236167e-06 -0.000172263926046 0.00140639354548
Te 6.8863427218 0.8903276091 17.3896665184 -0.000148609775007 8.40750803238e-05 0.00140510799379
Te 0 4.8661595943 16.0389472901 7.71331012145e-07 2.57110337382e-07 0.00160385428459
Te 1.5754236344 0.9095711167 10.8040184388 -0.000183833891228 -0.000107729231363 0.00176531957646
Te 4.2142178275 5.4800971581 10.8040184388 1.28555168691e-06 0.00021211602834 0.00176686223849
Te 6.8530120206 0.9095711167 10.8040184388 0.000183833891228 -0.000104386796977 0.00176789067984
Te 0 4.8661595943 10.3527415681 5.14220674763e-07 2.57110337382e-07 0.00185273709117
Te 0 -0 23.8725563676 7.71331012145e-07 -2.57110337382e-07 -0.00159177009873
Te 2.4817637358 3.4333125256 23.7838251956 -0.000157351526478 9.0245728421e-05 -0.00141487818661
Te 4.2142178275 0.4326143404 23.7838251956 -1.02844134953e-06 -0.000180748567179 -0.00141487818661
Te -2.4817637358 3.4333125256 23.7838251956 0.000156065974791 9.05028387583e-05 -0.0014161637383
Te -0 2.9423072569 27.7963979002 -1.28555168691e-06 0.000152723540405 -0.000258395889069
Te 1.6661051996 5.828085763 27.7963979002 -0.000132154713414 -7.55904391902e-05 -0.000257624558056
Te 4.2142178275 2.4330797971 27.2519422936 2.57110337382e-07 -5.14220674763e-07 -0.00103435488729
Te -1.6661051996 5.828085763 27.7963979002 0.000131897603077 -7.68759908771e-05 -0.000259681440755
Te 0 2.9378034005 20.4449690509 1.02844134953e-06 -0.000642261622779 -0.00395718520264
Te 1.6700056636 5.8303376912 20.4449690509 0.000555358328744 0.000320616590715 -0.00396001341635
Te 4.2142178275 2.4330797971 20.5070554558 2.57110337382e-07 2.57110337382e-07 -0.00504039105403
Te -1.6700056636 5.8303376912 20.4449690509 -0.000556386770094 0.000322159252739 -0.00395744231298
Sb -0 2.4352714024 8.4748141927 -1.28555168691e-06 -0.000234741738029 0.00150178148065
Sb 2.1052109295 6.0816036903 8.4748141927 0.000201574504507 0.000117499424183 0.001502809922
Sb 4.2142178275 2.4330797971 9.84242148 5.14220674763e-06 2.57110337382e-07 0.00137168364993
Sb -2.1052109295 6.0816036903 8.4748141927 -0.000204916938893 0.000116985203509 0.00150229570132
Sb 0 2.4120357456 1.4965924052 -1.28555168691e-06 -0.000388750830121 0.00010901478305
Sb 2.1253335887 6.0932215186 1.4965924052 0.000335271879946 0.000194632525398 0.000112614327773
Sb 4.2142178275 2.4330797971 2.2849851232 1.28555168691e-06 -0 0.000593153548339
Sb -2.1253335887 6.0932215186 1.4965924052 -0.000337328762645 0.000194118304723 0.000105929459001
Sb 0 -0 19.7836563876 1.28555168691e-06 -5.14220674763e-07 -0.00234253228388
Sb 2.0052354422 3.7084363641 18.0131926602 0.000220600669473 -0.000125984065317 0.000231142193306
Sb 4.2142178275 -0.1176333365 18.0131926602 -0 0.000252225240971 0.000232427744993
Sb 6.4232002129 3.7084363641 18.0131926602 -0.00021700112475 -0.000125212734305 0.000233456186343
Sb -0 -0 14.1395834988 -1.02844134953e-06 -5.14220674763e-07 0.00196458008793
Sb 2.2385578928 3.5737275562 11.9746409802 0.000388750830121 -0.000225999986558 0.00201625926575
Sb 4.2142178275 0.1517842793 11.9746409802 -3.34243438596e-06 0.000450457311093 0.00201497371406
Sb -2.2385578928 3.5737275562 11.9746409802 -0.000391321933495 -0.000224457324534 0.00201265972102
Sb 2.1504063366 1.241537689 28.9022802916 -0.000559472094142 -0.000324473245776 -0.000869290050687
Sb 4.2142178275 4.8161640134 28.9022802916 2.8282137112e-06 0.00064714671919 -0.00086903294035
Sb 6.2780293185 1.241537689 28.9022802916 0.000560500535492 -0.000321902142402 -0.000867490278326
Sb 0 4.8661595943 29.9108255901 -1.02844134953e-06 0 -0.00132488956853
Sb 1.9853403836 1.146236789 22.0370163081 -0.000337842983319 -0.000195918077085 -0.00459661861171
Sb 4.2142178275 5.0067658133 22.0370163081 2.57110337382e-06 0.000389265050796 -0.00459610439103
Sb 6.4430952714 1.146236789 22.0370163081 0.000337328762645 -0.000192832753036 -0.00459559017036
Sb 0 4.8661595943 23.3868161573 -2.05688269905e-06 -7.71331012145e-07 -0.00272048447984
Cr 4.2142178275 2.4330797972 18.0923933847 -3.59954472334e-06 -7.71331012145e-07 -0.000638662078056
61
Lattice="8.42843558953 0 0 -4.21421779477 7.29923593142 0 0 0 31.0334408416" Properties=species:S:1:pos:R:3:forces:R:3 energy=-133599.792717 ionic_step=8 pbc="T T T"
Te 1.7843502456 1.0301950077 3.3115556281 2.98247991363e-05 1.72263926046e-05 -4.06234333063e-05
Te 4.2142178275 5.2388493764 3.3115556281 -1.02844134953e-06 -3.41956748718e-05 -4.01092126315e-05
Te 6.6440854095 1.0301950077 3.3115556281 -3.0339019811e-05 1.51695099055e-05 -3.95949919568e-05
Te 0 4.8661595943 3.0893628485 0 1.54266202429e-06 0.000419604070607
Te 0 0 6.9255535906 -3.34243438596e-06 7.71331012145e-07 0.00316554247384
Te 2.6264274358 3.3497908679 7.7145260634 0.000105158127989 -5.75927155735e-05 0.00425851851805
Te 4.2142178275 0.5996576557 7.7145260634 5.6564274224e-06 0.00011981341722 0.00426006118008
Te -2.6264274358 3.3497908679 7.7145260634 -0.000102329914278 -6.24778119837e-05 0.0042616038421
Te -0 0 -0.3462881444 7.71331012145e-07 7.71331012145e-07 -0.00178948794818
Te 2.4448788137 3.4546080627 0.0120220652 -8.3560859649e-05 4.96222951147e-05 -0.00198669157695
Te 4.2142178275 0.3900232661 0.0120220652 -7.71331012145e-07 -9.82161488798e-05 -0.00198540602526
Te -2.4448788137 3.4546080627 0.0120220652 8.43321906612e-05 4.7822522753e-05 -0.00198592024594
Te -0 2.8200292497 13.8098863852 -1.79977236167e-06 -0.00019051876 -0.00131280538267
Te 1.7720010115 5.8892247666 13.8098863852 0.000165836167611 9.61592661807e-05 -0.00131254827233
Te 4.2142178275 2.4330797971 13.8225219112 3.08532404858e-06 7.71331012145e-07 -0.0016341933044
Te -1.7720010115 5.8892247666 13.8098863852 -0.000165321946936 9.41023834817e-05 -0.00131486226537
Te 1.5419962112 0.8902717665 17.390208681 -0.000646889608852 -0.00037409554089 -0.00170669841954
Te 4.2142178275 5.5186958587 17.390208681 1.28555168691e-06 0.000746391309419 -0.00170721264021
Te 6.8864394439 0.8902717665 17.390208681 0.000646375388177 -0.000372038658191 -0.00170721264021
Te 0 4.8661595943 16.0402681418 -2.57110337382e-07 -5.14220674763e-07 -0.00182831160912
Te 1.5759469672 0.9098732631 10.8020227824 -6.06780396221e-05 -3.67667782456e-05 0.00298762212037
Te 4.2142178275 5.4794928652 10.8020227824 1.79977236167e-06 7.01911221052e-05 0.00298685078936
Te 6.8524886878 0.9098732631 10.8020227824 5.96495982725e-05 -3.3681454197e-05 0.002985051017
Te 0 4.8661595943 10.3515971016 -1.79977236167e-06 2.57110337382e-07 0.00356843437252
Te 0 -0 23.8731514052 5.14220674763e-07 5.14220674763e-07 0.000121613189582
Te 2.4821042327 3.4331159395 23.7842735265 -8.48464113359e-06 3.34243438596e-06 0.000389779271471
Te 4.2142178275 0.4330075125 23.7842735265 -1.02844134953e-06 -8.48464113359e-06 0.000389265050796
Te -2.4821042327 3.4331159395 23.7842735265 9.7701928205e-06 4.88509641025e-06 0.000388750830121
Te -0 2.9425612945 27.7957332247 0 7.94470942509e-05 4.47371987044e-05
Te 1.6658851967 5.8279587442 27.7957332247 -6.89055704183e-05 -3.98521022942e-05 4.49943090418e-05
Te 4.2142178275 2.4330797971 27.2510128094 2.57110337382e-07 -5.14220674763e-07 -0.000219058007449
Te -1.6658851967 5.8279587442 27.7957332247 6.91626807557e-05 -3.88236609446e-05 4.47371987044e-05
Te 0 2.9378863257 20.4462513308 1.28555168691e-06 -0.00038592261641 -0.00222066198397
Te 1.6699338482 5.8302962285 20.4462513308 0.000334243438596 0.000192832753036 -0.00222246175633
Te 4.2142178275 2.4330797971 20.5080589339 1.02844134953e-06 5.14220674763e-07 -0.00129609321074
Te -1.6699338482 5.8302962285 20.4462513308 -0.000333986328259 0.000194118304723 -0.0022209190943
Sb -0 2.4350823215 8.4741496241 -4.62798607287e-06 8.40750803238e-05 0.00485527161111
Sb 2.1053746782 6.0816982307 8.4741496241 -7.12195634547e-05 -3.88236609446e-05 0.00485372894909
Sb 4.2142178275 2.4330797971 9.8423125232 1.02844134953e-06 -0 0.00400269373236
Sb -2.1053746782 6.0816982307 8.4741496241 7.43048875033e-05 -4.47371987044e-05 0.00485887115584
Sb 0 2.4120762622 1.4960032334 -1.02844134953e-06 -0.000176120581106 -0.00177457554861
Sb 2.1252985003 6.0932012603 1.4960032334 0.000152980650742 8.97315077462e-05 -0.00177354710726
Sb 4.2142178275 2.4330797971 2.2839348551 1.28555168691e-06 2.57110337382e-07 -0.00125495555676
Sb -2.1252985003 6.0932012603 1.4960032334 -0.000151437988718 8.79317353845e-05 -0.00177560398996
Sb -0 -0 19.7841575479 1.54266202429e-06 5.14220674763e-07 -0.00195429567444
Sb 2.0049636338 3.7085932928 18.0148552021 -0.00062554945085 0.000360982913684 -0.00180517167876
Sb 4.2142178275 -0.117947194 18.0148552021 0 -0.000722480048042 -0.00180491456842
Sb 6.4234720213 3.7085932928 18.0148552021 0.000625035230175 0.000360725803346 -0.00180851411314
Sb -0 -0 14.1401087109 -1.28555168691e-06 0 -0.00145087363384
Sb 2.2383795243 3.5738305373 11.9749881291 1.49123995681e-05 -7.97042045883e-06 0.000560243425155
Sb 4.2142178275 0.151578317 11.9749881291 2.57110337382e-07 1.67121719298e-05 0.000559214983805
Sb -2.2383795243 3.5738305373 11.9749881291 -1.49123995681e-05 -7.97042045883e-06 0.00055870076313
Sb 2.1503137561 1.2414842377 28.9013372724 -0.000156065974791 -8.97315077462e-05 -0.000648946491551
Sb 4.2142178275 4.8162709162 28.9013372724 -1.02844134953e-06 0.000179205905155 -0.000648175160539
Sb 6.278121899 1.2414842377 28.9013372724 0.000155037533441 -8.97315077462e-05 -0.000647403829527
Sb 0 4.8661595943 29.9105827431 -1.02844134953e-06 2.57110337382e-07 -0.00141127864189
Sb 1.9850191738 1.1460513383 22.0375415886 -0.00034272807973 -0.000197974959784 -0.00118810686904
Sb 4.2142178275 5.0071367146 22.0375415886 1.28555168691e-06 0.000395949919568 -0.00118836397938
Sb 6.4434164812 1.1460513383 22.0375415886 0.000343499410742 -0.000197203628772 -0.00118862108972
Sb 0 4.8661595943 23.3905403449 -1.02844134953e-06 -1.54266202429e-06 -0.000338871424669
Cr 4.2142178275 2.4330797972 18.0939932962 1.02844134953e-06 -0 -0.00172392481214
61
Lattice="8.42843558953 0 0 -4.21421779477 7.29923593142 0 0 0 31.0334408416" Properties=species:S:1:pos:R:3:forces:R:3 energy=-133599.792951 ionic_step=9 pbc="T T T"
Te 1.7843436645 1.030191208 3.310545152 -0.000250939689284 -0.000143210457922 0.000438373125236
Te 4.2142178275 5.2388569757 3.310545152 -5.6564274224e-06 0.000291563122591 0.000448143318056
Te 6.6440919906 1.030191208 3.310545152 0.000251453909959 -0.000150409547368 0.000451999973117
Te 0 4.8661595943 3.0890387337 4.11376539811e-06 7.71331012145e-07 0.000698825897003
Te 0 -0 6.9236878573 -8.74175147098e-06 -1.02844134953e-06 1.28555168691e-05
Te 2.6263048165 3.3498616622 7.713360721 0.000894743974088 -0.000513449343751 7.07053427799e-05
Te 4.2142178275 0.5995160671 7.713360721 1.13128548448e-05 0.00102869845986 6.68486877192e-05
Te -2.6263048165 3.3498616622 7.713360721 -0.000891658650039 -0.00052039132286 6.24778119837e-05
Te -0 0 -0.3474832651 4.88509641025e-06 1.28555168691e-06 -0.00016892149166
Te 2.4449212296 3.4545835739 0.0110498323 -0.000263023875141 0.00014732422332 0.00010901478305
Te 4.2142178275 0.3900722438 0.0110498323 -5.6564274224e-06 -0.000303133087773 0.000107729231363
Te -2.4449212296 3.4545835739 0.0110498323 0.000262509654467 0.000154780423104 0.00010412968664
Te -0 2.8201536728 13.8107086485 -1.54266202429e-06 0.00103152667358 0.00313520345403
Te 1.7718932579 5.8891625551 13.8107086485 -0.000890373098353 -0.000513192233414 0.00313648900572
Te 4.2142178275 2.4330797971 13.8239672015 1.02844134953e-06 1.54266202429e-06 0.00229522398181
Te -1.7718932579 5.8891625551 13.8107086485 0.000895001084425 -0.000519362881511 0.00313314657133
Te 1.5419900196 0.8902681917 17.3912302864 -0.000480539220566 -0.000276650723023 0.00100530141916
Te 4.2142178275 5.5187030081 17.3912302864 -2.31399303643e-06 0.000544559694574 0.00100093054343
Te 6.8864456355 0.8902681917 17.3912302864 0.000472054579433 -0.000273051178299 0.000997845219378
Te 0 4.8661595943 16.0423128895 -7.71331012145e-07 -7.71331012145e-07 0.00159279854008
Te 1.5766772053 0.9102948665 10.7992575164 -0.00017972012583 -0.000102844134953 -0.000108500562375
Te 4.2142178275 5.4786496584 10.7992575164 -3.08532404858e-06 0.000205688269905 -0.000106700790013
Te 6.8517584497 0.9102948665 10.7992575164 0.000170721264021 -0.000101044362591 -0.000105415238326
Te 0 4.8661595943 10.3501310928 -1.28555168691e-06 3.59954472334e-06 0.000371267327179
Te 0 -0 23.8740977942 -1.02844134953e-06 7.71331012145e-07 0.000740477771659
Te 2.482638478 3.4328074927 23.7850436754 -0.000562300307854 0.000323187694089 0.00108886227881
Te 4.2142178275 0.4336244061 23.7850436754 7.71331012145e-07 -0.000655888470661 0.00109477581657
Te -2.482638478 3.4328074927 23.7850436754 0.000568470955951 0.000328072790499 0.00109169049252
Te 0 2.9428875977 27.794688451 -2.57110337382e-07 -7.43048875033e-05 -4.88509641025e-06
Te 1.6656026099 5.8277955926 27.794688451 6.4020474008e-05 3.75381092577e-05 -5.6564274224e-06
Te 4.2142178275 2.4330797971 27.2495392634 -7.71331012145e-07 1.02844134953e-06 -5.19362881511e-05
Te -1.6656026099 5.8277955926 27.794688451 -6.55631360323e-05 3.75381092577e-05 -4.37087573549e-06
Te 0 2.9380376545 20.4480645792 -2.57110337382e-06 -0.000300047763724 -0.005461794897
Te 1.6698027938 5.8302205642 20.4480645792 0.000259681440755 0.000150152437031 -0.00546950820712
Te 4.2142178275 2.4330797971 20.5095848088 2.57110337382e-07 6.17064809716e-06 -0.00524093711719
Te -1.6698027938 5.8302205642 20.4480645792 -0.00026508075784 0.00015118087838 -0.0054576811316
Sb -0 2.434964961 8.4730764981 1.15699651822e-05 -0.000422175173981 0.00070602498645
Sb 2.1054763154 6.081756911 8.4730764981 0.000358154699973 0.000204145607881 0.000694455021268
Sb 4.2142178275 2.4330797971 9.8419207085 -3.0339019811e-05 -3.34243438596e-06 6.89055704183e-05
Sb -2.1054763154 6.081756911 8.4730764981 -0.000365868010094 0.000218543786774 0.000717337841295
Sb 0 2.4121673545 1.4950823576 5.6564274224e-06 -8.51035216733e-05 0.00149509661187
Sb 2.125219612 6.0931557141 1.4950823576 7.43048875033e-05 4.08805436437e-05 0.0015007530393
Sb 4.2142178275 2.4330797971 2.2823938768 -6.17064809716e-06 -1.28555168691e-06 0.00162776554596
Sb -2.125219612 6.0931557141 1.4950823576 -7.12195634547e-05 4.67940814035e-05 0.00149149706715
Sb -0 -0 19.7848014544 -3.85665506072e-06 -2.8282137112e-06 -0.00416081658985
Sb 2.0041527145 3.7090614775 18.0171575218 -0.000801670031956 0.000470254807071 -0.000786243411713
Sb 4.2142178275 -0.1188835634 18.0171575218 5.14220674763e-06 -0.000940509614142 -0.000796784935546
Sb 6.4242829406 3.7090614775 18.0171575218 0.000803984024992 0.000467940814035 -0.000806040907691
Sb -0 -0 14.1408966055 -5.14220674763e-07 -2.57110337382e-07 0.00187304880783
Sb 2.2381778404 3.5739469796 11.975333209 0.000362525575708 -0.000209030704291 0.00113334236718
Sb 4.2142178275 0.1513454323 11.975333209 3.34243438596e-06 0.000418061408583 0.00112717171908
Sb -2.2381778404 3.5739469796 11.975333209 -0.000364068237732 -0.000211601807665 0.00112717171908
Sb 2.1503115778 1.24148298 28.9000206309 -0.000145524450958 -8.40750803238e-05 -5.63071638866e-05
Sb 4.2142178275 4.8162734316 28.9000206309 1.54266202429e-06 0.000170721264021 -5.68213845613e-05
Sb 6.2781240773 1.24148298 28.9000206309 0.000149638216356 -8.48464113359e-05 -5.78498259109e-05
Sb 0 4.8661595943 29.9101289028 -1.79977236167e-06 -0 0.000111842996761
Sb 1.9845389584 1.1457740858 22.0385007162 -0.000293877115627 -0.000172006815708 -0.00363733994294
Sb 4.2142178275 5.0076912198 22.0385007162 5.91353775978e-06 0.000333214997247 -0.00363862549462
Sb 6.4438966966 1.1457740858 22.0385007162 0.00028770646753 -0.000161465291876 -0.00363425461889
Sb 0 4.8661595943 23.3961266263 1.56837305803e-05 4.11376539811e-06 -0.00141513529695
Cr 4.2142178275 2.4330797972 18.0964288917 2.57110337382e-07 1.33697375438e-05 -0.0014884117431
61
Lattice="8.42843558953 0 0 -4.21421779477 7.29923593142 0 0 0 31.0334408416" Properties=species:S:1:pos:R:3:forces:R:3 energy=-133599.793217 ionic_step=10 pbc="T T T"
Te 1.784276867 1.0301526425 3.3091894586 0.000385151285398 0.000222657552172 -0.00185942195994
Te 4.2142178275 5.2389341067 3.3091894586 -0 -0.000440687118272 -0.00185787929792
Te 6.6441587881 1.0301526425 3.3091894586 -0.000382837292361 0.000222657552172 -0.00185685085657
Te 0 4.8661595943 3.0882655712 -1.79977236167e-06 2.57110337382e-07 -0.00154369046564
Te 0 -0 6.9205966686 5.14220674763e-07 -2.31399303643e-06 0.000816325321187
Te 2.6260893399 3.3499860677 7.7115873955 0.000223171772847 -0.000130354941052 0.000972905516652
Te 4.2142178275 0.5992672559 7.7115873955 -3.59954472334e-06 0.00026019566143 0.000978561944074
Te -2.6260893399 3.3499860677 7.7115873955 -0.000225742876221 -0.000128555168691 0.000976247951038
Te -0 0 -0.3488343154 4.11376539811e-06 1.02844134953e-06 -0.00115879629058
Te 2.4452071776 3.4544184817 0.0091510149 -8.17610872874e-05 4.39658676923e-05 -0.00111431620221
Te 4.2142178275 0.3904024282 0.0091510149 -4.62798607287e-06 -9.230261112e-05 -0.00111251642985
Te -2.4452071776 3.4544184817 0.0091510149 8.150397695e-05 4.93651847773e-05 -0.00111688730559
Te -0 2.8205102209 13.8122155762 7.71331012145e-07 0.000617321920053 -0.000158379967827
Te 1.7715844783 5.888984281 13.8122155762 -0.00053813193614 -0.000309046625533 -0.000157865747152
Te 4.2142178275 2.4330797971 13.8256150266 -3.08532404858e-06 -3.08532404858e-06 0.000410862319136
Te -1.7715844783 5.888984281 13.8122155762 0.000538646156815 -0.000305961301484 -0.000160693960864
Te 1.5422432316 0.8904143839 17.3931080366 0.00170901241258 0.000990903240269 0.00106932189317
Te 4.2142178275 5.5184106239 17.3931080366 -4.11376539811e-06 -0.00197306472907 0.00107035033452
Te 6.8861924235 0.8904143839 17.3931080366 -0.0017043844265 0.000985246812846 0.00106495101743
Te 0 4.8661595943 16.0453642305 2.8282137112e-06 -3.34243438596e-06 8.66461836976e-05
Te 1.5775892029 0.9108214088 10.7956092687 3.49670058839e-05 1.72263926046e-05 0.000152980650742
Te 4.2142178275 5.4775965739 10.7956092687 1.54266202429e-06 -3.49670058839e-05 0.000150666657706
Te 6.8508464521 0.9108214088 10.7956092687 -3.05961301484e-05 1.82548339541e-05 0.000155551754116
Te 0 4.8661595943 10.3484185865 -1.02844134953e-06 3.08532404858e-06 0.000806040907691
Te 0 -0 23.8756380499 1.54266202429e-06 3.85665506072e-06 0.00129506476939
Te 2.4834119685 3.4323609175 23.7863905307 -1.18270755196e-05 2.57110337382e-06 0.00100890096389
Te 4.2142178275 0.4345175565 23.7863905307 -2.57110337382e-07 -7.19908944669e-06 0.00101147206726
Te -2.4834119685 3.4323609175 23.7863905307 1.13128548448e-05 3.08532404858e-06 0.00101095784658
Te 0 2.9432182268 27.793132043 -5.14220674763e-07 0.000320616590715 -0.000766703026072
Te 1.6653162769 5.8276302781 27.793132043 -0.00027793627471 -0.000161465291876 -0.000771073901808
Te 4.2142178275 2.4330797971 27.2472339838 0 1.79977236167e-06 -0.00105389527293
Te -1.6653162769 5.8276302781 27.793132043 0.000275622281673 -0.000161722402213 -0.000768502798434
Te 0 2.9382970741 20.450491923 8.22753079621e-06 2.59681440755e-05 0.00134237307147
Te 1.6695781299 5.8300908544 20.450491923 -2.10830476653e-05 -1.97974959784e-05 0.00133851641641
Te 4.2142178275 2.4330797971 20.5119660594 -5.14220674763e-06 4.37087573549e-06 -0.00135677125036
Te -1.6695781299 5.8300908544 20.450491923 2.05688269905e-05 -1.10557445074e-05 0.00134108751978
Sb -0 2.4349960674 8.4713070884 2.57110337382e-06 1.18270755196e-05 0.00147684177792
Sb 2.1054493764 6.0817413578 8.4713070884 -1.02844134953e-05 -5.14220674763e-06 0.00147452778488
Sb 4.2142178275 2.4330797971 9.8408138539 -7.71331012145e-07 -3.08532404858e-06 0.00086311940259
Sb -2.1054493764 6.0817413578 8.4713070884 9.7701928205e-06 -1.79977236167e-06 0.00147941288129
Sb 0 2.412352443 1.4936692343 3.34243438596e-06 0.000285649584831 -0.00193938327487
Sb 2.1250593208 6.0930631699 1.4936692343 -0.000245797482537 -0.000142953347584 -0.00193732639217
Sb 4.2142178275 2.4330797971 2.2802397135 -3.08532404858e-06 1.28555168691e-06 -0.00210110567708
Sb -2.1250593208 6.0930631699 1.4936692343 0.000247083034224 -0.000140125133873 -0.00193886905419
Sb -0 -0 19.7856324139 2.8282137112e-06 1.02844134953e-06 0.0012937792177
Sb 2.0025265632 3.7100003368 18.0202884792 0.00206125357479 -0.00119247774478 0.00100221609511
Sb 4.2142178275 -0.120761282 18.0202884792 -2.8282137112e-06 0.00238135594483 0.00100273031579
Sb 6.4259090919 3.7100003368 18.0202884792 -0.0020620249058 -0.00119042086208 0.00100015921241
Sb 0 -0 14.1420567052 -1.02844134953e-06 5.39931708501e-06 -0.00040263478834
Sb 2.2379687318 3.5740677086 11.9755939586 5.45073915249e-05 -3.7023888583e-05 -0.000214430021376
Sb 4.2142178275 0.1511039744 11.9755939586 -3.85665506072e-06 6.53060256949e-05 -0.000220086448799
Sb -2.2379687318 3.5740677086 11.9755939586 -5.39931708501e-05 -3.41956748718e-05 -0.000216486904075
Sb 2.1504595811 1.2415684298 28.8982489985 2.93105784615e-05 1.79977236167e-05 -0.000749733743805
Sb 4.2142178275 4.8161025319 28.8982489985 2.31399303643e-06 -3.5738336896e-05 -0.000751533516167
Sb 6.277976074 1.2415684298 28.8982489985 -2.87963577867e-05 1.97974959784e-05 -0.000752819067853
Sb 0 4.8661595943 29.9092993615 -2.57110337382e-06 -3.08532404858e-06 -0.000899371960161
Sb 1.9838329124 1.1453664497 22.0401572552 0.000515249116113 0.000304675749797 0.000971877075303
Sb 4.2142178275 5.0085064919 22.0401572552 5.14220674763e-07 -0.00060189529981 0.000969048861591
Sb 6.4446027426 1.1453664497 22.0401572552 -0.00051550622645 0.000303904418785 0.0009780477234
Sb 0 4.8661595943 23.4043516733 -5.14220674763e-07 -2.57110337382e-06 0.00109940380264
Cr 4.2142178275 2.4330797972 18.0998544635 -5.14220674763e-06 1.28555168691e-06 0.000979847495761
61
Lattice="8.42843558953 0 0 -4.21421779477 7.29923593142 0 0 0 31.0334408416" Properties=species:S:1:pos:R:3:forces:R:3 energy=-133599.793387 ionic_step=11 pbc="T T T"
Te 1.7842025805 1.0301097531 3.3086083947 0.000422946504993 0.000246054592874 -0.00172212503978
Te 4.2142178275 5.2390198855 3.3086083947 -2.57110337382e-06 -0.000488766751362 -0.00172135370877
Te 6.6442330746 1.0301097531 3.3086083947 -0.000430916925452 0.000244769041187 -0.00171903971573
Te 0 4.8661595943 3.0875725626 1.54266202429e-06 3.34243438596e-06 -0.00183885313295
Te 0 -0 6.9189060941 -8.22753079621e-06 -1.02844134953e-05 -0.000747933971443
Te 2.6260198845 3.3500261678 7.7106642629 0.000181262787854 -9.230261112e-05 -0.00113539924988
Te 4.2142178275 0.5991870558 7.7106642629 4.11376539811e-06 0.000208259373279 -0.00114542655304
Te -2.6260198845 3.3500261678 7.7106642629 -0.000192061422024 -0.000100015921241 -0.0011582820699
Te -0 0 -0.3491455014 1.28555168691e-06 -2.57110337382e-07 0.000878288912496
Te 2.445524144 3.454235481 0.0078333167 0.000191547201349 -0.000111585886424 0.000871604043724
Te 4.2142178275 0.3907684297 0.0078333167 -1.54266202429e-06 0.000216744014413 0.000878546022833
Te -2.445524144 3.454235481 0.0078333167 -0.000186662104939 -0.000107472121026 0.000872375374736
Te -0 2.8207484486 13.8131293229 5.14220674763e-07 0.000790100066774 0.00260067106262
Te 1.7713781672 5.8888651672 13.8131293229 -0.000678771290688 -0.000395435698893 0.00260324216599
Te 4.2142178275 2.4330797971 13.8258450747 -2.8282137112e-06 4.37087573549e-06 0.00216744014413
Te -1.7713781672 5.8888651672 13.8131293229 0.000679799732037 -0.00039672125058 0.00260658460037
Te 1.5426394224 0.8906431248 17.3943594468 0.000121356079244 7.94470942509e-05 -0.00170952663325
Te 4.2142178275 5.517953142 17.3943594468 -1.79977236167e-06 -0.000164550615924 -0.00171106929527
Te 6.8857962327 0.8906431248 17.3943594468 -0.000130097830715 8.150397695e-05 -0.00171338328831
Te 0 4.8661595943 16.0467556512 -6.68486877192e-06 -6.42775843454e-06 -0.000351212720863
Te 1.5778126324 0.910950406 10.7943256786 -0.000290020460566 -0.000170464153684 0.000717594951632
Te 4.2142178275 5.4773385796 10.7943256786 -1.28555168691e-06 0.000338614314332 0.000702939662401
Te 6.8506230226 0.910950406 10.7943256786 0.000293362894952 -0.000174320808745 0.000700882779702
Te 0 4.8661595943 10.3480560981 8.22753079621e-06 2.57110337382e-06 0.000512163792064
Te 0 -0 23.8765899361 -0 1.02844134953e-06 0.0032367620373
Te 2.4837149944 3.4321859654 23.7872527049 -0.000442229780296 0.000261738323454 0.00314085988145
Te 4.2142178275 0.4348674608 23.7872527049 -7.71331012145e-07 -0.000504193371605 0.00313854588842
Te -2.4837149944 3.4321859654 23.7872527049 0.000429888484102 0.000256339006369 0.00314677341921
Te 0 2.9432613671 27.7923759024 -7.97042045883e-06 -0.00017972012583 0.000486195647989
Te 1.6652789162 5.8276087079 27.7923759024 0.000160179740189 8.81888457219e-05 0.000481567661916
Te 4.2142178275 2.4330797971 27.246052648 1.28555168691e-06 -1.79977236167e-06 0.000952593799999
Te -1.6652789162 5.8276087079 27.7923759024 -0.000162750843563 7.94470942509e-05 0.000480282110229
Te 0 2.9384575389 20.451436353 7.45619978407e-06 -0.000148352664669 -0.00354015223541
Te 1.6694391634 5.830010622 20.451436353 0.000130097830715 7.48191081781e-05 -0.00352369717382
Te 4.2142178275 2.4330797971 20.5133085678 -7.19908944669e-06 1.28555168691e-06 -0.00364351059104
Te -1.6694391634 5.830010622 20.451436353 -0.000132668934089 8.22753079621e-05 -0.00352421139449
Sb -0 2.4351366265 8.4702552688 1.6197951255e-05 -0.000362782686045 -0.000272279847287
Sb 2.1053276488 6.0816710783 8.4702552688 0.000318302597678 0.000172263926046 -0.000283335591795
Sb 4.2142178275 2.4330797971 9.8397262886 -1.15699651822e-05 2.31399303643e-06 0.000454313966153
Sb -2.1053276488 6.0816710783 8.4702552688 -0.000313417501268 0.000187433435951 -0.00027202273695
Sb 0 2.4124813495 1.492931694 -4.11376539811e-06 0.000488509641025 0.000498279833846
Sb 2.1249476845 6.0929987166 1.492931694 -0.000420375401619 -0.000234998848367 0.00050573603363
Sb 4.2142178275 2.4330797971 2.2793806618 6.17064809716e-06 -4.62798607287e-06 -0.000121613189582
Sb -2.1249476845 6.0929987166 1.492931694 0.000419346960269 -0.00023859839309 0.00049493739946
Sb -0 -0 19.7860199238 2.23685993522e-05 3.34243438596e-06 -0.00434902135681
Sb 2.0016004541 3.7105350264 18.0215950643 0.000240912386127 -0.000130097830715 -0.00294082803897
Sb 4.2142178275 -0.1218306612 18.0215950643 5.91353775978e-06 0.00028282137112 -0.0029382569356
Sb 6.426835201 3.7105350264 18.0215950643 -0.000240398165452 -0.000139868023536 -0.00291897366029
Sb 0 -0 14.1425994886 1.23412961943e-05 -4.88509641025e-06 0.00155680309285
Sb 2.2379257949 3.5740924982 11.9755295078 0.000127783837679 -7.12195634547e-05 0.00228725356135
Sb 4.2142178275 0.1510543952 11.9755295078 -7.71331012145e-07 0.000131640492739 0.00229085310607
Sb -2.2379257949 3.5740924982 11.9755295078 -0.000123412961943 -6.45346946828e-05 0.00229805219552
Sb 2.1506515355 1.2416792547 28.897512427 0.000243226379163 0.000143981788934 0.0012958361004
Sb 4.2142178275 4.815880882 28.897512427 3.34243438596e-06 -0.000283335591795 0.00129043678332
Sb 6.2777841196 1.2416792547 28.897512427 -0.000242455048151 0.000146810002645 0.00128992256264
Sb 0 4.8661595943 29.9087148822 -6.68486877192e-06 -7.45619978407e-06 0.00214172911039
Sb 1.9835177683 1.1451845011 22.0411892352 0.000424746277354 0.000233456186343 -0.000417547187908
Sb 4.2142178275 5.0088703891 22.0411892352 -3.34243438596e-06 -0.000462798607287 -0.000433745139163
Sb 6.4449178867 1.1451845011 22.0411892352 -0.000428345822078 0.000222400441835 -0.00040751988475
Sb 0 4.8661595943 23.4083267313 3.65096679082e-05 6.14493706342e-05 0.00240372454418
Cr 4.2142178275 2.4330797972 18.1012279815 1.33697375438e-05 1.28555168691e-05 -0.00329821140793
61
Lattice="8.42843558953 0 0 -4.21421779477 7.29923593142 0 0 0 31.0334408416" Properties=species:S:1:pos:R:3:forces:R:3 energy=-133599.793617 ionic_step=12 pbc="T T T"
Te 1.7841050252 1.0300534295 3.307971344 6.58202463697e-05 3.29101231848e-05 0.00253047994051
Te 4.2142178275 5.2391325327 3.307971344 -3.08532404858e-06 -6.55631360323e-05 0.00253459370591
Te 6.6443306299 1.0300534295 3.307971344 -6.60773567071e-05 2.90534681241e-05 0.0025338223749
Te 0 4.8661595943 3.0865457539 1.54266202429e-06 -7.71331012145e-07 0.00267523306046
Te 0 -0 6.9170597869 3.08532404858e-06 1.72263926046e-05 -0.00115571096653
Te 2.6260392365 3.3500149949 7.7095685786 0.000353783824237 -0.000211601807665 -0.00142156305538
Te 4.2142178275 0.5992094015 7.7095685786 4.62798607287e-06 0.00041240498116 -0.00143107613787
Te -2.6260392365 3.3500149949 7.7095685786 -0.000354812265587 -0.000209030704291 -0.00142361993808
Te -0 0 -0.3493201759 2.57110337382e-07 -1.87690546289e-05 0.000583126245182
Te 2.4459467312 3.4539915 0.0061592014 0.000896029525775 -0.000502136488906 0.00123387250909
Te 4.2142178275 0.3912563916 0.0061592014 5.14220674763e-07 0.00102072803941 0.00122075988189
Te -2.4459467312 3.4539915 0.0061592014 -0.000893458422401 -0.000503679150931 0.00123515806078
Te -0 2.8209472362 13.8141733486 -7.71331012145e-07 0.000224457324534 0.00138968137355
Te 1.7712060122 5.8887657734 13.8141733486 -0.000190775870337 -0.000122641630931 0.00140896464885
Te 4.2142178275 2.4330797971 13.8255578269 -1.02844134953e-06 4.88509641025e-06 0.000705253655438
Te -1.7712060122 5.8887657734 13.8141733486 0.000197974959784 -0.000116213872496 0.00139508069063
Te 1.5432711473 0.8910078515 17.3959726258 -0.000604209292847 -0.00029953354305 0.000210830476653
Te 4.2142178275 5.5172236885 17.3959726258 -1.69692822672e-05 0.000643290064129 0.000215715573063
Te 6.8851645078 0.8910078515 17.3959726258 0.00059109666564 -0.000312389059919 0.000215972683401
Te 0 4.8661595943 16.048091417 2.67394750877e-05 -3.39385645344e-05 0.00127989525949
Te 1.5778344957 0.9109630288 10.7933744363 -0.000298247991363 -0.000160179740189 -0.00158174279557
Te 4.2142178275 5.477313334 10.7933744363 -5.91353775978e-06 0.000348898727827 -0.00160231162256
Te 6.8506011593 0.9109630288 10.7933744363 0.000296705329338 -0.000161465291876 -0.00158919899536
Te 0 4.8661595943 10.3480228359 5.14220674763e-06 -6.68486877192e-06 -0.00176403402478
Te 0 -0 23.8778966496 5.14220674763e-06 5.6564274224e-06 0.00190544471034
Te 2.4839269235 3.432063608 23.7884058638 -0.000270480074925 0.000156065974791 0.00228185424426
Te 4.2142178275 0.4351121756 23.7884058638 -7.19908944669e-06 -0.000314703052955 0.0022779975892
Te -2.4839269235 3.432063608 23.7884058638 0.00026610919919 0.000159665519514 0.00229676664383
Te 0 2.943236251 27.7915813552 -1.54266202429e-06 -6.35062533333e-05 -0.00335888944755
Te 1.6653006675 5.827621266 27.7915813552 5.8621156923e-05 2.39112613765e-05 -0.00335220457878
Te 4.2142178275 2.4330797971 27.244797911 1.02844134953e-06 1.46552892308e-05 -0.00240089633047
Te -1.6653006675 5.827621266 27.7915813552 -5.45073915249e-05 2.33970407017e-05 -0.00335169035811
Te 0 2.9386510358 20.4522554173 1.10557445074e-05 2.8282137112e-06 -0.00156554484432
Te 1.6692715902 5.8299138735 20.4522554173 1.05415238326e-05 -2.67394750877e-05 -0.00154214780362
Te 4.2142178275 2.4330797971 20.5149087634 -1.13128548448e-05 1.49123995681e-05 0.000146810002645
Te -1.6692715902 5.8299138735 20.4522554173 -1.18270755196e-05 -1.36268478812e-05 -0.00152980650742
Sb -0 2.4353037149 8.4689168896 5.14220674763e-07 -0.000445057994008 -0.00190287360696
Sb 2.105182946 6.081587534 8.4689168896 0.000380523299325 0.000223943103859 -0.00187304880783
Sb 4.2142178275 2.4330797971 9.8380999615 -3.59954472334e-06 -2.57110337382e-06 -0.00211267564226
Sb -2.105182946 6.081587534 8.4689168896 -0.000380523299325 0.000222143331498 -0.00187870523525
Sb 0 2.4126414071 1.4920724408 -2.31399303643e-06 -0.000131126272065 0.00394252991341
Sb 2.1248090707 6.0929186878 1.4920724408 0.000121613189582 7.19908944669e-05 0.00390242070078
Sb 4.2142178275 2.4330797971 2.2786513633 -0 1.05415238326e-05 0.00346121936183
Sb -2.1248090707 6.0929186878 1.4920724408 -0.000123670072281 7.63617702023e-05 0.00389959248707
Sb -0 -0 19.7865327689 -1.79977236167e-06 4.62798607287e-06 -0.00159177009873
Sb 2.0007862649 3.711005099 18.0229165024 -0.00154626156901 0.000894229753413 -0.000509849799028
Sb 4.2142178275 -0.1227708064 18.0229165024 1.05415238326e-05 -0.00176172003174 -0.000504193371605
Sb 6.4276493902 3.711005099 18.0229165024 0.00154189069328 0.000878288912496 -0.000503164930256
Sb 0 -0 14.1431857357 5.14220674763e-07 -4.62798607287e-06 0.000580812252145
Sb 2.2378937259 3.5741110133 11.9753727095 0.000224457324534 -0.000144238899271 -0.000201574504507
Sb 4.2142178275 0.1510173651 11.9753727095 3.34243438596e-06 0.00025042546861 -0.000190775870337
Sb -2.2378937259 3.5741110133 11.9753727095 -0.000215201352388 -0.000155808864453 -0.000200031842483
Sb 2.1509062289 1.2418263021 28.8967437902 0.000847949892685 0.000496737171821 -0.00264283715795
Sb 4.2142178275 4.8155867873 28.8967437902 -3.08532404858e-06 -0.000978819054412 -0.0026376949512
Sb 6.2775294262 1.2418263021 28.8967437902 -0.000847178561672 0.00049982249587 -0.00264643670267
Sb 0 4.8661595943 29.907906827 -1.54266202429e-06 -3.59954472334e-06 -0.000794728052847
Sb 1.9832093526 1.1450064371 22.0424795468 -6.47918050202e-05 -4.19089849932e-05 0.00131306249301
Sb 4.2142178275 5.0092265171 22.0424795468 -3.59954472334e-06 6.99340117678e-05 0.00129275077635
Sb 6.4452263024 1.1450064371 22.0424795468 6.42775843454e-05 -4.70511917408e-05 0.0013040636312
Sb 0 4.8661595943 23.4126992951 1.36268478812e-05 7.97042045883e-06 0.00263178141344
Cr 4.2142178275 2.4330797972 18.1024039587 -2.05688269905e-06 5.91353775978e-06 -0.000858491416517
61
Lattice="8.42843558953 0 0 -4.21421779477 7.29923593142 0 0 0 31.0334408416" Properties=species:S:1:pos:R:3:forces:R:3 energy=-133599.7939 ionic_step=13 pbc="T T T"
Te 1.7839855991 1.0299844788 3.3069042865 9.97588109041e-05 5.78498259109e-05 0.000744848647395
Te 4.2142178275 5.2392704341 3.3069042865 -0 -0.000115956762159 0.000743563095708
Te 6.644450056 1.0299844788 3.3069042865 -0.000100530141916 5.83640465856e-05 0.000743563095708
Te 0 4.8661595943 3.0849312644 -2.57110337382e-07 -2.57110337382e-07 0.000529390184669
Te 0 -0 6.9145722352 7.71331012145e-07 -2.57110337382e-07 -0.000300304874062
Te 2.6261905708 3.349927622 7.7078335388 -0.000176377691444 0.000102329914278 -8.22753079621e-06
Te 4.2142178275 0.5993841474 7.7078335388 2.57110337382e-07 -0.000203117166531 -9.25597214574e-06
Te -2.6261905708 3.349927622 7.7078335388 0.000175092139757 0.000101044362591 -1.13128548448e-05
Te -0 0 -0.3497409445 -1.54266202429e-06 -2.57110337382e-07 -0.000538903267152
Te 2.4464718333 3.453688332 0.003779504 -0.000194118304723 0.000114414100135 0.000377180864939
Te 4.2142178275 0.3918627276 0.003779504 1.79977236167e-06 -0.000225228655546 0.000377952195951
Te -2.4464718333 3.453688332 0.003779504 0.000195146746073 0.000112871438111 0.000378209306288
Te -0 2.8210258774 13.8155377386 2.05688269905e-06 -0.000187433435951 0.0010055585295
Te 1.771137907 5.8887264528 13.8155377386 0.000163779284912 9.30739421321e-05 0.00100401586748
Te 4.2142178275 2.4330797971 13.8248375572 5.14220674763e-07 2.57110337382e-07 0.00139508069063
Te -1.771137907 5.8887264528 13.8155377386 -0.000162493733225 9.48737144938e-05 0.00100684408119
Te 1.5441925104 0.891539801 17.3983898336 -4.29374263427e-05 -2.64823647503e-05 -0.000758732605613
Te 4.2142178275 5.5161597896 17.3983898336 -0 5.03936261268e-05 -0.000759246826288
Te 6.8842431447 0.891539801 17.3983898336 4.49943090418e-05 -2.80250267746e-05 -0.000760789488312
Te 0 4.8661595943 16.0498510348 2.31399303643e-06 5.14220674763e-07 -0.000835351486153
Te 1.5777457864 0.9109118124 10.7921872652 -0.000175349250094 -0.000101815693603 0.0031480589709
Te 4.2142178275 5.4774157667 10.7921872652 -2.31399303643e-06 0.000206459600917 0.00314831608124
Te 6.8506898686 0.9109118124 10.7921872652 0.00017972012583 -0.000107215010688 0.00314883030191
Te 0 4.8661595943 10.3480177966 4.11376539811e-06 1.28555168691e-06 0.00247700099033
Te 0 -0 23.8800682239 -2.57110337382e-06 -1.79977236167e-06 -0.000849749665046
Te 2.4841046968 3.4319609704 23.7902120603 -1.10557445074e-05 7.45619978407e-06 -0.00115082587012
Te 4.2142178275 0.4353174506 23.7902120603 1.02844134953e-06 -1.59408409177e-05 -0.00115365408383
Te -2.4841046968 3.4319609704 23.7902120603 8.74175147098e-06 4.62798607287e-06 -0.00115082587012
Te 0 2.9432315012 27.7904371259 -2.57110337382e-06 0.000366639341106 -0.00298042303093
Te 1.6653047809 5.8276236408 27.7904371259 -0.000317788377004 -0.000181519898191 -0.00298170858261
Te 4.2142178275 2.4330797971 27.2430735019 2.57110337382e-06 -5.14220674763e-07 -0.00313751744707
Te -1.6653047809 5.8276236408 27.7904371259 0.000318045487341 -0.00018460522224 -0.00297990881025
Te 0 2.9389228707 20.4534101947 2.31399303643e-06 -0.000306989742834 0.000645346946828
Te 1.6690361744 5.8297779561 20.4534101947 0.000265337868178 0.000155037533441 0.000646375388177
Te 4.2142178275 2.4330797971 20.5173050095 -1.54266202429e-06 -2.31399303643e-06 0.000486966979001
Te -1.6690361744 5.8297779561 20.4534101947 -0.00026713764054 0.00015812285749 0.000647918050202
Sb -0 2.4354112959 8.4668271001 1.02844134953e-06 0.000297733770688 0.000638147857381
Sb 2.1050897782 6.0815337436 8.4668271001 -0.000259938551093 -0.00015118087838 0.000638919188393
Sb 4.2142178275 2.4330797971 9.8356231029 -5.14220674763e-06 -1.02844134953e-06 0.00175632071465
Sb -2.1050897782 6.0815337436 8.4668271001 0.000255824785695 -0.00014732422332 0.000639176298731
Sb 0 2.4128585234 1.4907615091 -2.8282137112e-06 0.000383865733711 0.00142696237247
Sb 2.1246210425 6.0928101297 1.4907615091 -0.00033090100421 -0.000191032980675 0.00142876214483
Sb 4.2142178275 2.4330797971 2.2777283421 1.79977236167e-06 1.28555168691e-06 0.00142567682078
Sb -2.1246210425 6.0928101297 1.4907615091 0.000331158114548 -0.000194118304723 0.00142619104146
Sb -0 -0 19.7875468346 -2.57110337382e-07 -3.34243438596e-06 -0.000239883944777
Sb 2.0001453799 3.7113751143 18.02498141 0.000698054565991 -0.000401863457327 -0.000548159239298
Sb 4.2142178275 -0.1235108369 18.02498141 -2.05688269905e-06 0.000802955583643 -0.000546616577273
Sb 6.4282902752 3.7113751143 18.02498141 -0.000698568786666 -0.000399292353954 -0.000549444790985
Sb 0 -0 14.144081031 -1.79977236167e-06 -1.54266202429e-06 0.000892944201726
Sb 2.2377869035 3.5741726872 11.9752257665 -0.000132154713414 7.71331012145e-05 0.00289609084027
Sb 4.2142178275 0.1508940171 11.9752257665 -1.02844134953e-06 -0.000151695099055 0.00289557661959
Sb -2.2377869035 3.5741726872 11.9752257665 0.000129069389366 7.63617702023e-05 0.00289609084027
Sb 2.1511965169 1.2419939001 28.8954965798 -0.000295162667314 -0.000170978374359 -0.00240423876486
Sb 4.2142178275 4.8152515913 28.8954965798 1.54266202429e-06 0.000340414086693 -0.00240346743384
Sb 6.2772391382 1.2419939001 28.8954965798 0.000295676887989 -0.00016892149166 -0.00240526720621
Sb 0 4.8661595943 29.9066349017 -2.05688269905e-06 -5.14220674763e-07 -0.00163573596642
Sb 1.9827932052 1.1447661742 22.0444115155 0.00044582932502 0.000249911247935 0.000432202477139
Sb 4.2142178275 5.0097070429 22.0444115155 5.14220674763e-07 -0.000507021585317 0.000431688256464
Sb 6.4456424498 1.1447661742 22.0444115155 -0.00044480088367 0.000251196799622 0.000435544911524
Sb 0 4.8661595943 23.4192581408 -5.14220674763e-07 7.45619978407e-06 0.000147581333657
Cr 4.2142178275 2.4330797972 18.1039585114 -1.54266202429e-06 1.28555168691e-06 -0.000436059132199
61
Lattice="8.42843558953 0 0 -4.21421779477 7.29923593142 0 0 0 31.0334408416" Properties=species:S:1:pos:R:3:forces:R:3 energy=-133599.794223 ionic_step=14 pbc="T T T"
Te 1.7838615416 1.0299128541 3.3051043564 4.75654124156e-05 2.46825923886e-05 0.000932539193683
Te 4.2142178275 5.2394136834 3.3051043564 -5.14220674763e-07 -5.6564274224e-05 0.000932539193683
Te 6.6445741135 1.0299128541 3.3051043564 -4.7822522753e-05 2.26257096896e-05 0.000930996531659
Te 0 4.8661595943 3.0824855555 1.02844134953e-06 -1.02844134953e-06 0.000375895313252
Te 0 -0 6.9112640525 4.11376539811e-06 4.11376539811e-06 -0.00179128772054
Te 2.6265092297 3.3497436441 7.7050912826 -0.000314703052955 0.000176377691444 -0.00235178825603
Te 4.2142178275 0.5997521032 7.7050912826 -5.6564274224e-06 -0.000362011355033 -0.00235333091805
Te -2.6265092297 3.3497436441 7.7050912826 0.000312131949581 0.000180748567179 -0.00235178825603
Te -0 0 -0.3507449953 0 -7.19908944669e-06 0.00404743093106
Te 2.4470406153 3.4533599454 0.0005451772 -0.000210316255978 0.000123670072281 0.00443618176118
Te 4.2142178275 0.3925195008 0.0005451772 -5.14220674763e-07 -0.000246568813549 0.00443181088545
Te -2.4470406153 3.4533599454 0.0005451772 0.000211858918002 0.000126755396329 0.00443643887152
Te -0 2.8208621548 13.8172344243 5.14220674763e-06 -0.00049982249587 -0.00261275524847
Te 1.7712796948 5.888808314 13.8172344243 0.000435802021862 0.000247854365236 -0.00261789745522
Te 4.2142178275 2.4330797971 13.8234771195 -4.11376539811e-06 2.57110337382e-07 -0.00199826154213
Te -1.7712796948 5.888808314 13.8172344243 -0.000431431146126 0.000252482351309 -0.00260915570375
Te 1.5453656153 0.8922170938 17.4018936042 -0.000355326486261 -0.000202860056194 -0.00191547201349
Te 4.2142178275 5.5148052041 17.4018936042 -3.34243438596e-06 0.000408291215762 -0.00191727178585
Te 6.8830700398 0.8922170938 17.4018936042 0.000353269603562 -0.000205174049231 -0.00191701467552
Te 0 4.8661595943 16.0521840117 3.34243438596e-06 -0 -0.00252482351309
Te 1.577557309 0.9108029949 10.7906538509 -0.000345299183104 -0.000194632525398 -0.00202731501025
Te 4.2142178275 5.4776334017 10.7906538509 -7.19908944669e-06 0.000402891898677 -0.00202731501025
Te 6.850878346 0.9108029949 10.7906538509 0.000350184279514 -0.00020620249058 -0.00203271432734
Te 0 4.8661595943 10.3478675085 8.74175147098e-06 -2.57110337382e-07 -0.0025978428489
Te -0 -0 23.8836264599 -3.08532404858e-06 -2.57110337382e-07 0.0010860340651
Te 2.4842091472 3.431900666 23.7930177631 0.000344270741754 -0.000197974959784 0.000804498245667
Te 4.2142178275 0.4354380596 23.7930177631 -2.57110337382e-07 0.000397235471255 0.000803984024992
Te -2.4842091472 3.431900666 23.7930177631 -0.00034658473479 -0.000199774732146 0.00080424113533
Te 0 2.943286308 27.788781331 -7.71331012145e-07 -0.000162493733225 0.00216204082704
Te 1.6652573168 5.8275962375 27.788781331 0.000145524450958 8.25324182995e-05 0.00216358348907
Te 4.2142178275 2.4330797971 27.240730758 0 7.19908944669e-06 0.00211807495935
Te -1.6652573168 5.8275962375 27.788781331 -0.000146038671633 8.20181976247e-05 0.0021638405994
Te 0 2.9392712081 20.4550823235 1.79977236167e-06 -0.000768759908771 -0.00018949031865
Te 1.6687345055 5.8296037874 20.4550823235 0.000664630222132 0.000382065961349 -0.000187433435951
Te 4.2142178275 2.4330797971 20.520674014 -7.71331012145e-07 4.11376539811e-06 0.000206973821592
Te -1.6687345055 5.8296037874 20.4550823235 -0.000665658663481 0.000384122844048 -0.00018949031865
Sb -0 2.4353856932 8.4636843596 2.31399303643e-06 0.000203117166531 -0.00249088494855
Sb 2.1051119508 6.0815465449 8.4636843596 -0.000181262787854 -0.000102587024615 -0.00248934228653
Sb 4.2142178275 2.4330797971 9.8321843406 -6.42775843454e-06 1.54266202429e-06 -0.00258164489765
Sb -2.1051119508 6.0815465449 8.4636843596 0.00017380658807 -9.7701928205e-05 -0.00249525582429
Sb 0 2.4131437212 1.4887328083 -1.28555168691e-06 0.000687770152496 0.00343782232113
Sb 2.1243740541 6.0926675308 1.4887328083 -0.000596753093063 -0.000337328762645 0.00342573813527
Sb 4.2142178275 2.4330797971 2.2764607984 2.57110337382e-07 4.62798607287e-06 0.00255979051897
Sb -2.1243740541 6.0926675308 1.4887328083 0.000595981762051 -0.000340928307368 0.00342342414224
Sb -0 -0 19.7894250152 2.8282137112e-06 2.31399303643e-06 -0.00105595215563
Sb 1.9999438621 3.7114914607 18.0281956948 0.000719651834331 -0.00041343342251 -0.00148121265366
Sb 4.2142178275 -0.1237435298 18.0281956948 7.71331012145e-07 0.000831494831092 -0.00148095554332
Sb 6.428491793 3.7114914607 18.0281956948 -0.000717080730957 -0.000413690532847 -0.00148146976399
Sb 0 -0 14.1454612932 -0 2.57110337382e-07 -0.00209956301506
Sb 2.2375313091 3.5743202548 11.9751574568 -0.000326787238812 0.00018949031865 -0.00187124903546
Sb 4.2142178275 0.150598882 11.9751574568 1.28555168691e-06 -0.000377695085614 -0.00186867793209
Sb -2.2375313091 3.5743202548 11.9751574568 0.000327558569824 0.000187947656626 -0.0018673923804
Sb 2.1514413483 1.2421352536 28.8934773605 -8.27895286369e-05 -4.83367434277e-05 0.00289249129554
Sb 4.2142178275 4.8149688843 28.8934773605 1.28555168691e-06 9.7701928205e-05 0.00288863464048
Sb 6.2769943068 1.2421352536 28.8934773605 8.20181976247e-05 -4.7822522753e-05 0.00289300551622
Sb 0 4.8661595943 29.9047482543 -2.05688269905e-06 4.11376539811e-06 0.00393275972059
Sb 1.9822359067 1.1444444176 22.0472646738 0.000552015894358 0.000318045487341 0.000944366269203
Sb 4.2142178275 5.0103505561 22.0472646738 -2.57110337382e-07 -0.000637376526369 0.000947708703589
Sb 6.4461997483 1.1444444176 22.0472646738 -0.000551758784021 0.000317017045992 0.000948737144938
Sb 0 4.8661595943 23.4290964093 5.14220674763e-07 2.31399303643e-06 0.00187587702154
Cr 4.2142178275 2.4330797972 18.1062428335 -1.54266202429e-06 2.57110337382e-07 -0.00127166772869
61
Lattice="8.42843558953 0 0 -4.21421779477 7.29923593142 0 0 0 31.0334408416" Properties=species:S:1:pos:R:3:forces:R:3 energy=-133599.794504 ionic_step=15 pbc="T T T"
Te 1.7838042913 1.0298798006 3.3033324502 0.000411376539811 0.000236284400054 -0.00218698052977
Te 4.2142178275 5.2394797905 3.3033324502 1.54266202429e-06 -0.000475911234493 -0.00219006585382
Te 6.6446313638 1.0298798006 3.3033324502 -0.000414461863859 0.00023962683444 -0.00219263695719
Te 0 4.8661595943 3.0803658179 2.05688269905e-06 -0 -0.00218698052977
Te 0 -0 6.9088243541 -5.14220674763e-07 2.57110337382e-07 0.00297219550013
Te 2.6268152227 3.3495669789 7.7025329964 0.000207745152604 -0.000119299196545 0.00347098955465
Te 4.2142178275 0.6001054336 7.7025329964 1.28555168691e-06 0.000237827062078 0.00347124666499
Te -2.6268152227 3.3495669789 7.7025329964 -0.000204145607881 -0.000119042086208 0.00347150377533
Te -0 0 -0.3520815018 -1.28555168691e-06 2.57110337382e-07 -0.00135779969171
Te 2.4472864855 3.4532179921 -0.0018350532 -0.000427831601403 0.000248368585911 -0.00170978374359
Te 4.2142178275 0.3928034073 -0.0018350532 2.31399303643e-06 -0.000494423178785 -0.0017105550746
Te -2.4472864855 3.4532179921 -0.0018350532 0.000427831601403 0.000245540372199 -0.00171286906764
Te -0 2.8204772873 13.8183236692 -1.28555168691e-06 0.000995531226342 0.000923540331875
Te 1.7716129996 5.8890007478 13.8183236692 -0.000861319630228 -0.000496480061484 0.000920969228501
Te 4.2142178275 2.4330797971 13.8219777143 2.8282137112e-06 2.57110337382e-07 0.00141102153155
Te -1.7716129996 5.8890007478 13.8183236692 0.000862862292253 -0.00049879405452 0.000925340104236
Te 1.5460308176 0.8926011487 17.4047655422 0.00212758804183 0.00122821608167 0.00094950847595
Te 4.2142178275 5.5140370943 17.4047655422 1.02844134953e-06 -0.00245874615638 0.000950279806963
Te 6.8824048375 0.8926011487 17.4047655422 -0.00213015914521 0.00123078718505 0.000950022696625
Te 0 4.8661595943 16.0539099651 -1.02844134953e-06 2.57110337382e-07 0.00148044132264
Te 1.5774073684 0.9107164266 10.7896227661 0.000762075039999 0.000441715559622 0.000720937386018
Te 4.2142178275 5.4778065384 10.7896227661 -3.59954472334e-06 -0.000885230891605 0.000724794041079
Te 6.8510282866 0.9107164266 10.7896227661 -0.000771073901808 0.000442744000971 0.000726079592766
Te 0 4.8661595943 10.3474635434 -7.71331012145e-07 0 0.00199517621808
Te -0 -0 23.8870813752 -7.71331012145e-07 -2.57110337382e-07 -0.00188050500761
Te 2.4841506971 3.4319344121 23.7955943929 -0.00106855056216 0.000618093251065 -0.0020702524366
Te 4.2142178275 0.4353705672 23.7955943929 1.79977236167e-06 -0.00123850049517 -0.00207153798828
Te -2.4841506971 3.4319344121 23.7955943929 0.00107652098262 0.000620921464777 -0.00207488042267
Te 0 2.9433928004 27.7873797955 -1.02844134953e-06 0.000311874839244 0.000600352637786
Te 1.6651650918 5.8275429913 27.7873797955 -0.000271251405938 -0.000155037533441 0.000601381079136
Te 4.2142178275 2.4330797971 27.2389701372 2.31399303643e-06 -5.14220674763e-07 0.000551244563346
Te -1.6651650918 5.8275429913 27.7873797955 0.000270737185263 -0.000155294643779 0.000599838417111
Te 0 2.9394855439 20.4564612655 -5.91353775978e-06 0.00164627749025 -0.000519105771174
Te 1.6685488853 5.8294966194 20.4564612655 -0.00142464837943 -0.000821210417597 -0.000521933984885
Te 4.2142178275 2.4330797971 20.5232199635 6.42775843454e-06 1.54266202429e-06 -0.00453208391703
Te -1.6685488853 5.8294966194 20.4564612655 0.00142413415876 -0.000827381065694 -0.0005165346678
Sb -0 2.4352028356 8.461000889 -3.08532404858e-06 0.000283849812469 0.00329615452523
Sb 2.10527031 6.0816379737 8.461000889 -0.000243740599838 -0.000138582471849 0.00330001118029
Sb 4.2142178275 2.4330797971 9.8296667325 1.15699651822e-05 7.71331012145e-07 0.00240192477182
Sb -2.10527031 6.0816379737 8.461000889 0.000247597254899 -0.000144496009608 0.00329281209085
Sb 0 2.4133350507 1.4868875385 -1.79977236167e-06 0.000112871438111 -0.00374841160869
Sb 2.124208358 6.092571866 1.4868875385 -9.89874798919e-05 -5.50216121997e-05 -0.00374841160869
Sb 4.2142178275 2.4330797971 2.2754496528 2.31399303643e-06 -1.02844134953e-06 -0.00334192016529
Sb -2.124208358 6.092571866 1.4868875385 9.74448178676e-05 -5.6564274224e-05 -0.00374841160869
Sb -0 -0 19.7914782765 -2.57110337382e-07 -5.14220674763e-07 0.000480796330904
Sb 2.0004432559 3.7112031354 18.0310345803 0.00157942880254 -0.000910427704668 0.000949765586288
Sb 4.2142178275 -0.1231668792 18.0310345803 2.05688269905e-06 0.00182342651271 0.000948994255276
Sb 6.4279923992 3.7112031354 18.0310345803 -0.00157942880254 -0.000912998808042 0.000950279806963
Sb 0 -0 14.1467276187 -1.79977236167e-06 0 0.000920712118164
Sb 2.2372027629 3.5745099411 11.9752121757 -0.000128555168691 7.8161542564e-05 6.91626807557e-05
Sb 4.2142178275 0.1502195093 11.9752121757 6.42775843454e-06 -0.000149123995681 6.78771290688e-05
Sb -2.2372027629 3.5745099411 11.9752121757 0.000128040948016 7.07053427799e-05 6.60773567071e-05
Sb 2.1514227472 1.2421245142 28.8915669901 -0.000421918063643 -0.000244769041187 0.000277679164372
Sb 4.2142178275 4.8149903631 28.8915669901 7.71331012145e-07 0.000486709868663 0.00027793627471
Sb 6.2770129079 1.2421245142 28.8915669901 0.000420632511956 -0.000243226379163 0.000278450495384
Sb 0 4.8661595943 29.903190377 2.57110337382e-07 2.57110337382e-07 -0.000646375388177
Sb 1.981832256 1.1442113697 22.0497251512 -0.000609608609932 -0.000356097817274 -0.00193321262677
Sb 4.2142178275 5.010816652 22.0497251512 8.99886180836e-06 0.000701911221052 -0.00193295551644
Sb 6.446603399 1.1442113697 22.0497251512 0.000609094389257 -0.000345299183104 -0.00193115574407
Sb 0 4.8661595943 23.4375561753 -1.23412961943e-05 -2.57110337382e-07 -0.0031948530523
Cr 4.2142178275 2.4330797972 18.1083171783 3.08532404858e-06 7.71331012145e-07 -0.000584668907206
61
Lattice="8.42843558953 0 0 -4.21421779477 7.29923593142 0 0 0 31.0334408416" Properties=species:S:1:pos:R:3:forces:R:3 energy=-133599.794846 ionic_step=16 pbc="T T T"
Te 1.7837803271 1.0298659649 3.3012761031 -7.09624531173e-05 -4.11376539811e-05 0.000497765613171
Te 4.2142178275 5.2395074619 3.3012761031 2.8282137112e-06 8.30466389743e-05 0.00049879405452
Te 6.644655328 1.0298659649 3.3012761031 7.40477771659e-05 -3.93378816194e-05 0.000499308275195
Te 0 4.8661595943 3.078121382 -2.8282137112e-06 -2.57110337382e-07 0.00139353802861
Te 0 0 6.9068696589 7.71331012145e-06 -1.02844134953e-06 0.00062940610591
Te 2.6270988898 3.3494032035 7.6996805189 -0.000111842996761 6.09351499594e-05 0.00108320585139
Te 4.2142178275 0.6004329844 7.6996805189 -6.9419791093e-06 -0.000128812279028 0.0010839771824
Te -2.6270988898 3.3494032035 7.6996805189 0.000111842996761 6.83913497435e-05 0.00108449140308
Te -0 0 -0.3540089086 3.08532404858e-06 2.57110337382e-07 -0.000627863443886
Te 2.4472616567 3.4532323271 -0.0037166107 9.48737144938e-05 -5.75927155735e-05 -0.000809640452415
Te 4.2142178275 0.3927747375 -0.0037166107 -2.31399303643e-06 0.000111585886424 -0.00080912623174
Te -2.4472616567 3.4532323271 -0.0037166107 -9.43594938191e-05 -5.42502811875e-05 -0.00080912623174
Te -0 2.8198695635 13.8189547274 -1.79977236167e-06 -0.000431431146126 0.000443001111309
Te 1.7721393036 5.8893046097 13.8189547274 0.000373324209878 0.000216744014413 0.000443258221646
Te 4.2142178275 2.4330797971 13.8197650415 2.8282137112e-06 5.14220674763e-07 0.00134571550586
Te -1.7721393036 5.8893046097 13.8189547274 -0.000375381092577 0.000215715573063 0.000443258221646
Te 1.5461611934 0.8926764212 17.4075057038 -0.000293877115627 -0.000170464153684 0.000862605181915
Te 4.2142178275 5.5138865493 17.4075057038 -2.8282137112e-06 0.000335014769608 0.000861062519891
Te 6.8822744617 0.8926764212 17.4075057038 0.000285649584831 -0.000169692822672 0.000861576740566
Te 0 4.8661595943 16.0552137713 -7.71331012145e-07 2.31399303643e-06 0.00103024112189
Te 1.5772696467 0.9106369128 10.7892888283 -0.000166607498623 -9.84732592172e-05 0.00175452094229
Te 4.2142178275 5.4779655658 10.7892888283 1.28555168691e-06 0.000194118304723 0.00175606360432
Te 6.8511660083 0.9106369128 10.7892888283 0.000168150160648 -9.74448178676e-05 0.00175632071465
Te 0 4.8661595943 10.3467366836 -3.59954472334e-06 7.71331012145e-07 0.00181931274731
Te -0 -0 23.8911903428 -1.79977236167e-06 -1.28555168691e-06 -0.000919169456139
Te 2.4838898616 3.4320850057 23.7985159801 -0.000417547187908 0.000241683717139 -0.000784443639351
Te 4.2142178275 0.4350693801 23.7985159801 0 -0.000481053441241 -0.000783929418677
Te -2.4838898616 3.4320850057 23.7985159801 0.000414718974197 0.000240398165452 -0.000783672308339
Te 0 2.9435469396 27.7859745481 1.28555168691e-06 0.000336557431633 -0.00101147206726
Te 1.6650316034 5.8274659217 27.7859745481 -0.000294391336302 -0.000169178601997 -0.00101430028097
Te 4.2142178275 2.4330797971 27.237579559 -2.8282137112e-06 -1.28555168691e-06 -0.00152363585932
Te -1.6650316034 5.8274659217 27.7859745481 0.000291563122591 -0.000166350388286 -0.00100992940524
Te 0 2.9395655685 20.4576383481 5.14220674763e-07 -0.000622464126801 -0.00175503516297
Te 1.6684795821 5.8294566072 20.4576383481 0.0005419885912 0.000311874839244 -0.00175837759735
Te 4.2142178275 2.4330797971 20.5251906559 7.71331012145e-07 -2.57110337382e-07 -0.00250862556183
Te -1.6684795821 5.8294566072 20.4576383481 -0.000539931708501 0.000313674611606 -0.00175657782499
Sb -0 2.4349061592 8.4583914685 5.14220674763e-07 0.000586725789905 0.00149072573614
Sb 2.1055272392 6.0817863119 8.4583914685 -0.000508821357678 -0.000294134225965 0.00149201128783
Sb 4.2142178275 2.4330797971 9.8277370033 -1.02844134953e-06 -0 0.00122024566121
Sb -2.1055272392 6.0817863119 8.4583914685 0.000505993143967 -0.000292848674278 0.00149021151546
Sb 0 2.4134497345 1.4848415832 1.02844134953e-06 -0.000526561970958 -0.000398006802267
Sb 2.1241090389 6.0925145241 1.4848415832 0.000457142179865 0.000262509654467 -0.000397749691929
Sb 4.2142178275 2.4330797971 2.2745473206 -2.57110337382e-06 5.14220674763e-07 -0.00022882820027
Sb -2.1241090389 6.0925145241 1.4848415832 -0.000456885069527 0.000263795206154 -0.000397235471255
Sb -0 -0 19.7941882362 -5.6564274224e-06 -2.57110337382e-06 -0.00184373822936
Sb 2.001633616 3.7105158804 18.0337383901 0.000965449316868 -0.000549959011659 0.000300561984399
Sb 4.2142178275 -0.1217923691 18.0337383901 8.48464113359e-06 0.00111277354019 0.000298762212037
Sb 6.4268020391 3.7105158804 18.0337383901 -0.00096622064788 -0.000559214983805 0.000293877115627
Sb 0 -0 14.1481355914 -0 -2.05688269905e-06 0.00103049823223
Sb 2.2367310478 3.5747822861 11.9753031154 -0.000556900990769 0.000324216135438 0.000742534654358
Sb 4.2142178275 0.1496748194 11.9753031154 2.57110337382e-06 -0.000645604057165 0.000742791764696
Sb -2.2367310478 3.5747822861 11.9753031154 0.00055870076313 0.000322416363077 0.000742791764696
Sb 2.1511071078 1.2419422796 28.8894799854 -9.28168317948e-05 -5.42502811875e-05 -0.000660773567071
Sb 4.2142178275 4.8153548322 28.8894799854 2.57110337382e-06 0.000106700790013 -0.000659230905046
Sb 6.2773285473 1.2419422796 28.8894799854 9.30739421321e-05 -5.21933984885e-05 -0.000658459574034
Sb 0 4.8661595943 29.9017284288 -2.31399303643e-06 -1.28555168691e-06 -0.00114208411865
Sb 1.9815654437 1.1440573255 22.0523286557 -9.48737144938e-05 -5.3221839838e-05 -0.00179822969965
Sb 4.2142178275 5.0111247404 22.0523286557 -5.39931708501e-06 0.000110814555411 -0.00179951525133
Sb 6.4468702113 1.1440573255 22.0523286557 9.43594938191e-05 -5.91353775978e-05 -0.00180054369268
Sb 0 4.8661595943 23.4457845003 3.08532404858e-06 -0 -0.000889858877678
Cr 4.2142178275 2.4330797972 18.1105495263 4.37087573549e-06 -1.28555168691e-06 -0.000161722402213
61
Lattice="8.42843558953 0 0 -4.21421779477 7.29923593142 0 0 0 31.0334408416" Properties=species:S:1:pos:R:3:forces:R:3 energy=-133599.795131 ionic_step=17 pbc="T T T"
Te 1.7837353532 1.0298399992 3.2993646529 2.2882820027e-05 1.23412961943e-05 0.0015963980848
Te 4.2142178275 5.2395593934 3.2993646529 -2.57110337382e-07 -2.57110337382e-05 0.00159819785716
Te 6.6447003019 1.0298399992 3.2993646529 -2.23685993522e-05 1.33697375438e-05 0.0015984549675
Te 0 4.8661595943 3.0762933532 7.71331012145e-07 1.54266202429e-06 0.00224354480399
Te 0 0 6.9054503483 -1.28555168691e-06 -5.14220674763e-07 0.00217798166796
Te 2.6271890382 3.3493511563 7.6971467027 4.03663229689e-05 -2.18543786774e-05 0.0029554833282
Te 4.2142178275 0.6005370788 7.6971467027 2.05688269905e-06 4.47371987044e-05 0.00295522621786
Te -2.6271890382 3.3493511563 7.6971467027 -4.06234333063e-05 -2.33970407017e-05 0.00295522621786
Te -0 0 -0.3561788082 7.71331012145e-07 1.54266202429e-06 -0.00133363132
Te 2.4470707089 3.4533425709 -0.0047850427 -0.000106443679676 6.22207016464e-05 -0.000950794027637
Te 4.2142178275 0.3925542499 -0.0047850427 -1.02844134953e-06 -0.000123927182618 -0.000948737144938
Te -2.4470707089 3.4533425709 -0.0047850427 0.000109529003725 6.22207016464e-05 -0.000948222924263
Te -0 2.8194084216 13.8191927106 -2.31399303643e-06 -0.000166350388286 -0.000365868010094
Te 1.7725386641 5.8895351807 13.8191927106 0.000145267340621 8.51035216733e-05 -0.000367153561781
Te 4.2142178275 2.4330797971 13.8176694392 2.57110337382e-06 -2.57110337382e-07 -0.000534275281079
Te -1.7725386641 5.8895351807 13.8191927106 -0.000144238899271 8.22753079621e-05 -0.000370495996167
Te 1.5456241796 0.892366376 17.4095677557 0.00024451193085 0.000147838443994 -0.00121973144054
Te 4.2142178275 5.5145066396 17.4095677557 1.54266202429e-06 -0.000293877115627 -0.00122204543357
Te 6.8828114755 0.892366376 17.4095677557 -0.00024451193085 0.000148095554332 -0.0012215312129
Te 0 4.8661595943 16.0561686115 5.14220674763e-07 -3.08532404858e-06 -0.00103435488729
Te 1.5773800084 0.9107006302 10.7893128795 -3.59954472334e-06 -4.88509641025e-06 0.00230268018159
Te 4.2142178275 5.477838131 10.7893128795 7.71331012145e-07 7.19908944669e-06 0.00230396573328
Te 6.8510556466 0.9107006302 10.7893128795 3.85665506072e-06 -5.14220674763e-06 0.00230319440226
Te 0 4.8661595943 10.3455125448 -7.71331012145e-07 2.31399303643e-06 0.00252996571984
Te -0 -0 23.8949999465 -5.14220674763e-07 -1.02844134953e-06 -0.000546873687611
Te 2.4836810873 3.4322055417 23.8011945627 -0.00022779975892 0.000133440265101 -0.000407005664075
Te 4.2142178275 0.4348283082 23.8011945627 5.14220674763e-07 -0.000261995433792 -0.000405720112388
Te -2.4836810873 3.4322055417 23.8011945627 0.00022779975892 0.000133183154764 -0.0004064914434
Te 0 2.943763572 27.7846870512 2.57110337382e-07 0.000573356052361 -0.00285752428966
Te 1.6648439943 5.8273576055 27.7846870512 -0.000497765613171 -0.000287192246855 -0.00285701006898
Te 4.2142178275 2.4330797971 27.2366648664 5.14220674763e-07 7.71331012145e-07 -0.00338614314332
Te -1.6648439943 5.8273576055 27.7846870512 0.000497251392496 -0.000287963577867 -0.00285701006898
Te 0 2.9394905557 20.4585951617 7.71331012145e-07 0.000259167220081 -9.71877075303e-05
Te 1.668544545 5.8294941135 20.4585951617 -0.000225228655546 -0.000134982927125 -9.28168317948e-05
Te 4.2142178275 2.4330797971 20.5263446742 0 5.6564274224e-06 -0.00057644137641
Te -1.668544545 5.8294941135 20.4585951617 0.000224200214197 -0.000133183154764 -9.41023834817e-05
Sb -0 2.4346590125 8.456479238 -1.54266202429e-06 9.10170594331e-05 0.00336326032329
Sb 2.1057412744 6.0819098852 8.456479238 -8.02184252631e-05 -4.4480088367e-05 0.00336506009565
Sb 4.2142178275 2.4330797971 9.8268110004 1.28555168691e-06 -1.02844134953e-06 0.00304804304966
Sb -2.1057412744 6.0819098852 8.456479238 7.73902115519e-05 -4.52514193792e-05 0.0033640316543
Sb 0 2.4134618011 1.4829652064 7.71331012145e-07 -9.87303695545e-05 0.000617836140728
Sb 2.124098589 6.0925084908 1.4829652064 8.53606320107e-05 4.83367434277e-05 0.000618350361403
Sb 4.2142178275 2.4330797971 2.2736323716 -5.14220674763e-07 -2.57110337382e-07 0.000997588109041
Sb -2.124098589 6.0925084908 1.4829652064 -8.53606320107e-05 5.01365157894e-05 0.000617321920053
Sb -0 -0 19.7969451589 1.02844134953e-06 7.71331012145e-07 -0.000304932860135
Sb 2.0026210111 3.7099458072 18.0357529245 0.000216744014413 -0.00012572695498 -0.000970077302941
Sb 4.2142178275 -0.1206522229 18.0357529245 -0 0.000246311703212 -0.000968020420242
Sb 6.425814644 3.7099458072 18.0357529245 -0.000217515345425 -0.00012469851363 -0.000970077302941
Sb 0 -0 14.1494693667 -0 -5.14220674763e-07 -0.00063043454726
Sb 2.2361985557 3.5750897207 11.975326401 0.00014732422332 -8.3560859649e-05 0.0008425505756
Sb 4.2142178275 0.1490599502 11.975326401 2.57110337382e-07 0.000170464153684 0.000840750803238
Sb -2.2361985557 3.5750897207 11.975326401 -0.000147838443994 -8.51035216733e-05 0.0008425505756
Sb 2.1506266797 1.2416649042 28.8876186475 -0.000159408409177 -9.10170594331e-05 -0.00266083488156
Sb 4.2142178275 4.815909583 28.8876186475 0 0.000182291229204 -0.00266083488156
Sb 6.2778089754 1.2416649042 28.8876186475 0.000159922629851 -9.20455007826e-05 -0.0026610919919
Sb 0 4.8661595943 29.9007562002 0 -5.14220674763e-07 -0.00252199529938
Sb 1.9814403214 1.143985086 22.0546610295 -0.000111071665749 -5.96495982725e-05 -2.75108060998e-05
Sb 4.2142178275 5.0112692193 22.0546610295 1.02844134953e-06 0.000127526727341 -2.2882820027e-05
Sb 6.4469953336 1.143985086 22.0546610295 0.000111585886424 -5.8621156923e-05 -2.59681440755e-05
Sb 0 4.8661595943 23.452357831 -1.02844134953e-06 -2.05688269905e-06 -0.000644575615816
Cr 4.2142178275 2.4330797972 18.1127962815 -2.57110337382e-07 4.88509641025e-06 -0.000830980610417
61
Lattice="8.42843558953 0 0 -4.21421779477 7.29923593142 0 0 0 31.0334408416" Properties=species:S:1:pos:R:3:forces:R:3 energy=-133599.79537 ionic_step=18 pbc="T T T"
Te 1.7836242178 1.0297758351 3.2980556995 -2.90534681241e-05 -1.85119442915e-05 0.00122821608167
Te 4.2142178275 5.2396877215 3.2980556995 -5.14220674763e-07 3.3681454197e-05 0.00123001585403
Te 6.6448114373 1.0297758351 3.2980556995 2.85392474494e-05 -1.9540385641e-05 0.00122950163336
Te 0 4.8661595943 3.0751321078 2.57110337382e-07 1.79977236167e-06 0.00168612959255
Te 0 0 6.9047609178 -4.11376539811e-06 -1.02844134953e-06 0.00122847319201
Te 2.627087085 3.3494100191 7.6955529763 -1.28555168691e-06 2.57110337382e-06 0.00129017967298
Te 4.2142178275 0.6004193533 7.6955529763 2.57110337382e-06 -1.28555168691e-06 0.00128966545231
Te -2.627087085 3.3494100191 7.6955529763 -5.14220674763e-07 -1.02844134953e-06 0.00128940834197
Te -0 0 -0.357940205 -2.57110337382e-07 1.79977236167e-06 0.000582354914169
Te 2.4468873427 3.4534484375 -0.0049884011 -8.97315077462e-05 5.03936261268e-05 0.000289249129554
Te 4.2142178275 0.3923425167 -0.0049884011 7.71331012145e-07 -0.000101301472928 0.000291048901916
Te -2.4468873427 3.4534484375 -0.0049884011 8.87030663967e-05 4.91080744399e-05 0.000289506239892
Te -0 2.8193127896 13.8191194308 2.57110337382e-07 -1.38839582186e-05 -0.000869547161025
Te 1.7726214838 5.8895829967 13.8191194308 1.15699651822e-05 7.71331012145e-06 -0.000866461836976
Te 4.2142178275 2.4330797971 13.8159408376 5.14220674763e-07 -7.71331012145e-07 -0.000795499383859
Te -1.7726214838 5.8895829967 13.8191194308 -1.10557445074e-05 6.17064809716e-06 -0.000867233167988
Te 1.5446735885 0.8918175517 17.4106302586 -0.000128040948016 -7.50762185154e-05 0.000297733770688
Te 4.2142178275 5.5156042882 17.4106302586 1.54266202429e-06 0.000149381106019 0.000296705329338
Te 6.8837620666 0.8918175517 17.4106302586 0.000130354941052 -7.55904391902e-05 0.000297733770688
Te 0 4.8661595943 16.056529148 -1.54266202429e-06 1.79977236167e-06 -0.000265337868178
Te 1.5776384538 0.9108498438 10.7898683765 7.25051151416e-05 4.31945366801e-05 -0.000506764474979
Te 4.2142178275 5.4775397038 10.7898683765 -2.57110337382e-06 -8.33037493116e-05 -0.00050959268869
Te 6.8507972012 0.9108498438 10.7898683765 -7.14766737921e-05 3.98521022942e-05 -0.000511135350715
Te 0 4.8661595943 10.3442052059 2.8282137112e-06 2.57110337382e-07 -0.000279993157409
Te -0 -0 23.8977185004 -2.05688269905e-06 -2.57110337382e-07 -0.00110480311973
Te 2.4835890732 3.432258666 23.8031558811 0.000319331039028 -0.000182805449878 -0.00116805226272
Te 4.2142178275 0.4347220595 23.8031558811 2.31399303643e-06 0.000369724665155 -0.00116985203509
Te -2.4835890732 3.432258666 23.8031558811 -0.000320359480378 -0.00018563366359 -0.00116779515239
Te 0 2.9439786905 27.7837672543 2.57110337382e-07 6.91626807557e-05 0.000824552851983
Te 1.6646576962 5.8272500462 27.7837672543 -5.91353775978e-05 -3.72809989203e-05 0.000824295741646
Te 4.2142178275 2.4330797971 27.2364038725 2.57110337382e-07 2.31399303643e-06 0.000164550615924
Te -1.6646576962 5.8272500462 27.7837672543 5.91353775978e-05 -3.67667782456e-05 0.000823781520971
Te 0 2.9393037031 20.4590627852 2.57110337382e-07 -0.000779558542941 -0.00170824108156
Te 1.668706364 5.8295875398 20.4590627852 0.000675171745964 0.000389522161133 -0.00170824108156
Te 4.2142178275 2.4330797971 20.5266432131 -5.14220674763e-07 -7.71331012145e-07 -0.00140613643514
Te -1.668706364 5.8295875398 20.4590627852 -0.000674657525289 0.000389007940458 -0.00171184062629
Sb -0 2.4345786672 8.45569592 7.71331012145e-07 0.000291820232928 0.000909399263319
Sb 2.1058108555 6.0819500579 8.45569592 -0.000253253682321 -0.000146038671633 0.000907856601295
Sb 4.2142178275 2.4330797971 9.8267321635 -1.54266202429e-06 2.57110337382e-07 2.31399303643e-06
Sb -2.1058108555 6.0819500579 8.45569592 0.000251711020297 -0.000145267340621 0.000910684815006
Sb 0 2.413379885 1.4816283826 -0 -0.000189233208313 0.000158379967827
Sb 2.1241695303 6.0925494489 1.4816283826 0.000162750843563 9.48737144938e-05 0.000155294643779
Sb 4.2142178275 2.4330797971 2.2729176292 -2.57110337382e-07 -2.57110337382e-07 0.000455342407503
Sb -2.1241695303 6.0925494489 1.4816283826 -0.0001630079539 9.59021558433e-05 0.000156580195465
Sb -0 -0 19.7991669034 7.71331012145e-07 7.71331012145e-07 -0.00101712849468
Sb 2.0029318277 3.7097663571 18.0364062322 0.000315474383967 -0.000182291229204 -1.38839582186e-05
Sb 4.2142178275 -0.1202933226 18.0364062322 -7.71331012145e-07 0.00036329690672 -1.49123995681e-05
Sb 6.4255038274 3.7097663571 18.0364062322 -0.000314445942618 -0.000180234346505 -1.54266202429e-05
Sb 0 -0 14.1504284306 1.79977236167e-06 -0 -0.000602152410148
Sb 2.2357321622 3.5753589932 11.9751290908 -0.000156837305803 8.8960176734e-05 -0.000918655235465
Sb 4.2142178275 0.1485214051 11.9751290908 -7.71331012145e-07 -0.000181005677517 -0.00091711257344
Sb -2.2357321622 3.5753589932 11.9751290908 0.000156323085128 9.07599490957e-05 -0.000916598352766
Sb 2.1501798964 1.2414069537 28.8864752133 -0.000156323085128 -8.63890733602e-05 0.00100273031579
Sb 4.2142178275 4.8164254841 28.8864752133 -1.54266202429e-06 0.000175092139757 0.00100118765376
Sb 6.2782557587 1.2414069537 28.8864752133 0.000155808864453 -8.66461836976e-05 0.00100298742613
Sb 0 4.8661595943 29.9004321524 7.71331012145e-07 -2.31399303643e-06 0.000635833864345
Sb 1.9815048191 1.1440223238 22.0563763291 0.000102844134953 6.24778119837e-05 -0.00217952432998
Sb 4.2142178275 5.0111947438 22.0563763291 -3.34243438596e-06 -0.000122641630931 -0.002180295661
Sb 6.4469308359 1.1440223238 22.0563763291 -0.00010412968664 5.88782672604e-05 -0.00218080988167
Sb 0 4.8661595943 23.4557166636 1.54266202429e-06 -1.28555168691e-06 -0.0012868372386
Cr 4.2142178275 2.4330797972 18.1143390011 -2.57110337382e-07 -2.57110337382e-07 0.000209802035303
61
Lattice="8.42843558953 0 0 -4.21421779477 7.29923593142 0 0 0 31.0334408416" Properties=species:S:1:pos:R:3:forces:R:3 energy=-133599.795605 ionic_step=19 pbc="T T T"
Te 1.7833780949 1.0296337359 3.2965071291 1.15699651822e-05 3.34243438596e-06 -0.00259090086979
Te 4.2142178275 5.2399719199 3.2965071291 2.57110337382e-06 -1.079863417e-05 -0.00258575866305
Te 6.6450575602 1.0296337359 3.2965071291 -1.02844134953e-05 6.17064809716e-06 -0.00259732862823
Te 0 4.8661595943 3.0736651851 -2.57110337382e-07 -5.14220674763e-07 -0.00281895773905
Te 0 0 6.9035703813 3.85665506072e-06 -3.34243438596e-06 0.000484395875627
Te 2.6269209595 3.3495059317 7.6938266245 -4.39658676923e-05 2.46825923886e-05 0.000481824772253
Te 4.2142178275 0.600227528 7.6938266245 -6.42775843454e-06 -5.45073915249e-05 0.000476168344831
Te -2.6269209595 3.3495059317 7.6938266245 4.11376539811e-05 3.21387921727e-05 0.00047231168977
Te -0 0 -0.359964138 -1.28555168691e-06 4.37087573549e-06 -0.000181777008529
Te 2.4468696197 3.4534586698 -0.0054389289 -0.00064611827784 0.00036921044448 -0.00088471667093
Te 4.2142178275 0.3923220519 -0.0054389289 3.08532404858e-06 -0.000740220661322 -0.000876746250471
Te -2.4468696197 3.4534586698 -0.0054389289 0.000646632498515 0.000365353789419 -0.000885230891605
Te -0 2.8195246156 13.8193174669 2.31399303643e-06 -1.4141068556e-05 0.00237621373808
Te 1.7724380372 5.8894770837 13.8193174669 6.42775843454e-06 4.11376539811e-06 0.00237158575201
Te 4.2142178275 2.4330797971 13.8140468096 -5.14220674763e-07 -1.54266202429e-06 0.00227002716874
Te -1.7724380372 5.8894770837 13.8193174669 -1.77406132793e-05 1.10557445074e-05 0.002370814421
Te 1.5436123882 0.8912048671 17.4120058043 0.000121356079244 7.53333288528e-05 0.000575155824723
Te 4.2142178275 5.5168296573 17.4120058043 -4.88509641025e-06 -0.000144238899271 0.000576955597084
Te 6.8848232669 0.8912048671 17.4120058043 -0.000121870299919 6.89055704183e-05 0.000571556279999
Te 0 4.8661595943 16.057177584 2.05688269905e-06 2.57110337382e-07 0.00207359487098
Te 1.5780413444 0.9110824529 10.7902788259 0.000103615465965 6.24778119837e-05 0.000307503963508
Te 4.2142178275 5.4770744856 10.7902788259 0 -0.00012469851363 0.000308789515195
Te 6.8503943106 0.9110824529 10.7902788259 -0.0001079863417 5.78498259109e-05 0.000309560846207
Te 0 4.8661595943 10.3424290214 2.8282137112e-06 7.71331012145e-07 5.93924879352e-05
Te -0 -0 23.9008948168 7.71331012145e-07 -2.8282137112e-06 -0.00107960630667
Te 2.4836886251 3.4322011897 23.8056482241 -3.05961301484e-05 2.05688269905e-05 -0.00155860286521
Te 4.2142178275 0.4348370122 23.8056482241 1.28555168691e-06 -3.67667782456e-05 -0.00156117396858
Te -2.4836886251 3.4322011897 23.8056482241 2.77679164372e-05 1.77406132793e-05 -0.00156425929263
Te 0 2.944274793 27.7824940784 -2.57110337382e-06 -0.000276650723023 0.00421043888496
Te 1.6644012642 5.827101995 27.7824940784 0.000241683717139 0.000140125133873 0.00420683934024
Te 4.2142178275 2.4330797971 27.2359163891 2.31399303643e-06 4.88509641025e-06 0.0033090100421
Te -1.6644012642 5.827101995 27.7824940784 -0.000238084172415 0.000134211596113 0.00420272557484
Te 0 2.9391029929 20.4598220354 4.37087573549e-06 0.000132926044426 -0.00301204760243
Te 1.668880184 5.8296878949 20.4598220354 -0.000118270755196 -6.9419791093e-05 -0.0030187324712
Te 4.2142178275 2.4330797971 20.5274586909 -5.39931708501e-06 -1.28555168691e-06 -0.00289583372993
Te -1.668880184 5.8296878949 20.4598220354 0.000116985203509 -6.53060256949e-05 -0.00301127627141
Sb -0 2.4345756186 8.4549327058 5.91353775978e-06 0.000185890773927 0.00034658473479
Sb 2.1058134956 6.0819515822 8.4549327058 -0.000164036395249 -9.79590385424e-05 0.000351984051875
Sb 4.2142178275 2.4330797971 9.826209195 -6.42775843454e-06 -1.02844134953e-06 0.000232941965668
Sb -2.1058134956 6.0819515822 8.4549327058 0.0001630079539 -9.33310524695e-05 0.00034272807973
Sb 0 2.4132813656 1.4799329164 0 0.000374352651228 -0.00359594517862
Sb 2.1242548506 6.0925987086 1.4799329164 -0.000326530128475 -0.000185119442915 -0.00359363118558
Sb 4.2142178275 2.4330797971 2.2717637697 2.57110337382e-06 -3.85665506072e-06 -0.00342162436987
Sb -2.1242548506 6.0925987086 1.4799329164 0.000330386783535 -0.000185119442915 -0.00359645939929
Sb -0 -0 19.8018672104 3.85665506072e-06 1.54266202429e-06 -0.00198540602526
Sb 2.0024949396 3.7100185947 18.0368903711 -2.80250267746e-05 2.57110337382e-05 0.000119042086208
Sb 4.2142178275 -0.1207977978 18.0368903711 -1.54266202429e-06 -3.95949919568e-05 0.000125984065317
Sb 6.4259407155 3.7100185947 18.0368903711 3.11103508232e-05 2.44254820513e-05 0.00011389987946
Sb 0 -0 14.1516210206 6.68486877192e-06 -4.88509641025e-06 0.00198849134931
Sb 2.2351393438 3.5757012572 11.9746539655 0.000257110337382 -0.00014732422332 0.000896800856787
Sb 4.2142178275 0.1478368771 11.9746539655 1.54266202429e-06 0.000280507378083 0.000900143291173
Sb -2.2351393438 3.5757012572 11.9746539655 -0.000257881668394 -0.000148609775007 0.000911970366693
Sb 2.1497868299 1.2411800165 28.8851842596 -0.000436830463211 -0.000245283261862 0.00391167667292
Sb 4.2142178275 4.8168793585 28.8851842596 -5.14220674763e-07 0.000503422040593 0.0039060202455
Sb 6.2786488252 1.2411800165 28.8851842596 0.000435802021862 -0.000250168358272 0.00390936267989
Sb 0 4.8661595943 29.9000952898 3.85665506072e-06 -1.079863417e-05 0.00262561076534
Sb 1.9815676619 1.1440586061 22.058720464 0.000337328762645 0.000193089863374 -0.00355943551071
Sb 4.2142178275 5.0111221791 22.058720464 4.88509641025e-06 -0.00039080771282 -0.00355429330396
Sb 6.4468679931 1.1440586061 22.058720464 -0.000337842983319 0.000197203628772 -0.00355172220059
Sb 0 4.8661595943 23.4597512494 -5.14220674763e-06 3.85665506072e-06 -0.00237158575201
Cr 4.2142178275 2.4330797972 18.1161025285 -8.74175147098e-06 -1.54266202429e-06 -0.000864404954277
61
Lattice="8.42843558953 0 0 -4.21421779477 7.29923593142 0 0 0 31.0334408416" Properties=species:S:1:pos:R:3:forces:R:3 energy=-133599.795804 ionic_step=20 pbc="T T T"
Te 1.7830595831 1.0294498429 3.2951586663 0.000498022723508 0.000286935136518 -0.00030441863946
Te 4.2142178275 5.2403397058 3.2951586663 1.54266202429e-06 -0.000575670045397 -0.000303904418785
Te 6.645376072 1.0294498429 3.2951586663 -0.000499308275195 0.000289506239892 -0.000304932860135
Te 0 4.8661595943 3.0722049323 5.14220674763e-07 1.02844134953e-06 -0.000160951071201
Te 0 0 6.9023759951 2.31399303643e-06 5.14220674763e-07 0.00269708743913
Te 2.6268176526 3.349565576 7.6925739303 -0.000333472107584 0.000191032980675 0.00313828877808
Te 4.2142178275 0.6001082394 7.6925739303 -2.05688269905e-06 -0.000382837292361 0.00314214543314
Te -2.6268176526 3.349565576 7.6925739303 0.000329615452523 0.00019051876 0.00314703052955
Te -0 0 -0.3615849179 4.62798607287e-06 -5.14220674763e-07 0.000118013644858
Te 2.4470418521 3.4533592314 -0.0060599762 -3.18816818353e-05 1.7483502942e-05 -0.000103615465965
Te 4.2142178275 0.3925209288 -0.0060599762 -4.11376539811e-06 -3.75381092577e-05 -0.000100530141916
Te -2.4470418521 3.4533592314 -0.0060599762 3.34243438596e-05 2.31399303643e-05 -0.000101301472928
Te -0 2.8198935038 13.8196938656 3.34243438596e-06 0.000877260471146 -0.00194503970229
Te 1.7721185708 5.8892926396 13.8196938656 -0.000756161502239 -0.000439401566585 -0.00194735369533
Te 4.2142178275 2.4330797971 13.8123309565 -7.45619978407e-06 -1.02844134953e-06 -0.00210444811147
Te -1.7721185708 5.8892926396 13.8196938656 0.000762075039999 -0.000437344683886 -0.00194323992993
Te 1.5429196161 0.8908048948 17.4133274176 -0.000289506239892 -0.000165579057274 0.00172161081911
Te 4.2142178275 5.5176296021 17.4133274176 -2.57110337382e-07 0.000327815680162 0.00172521036383
Te 6.885516039 0.8908048948 17.4133274176 0.000285135364156 -0.000164293505587 0.00172906701889
Te 0 4.8661595943 16.0577224812 5.6564274224e-06 -1.79977236167e-06 0.000905028387583
Te 1.578313241 0.9112394326 10.7905825883 0.000749733743805 0.000434773580512 -0.00284004078672
Te 4.2142178275 5.4767605263 10.7905825883 -4.11376539811e-06 -0.000869290050687 -0.00284004078672
Te 6.850122414 0.9112394326 10.7905825883 -0.000756418612577 0.000433488028825 -0.00284235477975
Te 0 4.8661595943 10.3408622762 2.8282137112e-06 5.14220674763e-07 -0.00217798166796
Te -0 -0 23.9036385928 4.88509641025e-06 7.71331012145e-07 -0.000960049999783
Te 2.4838797277 3.4320908565 23.8080269484 -0.000292848674278 0.000167635939973 -0.00123412961943
Te 4.2142178275 0.4350576786 23.8080269484 -5.14220674763e-07 -0.000339385645344 -0.00123104429538
Te -2.4838797277 3.4320908565 23.8080269484 0.000297219550013 0.000172006815708 -0.00122693052999
Te 0 2.9445522526 27.7813016029 -2.57110337382e-07 1.82548339541e-05 0.00105826614866
Te 1.6641609772 5.8269632652 27.7813016029 -1.54266202429e-05 -8.99886180836e-06 0.00105723770731
Te 4.2142178275 2.4330797971 27.2354046126 -2.31399303643e-06 -2.57110337382e-07 0.000782386756652
Te -1.6641609772 5.8269632652 27.7813016029 1.59408409177e-05 -9.25597214574e-06 0.0010605801417
Te 0 2.9389601064 20.4606089466 2.31399303643e-06 -4.93651847773e-05 -0.000717594951632
Te 1.6690039273 5.8297593382 20.4606089466 4.19089849932e-05 2.26257096896e-05 -0.000717337841295
Te 4.2142178275 2.4330797971 20.5286521773 -5.6564274224e-06 -1.79977236167e-06 0.00030441863946
Te -1.6690039273 5.8297593382 20.4606089466 -4.29374263427e-05 2.67394750877e-05 -0.000717337841295
Sb -0 2.4345536577 8.4544466138 3.85665506072e-06 0.00162622288394 0.00240655275789
Sb 2.1058325143 6.0819625626 8.4544466138 -0.00140665065581 -0.000813497107475 0.00240706697857
Sb 4.2142178275 2.4330797971 9.8251505947 7.71331012145e-06 2.57110337382e-07 -0.000162493733225
Sb -2.1058325143 6.0819625626 8.4544466138 0.00141179286256 -0.000811183114439 0.00240603853722
Sb 0 2.413196256 1.4783772425 0 0.000251453909959 -0.000996045447016
Sb 2.1243285577 6.0926412634 1.4783772425 -0.000219572228124 -0.000126755396329 -0.000993988564317
Sb 4.2142178275 2.4330797971 2.2706163692 3.08532404858e-06 -1.02844134953e-06 -0.000833294603454
Sb -2.1243285577 6.0926412634 1.4783772425 0.000217515345425 -0.000125212734305 -0.000998102329715
Sb -0 -0 19.804345137 -7.19908944669e-06 0 -0.000318816818353
Sb 2.001650404 3.7105061878 18.0369083511 -0.00072273715838 0.000419604070607 0.00156245952027
Sb 4.2142178275 -0.1217729839 18.0369083511 3.59954472334e-06 -0.000834837265478 0.00156554484432
Sb 6.4267852511 3.7105061878 18.0369083511 0.000725308261754 0.000417547187908 0.00156605906499
Sb 0 -0 14.1526460224 -1.54266202429e-06 -1.02844134953e-06 -0.00142567682078
Sb 2.2345805632 3.5760238696 11.9739959097 -0.000430145594439 0.000252225240971 -0.0036604798733
Sb 4.2142178275 0.1471916525 11.9739959097 5.39931708501e-06 -0.000492623406423 -0.0036584229906
Sb -2.2345805632 3.5760238696 11.9739959097 0.000420118291282 0.000240141055114 -0.00365250945284
Sb 2.1495857579 1.2410639275 28.8841853772 0.000211344697328 0.000121613189582 0.00162442311158
Sb 4.2142178275 4.8171115366 28.8841853772 5.14220674763e-07 -0.000242969268826 0.0016239088909
Sb 6.2788498972 1.2410639275 28.8841853772 -0.000208773593954 0.000121356079244 0.00162236622888
Sb 0 4.8661595943 29.8997762301 0 -0 0.00138762449085
Sb 1.9816471221 1.1441044825 22.0610543778 -1.85119442915e-05 -1.25984065317e-05 -0.00219083718483
Sb 4.2142178275 5.0110304263 22.0610543778 2.8282137112e-06 3.23959025101e-05 -0.00219932182596
Sb 6.4467885329 1.1441044825 22.0610543778 3.5738336896e-05 -1.82548339541e-05 -0.00220729224642
Sb 0 4.8661595943 23.4630134685 -9.25597214574e-06 -1.54266202429e-06 -0.00167661651007
Cr 4.2142178275 2.4330797972 18.1172323162 -5.14220674763e-07 -1.54266202429e-06 0.00119684862051
61
Lattice="8.42843558953 0 0 -4.21421779477 7.29923593142 0 0 0 31.0334408416" Properties=species:S:1:pos:R:3:forces:R:3 energy=-133599.79597 ionic_step=21 pbc="T T T"
Te 1.7826830989 1.0292324796 3.2936722584 -0.000122898741268 -7.07053427799e-05 0.0018756199112
Te 4.2142178275 5.2407744326 3.2936722584 7.71331012145e-07 0.00014038224421 0.00187664835255
Te 6.6457525562 1.0292324796 3.2936722584 0.000121870299919 -6.96769014304e-05 0.00187510569052
Te 0 4.8661595943 3.0705213889 -2.05688269905e-06 -2.31399303643e-06 0.001672759855
Te 0 0 6.901035409 1.79977236167e-06 -7.71331012145e-07 -0.00176789067984
Te 2.6268186176 3.3495650189 7.6914724524 9.10170594331e-05 -5.21933984885e-05 -0.0022628280793
Te 4.2142178275 0.6001093537 7.6914724524 -2.57110337382e-07 0.000104386796977 -0.00226257096896
Te -2.6268186176 3.3495650189 7.6914724524 -8.99886180836e-05 -5.14220674763e-05 -0.00226154252761
Te -0 0 -0.3631682571 -1.02844134953e-06 5.14220674763e-07 0.00351804074639
Te 2.4473473646 3.4531828435 -0.0070509457 0.000314960163292 -0.000182034118866 0.00353449580799
Te 4.2142178275 0.3928737045 -0.0070509457 1.79977236167e-06 0.000363811127395 0.00353475291832
Te -2.4473473646 3.4531828435 -0.0070509457 -0.000313160390931 -0.000181005677517 0.00353603847001
Te -0 2.8202263703 13.8202635527 -0 0.000197717849446 0.000255053454683
Te 1.7718303001 5.8891262063 13.8202635527 -0.000168407270985 -9.7701928205e-05 0.000255824785695
Te 4.2142178275 2.4330797971 13.8107040373 2.57110337382e-07 0 -0.000163779284912
Te -1.7718303001 5.8891262063 13.8202635527 0.000172521036383 -9.95017005667e-05 0.000257367447719
Te 1.5426391975 0.890642995 17.4148981744 -0.000803469804318 -0.000463055717624 0.00184682355341
Te 4.2142178275 5.5179534017 17.4148981744 -4.62798607287e-06 0.000930225200647 0.00184553800173
Te 6.8857964576 0.890642995 17.4148981744 0.000801155811281 -0.000466912372685 0.0018460522224
Te 0 4.8661595943 16.0583242333 4.88509641025e-06 1.28555168691e-06 0.00211190431125
Te 1.5784562078 0.9113219746 10.7904303855 0.000284106922807 0.000166350388286 -0.00410116699157
Te 4.2142178275 5.4765954423 10.7904303855 -3.85665506072e-06 -0.00033090100421 -0.0041006527709
Te 6.8499794472 0.9113219746 10.7904303855 -0.00028770646753 0.000164807726262 -0.00409782455719
Te 0 4.8661595943 10.3392776272 1.02844134953e-06 -2.57110337382e-07 -0.00400346506337
Te -0 -0 23.9064443653 -1.79977236167e-06 -2.57110337382e-07 -0.00189850273123
Te 2.4841209434 3.4319515905 23.8106624944 5.14220674763e-06 -1.54266202429e-06 -0.00198129225986
Te 4.2142178275 0.4353362106 23.8106624944 1.54266202429e-06 5.91353775978e-06 -0.00198103514953
Te -2.4841209434 3.4319515905 23.8106624944 -6.17064809716e-06 -3.59954472334e-06 -0.0019815493702
Te 0 2.9448946647 27.780006988 -7.71331012145e-07 -8.58748526855e-05 0.000412147870823
Te 1.6638644398 5.8267920591 27.780006988 7.32764461538e-05 4.21660953306e-05 0.000410862319136
Te 4.2142178275 2.4330797971 27.2346577401 5.14220674763e-07 7.71331012145e-07 0.000537360605128
Te -1.6638644398 5.8267920591 27.780006988 -7.30193358164e-05 4.16518746558e-05 0.000412919201835
Te 0 2.9388859447 20.461765219 -2.31399303643e-06 0.000326787238812 -0.000253510792658
Te 1.6690681532 5.8297964191 20.461765219 -0.000283849812469 -0.000161722402213 -0.000256081896032
Te 4.2142178275 2.4330797971 20.5304497353 2.57110337382e-06 -7.71331012145e-07 0.00107317854823
Te -1.6690681532 5.8297964191 20.461765219 0.000285906695168 -0.000165321946936 -0.00025428212367
Sb -0 2.4343375777 8.4539399182 -1.02844134953e-06 5.73356052361e-05 -0.00327455725689
Sb 2.106019645 6.0820706027 8.4539399182 -4.83367434277e-05 -2.80250267746e-05 -0.00327301459487
Sb 4.2142178275 2.4330797971 9.8234227606 2.31399303643e-06 7.71331012145e-07 -0.00384559931622
Sb -2.106019645 6.0820706027 8.4539399182 4.91080744399e-05 -2.95676887989e-05 -0.00327609991892
Sb 0 2.4131341697 1.4766886055 -2.05688269905e-06 -7.86757632388e-05 0.0037918632557
Sb 2.124382326 6.0926723066 1.4766886055 6.89055704183e-05 4.06234333063e-05 0.00379134903503
Sb 4.2142178275 2.4330797971 2.2693113456 2.31399303643e-06 2.57110337382e-07 0.00314857319158
Sb -2.124382326 6.0926723066 1.4766886055 -6.78771290688e-05 3.77952195951e-05 0.00379160614537
Sb -0 -0 19.8069928912 -4.37087573549e-06 1.02844134953e-06 5.24505088259e-05
Sb 2.0007742977 3.7110120083 18.0369602178 -0.00129352210737 0.000747933971443 0.00151103745279
Sb 4.2142178275 -0.1227846249 18.0369602178 3.85665506072e-06 -0.0014925255085 0.00151283722515
Sb 6.4276613574 3.7110120083 18.0369602178 0.0012937792177 0.000743820206045 0.00151360855617
Sb 0 -0 14.1536859321 -7.45619978407e-06 -1.02844134953e-06 0.000850778106396
Sb 2.2339668239 3.5763782123 11.9732370161 -0.000142953347584 8.66461836976e-05 -0.00270660052162
Sb 4.2142178275 0.146482967 11.9732370161 6.9419791093e-06 -0.000163779284912 -0.0027078860733
Sb -2.2339668239 3.5763782123 11.9732370161 0.000142182016572 7.76473218893e-05 -0.00271045717668
Sb 2.1495223977 1.2410273464 28.8831160568 0.000516791778137 0.000297476660351 0.00151283722515
Sb 4.2142178275 4.8171846986 28.8831160568 0 -0.000596753093063 0.0015118087838
Sb 6.2789132574 1.2410273464 28.8831160568 -0.000516277557462 0.000297476660351 0.00151309433549
Sb 0 4.8661595943 29.8992642705 -1.28555168691e-06 2.57110337382e-07 0.00265337868178
Sb 1.9816916249 1.1441301762 22.0636687608 0.000177406132793 0.000103872576302 -0.00174757896318
Sb 4.2142178275 5.0109790389 22.0636687608 -1.54266202429e-06 -0.000205688269905 -0.00174937873554
Sb 6.4467440301 1.1441301762 22.0636687608 -0.000176891912119 0.000102844134953 -0.00175092139757
Sb 0 4.8661595943 23.4666935788 1.28555168691e-06 -1.28555168691e-06 -0.00193938327487
Cr 4.2142178275 2.4330797972 18.1181223086 -1.02844134953e-06 -2.8282137112e-06 0.0017064413092
61
Lattice="8.42843558953 0 0 -4.21421779477 7.29923593142 0 0 0 31.0334408416" Properties=species:S:1:pos:R:3:forces:R:3 energy=-133599.796122 ionic_step=22 pbc="T T T"
Te 1.7823393273 1.0290340029 3.2920999437 -3.75381092577e-05 -1.9540385641e-05 0.000369981775492
Te 4.2142178275 5.241171386 3.2920999437 3.34243438596e-06 4.01092126315e-05 0.000368953334143
Te 6.6460963278 1.0290340029 3.2920999437 3.9080771282e-05 -1.6197951255e-05 0.000367667782456
Te 0 4.8661595943 3.0687946508 -1.79977236167e-06 -2.57110337382e-06 0.000155551754116
Te 0 0 6.8998047352 2.05688269905e-06 2.31399303643e-06 0.00064123318143
Te 2.6268876132 3.3495251842 7.6905400554 -0.000186404994602 0.000103872576302 0.000630948767935
Te 4.2142178275 0.6001890231 7.6905400554 -3.59954472334e-06 -0.000213144469689 0.000631205878272
Te -2.6268876132 3.3495251842 7.6905400554 0.000184348111903 0.000106957900351 0.000631462988609
Te -0 0 -0.3647070877 2.57110337382e-07 5.91353775978e-06 -0.00110377467838
Te 2.4476448808 3.4530110724 -0.0082356012 -0.000535817943103 0.000303647308448 -0.000658202463697
Te 4.2142178275 0.3932172467 -0.0082356012 -2.57110337382e-07 -0.000611408382294 -0.000659488015384
Te -2.4476448808 3.4530110724 -0.0082356012 0.000536075053441 0.00030441863946 -0.000657688243022
Te -0 2.820316008 13.8208378541 -1.28555168691e-06 3.59954472334e-05 -0.000580040921133
Te 1.7717526716 5.8890813875 13.8208378541 -2.85392474494e-05 -1.92832753036e-05 -0.000577469817759
Te 4.2142178275 2.4330797971 13.809319157 1.54266202429e-06 3.08532404858e-06 -0.000330129673198
Te -1.7717526716 5.8890813875 13.8208378541 2.77679164372e-05 -1.97974959784e-05 -0.000583126245182
Te 1.5427294037 0.8906950756 17.416525404 0.00063429120232 0.000373581320216 0.00111328776086
Te 4.2142178275 5.5178492404 17.416525404 -4.88509641025e-06 -0.00074433442672 0.00111405909187
Te 6.8857062514 0.8906950756 17.416525404 -0.000637890747044 0.000369724665155 0.0011135448712
Te 0 4.8661595943 16.0588589769 2.31399303643e-06 -4.88509641025e-06 0.000733278682212
Te 1.5784650783 0.911327096 10.7897661763 0.000136011368475 7.73902115519e-05 -0.000828923727718
Te 4.2142178275 5.4765851996 10.7897661763 5.14220674763e-06 -0.000156837305803 -0.00082583840367
Te 6.8499705767 0.911327096 10.7897661763 -0.000133183154764 8.12468666126e-05 -0.000826352624345
Te 0 4.8661595943 10.3377731022 -4.88509641025e-06 -1.28555168691e-06 -0.000921226338838
Te -0 -0 23.9091215122 0 -5.14220674763e-07 -0.000319073928691
Te 2.4843033385 3.4318462846 23.813330148 -0.0004340022495 0.000250168358272 -0.000535560832766
Te 4.2142178275 0.4355468223 23.813330148 1.28555168691e-06 -0.000501365157894 -0.000535046612091
Te -2.4843033385 3.4318462846 23.813330148 0.000435544911524 0.000251968130634 -0.000536589274115
Te 0 2.9452620319 27.7787765895 -7.71331012145e-07 0.000179977236167 -0.00060189529981
Te 1.6635462905 5.8266083755 27.7787765895 -0.000157865747152 -9.12741697705e-05 -0.000604980623859
Te 4.2142178275 2.4330797971 27.2337424061 -2.57110337382e-07 -2.57110337382e-06 -0.000757447053926
Te -1.6635462905 5.8266083755 27.7787765895 0.000157865747152 -8.94743974088e-05 -0.000604209292847
Te 0 2.9388745398 20.4632537414 5.14220674763e-07 0.000251196799622 0.00101969959806
Te 1.6690780301 5.8298021215 20.4632537414 -0.000213915800702 -0.000129326499703 0.00101867115671
Te 4.2142178275 2.4330797971 20.5324297438 5.14220674763e-07 5.6564274224e-06 0.000132154713414
Te -1.6690780301 5.8298021215 20.4632537414 0.000214944242051 -0.000130097830715 0.00102381336345
Sb -0 2.4338438857 8.453423052 3.08532404858e-06 0.0004615130556 0.000410348098461
Sb 2.1064471946 6.0823174486 8.453423052 -0.000400063684966 -0.000231399303643 0.000408291215762
Sb 4.2142178275 2.4330797971 9.8215170073 -2.57110337382e-06 -5.14220674763e-07 -0.000164036395249
Sb -2.1064471946 6.0823174486 8.453423052 0.000401349236653 -0.000228313979595 0.000412662091498
Sb 0 2.4131042705 1.4750194759 -2.05688269905e-06 0.000153494871417 -0.000292848674278
Sb 2.1244082194 6.0926872561 1.4750194759 -0.000133183154764 -7.53333288528e-05 -0.000291306012253
Sb 4.2142178275 2.4330797971 2.2680142652 3.08532404858e-06 -5.14220674763e-07 0.000297990881025
Sb -2.1244082194 6.0926872561 1.4750194759 0.000132154713414 -7.84186529014e-05 -0.000292077343266
Sb -0 -0 19.8095889474 -1.54266202429e-06 -2.57110337382e-07 0.00131666203773
Sb 2.0003117643 3.7112790521 18.0371927549 0.000450200200755 -0.000255824785695 0.00121253235109
Sb 4.2142178275 -0.1233187126 18.0371927549 3.85665506072e-06 0.000518334440161 0.00121201813042
Sb 6.4281238908 3.7112790521 18.0371927549 -0.000449171759406 -0.000259167220081 0.00121304657177
Sb 0 -0 14.1546559864 1.28555168691e-06 -1.54266202429e-06 -0.000458170621214
Sb 2.2333609 3.5767280427 11.9725656036 0.000128555168691 -7.63617702023e-05 -0.000871089823049
Sb 4.2142178275 0.1457833061 11.9725656036 -4.37087573549e-06 0.000148609775007 -0.000871861154061
Sb -2.2333609 3.5767280427 11.9725656036 -0.000128298058353 -7.12195634547e-05 -0.000870575602374
Sb 2.1495230121 1.2410277011 28.8819989269 -0.000837408368852 -0.000483367434277 -0.000812468666126
Sb 4.2142178275 4.8171839892 28.8819989269 7.71331012145e-07 0.000964935096193 -0.000812725776463
Sb 6.278912643 1.2410277011 28.8819989269 0.000836379927502 -0.000481310551578 -0.000810926004102
Sb 0 4.8661595943 29.8985916407 -1.54266202429e-06 -2.8282137112e-06 -0.00119067797241
Sb 1.9816993738 1.1441346501 22.0662453926 -0.000208516483617 -0.000118270755196 0.00026122410278
Sb 4.2142178275 5.0109700912 22.0662453926 1.02844134953e-06 0.000236284400054 0.000258138778731
Sb 6.4467362812 1.1441346501 22.0662453926 0.000207488042267 -0.000116728093171 0.000261738323454
Sb 0 4.8661595943 23.4705187136 -2.31399303643e-06 5.14220674763e-07 -0.000175606360432
Cr 4.2142178275 2.4330797972 18.1188905214 -7.71331012145e-07 9.51308248312e-06 0.00106315124507
61
Lattice="8.42843558953 0 0 -4.21421779477 7.29923593142 0 0 0 31.0334408416" Properties=species:S:1:pos:R:3:forces:R:3 energy=-133599.796265 ionic_step=23 pbc="T T T"
Te 1.7820014721 1.028838942 3.2900757685 0.000107215010688 6.32491429959e-05 -0.00128195214218
Te 4.2142178275 5.2415615077 3.2900757685 2.57110337382e-07 -0.00012572695498 -0.00128195214218
Te 6.646434183 1.028838942 3.2900757685 -0.000109529003725 6.24778119837e-05 -0.00128298058353
Te 0 4.8661595943 3.0667273473 -2.57110337382e-07 -7.71331012145e-07 -0.00182394073339
Te 0 0 6.8985009022 1.28555168691e-06 0 8.84459560593e-05
Te 2.626932203 3.3494994402 7.6895476304 -2.05688269905e-05 1.00273031579e-05 -0.000333986328259
Te 4.2142178275 0.6002405109 7.6895476304 -2.31399303643e-06 -2.36541510391e-05 -0.000333472107584
Te -2.626932203 3.3494994402 7.6895476304 2.08259373279e-05 1.28555168691e-05 -0.000333214997247
Te -0 0 -0.3666711539 -2.57110337382e-07 -1.02844134953e-06 0.00115468252518
Te 2.4479007986 3.4528633181 -0.0097602073 -0.000544816804912 0.000311360618569 0.0011197155193
Te 4.2142178275 0.3935127553 -0.0097602073 -7.71331012145e-07 -0.000627349223211 0.00112022973997
Te -2.4479007986 3.4528633181 -0.0097602073 0.0005440454739 0.000314960163292 0.0011176586366
Te -0 2.8201144316 13.8214151843 -1.79977236167e-06 -0.000165321946936 -0.000552273004696
Te 1.7719272418 5.8891821757 13.8214151843 0.000141667795897 8.20181976247e-05 -0.000551758784021
Te 4.2142178275 2.4330797971 13.8078750771 7.71331012145e-07 5.14220674763e-07 8.8960176734e-05
Te -1.7719272418 5.8891821757 13.8214151843 -0.000145010230283 8.22753079621e-05 -0.000552530115033
Te 1.5430111321 0.8908577316 17.4184929689 0.00119941972389 0.000692141028231 0.00248959939687
Te 4.2142178275 5.5175239283 17.4184929689 2.31399303643e-06 -0.00138762449085 0.00249088494855
Te 6.885424523 0.8908577316 17.4184929689 -0.00120147660658 0.000694969241943 0.00249114205889
Te 0 4.8661595943 16.0593955911 -4.11376539811e-06 -1.02844134953e-06 0.0018928463038
Te 1.5784301956 0.9113069564 10.7884325216 0.00011389987946 6.4020474008e-05 -0.00228673934067
Te 4.2142178275 5.4766254787 10.7884325216 4.62798607287e-06 -0.000130097830715 -0.00228725356135
Te 6.8500054594 0.9113069564 10.7884325216 -0.000111071665749 6.7362908394e-05 -0.00228776778202
Te 0 4.8661595943 10.3359087532 -3.08532404858e-06 -2.57110337382e-07 -0.00216281215805
Te -0 -0 23.912276709 -1.02844134953e-06 -2.57110337382e-07 -0.00158354256793
Te 2.4844191754 3.4317794061 23.8166231237 -0.000175349250094 0.000102329914278 -0.00199491910774
Te 4.2142178275 0.4356805794 23.8166231237 0 -0.000202345835519 -0.00199569043876
Te -2.4844191754 3.4317794061 23.8166231237 0.000175092139757 0.000101301472928 -0.00199569043876
Te 0 2.9456950685 27.777367694 7.71331012145e-07 -0.000145524450958 0.00144033211001
Te 1.66317127 5.8263918572 27.777367694 0.000126755396329 7.25051151416e-05 0.00143853233765
Te 4.2142178275 2.4330797971 27.2324389375 -1.28555168691e-06 1.02844134953e-06 0.00102664157716
Te -1.66317127 5.8263918572 27.777367694 -0.000125469844642 7.19908944669e-05 0.00143981788934
Te 0 2.9388898476 20.4654334617 -2.8282137112e-06 -3.93378816194e-05 0.001058523259
Te 1.6690647733 5.8297944676 20.4654334617 3.52241162213e-05 2.05688269905e-05 0.00105903747967
Te 4.2142178275 2.4330797971 20.5346838638 2.57110337382e-06 1.28555168691e-06 -0.00140845042818
Te -1.6690647733 5.8297944676 20.4654334617 -3.49670058839e-05 1.7483502942e-05 0.00105775192799
Sb -0 2.4329592053 8.4528577253 2.57110337382e-07 0.000118270755196 -0.000756675722914
Sb 2.1072133499 6.0827597888 8.4528577253 -0.000102072803941 -5.88782672604e-05 -0.000757704164264
Sb 4.2142178275 2.4330797971 9.8194782776 -2.57110337382e-06 -5.14220674763e-07 -0.00150512391503
Sb -2.1072133499 6.0827597888 8.4528577253 0.000102844134953 -5.88782672604e-05 -0.000755647281565
Sb 0 2.4130983897 1.4729861314 2.57110337382e-07 0.000299790653387 -0.000897057967125
Sb 2.1244133123 6.0926901965 1.4729861314 -0.000259167220081 -0.000149381106019 -0.00089654374645
Sb 4.2142178275 2.4330797971 2.2664305274 2.57110337382e-07 -2.57110337382e-07 -0.000875460698784
Sb -2.1244133123 6.0926901965 1.4729861314 0.000259167220081 -0.000149381106019 -0.000897829298137
Sb -0 -0 19.8126812425 -5.14220674763e-07 -7.71331012145e-07 0.00167918761344
Sb 2.000263881 3.7113066976 18.0376804919 0.00179951525133 -0.00103795443201 0.00241683717139
Sb 4.2142178275 -0.1233740036 18.0376804919 2.57110337382e-07 0.00207693730537 0.00241658006105
Sb 6.4281717741 3.7113066976 18.0376804919 -0.00179951525133 -0.00103846865268 0.00241632295071
Sb 0 -0 14.1557904233 4.88509641025e-06 5.14220674763e-07 -0.000151437988718
Sb 2.2326455817 3.5771410322 11.9718703656 0.000157608636815 -9.43594938191e-05 -0.00200031842483
Sb 4.2142178275 0.1449573272 11.9718703656 -4.88509641025e-06 0.000182805449878 -0.00200006131449
Sb -2.2326455817 3.5771410322 11.9718703656 -0.00015812285749 -8.8960176734e-05 -0.0019987757628
Sb 2.1495015128 1.2410152885 28.8805651318 -0.000717080730957 -0.00041240498116 0.00215664150996
Sb 4.2142178275 4.8172088144 28.8805651318 -5.14220674763e-07 0.000828152396706 0.00215587017894
Sb 6.2789341423 1.2410152885 28.8805651318 0.000718623392982 -0.000413690532847 0.00215509884793
Sb 0 4.8661595943 29.897655263 -2.57110337382e-07 -1.02844134953e-06 0.00197306472907
Sb 1.9816917243 1.1441302336 22.0692810489 -4.34516470175e-05 -2.4939702726e-05 -0.000828409507044
Sb 4.2142178275 5.0109789241 22.0692810489 2.57110337382e-07 4.91080744399e-05 -0.000829695058731
Sb 6.4467439307 1.1441302336 22.0692810489 4.31945366801e-05 -2.41683717139e-05 -0.000830209279405
Sb 0 4.8661595943 23.475183318 -2.57110337382e-07 -7.71331012145e-07 -0.00143467568259
Cr 4.2142178275 2.4330797972 18.1199706281 3.85665506072e-06 1.54266202429e-06 0.00228776778202
61
Lattice="8.42843558953 0 0 -4.21421779477 7.29923593142 0 0 0 31.0334408416" Properties=species:S:1:pos:R:3:forces:R:3 energy=-133599.796409 ionic_step=24 pbc="T T T"
Te 1.7817651995 1.0287025299 3.2881626679 -0.000261995433792 -0.000149638216356 0.00333626373786
Te 4.2142178275 5.2418343319 3.2881626679 -2.8282137112e-06 0.000301076205074 0.00333600662753
Te 6.6466704556 1.0287025299 3.2881626679 0.000261738323454 -0.000152466430067 0.00333189286213
Te 0 4.8661595943 3.0649300543 2.31399303643e-06 1.79977236167e-06 0.0032683866088
Te 0 0 6.8976650223 -4.11376539811e-06 2.57110337382e-07 0.00177483265895
Te 2.6268278907 3.349559665 7.6889733805 -0.000389265050796 0.000228056869258 0.00203220010666
Te 4.2142178275 0.6001200613 7.6889733805 5.39931708501e-06 -0.00045662795919 0.00202757212059
Te -2.6268278907 3.349559665 7.6889733805 0.000400577905641 0.000228571089932 0.00202268702418
Te -0 0 -0.3685257632 -1.79977236167e-06 -5.14220674763e-07 -0.00174577919082
Te 2.4480257065 3.4527912025 -0.0111387944 8.22753079621e-05 -4.57656400539e-05 -0.00117165180745
Te 4.2142178275 0.3936569867 -0.0111387944 5.14220674763e-07 9.48737144938e-05 -0.00117036625576
Te -2.4480257065 3.4527912025 -0.0111387944 -8.53606320107e-05 -4.80796330904e-05 -0.00116933781441
Te -0 2.8196289947 13.8217059976 2.57110337382e-07 -2.31399303643e-06 -0.00375895313252
Te 1.7723476423 5.8894248941 13.8217059976 5.39931708501e-06 3.34243438596e-06 -0.00375869602218
Te 4.2142178275 2.4330797971 13.8066978146 -1.54266202429e-06 -2.05688269905e-06 -0.00390704868685
Te -1.7723476423 5.8894248941 13.8217059976 -5.14220674763e-07 1.54266202429e-06 -0.00376409533927
Te 1.5432744024 0.8910097309 17.4201645926 -0.000149638216356 -8.40750803238e-05 0.00160154029155
Te 4.2142178275 5.5172199299 17.4201645926 -2.8282137112e-06 0.000172521036383 0.00160076896054
Te 6.8851612527 0.8910097309 17.4201645926 0.000148095554332 -8.56177423481e-05 0.00160411139492
Te 0 4.8661595943 16.0595626906 3.85665506072e-06 -2.57110337382e-07 -0.000576955597084
Te 1.5783931334 0.9112855585 10.7868155179 0.000272279847287 0.000156580195465 -0.00267471883978
Te 4.2142178275 5.4766682745 10.7868155179 -5.39931708501e-06 -0.000311874839244 -0.00267600439147
Te 6.8500425216 0.9112855585 10.7868155179 -0.000274079619649 0.000153494871417 -0.00267446172944
Te 0 4.8661595943 10.3341290163 5.14220674763e-07 1.79977236167e-06 -0.00189541740718
Te -0 -0 23.9149677042 7.71331012145e-07 -1.02844134953e-06 0.000100015921241
Te 2.4843778385 3.4318032719 23.819699896 0.000172521036383 -9.97588109041e-05 6.53060256949e-05
Te 4.2142178275 0.4356328476 23.819699896 -0 0.000201060283832 6.37633636706e-05
Te -2.4843778385 3.4318032719 23.819699896 -0.000171492595034 -9.92445902293e-05 6.91626807557e-05
Te 0 2.9460398095 27.7762418883 1.02844134953e-06 -0.000149895326693 -0.00133543109236
Te 1.6628727157 5.8262194867 27.7762418883 0.000129840720378 7.30193358164e-05 -0.00133491687169
Te 4.2142178275 2.4330797971 27.2311422607 -2.57110337382e-06 2.05688269905e-06 -0.00070602498645
Te -1.6628727157 5.8262194867 27.7762418883 -0.000129326499703 7.58475495276e-05 -0.00133003177528
Te 0 2.9389005177 20.4677852484 4.37087573549e-06 -6.53060256949e-05 0.000843579016949
Te 1.6690555326 5.8297891325 20.4677852484 5.50216121997e-05 2.98247991363e-05 0.000846150120323
Te 4.2142178275 2.4330797971 20.5362960203 -3.85665506072e-06 2.57110337382e-07 0.00144444587541
Te -1.6690555326 5.8297891325 20.4677852484 -5.88782672604e-05 3.75381092577e-05 0.000845635899648
Sb -0 2.4318632726 8.452666354 -4.11376539811e-06 0.000580555141808 0.00142696237247
Sb 2.1081624551 6.0833077552 8.452666354 -0.000502136488906 -0.000286935136518 0.0014292763655
Sb 4.2142178275 2.4330797971 9.8182261853 -3.85665506072e-06 -2.05688269905e-06 -2.44254820513e-05
Sb -2.108162455 6.0833077552 8.452666354 0.000503164930256 -0.000291306012253 0.00142670526213
Sb 0 2.413114993 1.4711493878 -3.34243438596e-06 -0.000214430021376 0.00221989065295
Sb 2.1243989334 6.0926818949 1.4711493878 0.000185119442915 0.000108243452038 0.00222066198397
Sb 4.2142178275 2.4330797971 2.2650162934 3.34243438596e-06 1.02844134953e-06 0.00311874839244
Sb -2.1243989334 6.0926818949 1.4711493878 -0.000185119442915 0.000104643907314 0.00221500555654
Sb -0 -0 19.8153754488 4.88509641025e-06 -0 0.00108063474801
Sb 2.0006623053 3.7110766671 18.0379837706 -0.00047822522753 0.000274593840324 0.00200520352124
Sb 4.2142178275 -0.1229139427 18.0379837706 -5.14220674763e-07 -0.000552015894358 0.00200726040394
Sb 6.4277733498 3.7110766671 18.0379837706 0.000478996558542 0.000275108060998 0.00200674618326
Sb 0 -0 14.1567518335 -2.31399303643e-06 -0 -0.00337611584016
Sb 2.2320309515 3.5774958892 11.9712621573 -0.000158379967827 9.48737144938e-05 -0.00386565392253
Sb 4.2142178275 0.1442476131 11.9712621573 3.85665506072e-06 -0.000185376553252 -0.00386951057759
Sb -2.2320309515 3.5774958892 11.9712621573 0.0001630079539 9.20455007826e-05 -0.00387105323962
Sb 2.1494592452 1.2409908853 28.8792985778 0.000247340144561 0.000144238899271 -0.00276316479584
Sb 4.2142178275 4.8172576209 28.8792985778 -1.02844134953e-06 -0.000287192246855 -0.00276136502348
Sb 6.2789764099 1.2409908853 28.8792985778 -0.000247854365236 0.000143981788934 -0.00276239346483
Sb 0 4.8661595943 29.8967753342 1.02844134953e-06 -5.14220674763e-07 -0.00232916254634
Sb 1.9817430142 1.1441598458 22.0719333086 6.01638189473e-05 3.29101231848e-05 -0.000707824758812
Sb 4.2142178275 5.0109196996 22.0719333086 3.34243438596e-06 -6.81342394061e-05 -0.000702939662401
Sb 6.4466926408 1.1441598458 22.0719333086 -6.09351499594e-05 3.62525575708e-05 -0.000702682552064
Sb 0 4.8661595943 23.4787341483 -2.31399303643e-06 -5.14220674763e-07 -0.000180491456842
Cr 4.2142178275 2.4330797972 18.121076913 -3.34243438596e-06 -0 0.00132463245819
61
Lattice="8.42843558953 0 0 -4.21421779477 7.29923593142 0 0 0 31.0334408416" Properties=species:S:1:pos:R:3:forces:R:3 energy=-133599.796558 ionic_step=25 pbc="T T T"
Te 1.7816235186 1.0286207303 3.2863686352 -0.000578241148771 -0.000332957886909 0.00144110344102
Te 4.2142178275 5.241997931 3.2863686352 -1.28555168691e-06 0.00066771554618 0.00143673256529
Te 6.6468121365 1.0286207303 3.2863686352 0.000577469817759 -0.000334757659271 0.00143210457922
Te 0 4.8661595943 3.0633547876 5.14220674763e-07 -2.57110337382e-07 0.00206485311951
Te 0 0 6.8972154942 -5.6564274224e-06 -0 0.00085334920977
Te 2.6264986165 3.3497497716 7.6888192769 -0.000552530115033 0.000320359480378 0.00148686908108
Te 4.2142178275 0.5997398481 7.6888192769 2.8282137112e-06 -0.000641747402105 0.00148506930872
Te -2.6264986165 3.3497497716 7.6888192769 0.000560757645829 0.00032113081139 0.00148249820534
Te -0 0 -0.3702269329 7.71331012145e-07 1.02844134953e-06 -0.00126009776351
Te 2.448073106 3.4527638364 -0.0124621412 -0.000333472107584 0.000193604084048 -0.00132643223055
Te 4.2142178275 0.3937117189 -0.0124621412 1.79977236167e-06 -0.000385408395735 -0.00132797489258
Te -2.448073106 3.4527638364 -0.0124621412 0.000334500548933 0.000192575642699 -0.00132771778224
Te -0 2.818918311 13.8216953882 -4.88509641025e-06 -0.000564871411227 0.00127063928734
Te 1.7729631122 5.889780236 13.8216953882 0.000492366296086 0.000287192246855 0.00127115350801
Te 4.2142178275 2.4330797971 13.8055996164 -1.28555168691e-06 7.71331012145e-07 0.000972391295977
Te -1.7729631122 5.889780236 13.8216953882 -0.000487738310013 0.000277679164372 0.001270382177
Te 1.5433506101 0.8910537294 17.4216546715 0.000535560832766 0.000311874839244 0.000904257056571
Te 4.2142178275 5.5171319327 17.4216546715 -3.34243438596e-06 -0.000615779258029 0.000903999946234
Te 6.885085045 0.8910537294 17.4216546715 -0.000528875963994 0.000303647308448 0.000904514166909
Te 0 4.8661595943 16.0593157025 3.08532404858e-06 -7.71331012145e-07 0.00118450732432
Te 1.5784152404 0.911298322 10.7850473361 0.00015709441614 8.97315077462e-05 0.00136422745015
Te 4.2142178275 5.4766427474 10.7850473361 2.57110337382e-06 -0.000184091001565 0.00136705566386
Te 6.8500204146 0.911298322 10.7850473361 -0.000159922629851 9.46166041564e-05 0.00136885543622
Te 0 4.8661595943 10.3324766239 -8.22753079621e-06 -1.28555168691e-06 0.000834580155141
Te -0 -0 23.9172650744 2.05688269905e-06 5.14220674763e-07 -0.00217772455762
Te 2.484147109 3.4319364838 23.8226558787 0.000930996531659 -0.000539160377489 -0.00230010907822
Te 4.2142178275 0.4353664239 23.8226558787 -1.02844134953e-06 0.00107446409992 -0.00229805219552
Te -2.484147109 3.4319364838 23.8226558787 -0.000929196759297 -0.000536075053441 -0.00229496687147
Te 0 2.9462345643 27.7753754971 -2.05688269905e-06 -0.000324473245776 0.000615522147692
Te 1.6627040532 5.8261221093 27.7753754971 0.000280250267746 0.000163522174575 0.000617579030391
Te 4.2142178275 2.4330797971 27.229821122 2.05688269905e-06 -5.14220674763e-07 -0.00054893057031
Te -1.6627040532 5.8261221093 27.7753754971 -0.000282050040108 0.000162236622888 0.000613979485667
Te 0 2.938900846 20.4703085127 7.45619978407e-06 -0.000375638202915 -0.00294391336302
Te 1.6690552483 5.8297889684 20.4703085127 0.000326787238812 0.000183062560216 -0.00294494180437
Te 4.2142178275 2.4330797971 20.5371573414 -6.68486877192e-06 2.57110337382e-07 -0.0032581021953
Te -1.6690552483 5.8297889684 20.4703085127 -0.000325758797463 0.000192832753036 -0.00294159936998
Sb -0 2.4306510529 8.4528746014 -1.43981788934e-05 0.00106135147271 0.00158611367131
Sb 2.1092122676 6.083913865 8.4528746014 -0.000935367407394 -0.000532732619055 0.00158868477468
Sb 4.2142178275 2.4330797971 9.817926165 -1.64550615924e-05 -2.05688269905e-06 0.00214172911039
Sb -2.1092122676 6.083913865 8.4528746014 0.000906056828933 -0.00053221839838 0.00158559945063
Sb 0 2.4131697932 1.4694531882 -2.05688269905e-06 -0.000203117166531 0.000419346960269
Sb 2.1243514751 6.0926544948 1.4694531882 0.00017972012583 0.00010412968664 0.000422432284318
Sb 4.2142178275 2.4330797971 2.2637745948 2.05688269905e-06 -5.14220674763e-07 0.000653317367287
Sb -2.1243514751 6.0926544948 1.4694531882 -0.000176120581106 0.000100015921241 0.000418061408583
Sb -0 -0 19.8176074527 -1.02844134953e-06 -1.28555168691e-06 -0.00188513299368
Sb 2.0013406052 3.7106850503 18.0379926308 0.000272536957625 -0.000157351526478 0.000677228628663
Sb 4.2142178275 -0.1221307089 18.0379926308 -5.14220674763e-07 0.000312903280593 0.000675685966639
Sb 6.4270950499 3.7106850503 18.0379926308 -0.000270222964588 -0.000155037533441 0.000674914635627
Sb 0 -0 14.1575932836 -1.15699651822e-05 -5.14220674763e-07 0.000464084158974
Sb 2.2315417088 3.5777783538 11.9706634846 0.000673886194277 -0.000387979499109 0.00147787021927
Sb 4.2142178275 0.1436826841 11.9706634846 3.34243438596e-06 0.00078161542564 0.00147478489522
Sb -2.2315417088 3.5777783538 11.9706634846 -0.000679028401025 -0.000393378816194 0.00147067112982
Sb 2.1494202022 1.2409683438 28.8781917048 -0.000174063698407 -0.000103872576302 0.000288477798542
Sb 4.2142178275 4.8173027038 28.8781917048 3.59954472334e-06 0.000203888497544 0.000288220688205
Sb 6.2790154529 1.2409683438 28.8781917048 0.000175349250094 -0.000100015921241 0.000285135364156
Sb 0 4.8661595943 29.8959401344 -1.28555168691e-06 2.31399303643e-06 0.000154780423104
Sb 1.9818923528 1.1442460665 22.0742816911 0.000288477798542 0.000167635939973 -0.00478379493732
Sb 4.2142178275 5.0107472582 22.0742816911 -1.79977236167e-06 -0.000332957886909 -0.00478199516496
Sb 6.4465433022 1.1442460665 22.0742816911 -0.00028873490888 0.000165579057274 -0.0047781385099
Sb 0 4.8661595943 23.4810088183 -6.68486877192e-06 -7.71331012145e-07 -0.00373375631946
Cr 4.2142178275 2.4330797972 18.1223424832 -2.31399303643e-06 1.54266202429e-06 -0.000455856628178
61
Lattice="8.42843558953 0 0 -4.21421779477 7.29923593142 0 0 0 31.0334408416" Properties=species:S:1:pos:R:3:forces:R:3 energy=-133599.796674 ionic_step=26 pbc="T T T"
Te 1.7815966763 1.0286052329 3.2852284746 -0.000242712158488 -0.000140125133873 0.000736364006261
Te 4.2142178275 5.2420289258 3.2852284746 -3.08532404858e-06 0.000279221826396 0.000736878226936
Te 6.6468389788 1.0286052329 3.2852284746 0.000244769041187 -0.00014038224421 0.000734564233899
Te 0 4.8661595943 3.0623541819 -0 -1.02844134953e-06 0.00100478719849
Te 0 0 6.8970742862 7.71331012145e-07 -7.71331012145e-07 0.00235050270434
Te 2.6260608112 3.3500025388 7.6890361107 -9.95017005667e-05 5.50216121997e-05 0.00324576089911
Te 4.2142178275 0.5992343139 7.6890361107 -4.11376539811e-06 -0.000113642769123 0.00324318979573
Te -2.6260608112 3.3500025388 7.6890361107 9.66734868555e-05 5.88782672604e-05 0.00324061869236
Te -0 -0 -0.3711939391 1.02844134953e-06 2.57110337382e-07 -0.00421918063643
Te 2.4481045404 3.4527456877 -0.0134853825 -0.000134211596113 7.45619978407e-05 -0.00423537858769
Te 4.2142178275 0.3937480162 -0.0134853825 -2.8282137112e-06 -0.000157865747152 -0.00423589280836
Te -2.4481045404 3.4527456877 -0.0134853825 0.000133183154764 7.97042045883e-05 -0.00423435014634
Te -0 2.8183168666 13.821456667 -3.59954472334e-06 -7.30193358164e-05 0.000428345822078
Te 1.773483978 5.8900809582 13.821456667 6.35062533333e-05 3.83094402699e-05 0.000430659815114
Te 4.2142178275 2.4330797971 13.8046653422 3.59954472334e-06 0 0.00038489417506
Te -1.773483978 5.8900809582 13.821456667 -6.29920326585e-05 3.3681454197e-05 0.000427317380728
Te 1.5431044751 0.8909116232 17.4227179827 -0.000392607485182 -0.000226257096896 -0.00257264603584
Te 4.2142178275 5.5174161452 17.4227179827 5.14220674763e-07 0.000453028414466 -0.00257316025652
Te 6.88533118 0.8909116232 17.4227179827 0.000392607485182 -0.000225485765884 -0.00257290314618
Te 0 4.8661595943 16.0587708532 2.57110337382e-07 -7.71331012145e-07 -0.00177663243131
Te 1.5785154526 0.9113561796 10.7839134833 -5.83640465856e-05 -3.49670058839e-05 0.00405103047578
Te 4.2142178275 5.4765270324 10.7839134833 3.08532404858e-06 6.89055704183e-05 0.00405308735848
Te 6.8499202024 0.9113561796 10.7839134833 6.01638189473e-05 -3.26530128475e-05 0.00405488713085
Te 0 4.8661595943 10.331569533 -2.57110337382e-07 -1.02844134953e-06 0.00402480522137
Te -0 -0 23.9186098255 5.14220674763e-07 -2.57110337382e-07 0.0019540385641
Te 2.4838016203 3.4321359518 23.824684056 0.000421660953306 -0.000242969268826 0.00253022283017
Te 4.2142178275 0.4349674878 23.824684056 -5.14220674763e-07 0.000486709868663 0.00253227971287
Te -2.4838016203 3.4321359518 23.824684056 -0.000420632511956 -0.000242197937813 0.00253253682321
Te 0 2.9461498671 27.7749888504 5.14220674763e-07 0.000226771317571 -0.00183525358823
Te 1.6627774031 5.8261644579 27.7749888504 -0.000196175187422 -0.00011492832081 -0.00183551069857
Te 4.2142178275 2.4330797971 27.2288592867 -2.57110337382e-07 7.71331012145e-07 -0.0015516608861
Te -1.6627774031 5.8261644579 27.7749888504 0.000196946518434 -0.000113385658785 -0.00183499647789
Te 0 2.9389009881 20.472135361 -2.57110337382e-07 -0.000321645032064 -0.00213324446926
Te 1.6690551253 5.8297888973 20.472135361 0.000278707605722 0.000160951071201 -0.00213221602791
Te 4.2142178275 2.4330797971 20.5371400556 -1.54266202429e-06 -1.02844134953e-06 -0.00175992025938
Te -1.6690551253 5.8297888973 20.472135361 -0.000279478936734 0.000161465291876 -0.00213453002094
Sb -0 2.4298682386 8.4532896722 2.8282137112e-06 0.000130097830715 0.00376872332534
Sb 2.1098902044 6.0843052722 8.4532896722 -0.000113128548448 -6.65915773818e-05 0.00376949465635
Sb 4.2142178275 2.4330797971 9.8185216056 -0 2.57110337382e-07 0.00389342183897
Sb -2.1098902044 6.0843052722 8.4532896722 0.000113128548448 -6.35062533333e-05 0.00376795199433
Sb 0 2.4132682497 1.4683211603 2.57110337382e-07 -0.00022779975892 -0.00196920807401
Sb 2.1242662093 6.0926052666 1.4683211603 0.00019643229776 0.000114671210472 -0.00196843674299
Sb 4.2142178275 2.4330797971 2.263073313 -0 7.71331012145e-07 -0.000833294603454
Sb -2.1242662093 6.0926052666 1.4683211603 -0.000197203628772 0.000116213872496 -0.00197255050839
Sb -0 -0 19.8186964438 2.05688269905e-06 5.14220674763e-07 -0.00258781554575
Sb 2.001848539 3.7103917944 18.037686096 1.31126272065e-05 -9.7701928205e-06 -0.0028984048333
Sb 4.2142178275 -0.1215441973 18.037686096 -2.05688269905e-06 1.79977236167e-05 -0.00289763350229
Sb 6.4265871161 3.7103917944 18.037686096 -1.51695099055e-05 -8.48464113359e-06 -0.00289943327465
Sb 0 -0 14.1581351627 7.71331012145e-07 1.02844134953e-06 0.000164293505587
Sb 2.2313417143 3.5778938207 11.9702016347 -0.000162493733225 9.15312801079e-05 0.00248368585911
Sb 4.2142178275 0.1434517502 11.9702016347 -2.31399303643e-06 -0.000186919215276 0.00248574274181
Sb -2.2313417143 3.5778938207 11.9702016347 0.000163522174575 9.46166041564e-05 0.00248934228653
Sb 2.1494169908 1.2409664897 28.8775739721 5.78498259109e-05 3.34243438596e-05 -0.00391476199697
Sb 4.2142178275 4.8173064121 28.8775739721 5.14220674763e-07 -6.7362908394e-05 -0.003916304659
Sb 6.2790186643 1.2409664897 28.8775739721 -5.83640465856e-05 3.23959025101e-05 -0.0039183615417
Sb 0 4.8661595943 29.8953841539 -7.71331012145e-07 2.57110337382e-07 -0.00457759244674
Sb 1.9821170841 1.1443758153 22.0757316909 -0.000115185431147 -6.71057980566e-05 0.000602152410148
Sb 4.2142178275 5.0104877607 22.0757316909 -7.71331012145e-07 0.000134725816788 0.000602666630823
Sb 6.4463185709 1.1443758153 22.0757316909 0.000115956762159 -6.71057980566e-05 0.000601638189473
Sb 0 4.8661595943 23.4814180698 0 -5.14220674763e-07 0.00192935597171
Cr 4.2142178275 2.4330797972 18.1234151672 1.54266202429e-06 -7.71331012145e-07 -0.00298119436194
61
Lattice="8.42843558953 0 0 -4.21421779477 7.29923593142 0 0 0 31.0334408416" Properties=species:S:1:pos:R:3:forces:R:3 energy=-133599.796764 ionic_step=27 pbc="T T T"
Te 1.7815739395 1.0285921058 3.2843919365 -0.000169435712334 -9.95017005667e-05 0.00224380191433
Te 4.2142178275 5.2420551801 3.2843919365 3.59954472334e-06 0.000199260511471 0.00224174503163
Te 6.6468617156 1.0285921058 3.2843919365 0.000175349250094 -9.7701928205e-05 0.00224457324534
Te 0 4.8661595943 3.0615681305 -1.02844134953e-06 2.31399303643e-06 0.00290431837106
Te 0 0 6.8970386295 1.05415238326e-05 -1.02844134953e-06 0.00174449363913
Te 2.6256061238 3.3502650528 7.6895639977 8.58748526855e-05 -5.45073915249e-05 0.00175812048702
Te 4.2142178275 0.5987092859 7.6895639977 -7.97042045883e-06 9.89874798919e-05 0.001757349156
Te -2.6256061238 3.3502650528 7.6895639977 -8.45893009986e-05 -4.42229780296e-05 0.00175426383195
Te -0 -0 -0.371713622 5.14220674763e-07 -4.37087573549e-06 -0.00128889412129
Te 2.4482429065 3.4526658019 -0.0144573783 -0.000106186569339 6.35062533333e-05 -0.00157608636815
Te 4.2142178275 0.3939077878 -0.0144573783 -4.11376539811e-06 -0.000121870299919 -0.00157660058882
Te -2.4482429065 3.4526658019 -0.0144573783 0.000104643907314 6.45346946828e-05 -0.00157788614051
Te -0 2.8178649448 13.8210827568 -3.34243438596e-06 -0.00112074396065 -0.000389522161133
Te 1.7738753536 5.890306919 13.8210827568 0.000968277530579 0.000561271866504 -0.000388750830121
Te 4.2142178275 2.4330797971 13.8036513444 1.54266202429e-06 5.14220674763e-07 -0.00103744021133
Te -1.7738753536 5.890306919 13.8210827568 -0.000973676847664 0.000560500535492 -0.000392864595519
Te 1.5425561972 0.8905950747 17.4236972487 -0.000584668907206 -0.000336557431633 -0.00108114896869
Te 4.2142178275 5.5180492422 17.4236972487 -1.79977236167e-06 0.000675943076976 -0.00107960630667
Te 6.8858794579 0.8905950747 17.4236972487 0.000588011341592 -0.000339385645344 -0.00107909208599
Te 0 4.8661595943 16.0579600871 0 -0 0.00026713764054
Te 1.5786897143 0.9114567897 10.7832422085 -0.000258652999406 -0.000155294643779 -0.000244769041187
Te 4.2142178275 5.4763258122 10.7832422085 1.079863417e-05 0.000301590425749 -0.000241426606801
Te 6.8497459407 0.9114567897 10.7832422085 0.000265852088853 -0.00014629578197 -0.000240655275789
Te 0 4.8661595943 10.3311059619 -6.9419791093e-06 -7.71331012145e-07 -0.000456113738515
Te -0 -0 23.9194630562 -7.71331012145e-07 0 -0.000152980650742
Te 2.4834067747 3.4323639161 23.8262987554 0.000539160377489 -0.00031033217722 -0.000695483462617
Te 4.2142178275 0.4345115592 23.8262987554 2.57110337382e-07 0.000627092112874 -0.000693683690256
Te -2.4834067747 3.4323639161 23.8262987554 -0.000540960149851 -0.000312646170256 -0.000691626807557
Te 0 2.9459302351 27.7747994511 -7.71331012145e-07 0.000422175173981 -0.000361754244696
Te 1.6629676099 5.8262742739 27.7747994511 -0.000366896451444 -0.000210316255978 -0.000361754244696
Te 4.2142178275 2.4330797971 27.2281224326 -1.54266202429e-06 -1.02844134953e-06 -0.00130766317592
Te -1.6629676099 5.8262742739 27.7747994511 0.000366382230769 -0.000209544924966 -0.000361497134359
Te 0 2.9389278672 20.4736637232 5.6564274224e-06 0.000905799718595 -0.00012572695498
Te 1.6690318473 5.8297754578 20.4736637232 -0.000781358315303 -0.000456885069527 -0.000127269617004
Te 4.2142178275 2.4330797971 20.5368667483 -3.08532404858e-06 1.02844134953e-06 0.00247237300426
Te -1.6690318473 5.8297754578 20.4736637232 0.000785729191038 -0.000453285524804 -0.000127269617004
Sb -0 2.4294175828 8.4538758882 5.14220674763e-07 -0.000144753119946 0.00131589070672
Sb 2.1102804836 6.0845306001 8.4538758882 0.000122641630931 6.9419791093e-05 0.001312291162
Sb 4.2142178275 2.4330797971 9.8194986487 -6.9419791093e-06 2.57110337382e-07 0.000383608623373
Sb -2.1102804836 6.0845306001 8.4538758882 -0.000129840720378 7.45619978407e-05 0.00131743336874
Sb 0 2.4134021318 1.467398775 2.05688269905e-06 -0.000326787238812 -0.000470511917408
Sb 2.1241502641 6.0925383255 1.467398775 0.00028873490888 0.000160693960864 -0.000469483476059
Sb 4.2142178275 2.4330797971 2.2626208906 -2.8282137112e-06 2.05688269905e-06 0.000400063684966
Sb -2.1241502641 6.0925383255 1.467398775 -0.000288477798542 0.000165064836599 -0.000465883931336
Sb -0 -0 19.8192166248 -1.54266202429e-06 1.28555168691e-06 -2.4939702726e-05
Sb 2.0020504005 3.7102752496 18.0370480886 -0.00164602037992 0.00094950847595 -0.000203374276869
Sb 4.2142178275 -0.1213111075 18.0370480886 -2.57110337382e-07 -0.00190081672426 -0.000207488042267
Sb 6.4263852546 3.7102752496 18.0370480886 0.00164679171093 0.00094950847595 -0.000206973821592
Sb 0 -0 14.1585698461 5.91353775978e-06 0 -0.000641490291767
Sb 2.2312842785 3.5779269813 11.9697341569 0.00044968598008 -0.000262509654467 -0.000847692782347
Sb 4.2142178275 0.143385429 11.9697341569 -6.9419791093e-06 0.000516791778137 -0.000843579016949
Sb -2.2312842785 3.5779269813 11.9697341569 -0.000447371987044 -0.000253767902996 -0.000840236582563
Sb 2.149500535 1.241014724 28.8771817251 -5.88782672604e-05 -3.67667782456e-05 -0.000824038631308
Sb 4.2142178275 4.8172099435 28.8771817251 1.28555168691e-06 6.99340117678e-05 -0.00082095330726
Sb 6.2789351201 1.241014724 28.8771817251 6.14493706342e-05 -3.5738336896e-05 -0.000825581293332
Sb 0 4.8661595943 29.8949763873 5.14220674763e-07 7.71331012145e-07 -0.00161413869808
Sb 1.9824406504 1.1445626265 22.076842577 0.000727365144453 0.000427060270391 -0.000278450495384
Sb 4.2142178275 5.0101141383 22.076842577 -4.37087573549e-06 -0.000844093237624 -0.000276393612685
Sb 6.4459950046 1.1445626265 22.076842577 -0.000727365144453 0.000421403842968 -0.000279736047071
Sb 0 4.8661595943 23.4805792014 2.31399303643e-06 -4.88509641025e-06 -0.00136448456048
Cr 4.2142178275 2.4330797972 18.1243167303 -4.11376539811e-06 1.54266202429e-06 -8.66461836976e-05
61
Lattice="8.42843558953 0 0 -4.21421779477 7.29923593142 0 0 0 31.0334408416" Properties=species:S:1:pos:R:3:forces:R:3 energy=-133599.796827 ionic_step=28 pbc="T T T"
Te 1.7815610179 1.0285846455 3.2838706832 0.000107729231363 5.75927155735e-05 0.000549187680647
Te 4.2142178275 5.2420701007 3.2838706832 2.57110337382e-07 -0.000124184292955 0.000548416349635
Te 6.6468746372 1.0285846455 3.2838706832 -0.0001079863417 5.75927155735e-05 0.000549187680647
Te 0 4.8661595943 3.0610494286 -7.71331012145e-07 7.71331012145e-07 0.00115751073889
Te 0 0 6.8967386499 -7.71331012145e-07 2.05688269905e-06 0.00122204543357
Te 2.6254172472 3.3503741008 7.6899116597 0.000265594978515 -0.000152723540405 0.00184502378105
Te 4.2142178275 0.5984911899 7.6899116597 2.57110337382e-07 0.000306732632496 0.00184219556734
Te -2.6254172472 3.3503741008 7.6899116597 -0.000264309426828 -0.000152723540405 0.00184065290532
Te -0 -0 -0.3718765328 1.79977236167e-06 -4.62798607287e-06 -0.000370753106504
Te 2.4484493395 3.4525466178 -0.0153658013 3.62525575708e-05 -1.46552892308e-05 -0.000425003387692
Te 4.2142178275 0.3941461561 -0.0153658013 -1.02844134953e-06 3.77952195951e-05 -0.000422689394655
Te -2.4484493395 3.4525466178 -0.0153658013 -3.65096679082e-05 -1.38839582186e-05 -0.000426546049716
Te -0 2.8176835015 13.8208659995 1.54266202429e-06 -0.000177149022456 0.000692141028231
Te 1.774032488 5.8903976407 13.8208659995 0.000149638216356 9.10170594331e-05 0.000690084145532
Te 4.2142178275 2.4330797971 13.8029268588 -3.85665506072e-06 -5.14220674763e-06 0.00101327183962
Te -1.774032488 5.8903976407 13.8208659995 -0.000150409547368 9.15312801079e-05 0.000690855476544
Te 1.5420264669 0.8902892346 17.4246658201 0.000494680289122 0.00028873490888 0.00118347888297
Te 4.2142178275 5.5186609224 17.4246658201 5.39931708501e-06 -0.000572841831686 0.00118219333128
Te 6.8864091882 0.8902892346 17.4246658201 -0.000485681427314 0.000286935136518 0.00117602268318
Te 0 4.8661595943 16.0574733612 -3.34243438596e-06 -7.71331012145e-07 0.00167790206175
Te 1.5788789307 0.9115660339 10.7829075304 0.000227542648583 0.000132154713414 0.0018288258298
Te 4.2142178275 5.4761073238 10.7829075304 -1.02844134953e-06 -0.000263795206154 0.00182651183676
Te 6.8495567243 0.9115660339 10.7829075304 -0.00022779975892 0.000131640492739 0.00183139693317
Te 0 4.8661595943 10.3311169426 3.34243438596e-06 -2.57110337382e-07 0.00222580419071
Te -0 -0 23.9199087699 5.14220674763e-07 1.28555168691e-06 -0.00241478028869
Te 2.4831647202 3.4325036664 23.8272508833 0.000906056828933 -0.000521933984885 -0.00238726948259
Te 4.2142178275 0.4342320586 23.8272508833 -0 0.00104669618348 -0.00238675526191
Te -2.4831647202 3.4325036664 23.8272508833 -0.000908627932307 -0.000524505088259 -0.00238624104124
Te 0 2.9456785919 27.7746463332 0 0.00014038224421 -0.000387722388771
Te 1.6631855392 5.8264000955 27.7746463332 -0.00011878497587 -6.96769014304e-05 -0.000387979499109
Te 4.2142178275 2.4330797971 27.2275394635 7.71331012145e-07 2.31399303643e-06 -0.00157068705106
Te -1.6631855392 5.8264000955 27.7746463332 0.00011878497587 -6.83913497435e-05 -0.000386436837085
Te 0 2.9390179045 20.4746869044 3.34243438596e-06 -0.000254539234008 -0.00244460508782
Te 1.6689538727 5.8297304391 20.4746869044 0.000224971545209 0.000122898741268 -0.0024430624258
Te 4.2142178275 2.4330797971 20.5370195918 -4.37087573549e-06 6.42775843454e-06 -0.00236618643492
Te -1.6689538727 5.8297304391 20.4746869044 -0.000227542648583 0.000127526727341 -0.00244769041187
Sb -0 2.4294143953 8.4540333861 1.28555168691e-06 0.000228571089932 0.00197820693581
Sb 2.110283244 6.0845321938 8.4540333861 -0.00019540385641 -0.000113642769123 0.00197820693581
Sb 4.2142178275 2.4330797971 9.8200513004 -4.37087573549e-06 4.88509641025e-06 0.00159691230548
Sb -2.110283244 6.0845321938 8.4540333861 0.000195146746073 -0.000112357217436 0.00198129225986
Sb 0 2.4135552396 1.4667341661 5.14220674763e-07 0.000207745152604 -0.00036818200313
Sb 2.1240176689 6.0924617716 1.4667341661 -0.000177149022456 -0.000106186569339 -0.000361497134359
Sb 4.2142178275 2.4330797971 2.2623313929 1.02844134953e-06 -2.57110337382e-06 -0.000762589260674
Sb -2.1240176689 6.0924617716 1.4667341661 0.000175606360432 -0.000104901017652 -0.000357126258623
Sb -0 -0 19.8193634854 6.42775843454e-06 -1.54266202429e-06 -0.000979076164749
Sb 2.0019181832 3.7103515853 18.0368271004 0.000446600656032 -0.000259167220081 0.000910684815006
Sb 4.2142178275 -0.121463779 18.0368271004 -2.8282137112e-06 0.000503679150931 0.00090631393927
Sb 6.4265174719 3.7103515853 18.0368271004 -0.00043991578726 -0.000250682578947 0.000908113711632
Sb 0 -0 14.1589291136 5.91353775978e-06 -1.54266202429e-06 0.000602666630823
Sb 2.2313122783 3.5779108156 11.9694750688 -6.83913497435e-05 3.95949919568e-05 0.000975476620026
Sb 4.2142178275 0.1434177605 11.9694750688 5.14220674763e-07 -8.20181976247e-05 0.000982161488798
Sb -2.2313122783 3.5779108156 11.9694750688 7.09624531173e-05 4.03663229689e-05 0.000975476620026
Sb 2.1496113702 1.2410787148 28.8768321746 6.42775843454e-05 3.65096679082e-05 0.000273051178299
Sb 4.2142178275 4.817081962 28.8768321746 1.79977236167e-06 -7.43048875033e-05 0.000274850950661
Sb 6.2788242849 1.2410787148 28.8768321746 -6.45346946828e-05 3.85665506072e-05 0.000271251405938
Sb 0 4.8661595943 29.8946632628 1.02844134953e-06 -5.14220674763e-07 0.000234741738029
Sb 1.982670709 1.144695451 22.0775315659 0.000250939689284 0.000145524450958 -0.00317454133565
Sb 4.2142178275 5.0098484894 22.0775315659 -5.14220674763e-07 -0.000293105784615 -0.00317454133565
Sb 6.445764946 1.144695451 22.0775315659 -0.000253253682321 0.000145781561295 -0.0031735128943
Sb 0 4.8661595943 23.4800554957 4.11376539811e-06 1.02844134953e-06 -0.00287269379956
Cr 4.2142178275 2.4330797972 18.1250218219 -7.45619978407e-06 7.71331012145e-06 0.00020028895282
61
Lattice="8.42843558953 0 0 -4.21421779477 7.29923593142 0 0 0 31.0334408416" Properties=species:S:1:pos:R:3:forces:R:3 energy=-133599.796891 ionic_step=29 pbc="T T T"
Te 1.7815389857 1.0285719252 3.2834270444 0.000285135364156 0.000164293505587 -0.000583897576194
Te 4.2142178275 5.2420955412 3.2834270444 1.28555168691e-06 -0.000327815680162 -0.000582869134844
Te 6.6468966694 1.0285719252 3.2834270444 -0.000283849812469 0.000164550615924 -0.000581840693495
Te 0 4.8661595943 3.0606508147 -7.71331012145e-07 -2.57110337382e-07 -0.000309046625533
Te 0 0 6.8963793053 -3.34243438596e-06 1.28555168691e-06 0.000265337868178
Te 2.6254612742 3.3503486818 7.6903452459 0.00025531056502 -0.000148866885344 0.000757961274601
Te 4.2142178275 0.5985420278 7.6903452459 0 0.000296705329338 0.000760275267637
Te -2.6254612742 3.3503486818 7.6903452459 -0.00025531056502 -0.000148866885344 0.00076104659865
Te -0 -0 -0.3718706361 -2.57110337382e-07 -5.14220674763e-07 0.00042911715309
Te 2.4487297723 3.4523847097 -0.0163205709 0.000130097830715 -7.55904391902e-05 0.000359183141322
Te 4.2142178275 0.3944699721 -0.0163205709 -1.02844134953e-06 0.000149638216356 0.000358154699973
Te -2.4487297723 3.4523847097 -0.0163205709 -0.000130097830715 -7.45619978407e-05 0.00035841181031
Te -0 2.8176299876 13.8206105971 7.71331012145e-07 -2.90534681241e-05 0.000664373111794
Te 1.7740788324 5.8904243977 13.8206105971 2.75108060998e-05 1.51695099055e-05 0.000665144442806
Te 4.2142178275 2.4330797971 13.8022637618 -3.59954472334e-06 2.57110337382e-07 0.00106700790013
Te -1.7740788324 5.8904243977 13.8206105971 -2.59681440755e-05 1.51695099055e-05 0.000665401553144
Te 1.5414188335 0.8899384171 17.4257928889 0.000642261622779 0.000371267327179 0.000772102343157
Te 4.2142178275 5.5193625573 17.4257928889 -2.57110337382e-06 -0.000738163778623 0.00077081679147
Te 6.8870168216 0.8899384171 17.4257928889 -0.000640976071092 0.000367667782456 0.000773130784507
Te 0 4.8661595943 16.0569260399 -1.02844134953e-06 0 0.001227701861
Te 1.5790517696 0.9116658225 10.7828235634 0.000257624558056 0.000147581333657 0.00175477805263
Te 4.2142178275 5.4759077465 10.7828235634 3.34243438596e-06 -0.000295162667314 0.0017552922733
Te 6.8493838854 0.9116658225 10.7828235634 -0.00025531056502 0.000150152437031 0.00175323539061
Te 0 4.8661595943 10.3314961764 -1.02844134953e-06 0 0.00203965630645
Te -0 -0 23.9200574356 1.28555168691e-06 5.14220674763e-07 -0.00172675302586
Te 2.4829721663 3.4326148375 23.827907304 0.000608065947908 -0.000354812265587 -0.0016871580339
Te 4.2142178275 0.4340097164 23.827907304 -2.05688269905e-06 0.000702168331389 -0.00168664381322
Te -2.4829721663 3.4326148375 23.827907304 -0.000607294616895 -0.000351212720863 -0.00168612959255
Te 0 2.9453894188 27.7745146718 -1.28555168691e-06 4.01092126315e-05 0.000198232070121
Te 1.6634359703 5.8265446821 27.7745146718 -3.62525575708e-05 -1.9540385641e-05 0.000197717849446
Te 4.2142178275 2.4330797971 27.2270420005 -1.28555168691e-06 -7.71331012145e-07 -0.000546873687611
Te -1.6634359703 5.8265446821 27.7745146718 3.44527852091e-05 -2.03117166531e-05 0.000198489180459
Te 0 2.9391670835 20.4755889018 2.8282137112e-06 -0.000165064836599 -0.0017002706611
Te 1.66882468 5.8296558496 20.4755889018 0.000142182016572 8.25324182995e-05 -0.00169821377841
Te 4.2142178275 2.4330797971 20.5375744893 -3.85665506072e-06 -1.28555168691e-06 -0.00193166996475
Te -1.66882468 5.8296558496 20.4755889018 -0.000141153575223 8.48464113359e-05 -0.00169795666807
Sb -0 2.4296944721 8.4540130686 2.8282137112e-06 0.00010412968664 0.00115031164945
Sb 2.1100406905 6.0843921554 8.4540130686 -8.66461836976e-05 -5.06507364642e-05 0.00115056875978
Sb 4.2142178275 2.4330797971 9.8204091759 4.62798607287e-06 -1.02844134953e-06 0.00109966091298
Sb -2.1100406905 6.0843921554 8.4540130686 9.30739421321e-05 -5.14220674763e-05 0.00115159720113
Sb 0 2.4137425211 1.4661141607 -2.57110337382e-07 0.000444029552658 -0.000310846397894
Sb 2.1238554784 6.0923681308 1.4661141607 -0.000384637064723 -0.000220857779811 -0.000314960163292
Sb 4.2142178275 2.4330797971 2.262107349 5.14220674763e-07 1.28555168691e-06 -0.00133517398202
Sb -2.1238554784 6.0923681308 1.4661141607 0.000385151285398 -0.000221372000486 -0.000310846397894
Sb -0 -0 19.819457752 -1.02844134953e-06 -2.57110337382e-07 -0.000730707578839
Sb 2.0016525363 3.7105049567 18.0367432715 0.000550216121997 -0.000317017045992 0.000473854351794
Sb 4.2142178275 -0.1217705218 18.0367432715 2.57110337382e-06 0.00063043454726 0.000475911234493
Sb 6.4267831188 3.7105049567 18.0367432715 -0.000541474370526 -0.000315988604642 0.000474111462132
Sb 0 -0 14.1592673296 1.02844134953e-06 -1.02844134953e-06 0.000519619991848
Sb 2.2313695905 3.5778777264 11.9693239199 -0.000184348111903 0.000104643907314 0.0011032604577
Sb 4.2142178275 0.1434839388 11.9693239199 -1.54266202429e-06 -0.000212630249015 0.00110248912669
Sb -2.2313695905 3.5778777264 11.9693239199 0.000186404994602 0.000107472121026 0.00110351756804
Sb 2.1497348079 1.2411499816 28.8764467278 0.000209802035303 0.00011878497587 0.00115339697349
Sb 4.2142178275 4.8169394283 28.8764467278 2.57110337382e-06 -0.000240655275789 0.00115416830451
Sb 6.2787008472 1.2411499816 28.8764467278 -0.000209544924966 0.000121613189582 0.00115596807687
Sb 0 4.8661595943 29.8943885648 -1.02844134953e-06 -2.57110337382e-07 0.00130123541749
Sb 1.9829111557 1.1448342729 22.0779950127 3.5738336896e-05 1.97974959784e-05 -0.0021823525437
Sb 4.2142178275 5.0095708454 22.0779950127 -5.14220674763e-07 -3.72809989203e-05 -0.00218209543336
Sb 6.4455244993 1.1448342729 22.0779950127 -3.05961301484e-05 1.67121719298e-05 -0.00218080988167
Sb 0 4.8661595943 23.4792138367 7.97042045883e-06 2.57110337382e-06 -0.00186970637344
Cr 4.2142178275 2.4330797972 18.1255920116 -5.39931708501e-06 -2.05688269905e-06 -0.000186404994602
61
Lattice="8.42843558953 0 0 -4.21421779477 7.29923593142 0 0 0 31.0334408416" Properties=species:S:1:pos:R:3:forces:R:3 energy=-133599.796948 ionic_step=30 pbc="T T T"
Te 1.7814525205 1.0285220045 3.2826378012 -0.000190775870337 -0.000109271893387 -0.000487224089338
Te 4.2142178275 5.2421953827 3.2826378012 -1.54266202429e-06 0.000221372000486 -0.000486195647989
Te 6.6469831346 1.0285220045 3.2826378012 0.000192061422024 -0.000110814555411 -0.000484652985964
Te 0 4.8661595943 3.0600759851 4.11376539811e-06 1.79977236167e-06 -0.000795242273521
Te 0 0 6.8959333523 1.28555168691e-06 -3.59954472334e-06 -0.00125084179136
Te 2.625695169 3.3502136425 7.6906798448 0.000375638202915 -0.000214430021376 -0.00244486219816
Te 4.2142178275 0.5988121064 7.6906798448 -7.71331012145e-07 0.000429374263427 -0.00244871885322
Te -2.625695169 3.3502136425 7.6906798448 -0.000366896451444 -0.000206716711255 -0.00245668927368
Te -0 0 -0.3722317474 -4.88509641025e-06 -2.57110337382e-07 3.62525575708e-05
Te 2.4490314776 3.45221052 -0.0174006299 -0.00114439811169 0.000662316229095 -0.000280507378083
Te 4.2142178275 0.3948183516 -0.0174006299 4.11376539811e-06 -0.00132488956853 -0.000280250267746
Te -2.4490314776 3.45221052 -0.0174006299 0.00114439811169 0.000659745125721 -0.000284364033144
Te -0 2.8175628257 13.820360745 1.02844134953e-06 -0.001227701861 0.00416852989997
Te 1.7741369963 5.8904579786 13.820360745 0.00105595215563 0.000610637051281 0.00416981545166
Te 4.2142178275 2.4330797971 13.8015760039 4.37087573549e-06 -1.28555168691e-06 0.00347947419579
Te -1.7741369963 5.8904579786 13.820360745 -0.00106315124507 0.000617579030391 0.00416775856896
Te 1.5408776996 0.8896259932 17.4272471559 -0.000168407270985 -8.40750803238e-05 -0.00146578603341
Te 4.2142178275 5.5199874052 17.4272471559 -1.6197951255e-05 0.00020028895282 -0.00145781561295
Te 6.8875579555 0.8896259932 17.4272471559 0.000160179740189 -9.84732592172e-05 -0.00145575873025
Te 0 4.8661595943 16.0563862098 3.08532404858e-06 3.85665506072e-06 0.00117859378656
Te 1.5791700627 0.911734119 10.7826078867 -0.000688798593845 -0.000400835015978 -0.00134494417484
Te 4.2142178275 5.4757711534 10.7826078867 -1.79977236167e-06 0.000795499383859 -0.00134957216092
Te 6.8492655923 0.911734119 10.7826078867 0.000686484600809 -0.000399806574628 -0.00134442995417
Te 0 4.8661595943 10.331706111 3.59954472334e-06 -3.08532404858e-06 -0.00215329907557
Te -0 -0 23.920456459 6.42775843454e-06 4.37087573549e-06 0.00126086909452
Te 2.4828625632 3.432678117 23.8288454505 -8.56177423481e-05 4.47371987044e-05 0.000269451633576
Te 4.2142178275 0.4338831576 23.8288454505 2.31399303643e-06 -9.92445902293e-05 0.000259424330418
Te -2.4828625632 3.432678117 23.8288454505 8.53606320107e-05 4.57656400539e-05 0.000264566537166
Te 0 2.9452390026 27.7741532456 2.57110337382e-07 -0.000107472121026 0.00224714434872
Te 1.6635662345 5.8266198901 27.7741532456 9.46166041564e-05 5.57929432118e-05 0.00225382921749
Te 4.2142178275 2.4330797971 27.2264429654 -1.28555168691e-06 -1.28555168691e-06 0.00107137877587
Te -1.6635662345 5.8266198901 27.7741532456 -8.56177423481e-05 5.27076191632e-05 0.00224791567973
Te 0 2.9393575902 20.476851023 -5.6564274224e-06 0.000210830476653 -0.000861062519891
Te 1.6686596965 5.8295605963 20.476851023 -0.000181777008529 -0.000103615465965 -0.00086414784394
Te 4.2142178275 2.4330797971 20.5387533717 7.97042045883e-06 -4.37087573549e-06 -0.00120353348928
Te -1.6686596965 5.8295605963 20.476851023 0.000185376553252 -0.000110557445074 -0.000859776968204
Sb -0 2.4299310409 8.4538126466 2.57110337382e-06 -0.00137091231892 -0.00324858911282
Sb 2.109835816 6.084273871 8.4538126466 0.00119864839287 0.000687255931821 -0.0032408758027
Sb 4.2142178275 2.4330797971 9.8204217693 -7.71331012145e-07 2.57110337382e-06 -0.00229676664383
Sb -2.109835816 6.084273871 8.4538126466 -0.00119273485511 0.000688027262833 -0.00325038888518
Sb 0 2.4139321242 1.4651863894 2.8282137112e-06 -0.000910941925343 -0.000615779258029
Sb 2.1236912774 6.0922733293 1.4651863894 0.000790100066774 0.000458427731551 -0.000616807699379
Sb 4.2142178275 2.4330797971 2.2616191004 -2.8282137112e-06 1.02844134953e-06 0.000682627945748
Sb -2.1236912774 6.0922733293 1.4651863894 -0.000790357177111 0.00046048461425 -0.00061269393398
Sb -0 -0 19.8202794552 -2.75108060998e-05 -3.85665506072e-06 -0.00350621367087
Sb 2.0014842207 3.7106021338 18.0368813889 0.000762846371011 -0.000430659815114 -0.00231450725711
Sb 4.2142178275 -0.121964876 18.0368813889 1.9540385641e-05 0.000872889595411 -0.0023116790434
Sb 6.4269514344 3.7106021338 18.0368813889 -0.000752819067853 -0.000448914649068 -0.00230010907822
Sb 0 -0 14.1597400272 5.14220674763e-07 2.05688269905e-06 0.00263049586175
Sb 2.2312973419 3.5779194392 11.9691870613 0.00130303518985 -0.000748191081781 0.0017298383499
Sb 4.2142178275 0.1434005133 11.9691870613 4.37087573549e-06 0.00150512391503 0.0017318952326
Sb -2.2312973419 3.5779194392 11.9691870613 -0.00130329230019 -0.00075513306089 0.00173035257058
Sb 2.1497986364 1.241186833 28.875747391 -0.00189156075212 -0.00108654828577 0.00261121258645
Sb 4.2142178275 4.8168657255 28.875747391 -7.19908944669e-06 0.00218440942639 0.00261558346218
Sb 6.2786370187 1.241186833 28.875747391 0.00189207497279 -0.00109734691994 0.00261584057252
Sb 0 4.8661595943 29.8940136319 5.14220674763e-06 1.02844134953e-06 0.00114465522202
Sb 1.9831449899 1.1449692773 22.0787318262 -3.13674611606e-05 -1.82548339541e-05 0.000626577892199
Sb 4.2142178275 5.0093008368 22.0787318262 -1.54266202429e-06 4.60227503913e-05 0.000614750816679
Sb 6.4452906651 1.1449692773 22.0787318262 3.54812265587e-05 -1.90261649662e-05 0.000609094389257
Sb 0 4.8661595943 23.4788376197 5.14220674763e-06 -5.14220674763e-07 0.000658202463697
Cr 4.2142178275 2.4330797972 18.1263348364 9.51308248312e-06 -1.13128548448e-05 -0.00379314880739
61
Lattice="8.42843558953 0 0 -4.21421779477 7.29923593142 0 0 0 31.0334408416" Properties=species:S:1:pos:R:3:forces:R:3 energy=-133599.797024 ionic_step=31 pbc="T T T"
Te 1.7812718305 1.028417683 3.2811793912 7.04482324426e-05 4.13947643184e-05 0.000377695085614
Te 4.2142178275 5.2424040256 3.2811793912 -3.59954472334e-06 -8.20181976247e-05 0.000380780409662
Te 6.6471638246 1.028417683 3.2811793912 -7.19908944669e-05 3.9080771282e-05 0.000381551740674
Te 0 4.8661595943 3.0591252131 1.54266202429e-06 1.54266202429e-06 3.62525575708e-05
Te 0 0 6.8950367569 -4.37087573549e-06 2.57110337382e-07 0.00156065974791
Te 2.6261439296 3.3499545503 7.6905597406 -0.000358926030985 0.000204659828556 0.00150152437031
Te 4.2142178275 0.5993302907 7.6905597406 -4.37087573549e-06 -0.000412662091498 0.00149715349457
Te -2.6261439296 3.3499545503 7.6905597406 0.000354555155249 0.000206459600917 0.00149535372221
Te 0 0 -0.3733005002 -1.54266202429e-06 -1.28555168691e-06 -0.00077184523282
Te 2.4493774549 3.4520107698 -0.0189141985 0.00011389987946 -6.4020474008e-05 -0.000929196759297
Te 4.2142178275 0.395217852 -0.0189141985 5.14220674763e-07 0.000131383382402 -0.000926882766261
Te -2.4493774549 3.4520107698 -0.0189141985 -0.000113642769123 -6.50489153576e-05 -0.000929968090309
Te -0 2.8174483923 13.8202779676 -3.59954472334e-06 -0.000284106922807 -0.00256544694639
Te 1.7742360984 5.8905151953 13.8202779676 0.000250168358272 0.00014629578197 -0.00256930360145
Te 4.2142178275 2.4330797971 13.8008903895 2.8282137112e-06 -1.54266202429e-06 -0.00249371316226
Te -1.7742360984 5.8905151953 13.8202779676 -0.000241940827476 0.000137811140837 -0.00256390428437
Te 1.5404509586 0.8893796141 17.4294677894 -0.000493137627098 -0.000285906695168 0.00151926498359
Te 4.2142178275 5.5204801635 17.4294677894 2.57110337382e-06 0.000569756507638 0.00151309433549
Te 6.8879846965 0.8893796141 17.4294677894 0.000493137627098 -0.000284106922807 0.00150718079773
Te 0 4.8661595943 16.0561596718 -4.62798607287e-06 -0 0.000826866845019
Te 1.579272813 0.911793442 10.7819681333 7.86757632388e-05 4.67940814035e-05 -0.00251685309263
Te 4.2142178275 5.4756525075 10.7819681333 -3.34243438596e-06 -9.43594938191e-05 -0.00251633887195
Te 6.849162842 0.911793442 10.7819681333 -8.40750803238e-05 4.65369710661e-05 -0.00251376776858
Te 0 4.8661595943 10.3315690314 1.28555168691e-06 -5.14220674763e-07 -0.0020049464109
Te -0 -0 23.9214830294 1.02844134953e-06 -0 -5.06507364642e-05
Te 2.4828992379 3.4326569428 23.8303753352 -0.000230113751957 0.000134468706451 -3.08532404858e-05
Te 4.2142178275 0.4339255059 23.8303753352 2.8282137112e-06 -0.000265337868178 -2.8282137112e-05
Te -2.4828992379 3.4326569428 23.8303753352 0.000229342420944 0.000130354941052 -2.64823647503e-05
Te 0 2.9453093483 27.7732815044 0 -0.000196946518434 0.00137579741533
Te 1.6635053134 5.8265847173 27.7732815044 0.000172263926046 9.87303695545e-05 0.00137502608432
Te 4.2142178275 2.4330797971 27.2254412698 -3.08532404858e-06 -2.57110337382e-07 0.00206382467816
Te -1.6635053134 5.8265847173 27.7732815044 -0.000170721264021 9.66734868555e-05 0.00137554030499
Te 0 2.9396489009 20.4788610349 3.59954472334e-06 -1.69692822672e-05 -0.000165064836599
Te 1.6684074141 5.829414941 20.4788610349 1.46552892308e-05 5.14220674763e-06 -0.000162493733225
Te 4.2142178275 2.4330797971 20.5409804379 -3.85665506072e-06 5.14220674763e-07 0.000514734895438
Te -1.6684074141 5.829414941 20.4788610349 -1.46552892308e-05 1.079863417e-05 -0.000165579057274
Sb -0 2.4301281816 8.4530399383 6.42775843454e-06 0.000356097817274 0.00128118081117
Sb 2.1096650873 6.0841753007 8.4530399383 -0.000305961301484 -0.000180234346505 0.00128400902488
Sb 4.2142178275 2.4330797971 9.8199496671 -4.62798607287e-06 5.14220674763e-07 -0.000504193371605
Sb -2.1096650873 6.0841753007 8.4530399383 0.000310589287557 -0.000176377691444 0.00127963814915
Sb 0 2.4141595838 1.463623907 -2.31399303643e-06 0.000136268478812 -0.00033681454197
Sb 2.1234942917 6.0921595995 1.463623907 -0.000116728093171 -6.71057980566e-05 -0.000337071652307
Sb 4.2142178275 2.4330797971 2.2605841525 1.02844134953e-06 -7.71331012145e-07 -0.000166864608961
Sb -2.1234942917 6.0921595995 1.463623907 0.000116985203509 -6.89055704183e-05 -0.000337585872982
Sb -0 -0 19.8223083497 4.11376539811e-06 2.57110337382e-07 0.000131126272065
Sb 2.0013995718 3.7106510059 18.0377134185 -0.000509078468016 0.000294391336302 0.00152466430067
Sb 4.2142178275 -0.1220626202 18.0377134185 1.79977236167e-06 -0.000587497120917 0.00151669388021
Sb 6.4270360833 3.7106510059 18.0377134185 0.000507021585317 0.000291048901916 0.00150795212874
Sb 0 -0 14.1605501312 1.54266202429e-06 1.54266202429e-06 -0.00213118758656
Sb 2.2310569883 3.5780582074 11.9691183486 -0.000246054592874 0.000146552892308 -0.00355635018666
Sb 4.2142178275 0.1431229768 11.9691183486 6.9419791093e-06 -0.00028770646753 -0.00355120797992
Sb -2.2310569883 3.5780582074 11.9691183486 0.000251968130634 0.000142182016572 -0.00354863687654
Sb 2.1497543623 1.2411612713 28.8743511385 0.000338871424669 0.00020028895282 0.000720166055006
Sb 4.2142178275 4.8169168489 28.8743511385 -3.59954472334e-06 -0.000393635926531 0.000725822482428
Sb 6.2786812928 1.2411612713 28.8743511385 -0.000339899866019 0.000197203628772 0.000726850923778
Sb 0 4.8661595943 29.8933458499 2.57110337382e-07 -2.05688269905e-06 0.000379237747638
Sb 1.9832982453 1.1450577594 22.0800675756 -0.000209544924966 -0.000120584748232 -0.00148584063973
Sb 4.2142178275 5.0091238726 22.0800675756 -7.71331012145e-07 0.000242969268826 -0.00148481219838
Sb 6.4451374097 1.1450577594 22.0800675756 0.000208516483617 -0.000120584748232 -0.00148301242602
Sb 0 4.8661595943 23.4800381206 3.85665506072e-06 0 -0.000541474370526
Cr 4.2142178275 2.4330797972 18.127858185 -8.48464113359e-06 -7.71331012145e-07 0.000432973808151
61
Lattice="8.42843558953 0 0 -4.21421779477 7.29923593142 0 0 0 31.0334408416" Properties=species:S:1:pos:R:3:forces:R:3 energy=-133599.797109 ionic_step=32 pbc="T T T"
Te 1.7810524215 1.0282910071 3.2795580837 0.000112614327773 6.4020474008e-05 -0.00256004762931
Te 4.2142178275 5.2426573775 3.2795580837 -1.54266202429e-06 -0.000128812279028 -0.00256030473965
Te 6.6473832336 1.0282910071 3.2795580837 -0.000113642769123 6.4020474008e-05 -0.00256184740167
Te 0 4.8661595943 3.0583301953 -7.71331012145e-07 5.14220674763e-07 -0.00387336723265
Te 0 0 6.8946304958 -3.85665506072e-06 -1.54266202429e-06 -0.00189233208313
Te 2.6266251807 3.3496766997 7.6910211985 -0.000466141041673 0.000265852088853 -0.00187253458715
Te 4.2142178275 0.5998859919 7.6910211985 -3.59954472334e-06 -0.000535560832766 -0.00187124903546
Te -2.6266251807 3.3496766997 7.6910211985 0.000458170621214 0.000267908971552 -0.0018653354977
Te 0 0 -0.3744828479 1.02844134953e-06 -2.57110337382e-07 0.000371524437516
Te 2.4497366582 3.4518033836 -0.0204050913 4.11376539811e-05 -2.54539234008e-05 0.000161208181538
Te 4.2142178275 0.3956326244 -0.0204050913 -2.8282137112e-06 4.70511917408e-05 0.00016197951255
Te -2.4497366582 3.4518033836 -0.0204050913 -3.98521022942e-05 -2.10830476653e-05 0.000160436850526
Te -0 2.8172150955 13.8198519787 -3.59954472334e-06 0.000735849785586 -0.00124929912934
Te 1.7744381394 5.8906318437 13.8198519787 -0.000635576754007 -0.000365096679082 -0.00124981335001
Te 4.2142178275 2.4330797971 13.8002955145 -5.91353775978e-06 -1.28555168691e-06 -0.00136011368475
Te -1.7744381394 5.8906318437 13.8198519787 0.000637890747044 -0.000370495996167 -0.00124775646731
Te 1.5399190675 0.8890725264 17.4318523485 0.00045174286278 0.00026019566143 -0.000167378829635
Te 4.2142178275 5.5210943387 17.4318523485 2.57110337382e-07 -0.000516277557462 -0.0001630079539
Te 6.8885165876 0.8890725264 17.4318523485 -0.000444543773333 0.000255824785695 -0.000159151298839
Te 0 4.8661595943 16.0553000427 -5.14220674763e-06 -5.14220674763e-07 -7.17337841295e-05
Te 1.5792882958 0.911802381 10.7813928121 0.000518591550499 0.000300047763724 -0.000870575602374
Te 4.2142178275 5.4756346294 10.7813928121 2.57110337382e-07 -0.000596495982725 -0.000866718947313
Te 6.8491473592 0.911802381 10.7813928121 -0.000518077329824 0.000298762212037 -0.000866718947313
Te 0 4.8661595943 10.3315762203 -3.34243438596e-06 -2.57110337382e-07 -0.00106932189317
Te -0 -0 23.9220226641 2.57110337382e-06 -7.71331012145e-07 0.0010268986875
Te 2.4828861101 3.4326645221 23.8318444814 -2.4939702726e-05 1.54266202429e-05 0.000574898714385
Te 4.2142178275 0.4339103472 23.8318444814 -7.71331012145e-07 -3.18816818353e-05 0.000573613162698
Te -2.4828861101 3.4326645221 23.8318444814 2.69965854251e-05 1.72263926046e-05 0.000575155824723
Te 0 2.9454253484 27.7724627151 -5.14220674763e-07 -0.000697283234979 0.0043778177146
Te 1.6634048544 5.8265267173 27.7724627151 0.000604209292847 0.000347870286477 0.0043757608319
Te 4.2142178275 2.4330797971 27.2245042797 -1.28555168691e-06 1.02844134953e-06 0.00554921241171
Te -1.6634048544 5.8265267173 27.7724627151 -0.000603695072172 0.000346841845128 0.00437833193527
Te 0 2.9400075597 20.4813373089 2.31399303643e-06 0.00137682585668 0.000575927155735
Te 1.6680968066 5.8292356116 20.4813373089 -0.00119376329646 -0.000689827035195 0.000577212707422
Te 4.2142178275 2.4330797971 20.5432494604 -2.57110337382e-06 -2.57110337382e-07 0.00136654144318
Te -1.6680968066 5.8292356116 20.4813373089 0.0011940204068 -0.000687255931821 0.000575670045397
Sb -0 2.4303170826 8.4526308584 6.42775843454e-06 0.000449943090418 -0.00163676440777
Sb 2.1095014943 6.0840808502 8.4526308584 -0.000391579043832 -0.000227542648583 -0.00164010684216
Sb 4.2142178275 2.4330797971 9.8201129267 -1.20841858569e-05 -3.85665506072e-06 -0.00105518082461
Sb -2.1095014943 6.0840808502 8.4526308584 0.000392607485182 -0.000221629110823 -0.0016362501871
Sb 0 2.4144353613 1.4619238168 -0 0.000980618826774 -0.00107343565857
Sb 2.1232554615 6.0920217107 1.4619238168 -0.000849492554709 -0.000490052303049 -0.00107317854823
Sb 4.2142178275 2.4330797971 2.2594876585 1.02844134953e-06 -1.28555168691e-06 -0.00211576096631
Sb -2.1232554615 6.0920217107 1.4619238168 0.000849492554709 -0.000490052303049 -0.00107394987924
Sb -0 -0 19.8247916736 -1.49123995681e-05 -3.85665506072e-06 0.00027793627471
Sb 2.0015326877 3.7105741513 18.038150742 -0.00113951301528 0.000656659801673 0.000269708743913
Sb 4.2142178275 -0.1219089111 18.038150742 -2.31399303643e-06 -0.00130869161727 0.00026610919919
Sb 6.4269029674 3.7105741513 18.038150742 0.00112820016043 0.0006520318156 0.000261995433792
Sb 0 -0 14.1612496185 1.079863417e-05 5.14220674763e-07 -0.00147349934353
Sb 2.230846513 3.5781797254 11.9690009239 -0.000317788377004 0.000181005677517 -0.000526819081295
Sb 4.2142178275 0.1428799407 11.9690009239 -3.08532404858e-06 -0.000362011355033 -0.000524505088259
Sb -2.230846513 3.5781797254 11.9690009239 0.000314703052955 0.000183833891228 -0.000525533529608
Sb 2.1496609479 1.2411073385 28.872902794 0.00063531964367 0.000367667782456 0.00348384507152
Sb 4.2142178275 4.8170247146 28.872902794 1.02844134953e-06 -0.000734821344237 0.00348513062321
Sb 6.2787747072 1.2411073385 28.872902794 -0.000637633636706 0.00036818200313 0.00348333085085
Sb 0 4.8661595943 29.8927308907 2.57110337382e-07 2.57110337382e-07 0.0032519315472
Sb 1.9835912299 1.1452269142 22.0812087915 0.000273308288637 0.000156580195465 -3.0339019811e-05
Sb 4.2142178275 5.0087855629 22.0812087915 -1.28555168691e-06 -0.00031521727363 -2.90534681241e-05
Sb 6.4448444251 1.1452269142 22.0812087915 -0.000277422054035 0.000157608636815 -2.98247991363e-05
Sb 0 4.8661595943 23.4793647065 -4.88509641025e-06 -2.57110337382e-07 0.000549701901322
Cr 4.2142178275 2.4330797972 18.1295680434 -6.17064809716e-06 -4.88509641025e-06 -0.00115442541484
61
Lattice="8.42843558953 0 0 -4.21421779477 7.29923593142 0 0 0 31.0334408416" Properties=species:S:1:pos:R:3:forces:R:3 energy=-133599.797229 ionic_step=33 pbc="T T T"
Te 1.7807304014 1.0281050886 3.2773217202 0.00028179292977 0.000160951071201 -0.00292411586704
Te 4.2142178275 5.2430292144 3.2773217202 3.59954472334e-06 -0.000326787238812 -0.00292642986008
Te 6.6477052537 1.0281050886 3.2773217202 -0.00028179292977 0.000165579057274 -0.0029279725221
Te 0 4.8661595943 3.0573565445 -1.79977236167e-06 0 -0.004128163577
Te 0 0 6.8942158472 1.79977236167e-06 -1.02844134953e-06 -0.00114542655304
Te 2.6271819015 3.3493552767 7.6914824545 0.000526047750283 -0.000300561984399 -0.00211061875957
Te 4.2142178275 0.600528838 7.6914824545 3.85665506072e-06 0.000606009065209 -0.00210959031822
Te -2.6271819015 3.3493552767 7.6914824545 -0.000522962426234 -0.000303647308448 -0.00210650499417
Te 0 0 -0.3762614047 -2.05688269905e-06 7.71331012145e-07 0.000159922629851
Te 2.450132579 3.4515747985 -0.0222274567 -0.000205945380243 0.000119556306882 -0.000364839568745
Te 4.2142178275 0.3960897946 -0.0222274567 1.02844134953e-06 -0.000237569951741 -0.00036432534807
Te -2.450132579 3.4515747985 -0.0222274567 0.000207745152604 0.000119299196545 -0.000365610899757
Te -0 2.8168916329 13.8193829797 3.59954472334e-06 0.00132566089954 0.0014099930902
Te 1.774718266 5.890793575 13.8193829797 -0.00115031164945 -0.000666687104831 0.00141642084864
Te 4.2142178275 2.4330797971 13.7997533433 3.59954472334e-06 1.28555168691e-06 0.00106315124507
Te -1.774718266 5.890793575 13.8193829797 0.00114619788405 -0.000659745125721 0.0014058793248
Te 1.5394203857 0.8887846123 17.4350176048 0.000113642769123 6.7362908394e-05 -0.00030339019811
Te 4.2142178275 5.5216701671 17.4350176048 -4.11376539811e-06 -0.00012958361004 -0.000312903280593
Te 6.8890152694 0.8887846123 17.4350176048 -0.000113128548448 6.27349223211e-05 -0.000317017045992
Te 0 4.8661595943 16.054275481 4.88509641025e-06 7.71331012145e-07 -0.000305189970472
Te 1.5791971604 0.9117497639 10.7807436589 0.000162236622888 9.10170594331e-05 -0.00210393389079
Te 4.2142178275 5.4757398636 10.7807436589 4.88509641025e-06 -0.000189233208313 -0.00210727632518
Te 6.8492384946 0.9117497639 10.7807436589 -0.000163779284912 9.79590385424e-05 -0.00210933320788
Te 0 4.8661595943 10.3314981861 7.71331012145e-07 -0 -0.00193218418542
Te -0 -0 23.9226557389 -2.57110337382e-07 -2.57110337382e-07 0.00268063237754
Te 2.4829436261 3.4326313152 23.8336591625 -0.000262252544129 0.000149381106019 0.00219417961921
Te 4.2142178275 0.433976761 23.8336591625 -3.34243438596e-06 -0.000298762212037 0.00219443672955
Te -2.4829436261 3.4326313152 23.8336591625 0.000254025013333 0.000148352664669 0.00219623650191
Te 0 2.9457282252 27.7712796096 4.37087573549e-06 -0.00038000907865 0.00404074606229
Te 1.6631425555 5.8263752789 27.7712796096 0.000330129673198 0.000187176325614 0.0040394605106
Te 4.2142178275 2.4330797971 27.2232952878 -4.37087573549e-06 7.71331012145e-07 0.00496711460788
Te -1.6631425555 5.8263752789 27.7712796096 -0.000328587011174 0.000192318532361 0.00404280294499
Te 0 2.9405171892 20.4846512268 0 0.000854120540782 -0.00102304203244
Te 1.6676554547 5.8289807968 20.4846512268 -0.00074330598537 -0.000429374263427 -0.0010268986875
Te 4.2142178275 2.4330797971 20.5462186078 -7.71331012145e-07 -2.57110337382e-07 -2.95676887989e-05
Te -1.6676554547 5.8289807968 20.4846512268 0.000739192219972 -0.000426288939379 -0.00101995670839
Sb -0 2.4305519833 8.4520068097 -6.17064809716e-06 -0.000372038658191 -0.00306835476631
Sb 2.1092980644 6.0839633998 8.4520068097 0.000323187694089 0.000188976097975 -0.00306681210429
Sb 4.2142178275 2.4330797971 9.8205640067 8.99886180836e-06 1.79977236167e-06 -0.00297013861743
Sb -2.1092980644 6.0839633998 8.4520068097 -0.000323701914763 0.000182291229204 -0.00306886898699
Sb 0 2.4148024605 1.4596296513 -5.14220674763e-07 3.39385645344e-05 -0.0031796835424
Sb 2.1229375444 6.0918381611 1.4596296513 -2.98247991363e-05 -1.67121719298e-05 -0.00318225464577
Sb 4.2142178275 2.4330797971 2.2579349013 1.54266202429e-06 1.02844134953e-06 -0.00248342874877
Sb -2.1229375444 6.0918381611 1.4596296513 2.98247991363e-05 -1.7483502942e-05 -0.00317788377004
Sb -0 -0 19.8285448429 4.88509641025e-06 1.28555168691e-06 -0.000513963564426
Sb 2.0018120716 3.7104128489 18.0387647218 -0.00107420698958 0.000618350361403 -0.000549187680647
Sb 4.2142178275 -0.1215863062 18.0387647218 -2.05688269905e-06 -0.00124235715023 -0.000547387908285
Sb 6.4266235835 3.7104128489 18.0387647218 0.0010778065343 0.000622978347476 -0.000543274142887
Sb 0 -0 14.1620788426 -2.8282137112e-06 -7.71331012145e-07 0.00114645499438
Sb 2.2306114179 3.5783154577 11.968861517 -2.57110337382e-06 -7.71331012145e-07 0.000297219550013
Sb 4.2142178275 0.1426084761 11.968861517 -4.11376539811e-06 -3.08532404858e-06 0.000296191108664
Sb -2.2306114179 3.5783154577 11.968861517 3.34243438596e-06 4.37087573549e-06 0.000295419777651
Sb 2.1494222893 1.2409695488 28.8709365468 -0.000112614327773 -6.53060256949e-05 0.00268140370855
Sb 4.2142178275 4.8173002939 28.8709365468 7.71331012145e-07 0.000129840720378 0.00268603169463
Sb 6.2790133658 1.2409695488 28.8709365468 0.000113385658785 -6.42775843454e-05 0.00269117390137
Sb 0 4.8661595943 29.8919418869 2.05688269905e-06 2.57110337382e-07 0.00179977236167
Sb 1.9839053282 1.145408259 22.08260226 0.000652546036275 0.000375638202915 0.000760789488312
Sb 4.2142178275 5.0084228733 22.08260226 3.08532404858e-06 -0.000751019295492 0.000756675722914
Sb 6.4445303268 1.145408259 22.08260226 -0.000648175160539 0.000376923754601 0.000752047736841
Sb 0 4.8661595943 23.4782803981 2.57110337382e-06 5.14220674763e-07 0.00215612728928
Cr 4.2142178275 2.4330797972 18.1322429185 -1.79977236167e-06 2.57110337382e-07 -0.00026713764054
61
Lattice="8.42843558953 0 0 -4.21421779477 7.29923593142 0 0 0 31.0334408416" Properties=species:S:1:pos:R:3:forces:R:3 energy=-133599.797375 ionic_step=34 pbc="T T T"
Te 1.780250227 1.0278278597 3.2739231382 0.00065100337425 0.000374352651228 -0.0027078860733
Te 4.2142178275 5.2435836723 3.2739231382 2.57110337382e-06 -0.000751019295492 -0.00270762896297
Te 6.6481854281 1.0278278597 3.2739231382 -0.000650746263913 0.000376923754601 -0.00270968584566
Te 0 4.8661595943 3.0557389092 7.71331012145e-07 2.57110337382e-07 -0.00306372678024
Te 0 0 6.8934041002 8.22753079621e-06 -5.14220674763e-07 -0.000891401539702
Te 2.6277206186 3.3490442481 7.6918241686 0.000567442514601 -0.000325758797463 -0.00103615465965
Te 4.2142178275 0.6011508953 7.6918241686 -7.71331012145e-07 0.00064611827784 -0.0010310124529
Te -2.6277206186 3.3490442481 7.6918241686 -0.000558957873468 -0.000317788377004 -0.00102509891514
Te 0 0 -0.3790851115 1.28555168691e-06 -0 0.00338434337095
Te 2.450650836 3.4512755826 -0.025005676 0.000160951071201 -9.5645045506e-05 0.00358694631681
Te 4.2142178275 0.3966882265 -0.025005676 -2.8282137112e-06 0.000185890773927 0.00358694631681
Te -2.450650836 3.4512755826 -0.025005676 -0.000160951071201 -9.10170594331e-05 0.00358386099276
Te -0 2.8163806143 13.8189769351 3.59954472334e-06 1.46552892308e-05 -0.00220626380507
Te 1.7751608209 5.8910490843 13.8189769351 -2.44254820513e-05 -9.7701928205e-06 -0.00221012046013
Te 4.2142178275 2.4330797971 13.7989335728 3.59954472334e-06 -2.57110337382e-06 -0.00218106699201
Te -1.7751608209 5.8910490843 13.8189769351 1.7483502942e-05 -3.85665506072e-06 -0.00221217734283
Te 1.5388488475 0.8884546344 17.4397483609 -0.00141307841425 -0.000811954445451 -0.000674914635627
Te 4.2142178275 5.5223301229 17.4397483609 -2.8282137112e-06 0.00163033664934 -0.00067362908394
Te 6.8895868076 0.8884546344 17.4397483609 0.00141282130391 -0.000817096652199 -0.0006795426217
Te 0 4.8661595943 16.0531526218 4.88509641025e-06 -7.71331012145e-07 -0.00369441843784
Te 1.5790564198 0.9116685073 10.7796541597 -0.000532732619055 -0.000311103508232 0.000469483476059
Te 4.2142178275 5.4759023769 10.7796541597 5.14220674763e-06 0.000612436823643 0.000464855489986
Te 6.8493792352 0.9116685073 10.7796541597 0.000525533529608 -0.000303904418785 0.000464855489986
Te 0 4.8661595943 10.3310346895 -2.31399303643e-06 2.8282137112e-06 0.00100067343309
Te -0 -0 23.9240051165 -1.15699651822e-05 -1.28555168691e-06 -0.000180748567179
Te 2.4830301463 3.4325813628 23.8366068847 -9.66734868555e-05 6.42775843454e-05 0.000480539220566
Te 4.2142178275 0.4340766659 23.8366068847 1.079863417e-05 -0.000115699651822 0.000476939675843
Te -2.4830301463 3.4325813628 23.8366068847 0.000100787252254 5.42502811875e-05 0.000473854351794
Te 0 2.9462227636 27.7693604115 -2.05688269905e-06 9.69305971929e-05 -0.000289249129554
Te 1.6627142729 5.8261280097 27.7693604115 -8.27895286369e-05 -4.70511917408e-05 -0.00029362000529
Te 4.2142178275 2.4330797971 27.2212747224 -0 5.14220674763e-07 -0.000777758770579
Te -1.6627142729 5.8261280097 27.7693604115 8.45893009986e-05 -5.16791778137e-05 -0.000285649584831
Te 0 2.9412641252 20.489609688 -5.14220674763e-06 -0.00141642084864 0.00440815673441
Te 1.6670085895 5.8286073288 20.489609688 0.0012215312129 0.000707310538137 0.00441072783778
Te 4.2142178275 2.4330797971 20.5504268228 5.6564274224e-06 2.57110337382e-07 0.00490386546488
Te -1.6670085895 5.8286073288 20.489609688 -0.00123232984707 0.000708596089824 0.00440558563103
Sb -0 2.4307224803 8.4510242649 -5.91353775978e-06 -0.000962106882482 -9.46166041564e-05
Sb 2.1091504097 6.0838781513 8.4510242649 0.000831494831092 0.000484652985964 -9.20455007826e-05
Sb 4.2142178275 2.4330797971 9.8212453598 9.51308248312e-06 -7.71331012145e-07 0.000193861194386
Sb -2.1091504097 6.0838781513 8.4510242649 -0.000833808824129 0.00047719678618 -0.000100273031579
Sb 0 2.4153386845 1.4561559432 3.85665506072e-06 -0.00022779975892 -0.000127269617004
Sb 2.122473161 6.0915700492 1.4561559432 0.000197460739109 0.000113128548448 -0.000127783837679
Sb 4.2142178275 2.4330797971 2.255515805 -4.62798607287e-06 -1.28555168691e-06 -0.000752819067853
Sb -2.122473161 6.0915700492 1.4561559432 -0.000197203628772 0.000116213872496 -0.000125984065317
Sb -0 -0 19.834174597 9.25597214574e-06 -7.71331012145e-07 0.00288503509576
Sb 2.0021670038 3.7102079286 18.0396926596 2.08259373279e-05 -1.28555168691e-05 7.32764461538e-05
Sb 4.2142178275 -0.1211764656 18.0396926596 0 2.44254820513e-05 7.63617702023e-05
Sb 6.4262686513 3.7102079286 18.0396926596 -2.00546063158e-05 -1.079863417e-05 8.12468666126e-05
Sb 0 -0 14.1633231649 8.22753079621e-06 7.71331012145e-06 -0.00235770179379
Sb 2.2303061114 3.5784917266 11.9685251558 0.000107472121026 -6.4020474008e-05 -8.48464113359e-05
Sb 4.2142178275 0.1422559384 11.9685251558 -2.8282137112e-06 0.000125984065317 -8.3560859649e-05
Sb -2.2303061114 3.5784917266 11.9685251558 -0.000111585886424 -6.24778119837e-05 -8.61319630228e-05
Sb 2.1490317282 1.2407440582 28.8680180281 -0.00020131739417 -0.000114414100135 0.00203168588599
Sb 4.2142178275 4.8177512752 28.8680180281 7.71331012145e-07 0.000230370862294 0.00202885767228
Sb 6.2794039269 1.2407440582 28.8680180281 0.000202088725182 -0.000114671210472 0.0020262865689
Sb 0 4.8661595943 29.8906709231 -2.8282137112e-06 -7.71331012145e-07 0.00299944919589
Sb 1.9842660217 1.1456165056 22.0849305159 -0.000745877088744 -0.000432973808151 0.00354709421452
Sb 4.2142178275 5.0080063801 22.0849305159 3.85665506072e-06 0.000859005637192 0.00355403619363
Sb 6.4441696333 1.1456165056 22.0849305159 0.000743563095708 -0.000426288939379 0.00355814995902
Sb 0 4.8661595943 23.4774010207 1.28555168691e-06 -5.14220674763e-07 0.0018522228705
Cr 4.2142178275 2.4330797972 18.1365826009 -1.54266202429e-06 -5.14220674763e-07 -1.36268478812e-05
61
Lattice="8.42843558953 0 0 -4.21421779477 7.29923593142 0 0 0 31.0334408416" Properties=species:S:1:pos:R:3:forces:R:3 energy=-133599.797573 ionic_step=35 pbc="T T T"
Te 1.7795197242 1.0274061035 3.2689190086 -9.95017005667e-05 -5.6564274224e-05 -0.00223583149387
Te 4.2142178275 5.2444271846 3.2689190086 5.14220674763e-07 0.000115699651822 -0.00223428883185
Te 6.6489159309 1.0274061035 3.2689190086 9.97588109041e-05 -5.70784948987e-05 -0.00223274616982
Te 0 4.8661595943 3.0536144116 5.14220674763e-07 5.14220674763e-07 -0.00287783600631
Te 0 0 6.892621345 -9.51308248312e-06 -7.71331012145e-07 8.27895286369e-05
Te 2.6282771251 3.3487229487 7.6926826933 -0.000215201352388 0.000130869161727 0.00118296466229
Te 4.2142178275 0.6017934939 7.6926826933 9.7701928205e-06 -0.000251968130634 0.00118476443465
Te -2.6282771251 3.3487229487 7.6926826933 0.000219315117787 0.000120841858569 0.00118630709668
Te 0 0 -0.3832203895 0 -2.57110337382e-07 -0.00267266195708
Te 2.4513466791 3.4508738372 -0.0290451008 -2.39112613765e-05 1.28555168691e-05 -0.0029595970936
Te 4.2142178275 0.3974917172 -0.0290451008 -5.14220674763e-07 -2.59681440755e-05 -0.00295882576259
Te -2.4513466791 3.4508738372 -0.0290451008 2.31399303643e-05 1.28555168691e-05 -0.00295933998326
Te -0 2.8155840178 13.818412042 1.54266202429e-06 0.00015220931973 -0.00104643907314
Te 1.7758506934 5.8914473825 13.818412042 -0.000134211596113 -7.79044322266e-05 -0.00105080994888
Te 4.2142178275 2.4330797971 13.7981008946 -1.54266202429e-06 -1.28555168691e-06 -0.00131383382402
Te -1.7758506934 5.8914473825 13.818412042 0.000131640492739 -7.48191081781e-05 -0.00104463930078
Te 1.5380640063 0.8880015059 17.4469185059 0.000423460725668 0.000242455048151 -0.00448528983562
Te 4.2142178275 5.5232363799 17.4469185059 2.31399303643e-06 -0.000486452758326 -0.00448323295292
Te 6.8903716488 0.8880015059 17.4469185059 -0.000422432284318 0.00024451193085 -0.00448066184955
Te 0 4.8661595943 16.0513001951 -5.14220674763e-06 5.14220674763e-07 -0.00415207483838
Te 1.578670878 0.9114459145 10.7784948803 0.000214172911039 0.000125212734305 0.00423357881533
Te 4.2142178275 5.4763475625 10.7784948803 -3.85665506072e-06 -0.000248111475573 0.00422946504993
Te 6.849764777 0.9114459145 10.7784948803 -0.000217772455762 0.000123155851606 0.0042258655052
Te 0 4.8661595943 10.3305792173 2.8282137112e-06 7.71331012145e-07 0.00386565392253
Te -0 -0 23.9253185909 -2.57110337382e-06 1.28555168691e-06 0.0038612830468
Te 2.4831254181 3.4325263575 23.840465915 0.000329358342186 -0.000189233208313 0.00396129896804
Te 4.2142178275 0.4341866764 23.840465915 2.57110337382e-06 0.000378723526963 0.00395975630601
Te -2.4831254181 3.4325263575 23.840465915 -0.000326787238812 -0.000190775870337 0.00395872786466
Te 0 2.9469980874 27.7665131592 -2.57110337382e-07 -0.000294905556977 0.000879060243508
Te 1.662042823 5.8257403477 27.7665131592 0.000256339006369 0.000147838443994 0.00087880313317
Te 4.2142178275 2.4330797971 27.2182884928 2.57110337382e-07 5.14220674763e-07 0.0018439953397
Te -1.662042823 5.8257403477 27.7665131592 -0.000255824785695 0.000147581333657 0.000880088684857
Te 0 2.9425395162 20.4971355956 -2.8282137112e-06 0.000818639314223 0.00100221609511
Te 1.6659040689 5.8279696333 20.4971355956 -0.000707824758812 -0.000407005664075 0.00100247320545
Te 4.2142178275 2.4330797971 20.5565244957 4.11376539811e-06 -0 0.00136294189846
Te -1.6659040689 5.8279696333 20.4971355956 0.000708338979486 -0.000410090988124 0.000998873660728
Sb -0 2.4310507791 8.4498270126 -6.42775843454e-06 0.00019051876 0.0022250328597
Sb 2.1088660947 6.0837140019 8.4498270126 -0.000164807726262 -9.12741697705e-05 0.00222451863903
Sb 4.2142178275 2.4330797971 9.8230379915 3.59954472334e-06 -1.02844134953e-06 0.00374249807093
Sb -2.1088660947 6.0837140019 8.4498270126 0.000165579057274 -9.82161488798e-05 0.00222580419071
Sb 0 2.4162267762 1.4510787773 2.57110337382e-07 0.00059212510699 -0.00266392020561
Sb 2.1217040514 6.0911260033 1.4510787773 -0.000512678012739 -0.000295676887989 -0.00266469153662
Sb 4.2142178275 2.4330797971 2.251971559 7.71331012145e-07 -7.71331012145e-07 -0.00273102600367
Sb -2.1217040514 6.0911260033 1.4510787773 0.000513963564426 -0.000296705329338 -0.00266417731595
Sb -0 -0 19.842619228 -5.39931708501e-06 -5.14220674763e-07 -0.000169178601997
Sb 2.0027408326 3.7098766282 18.0405898344 -0.00026019566143 0.000148095554332 -0.00346301913419
Sb 4.2142178275 -0.1205138649 18.0405898344 -1.28555168691e-06 -0.000300304874062 -0.00346353335487
Sb 6.4256948225 3.7098766282 18.0405898344 0.000260452771768 0.000150666657706 -0.0034658473479
Sb 0 -0 14.1648330273 2.31399303643e-06 7.71331012145e-07 -0.00168690092356
Sb 2.2301433109 3.5785857196 11.9679542364 3.67667782456e-05 -2.15972683401e-05 0.00258704421473
Sb 4.2142178275 0.1420679525 11.9679542364 7.71331012145e-07 4.37087573549e-05 0.00258704421473
Sb -2.2301433109 3.5785857196 11.9679542364 -3.75381092577e-05 -2.31399303643e-05 0.00258935820777
Sb 2.1483450224 1.2403475882 28.8638512642 0.000591610886315 0.00034169963838 -0.000921226338838
Sb 4.2142178275 4.8185442151 28.8638512642 -1.28555168691e-06 -0.000682627945748 -0.000921740559513
Sb 6.2800906327 1.2403475882 28.8638512642 -0.00059212510699 0.000341442528043 -0.000922254780188
Sb 0 4.8661595943 29.8888536577 -2.57110337382e-07 -2.57110337382e-07 -0.00126164042553
Sb 1.9847738828 1.1459097195 22.08791601 0.000252482351309 0.000148095554332 0.00388956518391
Sb 4.2142178275 5.0074199524 22.08791601 -2.31399303643e-06 -0.000295162667314 0.00388622274952
Sb 6.4436617722 1.1459097195 22.08791601 -0.000254796344345 0.000147581333657 0.00388570852885
Sb 0 4.8661595943 23.4737982833 -2.57110337382e-07 -1.28555168691e-06 0.00376975176669
Cr 4.2142178275 2.4330797972 18.1435503272 1.28555168691e-06 -5.14220674763e-07 -0.00353835246305
61
Lattice="8.42843558953 0 0 -4.21421779477 7.29923593142 0 0 0 31.0334408416" Properties=species:S:1:pos:R:3:forces:R:3 energy=-133599.797741 ionic_step=36 pbc="T T T"
Te 1.7789410136 1.0270719846 3.2650380507 4.31945366801e-05 2.44254820513e-05 0.000838436810201
Te 4.2142178275 5.2450954224 3.2650380507 -5.14220674763e-07 -4.73083020782e-05 0.000838436810201
Te 6.6494946415 1.0270719846 3.2650380507 -4.21660953306e-05 2.4939702726e-05 0.000837408368852
Te 0 4.8661595943 3.0519637185 7.71331012145e-07 2.57110337382e-07 0.00183525358823
Te 0 0 6.8921359233 -0 -7.71331012145e-07 0.00273565398974
Te 2.6283435733 3.3486845848 7.6933734656 0.000117242313846 -6.76200187314e-05 0.00322802028583
Te 4.2142178275 0.6018702217 7.6933734656 -1.02844134953e-06 0.000136011368475 0.00322750606515
Te -2.6283435733 3.3486845848 7.6933734656 -0.000119042086208 -6.68486877192e-05 0.00323084849954
Te 0 0 -0.3863733432 0 5.14220674763e-07 -0.000800898700944
Te 2.4518043102 3.4506096236 -0.0322467853 -6.60773567071e-05 3.54812265587e-05 -0.00103872576302
Te 4.2142178275 0.3980201444 -0.0322467853 -1.28555168691e-06 -7.43048875033e-05 -0.00103846865268
Te -2.4518043102 3.4506096236 -0.0322467853 6.4020474008e-05 3.59954472334e-05 -0.0010392399837
Te -0 2.8149627924 13.8182901311 -1.54266202429e-06 -8.07326459378e-05 -0.000511906681727
Te 1.7763886901 5.8917579952 13.8182901311 7.07053427799e-05 4.08805436437e-05 -0.000511906681727
Te 4.2142178275 2.4330797971 13.7976533354 1.79977236167e-06 5.14220674763e-07 -0.000285649584831
Te -1.7763886901 5.8917579952 13.8182901311 -7.01911221052e-05 4.01092126315e-05 -0.000510878240377
Te 1.537512223 0.8876829335 17.4527125463 0.000671057980566 0.00038489417506 -0.000821210417597
Te 4.2142178275 5.5238735246 17.4527125463 1.02844134953e-06 -0.000773387894844 -0.000821724638272
Te 6.8909234321 0.8876829335 17.4527125463 -0.000671572201241 0.000386693947422 -0.00082095330726
Te 0 4.8661595943 16.0501092071 -1.79977236167e-06 5.14220674763e-07 -0.0010523526109
Te 1.5782367514 0.9111952713 10.7780317958 -0.000177920353468 -0.000104643907314 0.00176274847309
Te 4.2142178275 5.476848849 10.7780317958 3.34243438596e-06 0.000206716711255 0.00176274847309
Te 6.8501989036 0.9111952713 10.7780317958 0.000177406132793 -9.92445902293e-05 0.00176197714208
Te 0 4.8661595943 10.3301815858 -2.31399303643e-06 0 0.00226359941031
Te -0 -0 23.9261961587 -2.05688269905e-06 -7.71331012145e-07 -0.000805269576679
Te 2.4831346271 3.4325210407 23.8432010796 -2.15972683401e-05 1.28555168691e-05 -0.000906828159945
Te 4.2142178275 0.4341973101 23.8432010796 5.14220674763e-07 -2.67394750877e-05 -0.000909913483994
Te -2.4831346271 3.4325210407 23.8432010796 2.33970407017e-05 1.31126272065e-05 -0.000910941925343
Te 0 2.9476257318 27.7641895254 7.71331012145e-07 0.000385408395735 -0.00112717171908
Te 1.6614992674 5.8254265256 27.7641895254 -0.000333729217921 -0.000193346973711 -0.00112537194672
Te 4.2142178275 2.4330797971 27.2158858301 -1.28555168691e-06 2.57110337382e-07 -0.00180928544415
Te -1.6614992674 5.8254265256 27.7641895254 0.000335014769608 -0.000192061422024 -0.00112640038807
Te 0 2.9436975218 20.503040861 -2.31399303643e-06 -0.000283078481457 -0.00113051415347
Te 1.6649012072 5.8273906305 20.503040861 0.000243997710175 0.000141667795897 -0.00112897149144
Te 4.2142178275 2.4330797971 20.5611089446 1.79977236167e-06 2.57110337382e-07 -0.00239806811676
Te -1.6649012072 5.8273906305 20.503040861 -0.000243740599838 0.000139096692523 -0.00112948571212
Sb -0 2.4312440632 8.4490666657 2.57110337382e-07 1.67121719298e-05 0.00358103277905
Sb 2.1086987058 6.0836173599 8.4490666657 -1.4141068556e-05 -7.71331012145e-06 0.00357897589635
Sb 4.2142178275 2.4330797971 9.8247218837 2.8282137112e-06 -5.14220674763e-07 0.00258832976642
Sb -2.1086987058 6.0836173599 8.4490666657 1.46552892308e-05 -7.45619978407e-06 0.00357974722736
Sb 0 2.4169911176 1.4471743696 1.79977236167e-06 -0.000665915773818 -0.000756161502239
Sb 2.1210421126 6.0907438326 1.4471743696 0.000576184266072 0.000332957886909 -0.000756161502239
Sb 4.2142178275 2.4330797971 2.249226652 -2.05688269905e-06 -1.28555168691e-06 -0.000115699651822
Sb -2.1210421126 6.0907438326 1.4471743696 -0.000576184266072 0.000334757659271 -0.000754618840215
Sb -0 -0 19.8490297842 2.57110337382e-07 -7.71331012145e-07 -0.00111277354019
Sb 2.0031535014 3.7096383737 18.0408780413 0.00122693052999 -0.000707053427799 -0.000880088684857
Sb 4.2142178275 -0.1200373558 18.0408780413 2.57110337382e-07 0.00141513529695 -0.000880345795195
Sb 6.4252821537 3.7096383737 18.0408780413 -0.00122693052999 -0.000707053427799 -0.00087880313317
Sb 0 -0 14.1657621584 1.28555168691e-06 -1.54266202429e-06 -0.000756932833252
Sb 2.2302822747 3.5785054887 11.9673689314 3.3681454197e-05 -2.05688269905e-05 0.000429374263427
Sb 4.2142178275 0.1422284142 11.9673689314 -7.71331012145e-07 4.01092126315e-05 0.000427317380728
Sb -2.2302822747 3.5785054887 11.9673689314 -3.39385645344e-05 -2.10830476653e-05 0.000428345822078
Sb 2.1477533623 1.2400059929 28.860776638 -0.000442744000971 -0.000254025013333 -0.000961849772145
Sb 4.2142178275 4.8192274057 28.860776638 -1.79977236167e-06 0.000511649571389 -0.000963135323832
Sb 6.2806822928 1.2400059929 28.860776638 0.000442744000971 -0.000256081896032 -0.000963135323832
Sb 0 4.8661595943 29.8873769779 1.79977236167e-06 -2.57110337382e-07 -0.00167198852399
Sb 1.9850432985 1.1460652667 22.0900562219 0.000277164943697 0.000158637078164 -0.00149921037727
Sb 4.2142178275 5.0071088578 22.0900562219 1.02844134953e-06 -0.000318302597678 -0.0015007530393
Sb 6.4433923565 1.1460652667 22.0900562219 -0.000277164943697 0.000160951071201 -0.00150023881862
Sb 0 4.8661595943 23.4696477399 -1.02844134953e-06 1.28555168691e-06 -0.00111200220918
Cr 4.2142178275 2.4330797972 18.1494516579 1.28555168691e-06 -7.71331012145e-07 -0.000609351499594
61
Lattice="8.42843558953 0 0 -4.21421779477 7.29923593142 0 0 0 31.0334408416" Properties=species:S:1:pos:R:3:forces:R:3 energy=-133599.79794 ionic_step=37 pbc="T T T"
Te 1.7785414643 1.0268413046 3.2626002369 -8.79317353845e-05 -5.06507364642e-05 0.0013845391668
Te 4.2142178275 5.2455567825 3.2626002369 2.57110337382e-07 0.00010310124529 0.00138531049781
Te 6.6498941908 1.0268413046 3.2626002369 8.97315077462e-05 -5.06507364642e-05 0.00138556760815
Te 0 4.8661595943 3.0512738562 0 7.71331012145e-07 0.00211653229733
Te 0 0 6.8924200762 7.71331012145e-07 2.57110337382e-07 0.00262381099298
Te 2.6279602771 3.3489058811 7.6943983607 -1.46552892308e-05 7.45619978407e-06 0.00294674157673
Te 4.2142178275 0.6014276292 7.6943983607 -5.14220674763e-07 -1.4141068556e-05 0.00294699868707
Te -2.6279602771 3.3489058811 7.6943983607 1.20841858569e-05 6.42775843454e-06 0.00294751290774
Te 0 0 -0.3881258944 1.54266202429e-06 1.79977236167e-06 -0.000747676861106
Te 2.4519760813 3.4505104515 -0.0342966744 3.00819094737e-05 -1.97974959784e-05 -0.00106032303136
Te 4.2142178275 0.3982184886 -0.0342966744 -1.02844134953e-06 3.65096679082e-05 -0.00106109436237
Te -2.4519760813 3.4505104515 -0.0342966744 -3.08532404858e-05 -1.87690546289e-05 -0.00106237991406
Te -0 2.814580832 13.8185474308 2.8282137112e-06 -0.000144753119946 -0.00127089639768
Te 1.7767194774 5.8919489754 13.8185474308 0.000125469844642 7.14766737921e-05 -0.00126961084599
Te 4.2142178275 2.4330797971 13.7981893671 -3.08532404858e-06 -1.28555168691e-06 -0.0010860340651
Te -1.7767194774 5.8919489754 13.8185474308 -0.000123155851606 7.35335564911e-05 -0.00126883951498
Te 1.5371435912 0.8874701037 17.4569039098 -0.000311360618569 -0.000179977236167 -0.000628377664561
Te 4.2142178275 5.5242991842 17.4569039098 -7.71331012145e-07 0.000360725803346 -0.000629148995573
Te 6.8912920639 0.8874701037 17.4569039098 0.000311103508232 -0.000180234346505 -0.000629920326585
Te 0 4.8661595943 16.0494307906 1.54266202429e-06 1.02844134953e-06 -0.000987046585208
Te 1.5776706182 0.910868414 10.7786600202 -0.000203631387206 -0.000115185431147 0.000795242273521
Te 4.2142178275 5.4775025635 10.7786600202 -3.59954472334e-06 0.000235513069042 0.000794985163184
Te 6.8507650368 0.910868414 10.7786600202 0.000203631387206 -0.000119299196545 0.000796784935546
Te 0 4.8661595943 10.3302055048 1.02844134953e-06 -2.57110337382e-07 0.00153803403822
Te -0 -0 23.9256828924 -1.79977236167e-06 1.28555168691e-06 -0.000435287801187
Te 2.4830577875 3.4325654041 23.8438514071 -3.13674611606e-05 1.7483502942e-05 -0.000111328776086
Te 4.2142178275 0.4341085832 23.8438514071 1.02844134953e-06 -3.41956748718e-05 -0.000111842996761
Te -2.4830577875 3.4325654041 23.8438514071 3.11103508232e-05 1.6197951255e-05 -0.000110557445074
Te 0 2.9481183696 27.7626005863 -7.71331012145e-07 0.000155551754116 -0.000141667795897
Te 1.6610726306 5.8251802066 27.7626005863 -0.000135240037463 -7.76473218893e-05 -0.000141153575223
Te 4.2142178275 2.4330797971 27.2143900235 -0 -1.02844134953e-06 -0.000148609775007
Te -1.6610726306 5.8251802066 27.7626005863 0.000133183154764 -7.76473218893e-05 -0.000142182016572
Te 0 2.9448974465 20.5071489546 -1.02844134953e-06 -0.000929968090309 -0.00228545378899
Te 1.6638620423 5.8267906681 20.5071489546 0.000804755356005 0.000466141041673 -0.0022841682373
Te 4.2142178275 2.4330797971 20.5641341531 1.54266202429e-06 -1.28555168691e-06 -0.00254976321581
Te -1.6638620423 5.8267906681 20.5071489546 -0.000803726914655 0.000464341269311 -0.00228699645101
Sb -0 2.4314212365 8.4490646061 0 -7.25051151416e-05 0.00313006124728
Sb 2.1085452694 6.0835287733 8.4490646061 6.1963591309e-05 3.5738336896e-05 0.00313006124728
Sb 4.2142178275 2.4330797971 9.8265977942 2.57110337382e-07 -5.14220674763e-07 0.00208465061549
Sb -2.1085452694 6.0835287733 8.4490646061 -6.4020474008e-05 3.77952195951e-05 0.0031287756956
Sb 0 2.4176632835 1.4448356399 2.57110337382e-07 -0.000493394737435 -0.000257881668394
Sb 2.1204600002 6.0904077496 1.4448356399 0.000425517608367 0.000245540372199 -0.000256853227044
Sb 4.2142178275 2.4330797971 2.2475210537 -1.79977236167e-06 -1.28555168691e-06 0.000341185417705
Sb -2.1204600002 6.0904077496 1.4448356399 -0.000427574491066 0.000247597254899 -0.000258138778731
Sb -0 -0 19.8528809984 -3.08532404858e-06 1.28555168691e-06 -0.00187690546289
Sb 2.0034860052 3.7094464025 18.0402420546 0.000508821357678 -0.00029362000529 -0.00108783383746
Sb 4.2142178275 -0.1196534133 18.0402420546 1.02844134953e-06 0.000588268451929 -0.00108886227881
Sb 6.4249496499 3.7094464025 18.0402420546 -0.000509849799028 -0.000295162667314 -0.00109040494084
Sb 0 -0 14.1657314196 -1.79977236167e-06 0 -0.00102664157716
Sb 2.2309259705 3.5781338506 11.9669322059 -0.000120327637895 6.96769014304e-05 -0.000633776981646
Sb 4.2142178275 0.1429716904 11.9669322059 1.28555168691e-06 -0.000138068251174 -0.000633519871308
Sb -2.2309259705 3.5781338506 11.9669322059 0.000119042086208 6.7362908394e-05 -0.000633519871308
Sb 2.1472499516 1.2397153485 28.859073595 -0.000151695099055 -8.76746250471e-05 -0.000870832712712
Sb 4.2142178275 4.8198086946 28.859073595 7.71331012145e-07 0.000175092139757 -0.000871861154061
Sb 6.2811857035 1.2397153485 28.859073595 0.000151437988718 -8.66461836976e-05 -0.000871089823049
Sb 0 4.8661595943 29.8864099649 5.14220674763e-07 -7.71331012145e-07 -0.00151515121819
Sb 1.9850461631 1.1460669206 22.0905497176 -0.000204402718218 -0.000116728093171 -0.00209827746337
Sb 4.2142178275 5.00710555 22.0905497176 -2.05688269905e-06 0.000237055731066 -0.00210007723573
Sb 6.4433894919 1.1460669206 22.0905497176 0.000205431159568 -0.000119042086208 -0.00210059145641
Sb 0 4.8661595943 23.4627667478 1.54266202429e-06 -5.14220674763e-07 -0.000766960136409
Cr 4.2142178275 2.4330797972 18.1540879281 2.05688269905e-06 -1.28555168691e-06 -0.000821210417597
61
Lattice="8.42843558953 0 0 -4.21421779477 7.29923593142 0 0 0 31.0334408416" Properties=species:S:1:pos:R:3:forces:R:3 energy=-133599.798136 ionic_step=38 pbc="T T T"
Te 1.7782185973 1.0266548972 3.2602905329 8.02184252631e-05 4.70511917408e-05 0.00034272807973
Te 4.2142178275 5.2459295973 3.2602905329 -1.54266202429e-06 -9.20455007826e-05 0.000344013631417
Te 6.6502170578 1.0266548972 3.2602905329 -7.97042045883e-05 4.52514193792e-05 0.000343756521079
Te 0 4.8661595943 3.0501097145 2.05688269905e-06 7.71331012145e-07 0.00116779515239
Te 0 0 6.8920827504 -2.57110337382e-07 -2.57110337382e-07 -0.00141025020054
Te 2.6272982418 3.3492881076 7.6945905103 0.000197974959784 -0.000113642769123 -0.000918655235465
Te 4.2142178275 0.6006631763 7.6945905103 1.54266202429e-06 0.000228313979595 -0.000918398125127
Te -2.6272982418 3.3492881076 7.6945905103 -0.000196689408097 -0.000114671210472 -0.000918655235465
Te 0 0 -0.3897234005 1.54266202429e-06 2.57110337382e-07 9.5645045506e-05
Te 2.4520147377 3.4504881332 -0.0362916976 -7.25051151416e-05 4.01092126315e-05 0.000371524437516
Te 4.2142178275 0.3982631252 -0.0362916976 2.57110337382e-07 -8.3560859649e-05 0.000370753106504
Te -2.4520147377 3.4504881332 -0.0362916976 7.2762225479e-05 4.19089849932e-05 0.000370495996167
Te -0 2.8143510887 13.8195244684 0 -0.000106186569339 0.00374146962958
Te 1.7769184408 5.8920638471 13.8195244684 8.99886180836e-05 5.24505088259e-05 0.00374198385025
Te 4.2142178275 2.4330797971 13.798558167 3.08532404858e-06 2.57110337382e-07 0.00395178588556
Te -1.7769184408 5.8920638471 13.8195244684 -9.41023834817e-05 5.37360605128e-05 0.00374069829857
Te 1.5366425684 0.8871808379 17.4608592327 0.000807840680053 0.000465626820998 0.00467272327157
Te 4.2142178275 5.5248777157 17.4608592327 5.14220674763e-07 -0.000933567635033 0.00467169483022
Te 6.8917930867 0.8871808379 17.4608592327 -0.000808869121403 0.000467683703697 0.00466860950618
Te 0 4.8661595943 16.050017319 1.28555168691e-06 7.71331012145e-07 0.00529287340534
Te 1.5772636848 0.9106334708 10.779379145 0.000532732619055 0.000306475522159 0.00166324677252
Te 4.2142178275 5.4779724499 10.779379145 2.8282137112e-06 -0.000614493706342 0.00166298966218
Te 6.8511719702 0.9106334708 10.779379145 -0.000531447067368 0.000308532404858 0.00166221833117
Te 0 4.8661595943 10.3294403218 -1.79977236167e-06 -1.02844134953e-06 0.00135420014699
Te -0 -0 23.9263203048 1.28555168691e-06 7.71331012145e-07 -0.00407185641311
Te 2.4829141495 3.4326483336 23.8445946842 -0.000125984065317 7.09624531173e-05 -0.00419115560966
Te 4.2142178275 0.4339427243 23.8445946842 -1.79977236167e-06 -0.000146552892308 -0.00419295538202
Te -2.4829141495 3.4326483336 23.8445946842 0.000127526727341 7.35335564911e-05 -0.00419449804404
Te 0 2.9485715418 27.7608046032 2.31399303643e-06 0.000529904405344 -0.00472748777344
Te 1.6606801723 5.8249536206 27.7608046032 -0.000458427731551 -0.000266880530202 -0.00472748777344
Te 4.2142178275 2.4330797971 27.2128736349 -2.8282137112e-06 -2.57110337382e-07 -0.00588885516739
Te -1.6606801723 5.8249536206 27.7608046032 0.000457142179865 -0.000263538095816 -0.00472697355276
Te 0 2.9460924081 20.5106737621 2.57110337382e-07 0.000445572214682 0.00117987933824
Te 1.6628271758 5.8261931873 20.5106737621 -0.000387208168097 -0.000223428883185 0.00117653690386
Te 4.2142178275 2.4330797971 20.5670954544 -2.57110337382e-07 -2.57110337382e-07 3.98521022942e-05
Te -1.6628271758 5.8261931873 20.5106737621 0.000385151285398 -0.000222400441835 0.00118193622094
Sb -0 2.4311768725 8.4490123008 -2.31399303643e-06 0.000373838430553 -0.000670800870229
Sb 2.1087568947 6.0836509552 8.4490123008 -0.000323701914763 -0.000185376553252 -0.000671057980566
Sb 4.2142178275 2.4330797971 9.8270869306 -5.14220674763e-07 -5.14220674763e-07 0.000596753093063
Sb -2.1087568947 6.0836509552 8.4490123008 0.000323187694089 -0.000188204766963 -0.000671057980566
Sb 0 2.4182242524 1.442721247 1.54266202429e-06 0.000138839582186 0.000945908931227
Sb 2.119974187 6.0901272652 1.442721247 -0.000121098968907 -7.07053427799e-05 0.000946680262239
Sb 4.2142178275 2.4330797971 2.2458555124 -1.02844134953e-06 -1.02844134953e-06 0.000343756521079
Sb -2.119974187 6.0901272652 1.442721247 0.000121870299919 -6.86484600809e-05 0.000944880489877
Sb -0 -0 19.8556358312 2.05688269905e-06 2.57110337382e-07 0.00242532181252
Sb 2.0037360621 3.709302032 18.039800087 0.000402120567665 -0.000230885082969 0.00452771304129
Sb 4.2142178275 -0.1193646724 18.039800087 7.71331012145e-07 0.000463055717624 0.00452411349657
Sb 6.424699593 3.709302032 18.039800087 -0.000401349236653 -0.000231656413981 0.00452359927589
Sb 0 -0 14.1657845139 7.71331012145e-07 1.54266202429e-06 0.00374686894666
Sb 2.2314987271 3.5778031693 11.9665130588 0.000335271879946 -0.000194889635735 0.00225768587255
Sb 4.2142178275 0.143633053 11.9665130588 -1.28555168691e-06 0.000388750830121 0.00225820009322
Sb -2.2314987271 3.5778031693 11.9665130588 -0.000337328762645 -0.000193861194386 0.00225820009322
Sb 2.1468434273 1.2394806415 28.8575381867 -2.57110337382e-06 -0 -0.00269863010116
Sb 4.2142178275 4.8202781086 28.8575381867 -2.8282137112e-06 3.34243438596e-06 -0.00269940143217
Sb 6.2815922278 1.2394806415 28.8575381867 1.02844134953e-06 -2.57110337382e-06 -0.00269863010116
Sb 0 4.8661595943 29.8852268384 1.02844134953e-06 5.14220674763e-07 -0.00148584063973
Sb 1.9847118786 1.1458739213 22.0914211155 -0.000134468706451 -7.89328735762e-05 -0.00168947202693
Sb 4.2142178275 5.0074915487 22.0914211155 3.59954472334e-06 0.000154780423104 -0.00169050046828
Sb 6.4437237764 1.1458739213 22.0914211155 0.0001354971478 -7.6104659865e-05 -0.00169075757862
Sb 0 4.8661595943 23.4579854091 -2.05688269905e-06 2.57110337382e-07 -0.00427934445538
Cr 4.2142178275 2.4330797972 18.1582898159 -1.02844134953e-06 1.54266202429e-06 0.00423949235309
61
Lattice="8.42843558953 0 0 -4.21421779477 7.29923593142 0 0 0 31.0334408416" Properties=species:S:1:pos:R:3:forces:R:3 energy=-133599.798347 ionic_step=39 pbc="T T T"
Te 1.777866125 1.0264513971 3.2570390915 -0.000778530101592 -0.000448914649068 0.00401734902159
Te 4.2142178275 5.2463365975 3.2570390915 1.02844134953e-06 0.000915312801079 0.0040374036279
Te 6.6505695301 1.0264513971 3.2570390915 0.000779558542941 -0.00044968598008 0.00401374947686
Te 0 4.8661595943 3.0480142257 4.37087573549e-06 4.88509641025e-06 0.00539597465063
Te 0 0 6.8907434329 6.9419791093e-06 -4.88509641025e-06 -0.000969048861591
Te 2.6266956565 3.3496360105 7.6940442947 0.000378723526963 -0.000222657552172 -0.00175683493533
Te 4.2142178275 0.5999673704 7.6940442947 -5.91353775978e-06 0.000439658676923 -0.00176326269376
Te -2.6266956565 3.3496360105 7.6940442947 -0.00038000907865 -0.000217258235087 -0.00176711934882
Te 0 0 -0.3920234778 -3.85665506072e-06 1.51695099055e-05 0.000546359466936
Te 2.4521135166 3.4504311031 -0.0391570388 1.85119442915e-05 -2.23685993522e-05 0.00113462791887
Te 4.2142178275 0.3983771854 -0.0391570388 5.39931708501e-06 5.19362881511e-05 0.00117293735913
Te -2.4521135166 3.4504311031 -0.0391570388 -2.39112613765e-05 -2.44254820513e-05 0.00114079856696
Te -0 2.814099005 13.8210005436 1.79977236167e-06 0.000806812238704 0.00283901234537
Te 1.7771367516 5.8921898889 13.8210005436 -0.000688798593845 -0.000402377678002 0.00282332861479
Te 4.2142178275 2.4330797971 13.7985714252 -1.25984065317e-05 6.17064809716e-06 0.00315448672934
Te -1.7771367516 5.8921898889 13.8210005436 0.000689055704183 -0.000398006802267 0.00283181325592
Te 1.535812126 0.8867013816 17.4660305515 -5.75927155735e-05 -2.69965854251e-05 -0.00180799989247
Te 4.2142178275 5.5258366285 17.4660305515 8.22753079621e-06 4.29374263427e-05 -0.00180362901673
Te 6.8926235291 0.8867013816 17.4660305515 6.37633636706e-05 -2.39112613765e-05 -0.00181674164394
Te 0 4.8661595943 16.0514895426 2.31399303643e-06 -6.42775843454e-06 -0.00329538319422
Te 1.5770547456 0.9105128396 10.7795622902 -0.00146861424712 -0.000857977195842 0.00324961755417
Te 4.2142178275 5.4782137123 10.7795622902 -7.45619978407e-06 0.00170978374359 0.0032560453126
Te 6.8513809094 0.9105128396 10.7795622902 0.00146835713679 -0.000862090961241 0.00324936044383
Te 0 4.8661595943 10.3278308367 3.59954472334e-06 2.57110337382e-06 0.0034486209553
Te -0 -0 23.9284961966 -5.39931708501e-06 3.85665506072e-06 -0.00189798851055
Te 2.4827596158 3.4327375537 23.8463137376 0.000162493733225 -9.51308248312e-05 -0.000765674584722
Te 4.2142178275 0.4337642841 23.8463137376 7.71331012145e-06 0.00018460522224 -0.000777501660242
Te -2.4827596158 3.4327375537 23.8463137376 -0.000164550615924 -9.89874798919e-05 -0.000770045460458
Te 0 2.9490792241 27.7582268181 2.05688269905e-06 0.00033681454197 -0.00331620913155
Te 1.6602405067 5.8246997794 27.7582268181 -0.000295676887989 -0.000178434574143 -0.00332058000728
Te 4.2142178275 2.4330797971 27.2106376034 -4.62798607287e-06 -1.54266202429e-06 -0.00402454811103
Te -1.6602405067 5.8246997794 27.7582268181 0.000296448219001 -0.000175349250094 -0.00332340822099
Te 0 2.9474965158 20.5152575724 -7.19908944669e-06 -0.00269425922542 -0.00103126956324
Te 1.6616111834 5.8254911335 20.5152575724 0.00232196345689 0.00135214326429 -0.00103075534256
Te 4.2142178275 2.4330797971 20.5714976782 2.05688269905e-06 8.99886180836e-06 -0.00437627505257
Te -1.6616111834 5.8254911335 20.5152575724 -0.00233481897376 0.00135368592631 -0.00104309663876
Sb -0 2.4305850547 8.4485002601 1.18270755196e-05 -0.00142053461403 -0.000523733757246
Sb 2.1092694237 6.0839468642 8.4485002601 0.00122847319201 0.00070602498645 -0.000519877102186
Sb 4.2142178275 2.4330797971 9.8262751322 1.25984065317e-05 -1.54266202429e-05 0.00142876214483
Sb -2.1092694237 6.0839468642 8.4485002601 -0.00121716033716 0.000713481186234 -0.000520905543535
Sb 0 2.4188315956 1.4397360655 -7.71331012145e-07 -0.00158817055401 0.00466706684415
Sb 2.1194482126 6.0898235936 1.4397360655 0.00136191345711 0.00080912623174 0.00467992236102
Sb 4.2142178275 2.4330797971 2.2434365089 1.079863417e-05 -5.78498259109e-05 0.00526690526126
Sb -2.1194482126 6.0898235936 1.4397360655 -0.00136397033981 0.000801670031956 0.00468557878844
Sb -0 -0 19.8590484117 1.02844134953e-06 -1.46552892308e-05 -0.00244974729457
Sb 2.0040916289 3.7090967453 18.0401583006 0.00285880984135 -0.00164293505587 -0.00301101916108
Sb 4.2142178275 -0.1189540989 18.0401583006 -2.31399303643e-06 0.00328047079465 -0.00300356296129
Sb 6.4243440262 3.7090967453 18.0401583006 -0.00285006808988 -0.00163496463541 -0.00299816364421
Sb 0 -0 14.166407013 -2.8282137112e-06 -1.10557445074e-05 0.00144058922035
Sb 2.2318002942 3.5776290594 11.9661909582 -0.0003535267139 0.000214430021376 0.00464778356885
Sb 4.2142178275 0.1439812729 11.9661909582 3.08532404858e-06 -0.000419604070607 0.00463724204502
Sb -2.2318002942 3.5776290594 11.9661909582 0.000360468693009 0.000210316255978 0.00465189733425
Sb 2.1464458406 1.2392510946 28.8551423447 -0.000868261609338 -0.000494423178785 -0.00304135818089
Sb 4.2142178275 4.8207372024 28.8551423447 -2.8282137112e-06 0.00100067343309 -0.00306012723552
Sb 6.2819898145 1.2392510946 28.8551423447 0.000870061381699 -0.000494166068447 -0.00303493042245
Sb 0 4.8661595943 29.8833801053 5.39931708501e-06 -3.31672335222e-05 -0.00272948334164
Sb 1.9841494143 1.1455491823 22.0933719526 -0.000669001097867 -0.000391064823157 -0.00203734231341
Sb 4.2142178275 5.0081410268 22.0933719526 3.59954472334e-06 0.000751019295492 -0.00202345835519
Sb 6.4442862407 1.1455491823 22.0933719526 0.000660516456733 -0.000387208168097 -0.00203194299633
Sb 0 4.8661595943 23.4555350534 -4.62798607287e-06 -6.9419791093e-06 -0.000583897576194
Cr 4.2142178275 2.4330797972 18.1633399138 -5.91353775978e-06 1.28555168691e-05 -0.00388365164615
61
Lattice="8.42843558953 0 0 -4.21421779477 7.29923593142 0 0 0 31.0334408416" Properties=species:S:1:pos:R:3:forces:R:3 energy=-133599.798667 ionic_step=40 pbc="T T T"
Te 1.7774483832 1.0262102137 3.2521304785 -0.00116522404901 -0.00067260064259 0.00439555832788
Te 4.2142178275 5.2468189643 3.2521304785 2.57110337382e-07 0.00134597261619 0.00439350144518
Te 6.6509872719 1.0262102137 3.2521304785 0.00116753804205 -0.000667458435843 0.0043991578726
Te 0 4.8661595943 3.0447460894 -2.8282137112e-06 -2.05688269905e-06 0.00585543082353
Te 0 0 6.8886226072 -7.71331012145e-06 -8.74175147098e-06 -0.000342470969392
Te 2.6259879114 3.3500446275 7.6932576499 0.000349155838164 -0.000182805449878 -0.00198206359087
Te 4.2142178275 0.5991501364 7.6932576499 8.74175147098e-06 0.000393893036869 -0.00199543332842
Te -2.6259879114 3.3500446275 7.6932576499 -0.000359954472334 -0.000192575642699 -0.00199491910774
Te 0 0 -0.3952693435 1.02844134953e-06 0 -0.000927139876598
Te 2.4522459542 3.4503546402 -0.04341296 -3.3681454197e-05 1.9540385641e-05 -0.000570013617975
Te 4.2142178275 0.3985301112 -0.04341296 -1.28555168691e-06 -4.29374263427e-05 -0.000573870273036
Te -2.4522459542 3.4503546402 -0.04341296 3.75381092577e-05 2.21114890148e-05 -0.000572327611012
Te -0 2.8137671519 13.8232861518 1.05415238326e-05 0.00141744928998 0.00295702599023
Te 1.7774241447 5.8923558155 13.8232861518 -0.00122178832324 -0.000706539207125 0.00294828423876
Te 4.2142178275 2.4330797971 13.7986306803 -1.51695099055e-05 3.08532404858e-06 0.00334346282731
Te -1.7774241447 5.8923558155 13.8232861518 0.00123155851606 -0.000707053427799 0.00296396796934
Te 1.5341985897 0.8857698055 17.4736965988 -0.00105260972124 -0.000605237734196 -0.000204402718218
Te 4.2142178275 5.5276997805 17.4736965988 -1.18270755196e-05 0.00121458923379 -0.000192575642699
Te 6.8942370654 0.8857698055 17.4736965988 0.00104181108707 -0.000629663216248 -0.000197203628772
Te 0 4.8661595943 16.0539023626 2.67394750877e-05 8.22753079621e-06 -0.0028852922061
Te 1.5769042861 0.9104259717 10.7798000531 -0.00209904879438 -0.00119453462748 0.00187587702154
Te 4.2142178275 5.478387448 10.7798000531 -3.49670058839e-05 0.00241478028869 0.00187047770445
Te 6.8515313689 0.9104259717 10.7798000531 0.00208619327751 -0.00122873030235 0.00188024789727
Te 0 4.8661595943 10.3251583829 1.9540385641e-05 -5.14220674763e-06 0.00298582234801
Te -0 -0 23.9320951194 -7.71331012145e-07 -2.54539234008e-05 -0.00187304880783
Te 2.4824602301 3.4329104042 23.8486039235 0.000133697375438 -6.71057980566e-05 -0.000593410658677
Te 4.2142178275 0.4334185831 23.8486039235 2.57110337382e-07 0.000142696237247 -0.000602409520485
Te -2.4824602301 3.4329104042 23.8486039235 -0.000133697375438 -6.81342394061e-05 -0.000606780396221
Te 0 2.9497000414 27.7543031291 -3.59954472334e-06 0.000222657552172 -0.00251685309263
Te 1.6597028634 5.8243893708 27.7543031291 -0.000194118304723 -0.000108243452038 -0.00252173818904
Te 4.2142178275 2.4330797971 27.2073643315 1.00273031579e-05 -5.14220674763e-07 -0.00304907149101
Te -1.6597028634 5.8243893708 27.7543031291 0.000191290091012 -0.000110043224399 -0.00252456640275
Te 0 2.9497169146 20.5222760855 1.79977236167e-06 -0.00343730810046 -0.00169615689571
Te 1.6596882625 5.8243809341 20.5222760855 0.00297553793452 0.00172649591552 -0.0017084981919
Te 4.2142178275 2.4330797971 20.5786182832 -7.71331012145e-07 3.85665506072e-06 -0.00491723520242
Te -1.6596882625 5.8243809341 20.5222760855 -0.0029616539763 0.00171981104675 -0.00169898510942
Sb -0 2.4293462665 8.448083149 2.15972683401e-05 -0.00200803173495 -0.000714252517246
Sb 2.1103422453 6.0845662582 8.448083149 0.0017380658807 0.000983704150822 -0.000719137613656
Sb 4.2142178275 2.4330797971 9.8241145969 1.72263926046e-05 9.25597214574e-06 0.000852063658083
Sb -2.1103422453 6.0845662582 8.448083149 -0.00174526497015 0.00100915807422 -0.000721451606693
Sb 0 2.4196624414 1.4353121226 -3.34243438596e-06 -0.00263126719276 0.00359183141322
Sb 2.1187286794 6.0894081707 1.4353121226 0.00228134002359 0.00132103291347 0.00358874608917
Sb 4.2142178275 2.4330797971 2.2397545249 6.17064809716e-06 -5.14220674763e-07 0.0053923751059
Sb -2.1187286794 6.0894081707 1.4353121226 -0.00227105561009 0.00131254827233 0.00359131719255
Sb -0 -0 19.8636885389 -1.28555168691e-05 -1.46552892308e-05 -0.00371267327179
Sb 2.0050293866 3.7085553303 18.0407651323 0.00260838437274 -0.00148918307411 -0.0022291466251
Sb 4.2142178275 -0.1178712691 18.0407651323 2.15972683401e-05 0.00299944919589 -0.00221217734283
Sb 6.4234062685 3.7085553303 18.0407651323 -0.00260504193835 -0.00150203859098 -0.00222246175633
Sb 0 -0 14.1674269616 -3.59954472334e-05 -5.14220674763e-06 0.00184425245004
Sb 2.2319796877 3.5775254864 11.9661226492 -0.000706539207125 0.000425003387692 0.00392581774148
Sb 4.2142178275 0.1441884188 11.9661226492 2.69965854251e-05 -0.000817867983211 0.00392813173452
Sb -2.2319796877 3.5775254864 11.9661226492 0.0007049965451 0.000395435698893 0.00392170397608
Sb 2.1459458047 1.2389623985 28.8514655902 -0.00140485088345 -0.000821467527934 -0.00321696454132
Sb 4.2142178275 4.8213145944 28.8514655902 8.99886180836e-06 0.00161876668415 -0.00322467785144
Sb 6.2824898504 1.2389623985 28.8514655902 0.0014038224421 -0.000808354900728 -0.00322724895481
Sb 0 4.8661595943 29.8803204124 -6.42775843454e-06 1.79977236167e-06 -0.00419424093371
Sb 1.9831505337 1.144972478 22.0962259044 -0.000637890747044 -0.000365353789419 -0.00345144916901
Sb 4.2142178275 5.0092944353 22.0962259044 -4.37087573549e-06 0.000774159225856 -0.00343936498315
Sb 6.4452851213 1.144972478 22.0962259044 0.000630177436922 -0.000365868010094 -0.00345993381014
Sb 0 4.8661595943 23.4516020591 -7.71331012145e-07 -3.08532404858e-06 -0.000593153548339
Cr 4.2142178275 2.4330797972 18.1704102486 -4.62798607287e-06 -3.85665506072e-06 -0.00356123528307
61
Lattice="8.42843558953 0 0 -4.21421779477 7.29923593142 0 0 0 31.0334408416" Properties=species:S:1:pos:R:3:forces:R:3 energy=-133599.798933 ionic_step=41 pbc="T T T"
Te 1.7771409521 1.0260327181 3.2473132933 -0.00121047546839 -0.000696511903967 0.00374764027767
Te 4.2142178275 5.2471739554 3.2473132933 -6.42775843454e-06 0.00139868023536 0.00374275518126
Te 6.651294703 1.0260327181 3.2473132933 0.00120893280637 -0.000701911221052 0.00373992696755
Te 0 4.8661595943 3.0416436335 1.00273031579e-05 1.79977236167e-06 0.00464701223784
Te 0 0 6.8865368576 -4.11376539811e-06 2.57110337382e-07 -0.00179025927919
Te 2.6257059586 3.3502074131 7.6926504006 0.000397749691929 -0.000237569951741 -0.00372064369225
Te 4.2142178275 0.5988245651 7.6926504006 -9.25597214574e-06 0.000463827048636 -0.00372450034731
Te -2.6257059586 3.3502074131 7.6926504006 -0.000404177450364 -0.00022882820027 -0.00373195654709
Te 0 0 -0.3983209258 -8.48464113359e-06 -2.57110337382e-07 0.000412919201835
Te 2.4524660974 3.4502275404 -0.0474274846 -0.000166864608961 9.87303695545e-05 0.000852577878757
Te 4.2142178275 0.3987843108 -0.0474274846 8.48464113359e-06 -0.000189747428988 0.00085232076842
Te -2.4524660974 3.4502275404 -0.0474274846 0.000166864608961 8.99886180836e-05 0.000846664340998
Te -0 2.8134380058 13.8251838817 8.99886180836e-06 0.000711167193198 0.00198900556998
Te 1.7777091935 5.8925203886 13.8251838817 -0.000608580168582 -0.000356354927611 0.00199003401133
Te 4.2142178275 2.4330797971 13.7986966138 -1.49123995681e-05 -1.28555168691e-06 0.00253742191962
Te -1.7777091935 5.8925203886 13.8251838817 0.000619893023427 -0.00035249827255 0.00198720579762
Te 1.5324733054 0.8847737117 17.4808398099 -0.00182625472642 -0.00104438219044 -0.00151926498359
Te 4.2142178275 5.5296919682 17.4808398099 -2.67394750877e-05 0.00210779054585 -0.00152132186629
Te 6.8959623497 0.8847737117 17.4808398099 0.00181751297495 -0.00106983611384 -0.00152157897662
Te 0 4.8661595943 16.0559375379 2.4939702726e-05 3.85665506072e-06 -0.00413716243881
Te 1.5769817068 0.9104706706 10.7795867783 -0.00221963354262 -0.00127218194936 0.00131743336874
Te 4.2142178275 5.4782980503 10.7795867783 -2.05688269905e-05 0.00256698960842 0.00131871892043
Te 6.8514539482 0.9104706706 10.7795867783 0.00222040487363 -0.0012978929831 0.00131846181009
Te 0 4.8661595943 10.3226060653 1.13128548448e-05 1.54266202429e-06 0.00209802035303
Te -0 -0 23.9356521263 -4.11376539811e-06 5.14220674763e-07 0.000616807699379
Te 2.4822551341 3.4330288165 23.8506535612 0.000128298058353 -7.01911221052e-05 0.00221012046013
Te 4.2142178275 0.4331817585 23.8506535612 1.05415238326e-05 0.000149638216356 0.00221114890148
Te -2.4822551341 3.4330288165 23.8506535612 -0.000132411823752 -8.12468666126e-05 0.00221551977722
Te 0 2.9501573062 27.7505500995 5.14220674763e-07 0.00028873490888 -0.00294159936998
Te 1.6593068606 5.8241607383 27.7505500995 -0.000253253682321 -0.000145267340621 -0.00294597024572
Te 4.2142178275 2.4330797971 27.2042849257 -1.28555168691e-06 0 -0.00348050263714
Te -1.6593068606 5.8241607383 27.7505500995 0.00024939702726 -0.000146038671633 -0.00294082803897
Te 0 2.9518609542 20.5294180925 -1.13128548448e-05 -0.0034313945627 -0.000460998834925
Te 1.6578314706 5.8233089143 20.5294180925 0.00297836614823 0.00172623880518 -0.000465369710661
Te 4.2142178275 2.4330797971 20.5859228008 4.37087573549e-06 0 -0.00300253451994
Te -1.6578314706 5.8233089143 20.5294180925 -0.00297013861743 0.00171081218494 -0.000459456172901
Sb -0 2.4279533079 8.4479484188 2.98247991363e-05 -0.0023962683444 -0.00257984512529
Sb 2.1115485823 6.0852627376 8.4479484188 0.00208105107077 0.00118630709668 -0.00258035934596
Sb 4.2142178275 2.4330797971 9.8216558602 2.36541510391e-05 1.54266202429e-06 -0.000398263912604
Sb -2.1115485823 6.0852627376 8.4479484188 -0.00206742422289 0.00121458923379 -0.00257958801495
Sb 0 2.4203571227 1.4309597707 -3.34243438596e-06 -0.00246157437009 0.00436470508739
Sb 2.1181270681 6.08906083 1.4309597707 0.00213298735892 0.00123078718505 0.00436779041144
Sb 4.2142178275 2.4330797971 2.2360277107 6.68486877192e-06 -1.54266202429e-06 0.00571222036561
Sb -2.1181270681 6.08906083 1.4309597707 -0.00213144469689 0.00122821608167 0.0043675333011
Sb -0 -0 19.8684272315 -1.90261649662e-05 -2.8282137112e-06 -0.00358951742018
Sb 2.0063538529 3.707790649 18.0416303136 0.0021088189872 -0.00120250504793 -0.00314240254348
Sb 4.2142178275 -0.1163419065 18.0416303136 1.7483502942e-05 0.00242532181252 -0.0031308325783
Sb 6.4220818022 3.707790649 18.0416303136 -0.00209493502899 -0.00121793166818 -0.00311720573041
Sb 0 -0 14.1686538089 -2.54539234008e-05 -4.37087573549e-06 0.00114336967034
Sb 2.2316897353 3.5776928906 11.9665818497 -0.000590839555303 0.000341956748718 0.00375561069813
Sb 4.2142178275 0.1438536104 11.9665818497 -2.57110337382e-07 -0.00068442771811 0.00375792469117
Sb -2.2316897353 3.5776928906 11.9665818497 0.000593153548339 0.000344270741754 0.00376152423589
Sb 2.1455631271 1.2387414594 28.847659218 -0.00133517398202 -0.000772102343157 -0.00278579050553
Sb 4.2142178275 4.8217564727 28.847659218 9.51308248312e-06 0.00153674848653 -0.00278167674013
Sb 6.282872528 1.2387414594 28.847659218 0.00133208865797 -0.000762846371011 -0.00278141962979
Sb 0 4.8661595943 29.8771409084 -1.79977236167e-06 -4.11376539811e-06 -0.00290920346747
Sb 1.9821594749 1.1444002897 22.0989012028 -0.00104926728685 -0.000603952182509 0.000363554017058
Sb 4.2142178275 5.0104388119 22.0989012028 -7.97042045883e-06 0.00121587478548 0.000348127396815
Sb 6.4462761801 1.1444002897 22.0989012028 0.00105183839023 -0.000614236596005 0.00034169963838
Sb 0 4.8661595943 23.4478046177 2.31399303643e-05 2.8282137112e-06 0.00288169266137
Cr 4.2142178275 2.4330797972 18.1769154392 -4.37087573549e-06 -1.02844134953e-06 -0.00463107139692
61
Lattice="8.42843558953 0 0 -4.21421779477 7.29923593142 0 0 0 31.0334408416" Properties=species:S:1:pos:R:3:forces:R:3 energy=-133599.799186 ionic_step=42 pbc="T T T"
Te 1.7769145663 1.0259020142 3.2427231041 -0.00099964499174 -0.000578755369446 0.00239266879967
Te 4.2142178275 5.2474353633 3.2427231041 -2.8282137112e-06 0.00116008184227 0.002392154579
Te 6.6515210888 1.0259020142 3.2427231041 0.00100710119152 -0.00058132647282 0.0023859839309
Te 0 4.8661595943 3.0386480918 5.39931708501e-06 2.57110337382e-07 0.00308918070364
Te 0 0 6.8844201622 8.74175147098e-06 0 -0.000205431159568
Te 2.6257825164 3.3501632124 7.6919306432 0.00012469851363 -8.43321906612e-05 -0.00233404764275
Te 4.2142178275 0.5989129665 7.6919306432 -1.59408409177e-05 0.000148866885344 -0.00233199076005
Te -2.6257825164 3.3501632124 7.6919306432 -0.00012958361004 -6.58202463697e-05 -0.00232993387735
Te 0 0 -0.4012065304 -2.05688269905e-06 5.14220674763e-07 0.000808869121403
Te 2.452835909 3.4500140295 -0.0510686791 -0.000409576767449 0.000235513069042 0.000695740572955
Te 4.2142178275 0.3992113326 -0.0510686791 2.31399303643e-06 -0.000472825910445 0.000695740572955
Te -2.452835909 3.4500140295 -0.0510686791 0.000408805436437 0.000235770179379 0.000692655248906
Te -0 2.8130824097 13.8265608934 1.46552892308e-05 -0.00072865069614 0.00115493963552
Te 1.7780171485 5.8926981866 13.8265608934 0.000635576754007 0.000362268465371 0.00115365408383
Te 4.2142178275 2.4330797971 13.7982674025 -1.64550615924e-05 -2.05688269905e-06 0.00183705336059
Te -1.7780171485 5.8926981866 13.8265608934 -0.000625806561187 0.000371781547854 0.0011582820699
Te 1.5309587354 0.8838992739 17.4870035537 -0.00294442758369 -0.00170104199212 -0.000495708730472
Te 4.2142178275 5.5314408438 17.4870035537 -1.33697375438e-05 0.00339925577052 -0.000489280972037
Te 6.8974769197 0.8838992739 17.4870035537 0.0029362000529 -0.00171004085393 -0.000482853213603
Te 0 4.8661595943 16.0573826842 2.10830476653e-05 6.17064809716e-06 -0.00158508522996
Te 1.5773202568 0.9106661326 10.7787836243 -0.00225408632782 -0.00129146522467 -0.000423460725668
Te 4.2142178275 5.4779071262 10.7787836243 -1.85119442915e-05 0.00260864148307 -0.000426031829041
Te 6.8511153982 0.9106661326 10.7787836243 0.00225948564491 -0.00132000447212 -0.000427060270391
Te 0 4.8661595943 10.3202810685 2.18543786774e-05 1.28555168691e-06 0.000269965854251
Te -0 -0 23.9394797851 -3.59954472334e-06 -2.57110337382e-06 0.000826352624345
Te 2.4822390529 3.433038101 23.8529085397 -4.52514193792e-05 3.34243438596e-05 0.00228519667865
Te 4.2142178275 0.4331631896 23.8529085397 8.22753079621e-06 -5.50216121997e-05 0.0022800544719
Te -2.4822390529 3.433038101 23.8529085397 4.4480088367e-05 2.54539234008e-05 0.00228391112696
Te 0 2.9504227678 27.7470909896 -0 0.000564100080215 -0.00226617051368
Te 1.6590769642 5.8240280075 27.7470909896 -0.000489280972037 -0.000282307150445 -0.00226488496199
Te 4.2142178275 2.4330797971 27.2014728234 2.57110337382e-06 1.79977236167e-06 -0.00317634110801
Te -1.6590769642 5.8240280075 27.7470909896 0.000487481199676 -0.00028179292977 -0.00227002716874
Te 0 2.9536698652 20.536335222 -2.57110337382e-06 -0.00312234793716 -0.000952079579324
Te 1.6562649085 5.8224044588 20.536335222 0.00271251405938 0.00157634347849 -0.000956707565397
Te 4.2142178275 2.4330797971 20.5927360541 2.05688269905e-06 -3.34243438596e-06 -0.0017318952326
Te -1.6562649085 5.8224044588 20.536335222 -0.00269837299082 0.00156168818926 -0.00094950847595
Sb -0 2.4264812547 8.4479498092 1.02844134953e-05 -0.00215869839266 -0.00180440034774
Sb 2.1128234171 6.0859987641 8.4479498092 0.00186919215276 0.00107523543093 -0.00179745836863
Sb 4.2142178275 2.4330797971 9.8192970995 8.99886180836e-06 2.31399303643e-06 -0.00102252781177
Sb -2.1128234171 6.0859987641 8.4479498092 -0.00186764949074 0.00108320585139 -0.00180722856146
Sb 0 2.4208308448 1.4266879135 -5.14220674763e-07 -0.0023880408136 0.00268628880496
Sb 2.1177168129 6.088823969 1.4266879135 0.00206331045749 0.00119350618613 0.0026865459153
Sb 4.2142178275 2.4330797971 2.2323421681 -1.10557445074e-05 -1.54266202429e-06 0.00413664821813
Sb -2.1177168129 6.088823969 1.4266879135 -0.00206639578154 0.00119504884815 0.00268603169463
Sb -0 -0 19.8736303788 -4.26803160054e-05 -1.7483502942e-05 -0.00506815897047
Sb 2.0078669757 3.7069170468 18.0427311755 0.000788557404749 -0.000430402704777 -0.00211987473171
Sb 4.2142178275 -0.114594702 18.0427311755 2.10830476653e-05 0.000898857739486 -0.00210830476653
Sb 6.4205686794 3.7069170468 18.0427311755 -0.000778272991254 -0.000453542635141 -0.00209236392561
Sb 0 -0 14.1702751127 -3.59954472334e-06 -1.28555168691e-06 0.00105415238326
Sb 2.2307823255 3.5782167841 11.9674185337 -0.000271765626612 0.000155808864453 0.00114594077371
Sb 4.2142178275 0.1428058234 11.9674185337 2.57110337382e-07 -0.000317531266666 0.00115185431147
Sb -2.2307823255 3.5782167841 11.9674185337 0.00027587939201 0.000162750843563 0.00115082587012
Sb 2.1453241909 1.2386035095 28.843823402 -0.00138119673241 -0.000799098928582 -0.00139096692523
Sb 4.2142178275 4.8220323725 28.843823402 4.11376539811e-06 0.00160282584324 -0.00139893734569
Sb 6.2831114642 1.2386035095 28.843823402 0.0013927666976 -0.000802698473305 -0.00140073711806
Sb 0 4.8661595943 29.8739420419 -4.88509641025e-06 -4.11376539811e-06 -0.00177637532097
Sb 1.9812784874 1.143891651 22.1017117212 -0.00126035487384 -0.000731736020188 0.000499308275195
Sb 4.2142178275 5.0114560893 22.1017117212 -6.68486877192e-06 0.00146064382667 0.000501879378569
Sb 6.4471571676 1.143891651 22.1017117212 0.0012510989017 -0.000735849785586 0.000500336716545
Sb 0 4.8661595943 23.4454409526 7.45619978407e-06 7.71331012145e-07 0.00295805443158
Cr 4.2142178275 2.4330797972 18.182752196 -2.8282137112e-06 -4.11376539811e-06 -0.00366742185241
61
Lattice="8.42843558953 0 0 -4.21421779477 7.29923593142 0 0 0 31.0334408416" Properties=species:S:1:pos:R:3:forces:R:3 energy=-133599.799412 ionic_step=43 pbc="T T T"
Te 1.7766287171 1.025736979 3.2376603986 0.000190261649662 0.000110300334737 -7.12195634547e-05
Te 4.2142178275 5.2477654337 3.2376603986 5.14220674763e-07 -0.000222400441835 -7.09624531173e-05
Te 6.651806938 1.025736979 3.2376603986 -0.000193089863374 0.000111842996761 -7.55904391902e-05
Te 0 4.8661595943 3.0354569005 1.02844134953e-06 -7.71331012145e-07 0.000162493733225
Te 0 0 6.8822615418 1.00273031579e-05 -8.99886180836e-06 0.00346199069284
Te 2.6259935162 3.3500413916 7.6913191518 -6.76200187314e-05 3.47098955465e-05 0.00284415455212
Te 4.2142178275 0.5991566083 7.6913191518 -9.7701928205e-06 -7.91899839135e-05 0.00285418185527
Te -2.6259935162 3.3500413916 7.6913191518 6.7362908394e-05 4.01092126315e-05 0.00284878253819
Te 0 0 -0.4043282898 -2.05688269905e-06 5.14220674763e-07 -0.000468712145047
Te 2.4534590311 3.4496542696 -0.055083021 -0.000506507364642 0.000292077343266 -0.000981647268123
Te 4.2142178275 0.3999308524 -0.055083021 1.02844134953e-06 -0.00058621156923 -0.000983961261159
Te -2.4534590311 3.4496542696 -0.055083021 0.000507792916329 0.000294391336302 -0.000988075026558
Te -0 2.8125686236 13.827570363 3.85665506072e-06 -0.000258138778731 -0.000168664381322
Te 1.7784621002 5.8929550797 13.827570363 0.000218543786774 0.000126241175654 -0.000167378829635
Te 4.2142178275 2.4330797971 13.7972089296 -4.62798607287e-06 5.14220674763e-07 0.00029953354305
Te -1.7784621002 5.8929550797 13.827570363 -0.000221114890148 0.000127526727341 -0.000170464153684
Te 1.5295811639 0.8831039322 17.4934640592 0.000946937372577 0.000546359466936 0.00172263926046
Te 4.2142178275 5.5330315271 17.4934640592 -0 -0.00109169049252 0.00171955393641
Te 6.8988544912 0.8831039322 17.4934640592 -0.000944109158865 0.000545845246261 0.00172726724653
Te 0 4.8661595943 16.0580296 2.8282137112e-06 -1.79977236167e-06 0.00221269156351
Te 1.5777931483 0.9109391568 10.7776738612 -0.00034272807973 -0.000196175187422 -0.0016239088909
Te 4.2142178275 5.4773610779 10.7776738612 1.02844134953e-06 0.000398263912604 -0.00162236622888
Te 6.8506425067 0.9109391568 10.7776738612 0.000349670058839 -0.000197460739109 -0.0016259657736
Te 0 4.8661595943 10.3183839247 -5.14220674763e-07 0 -0.000765160364048
Te -0 -0 23.9435738602 1.28555168691e-06 1.02844134953e-06 -0.00206948110558
Te 2.4823955861 3.4329477264 23.8556591821 -0.000110814555411 5.91353775978e-05 -0.00278784738823
Te 4.2142178275 0.4333439387 23.8556591821 -2.8282137112e-06 -0.000128298058353 -0.00278887582958
Te -2.4823955861 3.4329477264 23.8556591821 0.000110557445074 6.35062533333e-05 -0.00278887582958
Te 0 2.9505507245 27.7434543124 -2.57110337382e-06 0.000154523312766 0.00228622512
Te 1.6589661505 5.8239640292 27.7434543124 -0.000134468706451 -7.63617702023e-05 0.00228879622337
Te 4.2142178275 2.4330797971 27.1984436785 1.02844134953e-06 2.57110337382e-06 0.00141693506931
Te -1.6589661505 5.8239640292 27.7434543124 0.000132926044426 -7.76473218893e-05 0.00228339690629
Te 0 2.9554830755 20.5442184799 0 0.000299276432712 -0.00263538095816
Te 1.6546946231 5.8214978537 20.5442184799 -0.000262252544129 -0.000150923768043 -0.0026335811858
Te 4.2142178275 2.4330797971 20.5998098737 -1.79977236167e-06 -2.31399303643e-06 -0.00361240024021
Te -1.6546946231 5.8214978537 20.5442184799 0.000257881668394 -0.00015118087838 -0.00263229563411
Sb -0 2.4250528296 8.4480608233 3.08532404858e-06 -3.21387921727e-05 0.00233250498073
Sb 2.114060469 6.0867129767 8.4480608233 2.23685993522e-05 1.28555168691e-05 0.00233121942904
Sb 4.2142178275 2.4330797971 9.8178279802 1.49123995681e-05 -3.59954472334e-06 0.000354555155249
Sb -2.114060469 6.0867129767 8.4480608233 -1.85119442915e-05 2.23685993522e-05 0.00233584741511
Sb 0 2.421297801 1.421753764 -2.57110337382e-07 -0.000395949919568 -0.00248882806585
Sb 2.1173124171 6.0885904909 1.421753764 0.000341956748718 0.000198232070121 -0.00248908517619
Sb 4.2142178275 2.4330797971 2.2282250042 -2.31399303643e-06 -1.28555168691e-06 -0.00123978604685
Sb -2.1173124171 6.0885904909 1.421753764 -0.000343242300404 0.000198746290796 -0.0024919133899
Sb -0 -0 19.8803653356 -3.85665506072e-06 1.54266202429e-06 -0.0017167257227
Sb 2.0094682419 3.7059925549 18.0437522838 0.000735849785586 -0.00042423205668 0.00134057329911
Sb 4.2142178275 -0.1127457182 18.0437522838 1.54266202429e-06 0.000855406092469 0.00133954485776
Sb 6.4189674132 3.7059925549 18.0437522838 -0.000743048875033 -0.000429374263427 0.00134468706451
Sb 0 -0 14.1723902547 1.79977236167e-06 7.71331012145e-07 -0.000125469844642
Sb 2.2294624092 3.5789788385 11.9684191536 0.000143981788934 -8.97315077462e-05 -0.00190055961393
Sb 4.2142178275 0.1412817146 11.9684191536 -1.33697375438e-05 0.000170721264021 -0.00190338782764
Sb -2.2294624092 3.5789788385 11.9684191536 -0.000148095554332 -7.86757632388e-05 -0.0018928463038
Sb 2.145117509 1.2384841816 28.8395057884 -0.000958250227421 -0.000556129659756 0.00233327631174
Sb 4.2142178275 4.8222710283 28.8395057884 5.39931708501e-06 0.00110557445074 0.00233533319444
Sb 6.2833181461 1.2384841816 28.8395057884 0.000962621103157 -0.000552015894358 0.00233790429781
Sb 0 4.8661595943 29.8703736864 -2.8282137112e-06 -5.14220674763e-07 0.00055972920448
Sb 1.9805106025 1.1434483123 22.1049173626 0.000519619991848 0.000303133087773 -0.00411453672912
Sb 4.2142178275 5.0123427667 22.1049173626 3.08532404858e-06 -0.000604209292847 -0.00411402250844
Sb 6.4479250525 1.1434483123 22.1049173626 -0.000520648433198 0.00030339019811 -0.00411633650148
Sb 0 4.8661595943 23.4424809897 -5.14220674763e-07 2.57110337382e-07 -0.00315654361203
Cr 4.2142178275 2.4330797972 18.1893916709 5.14220674763e-07 -1.54266202429e-06 -7.48191081781e-05
61
Lattice="8.42843558953 0 0 -4.21421779477 7.29923593142 0 0 0 31.0334408416" Properties=species:S:1:pos:R:3:forces:R:3 energy=-133599.799604 ionic_step=44 pbc="T T T"
Te 1.776455561 1.0256370072 3.2340463184 -0.000382323071686 -0.000218800897112 -0.000448400428394
Te 4.2142178275 5.2479653772 3.2340463184 -5.91353775978e-06 0.000444543773333 -0.000449428869743
Te 6.6519800941 1.0256370072 3.2340463184 0.000384637064723 -0.000223943103859 -0.000447886207719
Te 0 4.8661595943 3.0333250341 5.39931708501e-06 5.14220674763e-07 -6.99340117678e-05
Te 0 0 6.8808487267 -1.28555168691e-06 -1.28555168691e-06 -0.00137888273938
Te 2.6260838894 3.3499892146 7.6910113057 0.000264052316491 -0.000154780423104 -0.00199414777673
Te 4.2142178275 0.5992609622 7.6910113057 -4.37087573549e-06 0.000310846397894 -0.00199749021112
Te -2.6260838894 3.3499892146 7.6910113057 -0.000276393612685 -0.000158637078164 -0.00200186108685
Te 0 0 -0.4061116445 -3.85665506072e-06 -1.28555168691e-06 0.00289274840588
Te 2.4540358818 3.4493212246 -0.0579517462 -0.000328329900836 0.000194118304723 0.00321079389322
Te 4.2142178275 0.4005969425 -0.0579517462 5.91353775978e-06 -0.000384379954386 0.00320179503141
Te -2.4540358818 3.4493212246 -0.0579517462 0.000336300321295 0.000189233208313 0.00319253905927
Te -0 2.8121491388 13.8283493338 1.6197951255e-05 -0.001376311636 -0.00163650729743
Te 1.7788253845 5.893164822 13.8283493338 0.00119787706186 0.000684170607773 -0.0016280226563
Te 4.2142178275 2.4330797971 13.7963357077 -1.9540385641e-05 -5.6564274224e-06 -0.00117422291082
Te -1.7788253845 5.893164822 13.8283493338 -0.00117807956588 0.000694455021268 -0.00164190661452
Te 1.5287978406 0.8826516801 17.4978280304 -0.00206228201614 -0.00118142200027 -0.00166967453096
Te 4.2142178275 5.5339360314 17.4978280304 -2.36541510391e-05 0.00238109883449 -0.00166890319994
Te 6.8996378145 0.8826516801 17.4978280304 0.0020579111404 -0.0012043048203 -0.00166890319994
Te 0 4.8661595943 16.0581896278 2.10830476653e-05 2.05688269905e-06 -0.0041343342251
Te 1.578327571 0.911247706 10.7771003116 -0.00136474167082 -0.000781872535978 0.00187613413187
Te 4.2142178275 5.4767439794 10.7771003116 -1.05415238326e-05 0.00157351526478 0.00187124903546
Te 6.850108084 0.911247706 10.7771003116 0.0013652558915 -0.000793956721834 0.00187202036648
Te 0 4.8661595943 10.3177491918 1.33697375438e-05 1.79977236167e-06 0.00177611821063
Te -0 -0 23.9462652179 6.42775843454e-06 -5.14220674763e-07 0.00118502154499
Te 2.4827370543 3.4327505796 23.8568460903 0.000359697361997 -0.000209802035303 0.00269323078407
Te 4.2142178275 0.4337382323 23.8568460903 -5.14220674763e-06 0.000420632511956 0.0026906596807
Te -2.4827370543 3.4327505796 23.8568460903 -0.000373067099541 -0.000212373138677 0.00268834568766
Te 0 2.9503511334 27.7407983006 -7.97042045883e-06 0.000640718960755 -0.00302156068491
Te 1.6591390014 5.8240638248 27.7407983006 -0.000555872549419 -0.000315731494305 -0.00302156068491
Te 4.2142178275 2.4330797971 27.1963810207 5.14220674763e-06 -2.05688269905e-06 -0.00456525115055
Te -1.6591390014 5.8240638248 27.7407983006 0.000554072777057 -0.000322416363077 -0.00302181779525
Te 0 2.9569919224 20.5504133484 1.00273031579e-05 -0.00282847082154 0.00336943097139
Te 1.6533879239 5.8207434302 20.5504133484 0.00245591794267 0.00141487818661 0.00336146055093
Te 4.2142178275 2.4330797971 20.6049840457 -5.14220674763e-06 -7.71331012145e-07 0.00313957432977
Te -1.6533879239 5.8207434302 20.5504133484 -0.00244357664648 0.00141693506931 0.00337534450915
Sb -0 2.4239873016 8.4486582106 1.64550615924e-05 -0.00157942880254 -0.000710395862185
Sb 2.1149832428 6.0872457407 8.4486582106 0.00136371322947 0.000778530101592 -0.000705767876113
Sb 4.2142178275 2.4330797971 9.8176722758 -3.41956748718e-05 -1.28555168691e-06 0.000833551713791
Sb -2.1149832428 6.0872457407 8.4486582106 -0.00137039809824 0.000801927142293 -0.00071091008286
Sb 0 2.4216084311 1.4181237406 -0 -0.00114696921506 0.00289146285419
Sb 2.1170434037 6.0884351758 1.4181237406 0.000993217233305 0.000572584721349 0.00288992019217
Sb 4.2142178275 2.4330797971 2.2251046732 -3.59954472334e-06 1.02844134953e-06 0.00240321032351
Sb -2.1170434037 6.0884351758 1.4181237406 -0.000995788336679 0.000574898714385 0.00289146285419
Sb -0 -0 19.8856274352 -1.77406132793e-05 0 -0.000283078481457
Sb 2.0107240769 3.7052674979 18.0440813988 0.00101764271536 -0.000580555141808 -0.00158765633333
Sb 4.2142178275 -0.1112956041 18.0440813988 9.51308248312e-06 0.00117345157981 -0.00158174279557
Sb 6.4177115782 3.7052674979 18.0440813988 -0.00101198628793 -0.000589554003616 -0.00157608636815
Sb 0 -0 14.1741368546 -1.33697375438e-05 5.14220674763e-07 -0.00209724902202
Sb 2.2282147529 3.5796991736 11.9696426016 0.000641747402105 -0.000376666644264 0.00150101014963
Sb 4.2142178275 0.1398410445 11.9696426016 -1.25984065317e-05 0.000745105757732 0.00150795212874
Sb -2.2282147529 3.5796991736 11.9696426016 -0.000652546036275 -0.000371781547854 0.00150383836335
Sb 2.1450499323 1.2384451661 28.8363772682 -0.00079729915622 -0.000467169483022 -0.000275365171336
Sb 4.2142178275 4.8223490593 28.8363772682 7.97042045883e-06 0.000926111435249 -0.000276650723023
Sb 6.2833857228 1.2384451661 28.8363772682 0.000802441362968 -0.000460227503913 -0.00027587939201
Sb 0 4.8661595943 29.8673656562 -6.42775843454e-06 1.54266202429e-06 0.00110711711277
Sb 1.9797508977 1.1430096963 22.1067680741 -0.00104103975606 -0.00060292374116 0.00461847299039
Sb 4.2142178275 5.0132199987 22.1067680741 -1.79977236167e-06 0.00120250504793 0.00461693032836
Sb 6.4486847573 1.1430096963 22.1067680741 0.00103641176999 -0.000600609748123 0.00461435922499
Sb 0 4.8661595943 23.4380350649 1.25984065317e-05 2.8282137112e-06 0.00481156285376
Cr 4.2142178275 2.4330797972 18.1947461814 -6.42775843454e-06 5.14220674763e-07 -0.00307195431104
61
Lattice="8.42843558953 0 0 -4.21421779477 7.29923593142 0 0 0 31.0334408416" Properties=species:S:1:pos:R:3:forces:R:3 energy=-133599.79974 ionic_step=45 pbc="T T T"
Te 1.7761188456 1.0254426044 3.2297004079 9.7701928205e-05 5.60500535492e-05 -0.000408548326099
Te 4.2142178275 5.2483541828 3.2297004079 -7.71331012145e-07 -0.000114156989797 -0.000412662091498
Te 6.6523168095 1.0254426044 3.2297004079 -9.95017005667e-05 5.8621156923e-05 -0.000414718974197
Te 0 4.8661595943 3.0304133353 -2.57110337382e-06 -7.71331012145e-07 0.000187433435951
Te 0 0 6.8788339063 4.11376539811e-06 2.57110337382e-07 0.00160796804998
Te 2.6259657935 3.3500573973 7.6901074232 -2.95676887989e-05 9.51308248312e-06 0.00109708980961
Te 4.2142178275 0.5991245968 7.6901074232 -8.99886180836e-06 -3.31672335222e-05 0.00109914669231
Te -2.6259657935 3.3500573973 7.6901074232 2.90534681241e-05 2.23685993522e-05 0.00110300334737
Te 0 0 -0.4086716325 2.57110337382e-07 -2.57110337382e-07 0.000506507364642
Te 2.4546423846 3.4489710598 -0.0616395737 -0.000493394737435 0.000286420915843 2.8282137112e-06
Te 4.2142178275 0.4012972719 -0.0616395737 5.14220674763e-07 -0.000571556279999 2.57110337382e-06
Te -2.4546423846 3.4489710598 -0.0616395737 0.000495451620134 0.000285392474494 3.08532404858e-06
Te -0 2.8115773271 13.8295019783 8.48464113359e-06 -0.000359954472334 -0.00143673256529
Te 1.7793205877 5.8934507279 13.8295019783 0.000311874839244 0.000176120581106 -0.00143673256529
Te 4.2142178275 2.4330797971 13.7947147934 -7.45619978407e-06 -5.14220674763e-07 -0.00153469160383
Te -1.7793205877 5.8934507279 13.8295019783 -0.000310846397894 0.000184091001565 -0.00143621834461
Te 1.5280340448 0.8822107022 17.5032774596 -0.00138479627714 -0.000800127369932 0.00378440705592
Te 4.2142178275 5.5348179873 17.5032774596 7.71331012145e-07 0.00159819785716 0.00378980637301
Te 6.9004016103 0.8822107022 17.5032774596 0.00138479627714 -0.000798584707907 0.00379340591773
Te 0 4.8661595943 16.058681585 1.02844134953e-06 -0 0.00253870747131
Te 1.5788220706 0.9115332056 10.7763185324 -0.000439144456248 -0.000256339006369 -0.00267291906742
Te 4.2142178275 5.4761729802 10.7763185324 6.9419791093e-06 0.000511135350715 -0.00266726264
Te 6.8496135844 0.9115332056 10.7763185324 0.000446343545695 -0.000253510792658 -0.00266366309527
Te 0 4.8661595943 10.3168032139 -3.59954472334e-06 -5.14220674763e-07 -0.00177843220367
Te -0 -0 23.9500512078 2.31399303643e-06 2.57110337382e-07 -0.00279118982261
Te 2.4830526929 3.4325683455 23.8593403912 -0.000281535819433 0.000162493733225 -0.0029809372516
Te 4.2142178275 0.4341027006 23.8593403912 -5.14220674763e-07 -0.000323959025101 -0.00298042303093
Te -2.4830526929 3.4325683455 23.8593403912 0.000278964716059 0.000160951071201 -0.00298042303093
Te 0 2.950261515 27.7375798008 -5.14220674763e-07 0.000368696223805 0.000978819054412
Te 1.6592166132 5.8241086339 27.7375798008 -0.00032113081139 -0.000185376553252 0.000978819054412
Te 4.2142178275 2.4330797971 27.1936288803 -2.05688269905e-06 -2.57110337382e-07 -0.000286935136518
Te -1.6592166132 5.8241086339 27.7375798008 0.000317274156329 -0.000184091001565 0.000978819054412
Te 0 2.9584864456 20.5572658333 5.14220674763e-07 -0.000102844134953 0.00127423883206
Te 1.6520936294 5.8199961686 20.5572658333 8.97315077462e-05 5.21933984885e-05 0.00127141061835
Te 4.2142178275 2.4330797971 20.6107511351 5.14220674763e-07 -2.57110337382e-07 0.00446703500167
Te -1.6520936294 5.8199961686 20.5572658333 -8.84459560593e-05 5.11649571389e-05 0.00127603860443
Sb -0 2.4229502367 8.448594966 4.62798607287e-06 -0.000150409547368 0.000962106882482
Sb 2.115881367 6.0877642731 8.448594966 0.00012958361004 7.43048875033e-05 0.000956193344722
Sb 4.2142178275 2.4330797971 9.8174594309 -3.08532404858e-06 -0 -0.000802441362968
Sb -2.115881367 6.0877642731 8.448594966 -0.000130354941052 7.68759908771e-05 0.000965963537543
Sb 0 2.4220517405 1.4136899242 -5.39931708501e-06 -0.000480796330904 -0.00145035941317
Sb 2.1166594867 6.0882135212 1.4136899242 0.000414204753522 0.000241169496464 -0.00144598853743
Sb 4.2142178275 2.4330797971 2.2215454438 5.39931708501e-06 5.14220674763e-07 -0.000773387894844
Sb -2.1166594867 6.0882135212 1.4136899242 -0.000419346960269 0.00023859839309 -0.00145498739924
Sb -0 -0 19.8917212775 -1.46552892308e-05 -1.79977236167e-06 0.00182625472642
Sb 2.0115856839 3.7047700486 18.0446927121 -0.00243946288108 0.00140973597986 0.00399703730493
Sb 4.2142178275 -0.1103007056 18.0446927121 2.31399303643e-06 -0.00281767218737 0.00400346506337
Sb 6.4168499712 3.7047700486 18.0446927121 0.00243997710175 0.00140870753851 0.00401272103552
Sb 0 -0 14.1763866066 -2.8282137112e-06 -2.57110337382e-07 -0.00118707842769
Sb 2.2270361506 3.5803796402 11.9703565417 0.000115956762159 -7.14766737921e-05 -0.00306835476631
Sb 4.2142178275 0.1384801112 11.9703565417 -5.39931708501e-06 0.000141924906235 -0.00306835476631
Sb -2.2270361506 3.5803796402 11.9703565417 -0.000131126272065 -7.17337841295e-05 -0.00306784054564
Sb 2.1448649091 1.2383383429 28.8327470154 -0.000945908931227 -0.00054790212896 0.00207745152604
Sb 4.2142178275 4.8225627057 28.8327470154 2.31399303643e-06 0.00109374737522 0.00207668019503
Sb 6.283570746 1.2383383429 28.8327470154 0.000948480034601 -0.000545588135924 0.00207616597436
Sb 0 4.8661595943 29.8640851074 -2.57110337382e-06 0 0.000962878213494
Sb 1.9790040278 1.1425784906 22.1097491132 7.32764461538e-05 4.37087573549e-05 -0.00225820009322
Sb 4.2142178275 5.0140824101 22.1097491132 -2.8282137112e-06 -8.79317353845e-05 -0.00225562898985
Sb 6.4494316272 1.1425784906 22.1097491132 -7.84186529014e-05 4.37087573549e-05 -0.00225434343816
Sb 0 4.8661595943 23.435588562 3.08532404858e-06 2.57110337382e-07 -0.00300870516804
Cr 4.2142178275 2.4330797972 18.2010924001 1.02844134953e-06 5.14220674763e-07 0.00311746284075
61
Lattice="8.42843558953 0 0 -4.21421779477 7.29923593142 0 0 0 31.0334408416" Properties=species:S:1:pos:R:3:forces:R:3 energy=-133599.799903 ionic_step=46 pbc="T T T"
Te 1.7759699408 1.0253566342 3.2271344263 0.000615265037354 0.000355583596599 -0.00300767672669
Te 4.2142178275 5.2485261234 3.2271344263 -1.02844134953e-06 -0.000704739434763 -0.00300099185792
Te 6.6524657143 1.0253566342 3.2271344263 -0.00060780883757 0.000351469831201 -0.00299687809252
Te 0 4.8661595943 3.0286413398 2.05688269905e-06 1.28555168691e-06 -0.0032367620373
Te 0 0 6.8775373731 -5.91353775978e-06 -2.57110337382e-07 0.000297476660351
Te 2.6255967309 3.3502704758 7.689218671 0.00011492832081 -5.99067086099e-05 0.00041240498116
Te 4.2142178275 0.5986984398 7.689218671 1.23412961943e-05 0.000124955623967 0.000405463002051
Te -2.6255967309 3.3502704758 7.689218671 -0.000106700790013 -6.63344670445e-05 0.000392864595519
Te 0 0 -0.4094180823 5.91353775978e-06 2.57110337382e-07 0.000893972643076
Te 2.4549886725 3.4487711303 -0.0639132012 0.000156065974791 -9.35881628069e-05 0.00060780883757
Te 4.2142178275 0.401697131 -0.0639132012 -5.14220674763e-06 0.00017869168448 0.000605237734196
Te -2.4549886725 3.4487711303 -0.0639132012 -0.00015709441614 -8.8960176734e-05 0.000609865720269
Te -0 2.8110985419 13.8310802492 -1.82548339541e-05 0.00053118995703 0.00207693730537
Te 1.7797352276 5.8936901205 13.8310802492 -0.000454828186828 -0.00025428212367 0.00208027973975
Te 4.2142178275 2.4330797971 13.7934824944 1.05415238326e-05 3.08532404858e-06 0.0015750579268
Te -1.7797352276 5.8936901205 13.8310802492 0.000455856628178 -0.000278450495384 0.00207308065031
Te 1.5278839282 0.8821240323 17.5060839708 0.000154266202429 9.0245728421e-05 0.000963135323832
Te 4.2142178275 5.534991327 17.5060839708 2.8282137112e-06 -0.000182548339541 0.000951822468987
Te 6.9005517269 0.8821240323 17.5060839708 -0.000151952209393 9.10170594331e-05 0.000942566496841
Te 0 4.8661595943 16.0594757774 -7.97042045883e-06 -3.85665506072e-06 0.00326812949846
Te 1.5795177793 0.9119348734 10.7763896057 0.00046048461425 0.00026122410278 -6.22207016464e-05
Te 4.2142178275 5.4753696447 10.7763896057 6.42775843454e-06 -0.000530675736356 -5.34789501754e-05
Te 6.8489178757 0.9119348734 10.7763896057 -0.000459456172901 0.000268937412901 -4.26803160054e-05
Te 0 4.8661595943 10.3173484354 -5.14220674763e-07 1.79977236167e-06 -8.25324182995e-05
Te -0 -0 23.9524186478 5.14220674763e-06 1.28555168691e-06 -0.00194941057803
Te 2.4836298731 3.4322351102 23.8592575061 -0.000846150120323 0.000485424316977 -0.00265029335773
Te 4.2142178275 0.4347691711 23.8592575061 -3.08532404858e-06 -0.000975990840701 -0.00265157890942
Te -2.4836298731 3.4322351102 23.8592575061 0.000847178561672 0.000491594965074 -0.00265774955751
Te 0 2.9496726146 27.7352884314 7.97042045883e-06 -0.00100401586748 0.00373581320216
Te 1.6597266157 5.8244030841 27.7352884314 0.000873660926423 0.000501879378569 0.00373529898148
Te 4.2142178275 2.4330797971 27.1920390142 -4.88509641025e-06 -2.57110337382e-06 0.00429297130326
Te -1.6597266157 5.8244030841 27.7352884314 -0.000866204726639 0.00050470759228 0.00373401342979
Te 0 2.9598164618 20.5621007817 4.88509641025e-06 0.00186842082175 -0.00199003401133
Te 1.6509418021 5.8193311605 20.5621007817 -0.0016197951255 -0.000941538055492 -0.00198309203222
Te 4.2142178275 2.4330797971 20.6147845979 3.34243438596e-06 4.88509641025e-06 -0.00339719888782
Te -1.6509418021 5.8193311605 20.5621007817 0.00160899649133 -0.000932024973008 -0.00199286222505
Sb -0 2.4220735475 8.4492082188 1.079863417e-05 0.00117036625576 0.000376152423589
Sb 2.1166406018 6.0882026178 8.4492082188 -0.00102869845986 -0.000597781534412 0.000372295768529
Sb 4.2142178275 2.4330797971 9.818181595 -3.41956748718e-05 -2.8282137112e-06 -0.000255567675357
Sb -2.1166406018 6.0882026178 8.4492082188 0.00101147206726 -0.000577984038434 0.000380780409662
Sb 0 2.4223211385 1.4109877865 9.7701928205e-06 0.00113977012561 -0.00226848450672
Sb 2.1164261813 6.0880788221 1.4109877865 -0.000985761033521 -0.000573613162698 -0.00226977005841
Sb 4.2142178275 2.4330797971 2.2191719589 -8.99886180836e-06 -1.54266202429e-06 -0.00408162660593
Sb -2.1164261813 6.0880788221 1.4109877865 0.000990646129931 -0.000564871411227 -0.00227028427908
Sb -0 -0 19.8950628863 1.10557445074e-05 -5.14220674763e-07 -0.00208310795347
Sb 2.0120644298 3.7044936444 18.0445398112 -0.00101995670839 0.000593410658677 0.000622464126801
Sb 4.2142178275 -0.1097478972 18.0445398112 4.62798607287e-06 -0.00118399310364 0.00062349256815
Sb 6.4163712253 3.7044936444 18.0445398112 0.00102355625312 0.000592639327665 0.000624006788825
Sb 0 -0 14.1784379941 -2.15972683401e-05 -3.08532404858e-06 0.00174937873554
Sb 2.2259094069 3.5810301663 11.9716275472 -2.46825923886e-05 1.54266202429e-05 -0.00076593169506
Sb 4.2142178275 0.137179059 11.9716275472 4.11376539811e-06 -3.39385645344e-05 -0.000759503936625
Sb -2.2259094069 3.5810301663 11.9716275472 3.52241162213e-05 2.03117166531e-05 -0.000745105757732
Sb 2.1448299044 1.2383181329 28.8306383059 0.000508564247341 0.000292077343266 0.00411839338418
Sb 4.2142178275 4.8226031257 28.8306383059 -1.79977236167e-06 -0.000582869134844 0.00410708052933
Sb 6.2836057507 1.2383181329 28.8306383059 -0.000507792916329 0.000288220688205 0.0041027096536
Sb 0 4.8661595943 29.8611114738 1.23412961943e-05 2.05688269905e-06 0.00426546049716
Sb 1.9778261063 1.1418984169 22.1108700179 -0.000220857779811 -0.000123412961943 -0.00363116929484
Sb 4.2142178275 5.0154425574 22.1108700179 -7.71331012145e-07 0.000252482351309 -0.00363733994294
Sb 6.4506095487 1.1418984169 22.1108700179 0.000220600669473 -0.000127012506667 -0.00363579728091
Sb 0 4.8661595943 23.4311827691 -1.02844134953e-05 -2.05688269905e-06 -0.00464341269311
Cr 4.2142178275 2.4330797972 18.2059381687 5.91353775978e-06 1.00273031579e-05 -0.00288606353711
61
Lattice="8.42843558953 0 0 -4.21421779477 7.29923593142 0 0 0 31.0334408416" Properties=species:S:1:pos:R:3:forces:R:3 energy=-133599.799982 ionic_step=47 pbc="T T T"
Te 1.775973256 1.0253585482 3.2275033742 0.000121613189582 7.17337841295e-05 0.000538389046477
Te 4.2142178275 5.2485222953 3.2275033742 -7.71331012145e-07 -0.000141667795897 0.000539931708501
Te 6.6524623991 1.0253585482 3.2275033742 -0.000122127410256 7.01911221052e-05 0.000541474370526
Te 0 4.8661595943 3.0285407103 1.02844134953e-06 -5.14220674763e-07 0.00104926728685
Te 0 0 6.8776049649 1.54266202429e-06 -0 0.00147684177792
Te 2.625392962 3.3503881219 7.6887616045 0.000342470969392 -0.000196946518434 0.00169589978537
Te 4.2142178275 0.5984631476 7.6887616045 0 0.000394664367881 0.00169718533706
Te -2.625392962 3.3503881219 7.6887616045 -0.000341185417705 -0.000197460739109 0.00169847088874
Te 0 0 -0.4088266744 -1.28555168691e-06 0 0.000442486890634
Te 2.4548351417 3.4488597714 -0.0636941209 -0.000133440265101 7.68759908771e-05 0.00042808871174
Te 4.2142178275 0.4015198487 -0.0636941209 -1.28555168691e-06 -0.000153237761079 0.000426546049716
Te -2.4548351417 3.4488597714 -0.0636941209 0.000131383382402 7.68759908771e-05 0.000424489167017
Te -0 2.8109164349 13.8317566348 -5.14220674763e-07 -0.000191032980675 -0.000342985190067
Te 1.7798929369 5.893781174 13.8317566348 0.000162493733225 9.59021558433e-05 -0.000343242300404
Te 4.2142178275 2.4330797971 13.7926223281 2.05688269905e-06 5.14220674763e-07 -6.65915773818e-05
Te -1.7798929369 5.893781174 13.8317566348 -0.000169435712334 9.48737144938e-05 -0.00034272807973
Te 1.5281498256 0.8822775483 17.5051971154 -0.000346070514116 -0.000199003401133 0.0011238292847
Te 4.2142178275 5.534684295 17.5051971154 -2.31399303643e-06 0.000397492581592 0.00112640038807
Te 6.9002858295 0.8822775483 17.5051971154 0.000342985190067 -0.000199774732146 0.00112871438111
Te 0 4.8661595943 16.0597522125 -7.71331012145e-07 0 0.000397235471255
Te 1.5797233986 0.9120535879 10.7770596145 -0.00031033217722 -0.000177663243131 0.00108526273409
Te 4.2142178275 5.4751322157 10.7770596145 -5.14220674763e-06 0.000359183141322 0.00108500562375
Te 6.8487122564 0.9120535879 10.7770596145 0.00031033217722 -0.000182291229204 0.00108526273409
Te 0 4.8661595943 10.3183957394 6.17064809716e-06 7.71331012145e-07 0.00159742652615
Te -0 -0 23.95270595 0 7.71331012145e-07 -0.00163522174575
Te 2.4838124663 3.4321296899 23.858444996 -0.000210316255978 0.000121356079244 -0.00173523766699
Te 4.2142178275 0.4349800117 23.858444996 5.14220674763e-07 -0.0002434834895 -0.00173575188766
Te -2.4838124663 3.4321296899 23.858444996 0.000211344697328 0.000121356079244 -0.001736008998
Te 0 2.9492397821 27.7352842156 -2.57110337382e-06 -1.02844134953e-05 -0.00168484404086
Te 1.6601014594 5.8246195004 27.7352842156 8.99886180836e-06 6.68486877192e-06 -0.00168432982019
Te 4.2142178275 2.4330797971 27.1923285813 1.02844134953e-06 2.57110337382e-07 -0.00209339236696
Te -1.6601014594 5.8246195004 27.7352842156 -1.00273031579e-05 3.59954472334e-06 -0.0016851011512
Te 0 2.959785016 20.5616827494 0 -0.000460741724588 -0.000225485765884
Te 1.650969035 5.8193468834 20.5616827494 0.000399549464291 0.000230370862294 -0.00022882820027
Te 4.2142178275 2.4330797971 20.6144683462 1.28555168691e-06 2.57110337382e-07 -0.00100890096389
Te -1.650969035 5.8193468834 20.5616827494 -0.000398778133279 0.000231142193306 -0.000223171772847
Sb -0 2.4220621376 8.4493819525 -7.71331012145e-07 -0.000258910109743 0.00214635709646
Sb 2.116650483 6.0882083227 8.4493819525 0.000225742876221 0.000129326499703 0.00214841397916
Sb 4.2142178275 2.4330797971 9.8186960066 1.79977236167e-06 0 0.00139353802861
Sb -2.116650483 6.0882083227 8.4493819525 -0.000223685993522 0.000129840720378 0.00214532865511
Sb 0 2.4223029228 1.4112545869 1.28555168691e-06 -0.000127012506667 -1.79977236167e-06
Sb 2.1164419566 6.08808793 1.4112545869 0.000108757672712 6.24778119837e-05 -3.08532404858e-06
Sb 4.2142178275 2.4330797971 2.2194750894 -2.31399303643e-06 -2.57110337382e-07 0.000181005677517
Sb -2.1164419566 6.08808793 1.4112545869 -0.000111071665749 6.50489153576e-05 -2.31399303643e-06
Sb -0 -0 19.8941360267 1.02844134953e-06 5.14220674763e-07 -0.000232170634656
Sb 2.011716285 3.704694646 18.0440408704 0.0008150397695 -0.00046639815201 0.000963906654844
Sb 4.2142178275 -0.1101499004 18.0440408704 6.17064809716e-06 0.00093870984178 0.000962106882482
Sb 6.4167193701 3.704694646 18.0440408704 -0.000812468666126 -0.000471797469095 0.000959278668771
Sb 0 -0 14.1792020276 7.97042045883e-06 -0 -0.000281535819433
Sb 2.2256863696 3.581158937 11.9718654688 0.000108500562375 -6.09351499594e-05 -0.000425003387692
Sb 4.2142178275 0.1369215176 11.9718654688 4.37087573549e-06 0.000121356079244 -0.000421918063643
Sb -2.2256863696 3.581158937 11.9718654688 -0.000102844134953 -5.96495982725e-05 -0.000417547187908
Sb 2.1448258231 1.2383157766 28.8311339104 -0.000375381092577 -0.000216486904075 -0.000928168317948
Sb 4.2142178275 4.8226078384 28.8311339104 0 0.000432716697813 -0.000929453869635
Sb 6.283609832 1.2383157766 28.8311339104 0.000374352651228 -0.000216486904075 -0.000929710979972
Sb 0 4.8661595943 29.8607063702 7.71331012145e-07 -0 -0.000295419777651
Sb 1.9774091269 1.1416576737 22.1105691382 -1.92832753036e-05 -1.02844134953e-05 -0.00111894418828
Sb 4.2142178275 5.0159240439 22.1105691382 -1.02844134953e-06 2.26257096896e-05 -0.001121772402
Sb 6.4510265281 1.1416576737 22.1105691382 2.00546063158e-05 -1.23412961943e-05 -0.00112228662267
Sb 0 4.8661595943 23.4305025841 2.57110337382e-07 7.71331012145e-07 -0.00187124903546
Cr 4.2142178275 2.4330797972 18.2058962346 2.8282137112e-06 7.71331012145e-07 0.000862348071578
61
Lattice="8.42843558953 0 0 -4.21421779477 7.29923593142 0 0 0 31.0334408416" Properties=species:S:1:pos:R:3:forces:R:3 energy=-133599.800035 ionic_step=48 pbc="T T T"
Te 1.7757682941 1.0252402133 3.226059223 0.000342213859055 0.000198232070121 -0.000753590398866
Te 4.2142178275 5.2487589651 3.226059223 0 -0.000394921478218 -0.000757961274601
Te 6.652667361 1.0252402133 3.226059223 -0.000342985190067 0.000199517621808 -0.000759503936625
Te 0 4.8661595943 3.0275096417 -5.14220674763e-07 2.05688269905e-06 -0.000349155838164
Te 0 0 6.8772372561 1.54266202429e-06 1.02844134953e-06 0.00115468252518
Te 2.6253081956 3.3504370618 7.6885829099 9.64163765181e-05 -5.83640465856e-05 0.00167378829635
Te 4.2142178275 0.5983652678 7.6885829099 -2.8282137112e-06 0.000111585886424 0.00167404540669
Te -2.6253081956 3.3504370618 7.6885829099 -9.41023834817e-05 -5.37360605128e-05 0.00167584517905
Te 0 0 -0.4097248086 -1.28555168691e-06 5.14220674763e-07 0.00147067112982
Te 2.4548322584 3.4488614361 -0.0649923725 -0.000154523312766 8.74175147098e-05 0.000979590385424
Te 4.2142178275 0.4015165194 -0.0649923725 1.28555168691e-06 -0.000178434574143 0.000983704150822
Te -2.4548322584 3.4488614361 -0.0649923725 0.000156323085128 8.81888457219e-05 0.000977790613062
Te -0 2.8104790843 13.8325297835 -2.57110337382e-07 -0.000593410658677 0.00101455739131
Te 1.7802716935 5.8939998493 13.8325297835 0.00051550622645 0.000297733770688 0.00101481450165
Te 4.2142178275 2.4330797971 13.791678318 2.05688269905e-06 -1.28555168691e-06 0.00119324907579
Te -1.7802716934 5.8939998493 13.8325297835 -0.000515763336788 0.000297476660351 0.00101070073625
Te 1.5278784879 0.8821208913 17.5069729675 0.000419346960269 0.000238084172415 0.000978561944074
Te 4.2142178275 5.5349976089 17.5069729675 3.34243438596e-06 -0.000481824772253 0.000977790613062
Te 6.9005571672 0.8821208913 17.5069729675 -0.000417547187908 0.000241426606801 0.000977533502725
Te 0 4.8661595943 16.0599060647 -3.59954472334e-06 1.02844134953e-06 0.00198540602526
Te 1.5798169275 0.9121075868 10.7771979137 0.000112100107098 6.14493706342e-05 0.00189207497279
Te 4.2142178275 5.4750242179 10.7771979137 7.45619978407e-06 -0.000128555168691 0.00188796120739
Te 6.8486187275 0.9121075868 10.7771979137 -0.000110043224399 6.78771290688e-05 0.00188359033166
Te 0 4.8661595943 10.3187277194 -2.31399303643e-06 -1.28555168691e-06 0.00205354026467
Te -0 -0 23.9537807946 5.14220674763e-07 1.28555168691e-06 -0.00288092133036
Te 2.4838828032 3.4320890808 23.8590130709 -0.000534789501754 0.000305447080809 -0.00295574043854
Te 4.2142178275 0.4350612298 23.8590130709 -4.88509641025e-06 -0.000618093251065 -0.00295651176955
Te -2.4838828032 3.4320890808 23.8590130709 0.000533246839729 0.000310075066882 -0.00295419777651
Te 0 2.949119123 27.7341466363 -2.57110337382e-06 4.03663229689e-05 -8.27895286369e-05
Te 1.6602059533 5.82467983 27.7341466363 -3.72809989203e-05 -2.10830476653e-05 -8.63890733602e-05
Te 4.2142178275 2.4330797971 27.1914622116 2.31399303643e-06 2.57110337382e-07 -0.000396207029905
Te -1.6602059533 5.82467983 27.7341466363 3.77952195951e-05 -2.39112613765e-05 -8.79317353845e-05
Te 0 2.9602923026 20.56393028 1.54266202429e-06 0.000386436837085 -0.00167147430332
Te 1.6505297122 5.8190932401 20.56393028 -0.000339642755681 -0.000194375415061 -0.00167121719298
Te 4.2142178275 2.4330797971 20.6165159126 -0 -2.57110337382e-06 -0.00349618636772
Te -1.6505297122 5.8190932401 20.56393028 0.000333214997247 -0.000187947656626 -0.00166890319994
Sb -0 2.4218919956 8.4492539325 -3.34243438596e-06 0.000173035257058 0.00208182240178
Sb 2.1167978303 6.0882933937 8.4492539325 -0.000151437988718 -8.58748526855e-05 0.00207976551908
Sb 4.2142178275 2.4330797971 9.8189825072 2.57110337382e-06 1.28555168691e-06 0.00199954709382
Sb -2.1167978303 6.0882933937 8.4492539325 0.000147581333657 -8.6903294035e-05 0.0020833650638
Sb 0 2.4226004443 1.4098125349 1.02844134953e-06 0.000412147870823 8.48464113359e-05
Sb 2.1161842955 6.0879391693 1.4098125349 -0.000353783824237 -0.000201574504507 8.92172870714e-05
Sb 4.2142178275 2.4330797971 2.2185008803 -1.02844134953e-06 -3.59954472334e-06 -0.000928682538622
Sb -2.1161842955 6.0879391693 1.4098125349 0.000360211582672 -0.000204916938893 8.71604043724e-05
Sb -0 -0 19.895469905 6.42775843454e-06 -1.02844134953e-06 -0.00194272570926
Sb 2.011684573 3.7047129549 18.0439329067 0.000768502798434 -0.000440687118272 0.00101250050861
Sb 4.2142178275 -0.1101865182 18.0439329067 7.71331012145e-07 0.000885488001942 0.00101558583266
Sb 6.4167510821 3.7047129549 18.0439329067 -0.000766703026072 -0.000440944228609 0.00102201359109
Sb 0 -0 14.1804892435 1.02844134953e-05 -1.28555168691e-06 0.000437601794224
Sb 2.2254680292 3.5812849959 11.9718818747 0.000470254807071 -0.000277164943697 0.000493651847773
Sb 4.2142178275 0.1366693997 11.9718818747 -8.48464113359e-06 0.000544559694574 0.000495451620134
Sb -2.2254680292 3.5812849959 11.9718818747 -0.000471026138083 -0.000267651861214 0.000494166068447
Sb 2.1446237109 1.238199087 28.830189195 0.000417032967233 0.000242969268826 0.00126446863924
Sb 4.2142178275 4.8228412175 28.830189195 5.14220674763e-07 -0.000482596103265 0.00126703974262
Sb 6.2838119442 1.238199087 28.830189195 -0.000411890760485 0.00023962683444 0.00126318308756
Sb 0 4.8661595943 29.8595597398 1.79977236167e-06 -0 0.00229136732675
Sb 1.9770498974 1.1414502723 22.1114224157 -0.000289249129554 -0.000170721264021 -0.00326941505014
Sb 4.2142178275 5.0163388466 22.1114224157 3.59954472334e-06 0.000337071652307 -0.00326735816745
Sb 6.4513857576 1.1414502723 22.1114224157 0.000294134225965 -0.00016892149166 -0.0032642728434
Sb 0 4.8661595943 23.4289376351 -2.57110337382e-07 1.54266202429e-06 -0.00349207260232
Cr 4.2142178275 2.4330797972 18.208099993 -1.02844134953e-06 -1.79977236167e-06 -0.00134700105754
61
Lattice="8.42843558953 0 0 -4.21421779477 7.29923593142 0 0 0 31.0334408416" Properties=species:S:1:pos:R:3:forces:R:3 energy=-133599.800118 ionic_step=49 pbc="T T T"
Te 1.7756052773 1.0251460955 3.22568618 -0.000173035257058 -0.000102844134953 -0.000446857766369
Te 4.2142178275 5.2489472007 3.22568618 3.34243438596e-06 0.000201060283832 -0.000445057994008
Te 6.6528303778 1.0251460955 3.22568618 0.000173549477733 -9.84732592172e-05 -0.000444029552658
Te 0 4.8661595943 3.0269958907 -1.54266202429e-06 1.54266202429e-06 0.000134725816788
Te 0 0 6.8775428841 4.11376539811e-06 7.71331012145e-07 0.000716052289608
Te 2.6253052425 3.3504387667 7.6883904604 0.000201574504507 -0.000114156989797 0.000958764448096
Te 4.2142178275 0.5983618579 7.6883904604 2.31399303643e-06 0.000230627972631 0.000952079579324
Te -2.6253052425 3.3504387667 7.6883904604 -0.000197460739109 -0.000114671210472 0.000949251365613
Te 0 0 -0.4099944276 4.37087573549e-06 -2.57110337382e-07 0.00107009322418
Te 2.4543712337 3.4491276089 -0.0651582302 -0.000240655275789 0.0001354971478 0.00035944025166
Te 4.2142178275 0.4009841737 -0.0651582302 -5.14220674763e-06 -0.000278193385047 0.000358926030985
Te -2.4543712337 3.4491276089 -0.0651582302 0.000241940827476 0.000141667795897 0.00035841181031
Te -0 2.8098678711 13.8337468742 -2.57110337382e-06 -0.000676200187314 0.00202911478262
Te 1.7808010193 5.8943054559 13.8337468742 0.00058621156923 0.000339642755681 0.00202525812756
Te 4.2142178275 2.4330797971 13.7905233816 4.62798607287e-06 -1.28555168691e-06 0.00235307380772
Te -1.7808010193 5.8943054559 13.8337468742 -0.000585697348555 0.000333986328259 0.00203117166531
Te 1.5278968113 0.8821314704 17.5065765662 -7.01911221052e-05 -4.26803160054e-05 0.000363554017058
Te 4.2142178275 5.5349764509 17.5065765662 5.39931708501e-06 8.48464113359e-05 0.000363039796383
Te 6.9005388438 0.8821314704 17.5065765662 7.66188805397e-05 -3.98521022942e-05 0.000360982913684
Te 0 4.8661595943 16.0603111487 -4.11376539811e-06 -1.02844134953e-06 0.00104335374909
Te 1.5799496905 0.9121842376 10.777557098 -0.000576955597084 -0.000331415224885 0.00212758804183
Te 4.2142178275 5.4748709163 10.777557098 -3.85665506072e-06 0.000671572201241 0.00213093047622
Te 6.8484859645 0.9121842376 10.777557098 0.000583640465856 -0.000339385645344 0.00212913070386
Te 0 4.8661595943 10.3198184726 7.45619978407e-06 -2.57110337382e-07 0.00193526950947
Te -0 -0 23.9543109695 -2.05688269905e-06 -2.57110337382e-07 -0.00246954479055
Te 2.4839885124 3.4320280496 23.8584450456 -0.000493137627098 0.000284621143481 -0.002307565278
Te 4.2142178275 0.4351832923 23.8584450456 1.54266202429e-06 -0.000567185404264 -0.00230807949867
Te -2.4839885124 3.4320280496 23.8584450456 0.000491337854736 0.00028179292977 -0.00230936505036
Te 0 2.948834377 27.7336101958 -1.54266202429e-06 -3.26530128475e-05 -0.000924825883562
Te 1.6604525504 5.8248222029 27.7336101958 2.67394750877e-05 1.69692822672e-05 -0.000926368545586
Te 4.2142178275 2.4330797971 27.191520958 -5.14220674763e-07 2.57110337382e-07 -0.00114362678067
Te -1.6604525504 5.8248222029 27.7336101958 -2.80250267746e-05 1.6197951255e-05 -0.000924311662887
Te 0 2.9603528201 20.5644274264 1.79977236167e-06 -0.000495194509797 -0.000942052276166
Te 1.6504773025 5.8190629814 20.5644274264 0.000429374263427 0.000247597254899 -0.000941795165829
Te 4.2142178275 2.4330797971 20.6173134825 -2.8282137112e-06 -2.57110337382e-07 -0.00247134456291
Te -1.6504773025 5.8190629814 20.5644274264 -0.000429374263427 0.00024939702726 -0.000942566496841
Sb -0 2.421821365 8.4492237699 1.54266202429e-06 -0.000416518746558 0.00147838443994
Sb 2.1168589981 6.088328709 8.4492237699 0.000362782686045 0.000208773593954 0.00147864155028
Sb 4.2142178275 2.4330797971 9.8191818086 -3.85665506072e-06 -1.02844134953e-06 0.00147092824016
Sb -2.1168589981 6.088328709 8.4492237699 -0.000360211582672 0.000209802035303 0.00147607044691
Sb 0 2.4227980404 1.4096085547 2.57110337382e-06 -0.000412662091498 -0.000535817943103
Sb 2.1160131723 6.0878403712 1.4096085547 0.000357897589635 0.00020620249058 -0.000534018170742
Sb 4.2142178275 2.4330797971 2.218529915 -2.57110337382e-06 -7.71331012145e-07 -0.000546359466936
Sb -2.1160131723 6.0878403712 1.4096085547 -0.000355840706936 0.000208259373279 -0.000535560832766
Sb -0 -0 19.8941752209 4.62798607287e-06 -1.02844134953e-06 -0.00105980881069
Sb 2.0113322945 3.7049163431 18.0435753839 0.00117010914542 -0.000677485739001 0.000123155851606
Sb 4.2142178275 -0.1105932946 18.0435753839 -2.57110337382e-06 0.00135060060227 0.000120327637895
Sb 6.4171033606 3.7049163431 18.0435753839 -0.00116805226272 -0.000673114863265 0.000116985203509
Sb 0 -0 14.1825323253 1.02844134953e-06 1.28555168691e-06 0.00188204766963
Sb 2.2252506374 3.5814105072 11.9719018579 0.000285649584831 -0.000162493733225 0.00181905563698
Sb 4.2142178275 0.1364183772 11.9719018579 4.62798607287e-06 0.000328072790499 0.00182214096102
Sb -2.2252506374 3.5814105072 11.9719018579 -0.000280507378083 -0.000164550615924 0.00182985427115
Sb 2.1443864257 1.2380620903 28.8304452211 -3.52241162213e-05 -2.08259373279e-05 0.000171492595034
Sb 4.2142178275 4.823115211 28.8304452211 1.02844134953e-06 4.19089849932e-05 0.000169949933009
Sb 6.2840492294 1.2380620903 28.8304452211 3.7023888583e-05 -2.10830476653e-05 0.000169692822672
Sb 0 4.8661595943 29.8588165409 -2.57110337382e-07 2.57110337382e-07 0.000809383342077
Sb 1.9764496578 1.1411037237 22.1114402468 -0.000199003401133 -0.000114671210472 -0.00197897826683
Sb 4.2142178275 5.0170319439 22.1114402468 -5.14220674763e-07 0.000230113751957 -0.0019774356048
Sb 6.4519859972 1.1411037237 22.1114402468 0.000198746290796 -0.000115185431147 -0.00197409317042
Sb 0 4.8661595943 23.4283495971 1.79977236167e-06 2.57110337382e-07 -0.00254307834704
Cr 4.2142178275 2.4330797972 18.2085747092 -3.59954472334e-06 -7.71331012145e-07 -0.000606009065209
61
Lattice="8.42843558953 0 0 -4.21421779477 7.29923593142 0 0 0 31.0334408416" Properties=species:S:1:pos:R:3:forces:R:3 energy=-133599.800168 ionic_step=50 pbc="T T T"
Te 1.7753833789 1.0250179823 3.2243623437 2.36541510391e-05 1.51695099055e-05 -0.000677742849338
Te 4.2142178275 5.2492034271 3.2243623437 -1.79977236167e-06 -2.93105784615e-05 -0.000677999959675
Te 6.6530522762 1.0250179823 3.2243623437 -2.72536957625e-05 1.49123995681e-05 -0.000676457297651
Te 0 4.8661595943 3.026179174 -2.57110337382e-07 2.57110337382e-07 -0.000818382203886
Te 0 0 6.8775264778 2.8282137112e-06 -0 -0.000202602945857
Te 2.6254853671 3.3503347718 7.6884261899 -1.13128548448e-05 4.62798607287e-06 -8.84459560593e-05
Te 4.2142178275 0.5985698479 7.6884261899 -3.08532404858e-06 -1.36268478812e-05 -8.87030663967e-05
Te -2.6254853671 3.3503347718 7.6884261899 1.20841858569e-05 8.48464113359e-06 -9.15312801079e-05
Te 0 0 -0.4110720446 -2.05688269905e-06 2.57110337382e-07 0.000632234319621
Te 2.4541757115 3.4492404938 -0.0659953715 -0.000381808851012 0.000221629110823 0.000521933984885
Te 4.2142178275 0.400758404 -0.0659953715 2.8282137112e-06 -0.000442229780296 0.000521933984885
Te -2.4541757115 3.4492404938 -0.0659953715 0.000383608623373 0.000219572228124 0.000525019308933
Te -0 2.8093526785 13.8345551783 -1.28555168691e-06 -0.000763617702023 0.0013611421261
Te 1.781247189 5.8945630522 13.8345551783 0.000663344670445 0.000385408395735 0.00136345611913
Te 4.2142178275 2.4330797971 13.7897479695 6.68486877192e-06 -5.14220674763e-07 0.00128915123163
Te -1.781247189 5.8945630522 13.8345551783 -0.000658716684372 0.00038000907865 0.00135934235374
Te 1.5276479048 0.8819877641 17.5075829711 -0.000225485765884 -0.000131640492739 0.000214172911039
Te 4.2142178275 5.5352638635 17.5075829711 1.28555168691e-06 0.000262509654467 0.000214430021376
Te 6.9007877503 0.8819877641 17.5075829711 0.00022779975892 -0.000130869161727 0.000214430021376
Te 0 4.8661595943 16.0604456624 -1.79977236167e-06 0 0.000962621103157
Te 1.5799828179 0.9122033637 10.7773091409 -0.000143467568259 -8.58748526855e-05 0.00124827068799
Te 4.2142178275 5.474832664 10.7773091409 4.11376539811e-06 0.000169435712334 0.00124647091563
Te 6.8484528371 0.9122033637 10.7773091409 0.000147581333657 -8.40750803238e-05 0.00124621380529
Te 0 4.8661595943 10.3200308521 2.57110337382e-07 1.28555168691e-06 0.000865947616301
Te -0 -0 23.9551114976 1.02844134953e-06 -5.14220674763e-07 -0.00164859148329
Te 2.4840299082 3.4320041497 23.8588135683 -0.000550473232334 0.000318045487341 -0.0014416176617
Te 4.2142178275 0.4352310921 23.8588135683 -7.71331012145e-07 -0.000634805422995 -0.00144238899271
Te -2.4840299082 3.4320041497 23.8588135683 0.000549444790985 0.000318559708016 -0.0014416176617
Te 0 2.9488795306 27.7326041709 1.54266202429e-06 -2.98247991363e-05 0.000383351513036
Te 1.6604134462 5.8247996261 27.7326041709 2.64823647503e-05 1.49123995681e-05 0.000384379954386
Te 4.2142178275 2.4330797971 27.1910706918 -2.57110337382e-07 -2.57110337382e-07 0.000378209306288
Te -1.6604134462 5.8247996261 27.7326041709 -2.46825923886e-05 1.56837305803e-05 0.000382580182024
Te 0 2.9606485064 20.5662385173 2.8282137112e-06 -0.000213144469689 -0.000388493719784
Te 1.6502212307 5.8189151382 20.5662385173 0.000184091001565 0.000104901017652 -0.000389265050796
Te 4.2142178275 2.4330797971 20.6191509499 -3.08532404858e-06 -1.02844134953e-06 -0.00164242083519
Te -1.6502212307 5.8189151382 20.5662385173 -0.00018563366359 0.00010901478305 -0.000386436837085
Sb -0 2.4217176218 8.449031152 3.34243438596e-06 -0.000168150160648 0.000200803173495
Sb 2.1169488423 6.0883805806 8.449031152 0.000146810002645 8.3560859649e-05 0.00020028895282
Sb 4.2142178275 2.4330797971 9.8190930415 -2.8282137112e-06 -7.71331012145e-07 0.000799356038919
Sb -2.1169488423 6.0883805806 8.449031152 -0.000142953347584 8.51035216733e-05 0.000202088725182
Sb 0 2.4230527133 1.4085294296 -1.79977236167e-06 0.000400577905641 -0.000312389059919
Sb 2.1157926193 6.0877130348 1.4085294296 -0.000345556293441 -0.000198746290796 -0.000311360618569
Sb 4.2142178275 2.4330797971 2.217797781 2.05688269905e-06 0 -0.00069034125587
Sb -2.1157926193 6.0877130348 1.4085294296 0.000347870286477 -0.000202088725182 -0.000312903280593
Sb -0 -0 19.8946139236 2.05688269905e-06 -2.57110337382e-07 -0.000565385631902
Sb 2.0114608528 3.7048421199 18.0437364025 0.000444543773333 -0.000257624558056 0.000111071665749
Sb 4.2142178275 -0.1104448482 18.0437364025 -2.05688269905e-06 0.000513706454088 0.000111842996761
Sb 6.4169748023 3.7048421199 18.0437364025 -0.000445057994008 -0.000255567675357 0.000110300334737
Sb 0 -0 14.1845438583 1.79977236167e-06 -5.14220674763e-07 0.00109169049252
Sb 2.2249706214 3.5815721746 11.9719238565 0.000462798607287 -0.000269194523239 0.00109066205117
Sb 4.2142178275 0.1360950423 11.9719238565 -2.31399303643e-06 0.000534789501754 0.00109400448556
Sb -2.2249706214 3.5815721746 11.9719238565 -0.000463827048636 -0.00026610919919 0.00109657558893
Sb 2.1441410838 1.237920442 28.8297561265 1.85119442915e-05 1.15699651822e-05 0.000824038631308
Sb 4.2142178275 4.8233985076 28.8297561265 -2.05688269905e-06 -2.13401580027e-05 0.000826866845019
Sb 6.2842945713 1.237920442 28.8297561265 -1.9540385641e-05 9.51308248312e-06 0.000830209279405
Sb 0 4.8661595943 29.8578589903 -2.57110337382e-07 0 0.00132823200291
Sb 1.9760688992 1.1408838925 22.1120634189 -0.000508564247341 -0.000294134225965 -0.0014436745444
Sb 4.2142178275 5.0174716063 22.1120634189 1.02844134953e-06 0.000585697348555 -0.00144290321339
Sb 6.4523667558 1.1408838925 22.1120634189 0.000508050026666 -0.000292848674278 -0.0014436745444
Sb 0 4.8661595943 23.4278895847 -1.02844134953e-06 0 -0.00177688954164
Cr 4.2142178275 2.4330797972 18.2101331348 -1.54266202429e-06 2.57110337382e-07 -0.00132668934089
61
Lattice="8.42843558953 0 0 -4.21421779477 7.29923593142 0 0 0 31.0334408416" Properties=species:S:1:pos:R:3:forces:R:3 energy=-133599.800218 ionic_step=51 pbc="T T T"
Te 1.7751636451 1.0248911189 3.2230216001 -3.3681454197e-05 -1.85119442915e-05 0.000625806561187
Te 4.2142178275 5.2494571539 3.2230216001 -2.57110337382e-07 3.9080771282e-05 0.000624263899163
Te 6.65327201 1.0248911189 3.2230216001 3.5738336896e-05 -2.00546063158e-05 0.0006245210095
Te 0 4.8661595943 3.0254769809 -1.28555168691e-06 -7.71331012145e-07 0.000590839555303
Te 0 0 6.8775806389 1.79977236167e-06 -2.57110337382e-07 0.000362525575708
Te 2.6257391006 3.3501882786 7.688607837 -0.000100273031579 5.81069362482e-05 0.000809383342077
Te 4.2142178275 0.5988628343 7.688607837 2.31399303643e-06 -0.000116985203509 0.000804755356005
Te -2.6257391006 3.3501882786 7.688607837 0.00010412968664 5.81069362482e-05 0.000801155811281
Te 0 0 -0.4121887587 2.57110337382e-07 2.57110337382e-07 0.000123670072281
Te 2.4540603573 3.4493070936 -0.0667189449 -0.000147067112982 8.38179699864e-05 0.000346327624453
Te 4.2142178275 0.4006252044 -0.0667189449 -1.79977236167e-06 -0.000169178601997 0.000346070514116
Te -2.4540603573 3.4493070936 -0.0667189449 0.000145267340621 8.53606320107e-05 0.00034658473479
Te -0 2.8089294367 13.8351755201 -6.42775843454e-06 -0.000454056855816 -0.000871604043724
Te 1.781613727 5.8947746731 13.8351755201 0.000393893036869 0.000229599531282 -0.000876746250471
Te 4.2142178275 2.4330797971 13.7891206753 5.14220674763e-06 7.71331012145e-07 -0.000983189930147
Te -1.781613727 5.8947746731 13.8351755201 -0.00039672125058 0.000223943103859 -0.000868004499
Te 1.5274184443 0.8818552849 17.5084423019 -0.00030339019811 -0.000175092139757 -0.000235255958704
Te 4.2142178275 5.5355288218 17.5084423019 -5.14220674763e-07 0.000350441389851 -0.000237569951741
Te 6.9010172108 0.8818552849 17.5084423019 0.00030339019811 -0.000175606360432 -0.000239369724102
Te 0 4.8661595943 16.0604049643 -2.57110337382e-07 -1.54266202429e-06 -0.000936910069419
Te 1.5799773745 0.912200221 10.7768619161 -1.90261649662e-05 -1.00273031579e-05 0.000558186542456
Te 4.2142178275 5.4748389495 10.7768619161 -1.28555168691e-06 1.7483502942e-05 0.000559472094142
Te 6.8484582805 0.912200221 10.7768619161 1.15699651822e-05 -6.42775843454e-06 0.000560757645829
Te 0 4.8661595943 10.3200079168 1.02844134953e-06 -1.28555168691e-06 0.000533761060404
Te -0 -0 23.9557627921 -0 5.14220674763e-07 -0.00103384066661
Te 2.4840650299 3.4319838721 23.8592624567 -0.000253767902996 0.000147067112982 -0.000887801994979
Te 4.2142178275 0.4352716472 23.8592624567 2.05688269905e-06 -0.000292848674278 -0.000887287774304
Te -2.4840650299 3.4319838721 23.8592624567 0.000253767902996 0.000144496009608 -0.000888830436328
Te 0 2.9490320696 27.7316435574 1.54266202429e-06 -0.000204659828556 -0.000538903267152
Te 1.6602813436 5.8247233566 27.7316435574 0.000178177463805 0.000102329914278 -0.000539931708501
Te 4.2142178275 2.4330797971 27.1907764657 -2.57110337382e-07 2.57110337382e-07 -0.00042911715309
Te -1.6602813436 5.8247233566 27.7316435574 -0.000176634801781 0.00010310124529 -0.000536332163778
Te 0 2.9608890122 20.5679847066 -5.14220674763e-07 -0.00040751988475 0.00109400448556
Te 1.6500129467 5.8187948853 20.5679847066 0.000351984051875 0.000203631387206 0.00109606136826
Te 4.2142178275 2.4330797971 20.620838676 -7.71331012145e-07 0 0.000155808864453
Te -1.6500129467 5.8187948853 20.5679847066 -0.000353012493225 0.000203631387206 0.00109066205117
Sb -0 2.421689993 8.4488773341 1.28555168691e-06 4.70511917408e-05 0.00129043678332
Sb 2.1169727696 6.088394395 8.4488773341 -4.06234333063e-05 -2.33970407017e-05 0.00128992256264
Sb 4.2142178275 2.4330797971 9.8189945976 -4.37087573549e-06 -2.57110337382e-07 0.00115031164945
Sb -2.1169727696 6.088394395 8.4488773341 4.11376539811e-05 -2.18543786774e-05 0.00128940834197
Sb 0 2.423257344 1.4074829208 1.54266202429e-06 0.000214430021376 0.00117396580048
Sb 2.1156154039 6.0876107194 1.4074829208 -0.000184862332577 -0.000107215010688 0.00117345157981
Sb 4.2142178275 2.4330797971 2.2170569087 -2.57110337382e-07 1.28555168691e-06 0.00102381336345
Sb -2.1156154039 6.0876107194 1.4074829208 0.000187433435951 -0.000107215010688 0.00117782245555
Sb -0 -0 19.8951346493 -5.14220674763e-07 1.02844134953e-06 0.000445572214682
Sb 2.0117625903 3.7046679116 18.0440052022 0.000374352651228 -0.000217258235087 -2.57110337382e-05
Sb 4.2142178275 -0.1100964315 18.0440052022 -1.54266202429e-06 0.000432202477139 -2.54539234008e-05
Sb 6.4166730647 3.7046679116 18.0440052022 -0.000372552878866 -0.000214172911039 -2.36541510391e-05
Sb 0 -0 14.1867565445 4.11376539811e-06 1.79977236167e-06 -0.00105466660394
Sb 2.2246471009 3.5817589594 11.9719708146 0.000280250267746 -0.000157865747152 -0.000502136488906
Sb 4.2142178275 0.1357214729 11.9719708146 6.17064809716e-06 0.000321387921727 -0.000497765613171
Sb -2.2246471009 3.5817589594 11.9719708146 -0.000275108060998 -0.000162493733225 -0.000492623406423
Sb 2.1439423126 1.2378056813 28.8290325774 8.99886180836e-05 5.11649571389e-05 -0.000315474383967
Sb 4.2142178275 4.8236280289 28.8290325774 1.02844134953e-06 -0.000102844134953 -0.000316245714979
Sb 6.2844933425 1.2378056813 28.8290325774 -8.79317353845e-05 5.09078468016e-05 -0.000316245714979
Sb 0 4.8661595943 29.856970277 2.31399303643e-06 -0 0.000468197924372
Sb 1.9757811313 1.1407177495 22.1126542424 -0.000364839568745 -0.000209287814629 -0.000329872562861
Sb 4.2142178275 5.0178038922 22.1126542424 -5.14220674763e-07 0.000420118291282 -0.00033090100421
Sb 6.4526545237 1.1407177495 22.1126542424 0.000364839568745 -0.000209544924966 -0.000330386783535
Sb 0 4.8661595943 23.4277146442 5.14220674763e-07 5.14220674763e-07 -0.000992960122968
Cr 4.2142178275 2.4330797972 18.2116127293 1.28555168691e-06 -2.05688269905e-06 -0.000987046585208
61
Lattice="8.42843558953 0 0 -4.21421779477 7.29923593142 0 0 0 31.0334408416" Properties=species:S:1:pos:R:3:forces:R:3 energy=-133599.800263 ionic_step=52 pbc="T T T"
Te 1.7748220544 1.0246939013 3.2206980879 0.00022291466251 0.000126241175654 -0.00196792252232
Te 4.2142178275 5.2498515891 3.2206980879 0 -0.00026019566143 -0.00195918077085
Te 6.6536136007 1.0246939013 3.2206980879 -0.000226514207233 0.000131126272065 -0.0019581523295
Te 0 4.8661595943 3.0243565497 -1.02844134953e-06 2.57110337382e-07 -0.00263512384782
Te 0 0 6.8776319743 -2.31399303643e-06 -2.8282137112e-06 -0.00279401803633
Te 2.6260238731 3.350023865 7.6891139232 -0.000133183154764 8.22753079621e-05 -0.0030848098279
Te 4.2142178275 0.5991916613 7.6891139232 2.8282137112e-06 -0.000156837305803 -0.00308455271757
Te -2.6260238731 3.350023865 7.6891139232 0.00013652558915 7.94470942509e-05 -0.00308378138656
Te 0 0 -0.4139034716 -2.8282137112e-06 1.02844134953e-06 0.00125546977743
Te 2.4541114699 3.4492775837 -0.0680804631 -5.42502811875e-05 3.13674611606e-05 0.00147787021927
Te 4.2142178275 0.4006842242 -0.0680804631 0 -6.35062533333e-05 0.00147787021927
Te -2.4541114699 3.4492775837 -0.0680804631 5.24505088259e-05 3.16245714979e-05 0.00147504200556
Te -0 2.808416021 13.8359044354 0 -0.000211344697328 0.00188281900065
Te 1.7820583578 5.8950313809 13.8359044354 0.000179463015492 0.00010901478305 0.00190004539325
Te 4.2142178275 2.4330797971 13.788278913 2.05688269905e-06 -0 0.00182805449878
Te -1.7820583578 5.8950313809 13.8359044354 -0.000175092139757 0.000105415238326 0.00189361763482
Te 1.5269909116 0.8816084487 17.5102742187 -0.000698054565991 -0.000395178588556 -0.000958250227421
Te 4.2142178275 5.5360224942 17.5102742187 -1.54266202429e-06 0.000807583569716 -0.00097213418564
Te 6.9014447435 0.8816084487 17.5102742187 0.000694455021268 -0.000395178588556 -0.000958507337759
Te 0 4.8661595943 16.0600758877 2.57110337382e-07 5.6564274224e-06 -0.000551501673684
Te 1.5799300218 0.9121728819 10.776236069 4.39658676923e-05 2.54539234008e-05 0.000890373098353
Te 4.2142178275 5.4748936278 10.776236069 0 -5.68213845613e-05 0.00088574511228
Te 6.8485056332 0.9121728819 10.776236069 -4.70511917408e-05 3.00819094737e-05 0.000887544884641
Te 0 4.8661595943 10.3196889799 1.28555168691e-06 -1.79977236167e-06 1.31126272065e-05
Te -0 0 23.9566807463 -0 1.54266202429e-06 -0.00030339019811
Te 2.4841017633 3.4319626641 23.8601479937 -0.000213144469689 0.000118270755196 -7.91899839135e-05
Te 4.2142178275 0.4353140632 23.8601479937 -2.31399303643e-06 -0.000236798620728 -8.71604043724e-05
Te -2.4841017633 3.4319626641 23.8601479937 0.000206973821592 0.000119042086208 -8.45893009986e-05
Te 0 2.9493151221 27.7300168464 2.05688269905e-06 -0.000574384493711 0.0025978428489
Te 1.6600362131 5.8245818304 27.7300168464 0.000502907819918 0.000286935136518 0.0025998997316
Te 4.2142178275 2.4330797971 27.1902087885 1.02844134953e-06 -2.57110337382e-07 0.00270814318364
Te -1.6600362131 5.8245818304 27.7300168464 -0.000499565385533 0.000285906695168 0.00260169950396
Te 0 2.9614244748 20.5711657166 -2.57110337382e-07 -0.000353783824237 0.000399549464291
Te 1.6495492227 5.818527154 20.5711657166 0.00028770646753 0.000171492595034 0.000389007940458
Te 4.2142178275 2.4330797971 20.623625787 5.14220674763e-07 -3.52241162213e-05 -0.000329358342186
Te -1.6495492227 5.818527154 20.5711657166 -0.000287963577867 0.000167635939973 0.000389007940458
Sb -0 2.421652146 8.4488831464 -5.91353775978e-06 8.38179699864e-05 -0.00269785877015
Sb 2.117005546 6.0884133185 8.4488831464 -7.71331012145e-05 -4.26803160054e-05 -0.00269631610812
Sb 4.2142178275 2.4330797971 9.8191352751 -4.88509641025e-06 1.28555168691e-06 -0.00108063474801
Sb -2.117005546 6.0884133185 8.4488831464 6.89055704183e-05 -4.39658676923e-05 -0.00269940143217
Sb 0 2.4235774102 1.405558871 3.34243438596e-06 0.00067362908394 0.000238084172415
Sb 2.1153382186 6.0874506863 1.405558871 -0.000585697348555 -0.000337842983319 0.000237055731066
Sb 4.2142178275 2.4330797971 2.2156565448 -1.28555168691e-06 -7.71331012145e-07 -0.000876746250471
Sb -2.1153382186 6.0874506863 1.405558871 0.000589296893279 -0.000333214997247 0.000245540372199
Sb -0 -0 19.8966861529 -2.8282137112e-06 6.42775843454e-06 -0.000774159225856
Sb 2.0124308676 3.7042820813 18.0442347798 -0.00023371329668 0.000117242313846 -0.00106726501047
Sb 4.2142178275 -0.1093247711 18.0442347798 -2.05688269905e-06 -0.000242712158488 -0.00105903747967
Sb 6.4160047875 3.7042820813 18.0442347798 0.000231399303643 0.000123412961943 -0.00107292143789
Sb 0 -0 14.1900755738 5.14220674763e-06 2.31399303643e-06 0.00146784291611
Sb 2.2241642533 3.5820377316 11.9720578201 0.000101815693603 -5.68213845613e-05 0.00206125357479
Sb 4.2142178275 0.1351639283 11.9720578201 4.62798607287e-06 0.000106957900351 0.00206665289187
Sb -2.2241642533 3.5820377316 11.9720578201 -9.69305971929e-05 -5.91353775978e-05 0.00205893958175
Sb 2.1437013773 1.2376665772 28.8276341246 0.000420375401619 0.000240655275789 0.00320128081074
Sb 4.2142178275 4.8239062371 28.8276341246 3.85665506072e-06 -0.000486709868663 0.00320282347276
Sb 6.2847342778 1.2376665772 28.8276341246 -0.000417804298245 0.000243226379163 0.00320693723816
Sb 0 4.8661595943 29.855471294 -1.02844134953e-06 -3.59954472334e-06 0.00389187917695
Sb 1.9754505336 1.1405268788 22.113660116 -0.000559986314817 -0.000319588149365 -0.000149895326693
Sb 4.2142178275 5.0181856337 22.113660116 5.39931708501e-06 0.000664887332469 -0.000143724678596
Sb 6.4529851214 1.1405268788 22.113660116 0.000558443652793 -0.000318045487341 -0.00015118087838
Sb 0 4.8661595943 23.4263504885 4.62798607287e-06 1.02844134953e-06 2.72536957625e-05
Cr 4.2142178275 2.4330797972 18.2143962889 1.79977236167e-06 -2.00546063158e-05 -0.00302387467795
61
Lattice="8.42843558953 0 0 -4.21421779477 7.29923593142 0 0 0 31.0334408416" Properties=species:S:1:pos:R:3:forces:R:3 energy=-133599.80029 ionic_step=53 pbc="T T T"
Te 1.7747360345 1.0246442377 3.2202562983 -0.000355840706936 -0.000204402718218 -0.000493651847773
Te 4.2142178275 5.2499509163 3.2202562983 -2.8282137112e-06 0.000414461863859 -0.000493651847773
Te 6.6536996206 1.0246442377 3.2202562983 0.000360211582672 -0.000209544924966 -0.000494166068447
Te 0 4.8661595943 3.0241703274 1.79977236167e-06 0 -0.00117370869015
Te 0 0 6.8777922586 7.71331012145e-07 -1.28555168691e-06 0.000627863443886
Te 2.6260935956 3.3499836107 7.6892317533 -0.000100015921241 6.01638189473e-05 0.00022188622116
Te 4.2142178275 0.5992721701 7.6892317533 1.79977236167e-06 -0.000113642769123 0.00022188622116
Te -2.6260935956 3.3499836107 7.6892317533 9.48737144938e-05 5.45073915249e-05 0.000222400441835
Te 0 0 -0.4141821425 -5.14220674763e-07 1.28555168691e-06 -0.00172701013619
Te 2.4541622918 3.4492482417 -0.0681208708 2.36541510391e-05 -1.67121719298e-05 -0.00176891912119
Te 4.2142178275 0.4007429083 -0.0681208708 -1.54266202429e-06 2.85392474494e-05 -0.00177097600388
Te -2.4541622918 3.4492482417 -0.0681208708 -2.51968130634e-05 -1.4141068556e-05 -0.00176866201085
Te -0 2.8083774034 13.8362412945 -1.02844134953e-06 0.000657174022347 -0.000415233194871
Te 1.7820918016 5.8950506898 13.8362412945 -0.0005694993973 -0.000328072790499 -0.000413690532847
Te 4.2142178275 2.4330797971 13.787956578 -2.57110337382e-07 7.71331012145e-07 -0.00148866885344
Te -1.7820918016 5.8950506898 13.8362412945 0.000566928293926 -0.000329101231848 -0.000414718974197
Te 1.5270476878 0.8816412284 17.509988104 -0.000188204766963 -0.000111585886424 0.000558957873468
Te 4.2142178275 5.5359569347 17.509988104 5.14220674763e-07 0.000221629110823 0.000552530115033
Te 6.9013879673 0.8816412284 17.509988104 0.000186662104939 -0.000109786114062 0.000552015894358
Te 0 4.8661595943 16.0600337706 -2.57110337382e-06 3.85665506072e-06 0.00116985203509
Te 1.5798867257 0.9121478848 10.7759945052 0.000198232070121 0.000112614327773 -0.00382220227552
Te 4.2142178275 5.4749436218 10.7759945052 1.28555168691e-06 -0.00022779975892 -0.00382245938585
Te 6.8485489293 0.9121478848 10.7759945052 -0.00019540385641 0.000112871438111 -0.00382271649619
Te 0 4.8661595943 10.3194378496 -1.54266202429e-06 -1.28555168691e-06 -0.00282075751141
Te -0 0 23.9568388836 -7.71331012145e-07 1.54266202429e-06 0.00258113067697
Te 2.4841390147 3.431941157 23.8602647434 -0.00012469851363 6.96769014304e-05 0.00244589063951
Te 4.2142178275 0.4353570775 23.8602647434 7.71331012145e-07 -0.000141924906235 0.00244434797749
Te -2.4841390147 3.431941157 23.8602647434 0.000124955623967 6.91626807557e-05 0.00244151976378
Te 0 2.9494433505 27.7296199531 4.37087573549e-06 -0.000248625696248 0.00285083942089
Te 1.6599251641 5.8245177162 27.7296199531 0.000215201352388 0.000125212734305 0.00285058231055
Te 4.2142178275 2.4330797971 27.1904988784 -2.05688269905e-06 5.14220674763e-06 0.00390267781112
Te -1.6599251641 5.8245177162 27.7296199531 -0.000209802035303 0.000126498285992 0.00285315341392
Te 0 2.9613903254 20.5714259747 -1.79977236167e-06 0.000542759922213 -0.00154523312766
Te 1.6495787969 5.8185442287 20.5714259747 -0.000473854351794 -0.000270480074925 -0.00154317624496
Te 4.2142178275 2.4330797971 20.6238881958 1.28555168691e-06 -4.37087573549e-06 -0.000402891898677
Te -1.6495787969 5.8185442287 20.5714259747 0.000472054579433 -0.000270737185263 -0.0015516608861
Sb -0 2.421795971 8.4489097969 -7.71331012145e-07 -0.000660259346396 -0.000424489167017
Sb 2.11688099 6.088341406 8.4489097969 0.00055972920448 0.000322159252739 -0.000426031829041
Sb 4.2142178275 2.4330797971 9.8191615896 -7.19908944669e-06 -0 -0.00119839128254
Sb -2.11688099 6.088341406 8.4489097969 -0.000582354914169 0.000335271879946 -0.00042320361533
Sb 0 2.4235791937 1.4053008393 1.79977236167e-06 -0.000220857779811 -0.000987303695545
Sb 2.115336674 6.0874497945 1.4053008393 0.00019051876 0.000110300334737 -0.000985761033521
Sb 4.2142178275 2.4330797971 2.2155007226 -5.39931708501e-06 -1.02844134953e-06 -0.000595210431038
Sb -2.115336674 6.0874497945 1.4053008393 -0.000190261649662 0.000111585886424 -0.000991417460944
Sb -0 -0 19.8963894747 6.68486877192e-06 2.8282137112e-06 -0.000957478896409
Sb 2.0126932086 3.7041306186 18.0443375933 -0.00166453232421 0.000957993117084 -0.000383094402699
Sb 4.2142178275 -0.1090218456 18.0443375933 -2.8282137112e-06 -0.00192087133058 -0.000383608623373
Sb 6.4157424464 3.7041306186 18.0443375933 0.00166324677252 0.000961078441133 -0.000381808851012
Sb 0 -0 14.1920306447 -1.02844134953e-06 -1.79977236167e-06 -0.000594181989689
Sb 2.2239664903 3.5821519102 11.9720918065 0.000685199049122 -0.000398006802267 -0.00308249583487
Sb 4.2142178275 0.1349355712 11.9720918065 -7.19908944669e-06 0.000796527825208 -0.00307992473149
Sb -2.2239664903 3.5821519102 11.9720918065 -0.000698311676329 -0.000398778133279 -0.00308018184183
Sb 2.1437012623 1.2376665108 28.8275182363 0.000246054592874 0.000141924906235 0.000763103481349
Sb 4.2142178275 4.8239063699 28.8275182363 -1.54266202429e-06 -0.000283592702132 0.000763103481349
Sb 6.2847343928 1.2376665108 28.8275182363 -0.000245540372199 0.000139353802861 0.000761560819324
Sb 0 4.8661595943 29.8550732346 5.39931708501e-06 2.8282137112e-06 -0.000164293505587
Sb 1.9753270236 1.1404555702 22.1137968806 0.000442229780296 0.000256853227044 -0.000430402704777
Sb 4.2142178275 5.0183282509 22.1137968806 7.71331012145e-07 -0.000512420902402 -0.00042911715309
Sb 6.4531086314 1.1404555702 22.1137968806 -0.000445315104345 0.000258910109743 -0.000427831601403
Sb 0 4.8661595943 23.4269763736 -2.57110337382e-06 -2.31399303643e-06 0.00154780423104
Cr 4.2142178275 2.4330797972 18.2147954638 2.31399303643e-06 -5.14220674763e-06 -0.00100684408119
61
Lattice="8.42843558953 0 0 -4.21421779477 7.29923593142 0 0 0 31.0334408416" Properties=species:S:1:pos:R:3:forces:R:3 energy=-133599.800316 ionic_step=54 pbc="T T T"
Te 1.7746032222 1.0245675585 3.2193249924 0.00030930373587 0.000174063698407 -0.000850520996058
Te 4.2142178275 5.2501042748 3.2193249924 7.71331012145e-07 -0.000350184279514 -0.000850520996058
Te 6.6538324329 1.0245675585 3.2193249924 -0.000306989742834 0.000175606360432 -0.000850006775384
Te 0 4.8661595943 3.0238122819 2.57110337382e-07 2.57110337382e-07 -0.00143184746888
Te 0 0 6.8779990348 -5.6564274224e-06 -2.31399303643e-06 0.000547130797948
Te 2.6260481537 3.3500098466 7.6896664555 -0.000192832753036 0.000114671210472 0.000429374263427
Te 4.2142178275 0.5992196983 7.6896664555 5.14220674763e-07 -0.000220600669473 0.000432716697813
Te -2.6260481537 3.3500098466 7.6896664555 0.000188461877301 0.00010901478305 0.000431431146126
Te 0 0 -0.4145613161 1.79977236167e-06 -1.54266202429e-06 -0.000547130797948
Te 2.4544362929 3.449090047 -0.0686781325 8.33037493116e-05 -5.01365157894e-05 -0.000172521036383
Te 4.2142178275 0.4010592976 -0.0686781325 -2.57110337382e-06 9.66734868555e-05 -0.000171235484696
Te -2.4544362929 3.449090047 -0.0686781325 -8.30466389743e-05 -4.67940814035e-05 -0.000171235484696
Te -0 2.8083786794 13.8365606363 -2.8282137112e-06 -7.89328735762e-05 -0.00220934912912
Te 1.7820906965 5.8950500517 13.8365606363 7.01911221052e-05 4.03663229689e-05 -0.00220677802575
Te 4.2142178275 2.4330797971 13.7876282282 5.14220674763e-07 7.71331012145e-07 -0.0023880408136
Te -1.7820906965 5.8950500517 13.8365606363 -6.09351499594e-05 3.29101231848e-05 -0.00221114890148
Te 1.5269618856 0.8815916905 17.510537305 -0.000916598352766 -0.000528875963994 0.000380523299325
Te 4.2142178275 5.5360560107 17.510537305 -1.28555168691e-06 0.00106006592102 0.000382837292361
Te 6.9014737695 0.8815916905 17.510537305 0.000919169456139 -0.000531447067368 0.000381294630337
Te 0 4.8661595943 16.0597388311 -7.71331012145e-07 -2.05688269905e-06 -0.000673371973602
Te 1.5797399116 0.9120631216 10.7759922147 0.000303133087773 0.000175092139757 -0.00252585195444
Te 4.2142178275 5.4751131482 10.7759922147 -3.08532404858e-06 -0.0003535267139 -0.00251711020297
Te 6.8486957434 0.9120631216 10.7759922147 -0.000307761073846 0.000173549477733 -0.00252225240971
Te 0 4.8661595943 10.3190331529 -2.05688269905e-06 2.57110337382e-07 -0.0019733218394
Te -0 0 23.956878439 -1.02844134953e-06 2.57110337382e-07 0.000588782672604
Te 2.4841313921 3.4319455579 23.8606448696 1.51695099055e-05 -8.48464113359e-06 0.000541217260188
Te 4.2142178275 0.4353482757 23.8606448696 -5.14220674763e-07 1.77406132793e-05 0.000539674598164
Te -2.4841313921 3.4319455579 23.8606448696 -1.36268478812e-05 -7.45619978407e-06 0.000537360605128
Te 0 2.9495849031 27.7288919686 5.14220674763e-07 -0.000489795192712 0.00225640032086
Te 1.659802576 5.8244469399 27.7288919686 0.000424746277354 0.0002434834895 0.00225974275525
Te 4.2142178275 2.4330797971 27.1905727442 1.79977236167e-06 7.71331012145e-07 0.00264078027525
Te -1.659802576 5.8244469399 27.7288919686 -0.00042423205668 0.000243997710175 0.00226179963795
Te 0 2.9615902611 20.5723807114 1.54266202429e-06 -0.000435802021862 0.00123850049517
Te 1.6494056476 5.8184442608 20.5723807114 0.000378980637301 0.000215715573063 0.00124467114326
Te 4.2142178275 2.4330797971 20.6247143977 -3.08532404858e-06 1.02844134953e-06 0.00194401126094
Te -1.6494056476 5.8184442608 20.5723807114 -0.000381551740674 0.0002180295661 0.00124004315719
Sb -0 2.4220352405 8.4490746264 -2.31399303643e-06 0.00025428212367 3.98521022942e-05
Sb 2.1166737766 6.0882217713 8.4490746264 -0.000225485765884 -0.00012958361004 4.37087573549e-05
Sb 4.2142178275 2.4330797971 9.8196268773 -6.68486877192e-06 -5.6564274224e-06 -0.00128863701096
Sb -2.1166737766 6.0882217713 8.4490746264 0.000214944242051 -0.00012469851363 4.21660953306e-05
Sb 0 2.4237004739 1.4044778627 2.57110337382e-06 0.000331672335222 -0.000550473232334
Sb 2.1152316423 6.0873891544 1.4044778627 -0.000282050040108 -0.00016789305031 -0.000544816804912
Sb 4.2142178275 2.4330797971 2.2150180171 -7.71331012145e-07 5.14220674763e-07 -0.000921483449176
Sb -2.1152316423 6.0873891544 1.4044778627 0.000283078481457 -0.000166864608961 -0.000545331025586
Sb -0 -0 19.8968259893 -1.28555168691e-06 -1.28555168691e-06 0.000527590412307
Sb 2.0130696256 3.703913294 18.0441807982 -0.000609094389257 0.000349412948502 0.000513449343751
Sb 4.2142178275 -0.1085871965 18.0441807982 -2.57110337382e-06 -0.000703196772739 0.000514220674763
Sb 6.4153660295 3.703913294 18.0441807982 0.000613208154655 0.000353783824237 0.000516020447125
Sb 0 -0 14.1944977714 -7.45619978407e-06 6.9419791093e-06 -0.00205945380243
Sb 2.2238961306 3.5821925324 11.9720315808 -0.000146810002645 8.87030663967e-05 -0.00283361302828
Sb 4.2142178275 0.1348543267 11.9720315808 1.79977236167e-06 -0.000171749705371 -0.00283566991098
Sb -2.2238961306 3.5821925324 11.9720315808 0.000147067112982 8.71604043724e-05 -0.00283618413166
Sb 2.1436843804 1.237656764 28.8270369125 0.000117756534521 6.89055704183e-05 0.00191032980675
Sb 4.2142178275 4.8239258635 28.8270369125 -1.28555168691e-06 -0.000133954485776 0.00190750159303
Sb 6.2847512747 1.237656764 28.8270369125 -0.000115442541484 6.68486877192e-05 0.00190441626899
Sb 0 4.8661595943 29.8544095633 7.71331012145e-07 -0 0.00167327407568
Sb 1.975288348 1.1404332409 22.1140682554 -0.000311874839244 -0.000178434574143 0.00059803864475
Sb 4.2142178275 5.0183729096 22.1140682554 -1.02844134953e-06 0.00035944025166 0.000599067086099
Sb 6.453147307 1.1404332409 22.1140682554 0.000312646170256 -0.000180234346505 0.000599838417111
Sb 0 4.8661595943 23.4261356161 -3.34243438596e-06 -2.57110337382e-07 0.00103795443201
Cr 4.2142178275 2.4330797972 18.21603003 0 -2.57110337382e-07 -0.000704225214088
61
Lattice="8.42843558953 0 0 -4.21421779477 7.29923593142 0 0 0 31.0334408416" Properties=species:S:1:pos:R:3:forces:R:3 energy=-133599.800321 ionic_step=55 pbc="T T T"
Te 1.7745586054 1.0245417989 3.218651531 0.000276650723023 0.000159922629851 -0.000123670072281
Te 4.2142178275 5.2501557939 3.218651531 -5.14220674763e-07 -0.000319073928691 -0.000129840720378
Te 6.6538770497 1.0245417989 3.218651531 -0.000276136502348 0.000157351526478 -0.000125212734305
Te 0 4.8661595943 3.0234570355 7.71331012145e-07 1.79977236167e-06 -0.00028179292977
Te 0 0 6.8779535799 -3.85665506072e-06 0 0.00070011144869
Te 2.6259068829 3.3500914094 7.6897713358 7.30193358164e-05 -4.08805436437e-05 0.00108526273409
Te 4.2142178275 0.5990565727 7.6897713358 1.79977236167e-06 8.48464113359e-05 0.00108731961679
Te -2.6259068829 3.3500914094 7.6897713358 -7.45619978407e-05 -4.39658676923e-05 0.00108783383746
Te 0 0 -0.414685295 2.31399303643e-06 -5.14220674763e-07 0.000198746290796
Te 2.4546806272 3.4489489804 -0.0692581536 0.000208773593954 -0.000119042086208 0.000447114876707
Te 4.2142178275 0.4013414308 -0.0692581536 2.57110337382e-07 0.000242969268826 0.000448400428394
Te -2.4546806272 3.4489489804 -0.0692581536 -0.000210059145641 -0.00011981341722 0.000450200200755
Te -0 2.8084022144 13.8368643022 2.8282137112e-06 -0.000164550615924 -0.00207925129841
Te 1.7820703147 5.8950382843 13.8368643022 0.000138325361511 7.86757632388e-05 -0.00207770863638
Te 4.2142178275 2.4330797971 13.7874534109 -1.02844134953e-06 -2.57110337382e-07 -0.00213787245533
Te -1.7820703147 5.8950382843 13.8368643022 -0.000147838443994 8.71604043724e-05 -0.00208105107077
Te 1.5268972385 0.8815543664 17.5112018187 -0.000153494871417 -9.10170594331e-05 0.000283078481457
Te 4.2142178275 5.5361306587 17.5112018187 4.11376539811e-06 0.000181777008529 0.000285135364156
Te 6.9015384166 0.8815543664 17.5112018187 0.000158894188502 -8.92172870714e-05 0.000282564260782
Te 0 4.8661595943 16.0597534207 -2.05688269905e-06 2.57110337382e-07 -0.000464598379649
Te 1.5796807726 0.9120289777 10.7761871371 0.000363554017058 0.000209544924966 -0.000781872535978
Te 4.2142178275 5.4751814361 10.7761871371 4.11376539811e-06 -0.000425260498029 -0.000783158087664
Te 6.8487548824 0.9120289777 10.7761871371 -0.000365353789419 0.000214944242051 -0.000781358315303
Te 0 4.8661595943 10.3186917949 -1.54266202429e-06 1.02844134953e-06 -0.000278707605722
Te -0 0 23.9570724432 -7.71331012145e-07 -5.14220674763e-07 0.000127783837679
Te 2.484150657 3.4319344353 23.8609631548 -0.000122641630931 7.01911221052e-05 0.00010310124529
Te 4.2142178275 0.4353705209 23.8609631548 2.57110337382e-07 -0.000142439126909 0.000101044362591
Te -2.484150657 3.4319344353 23.8609631548 0.000122127410256 6.9419791093e-05 9.92445902293e-05
Te 0 2.9495648802 27.7282981002 -7.71331012145e-07 -7.37906668285e-05 -0.000110814555411
Te 1.6598199164 5.8244569514 27.7282981002 6.42775843454e-05 3.7023888583e-05 -0.00011389987946
Te 4.2142178275 2.4330797971 27.1903827088 1.28555168691e-06 -7.71331012145e-07 7.04482324426e-05
Te -1.6598199164 5.8244569514 27.7282981002 -6.50489153576e-05 3.72809989203e-05 -0.000110557445074
Te 0 2.9618132266 20.5730833125 -1.02844134953e-06 0.000218543786774 0.00111123087816
Te 1.649212554 5.8183327781 20.5730833125 -0.000188976097975 -0.000108757672712 0.00111251642985
Te 4.2142178275 2.4330797971 20.625481318 7.71331012145e-07 1.79977236167e-06 0.0010901478305
Te -1.649212554 5.8183327781 20.5730833125 0.000188976097975 -0.000110300334737 0.00111071665749
Sb -0 2.4220716923 8.4491868017 -7.71331012145e-07 0.000196689408097 0.00105723770731
Sb 2.1166422084 6.0882035453 8.4491868017 -0.000172263926046 -0.000100273031579 0.0010564663763
Sb 4.2142178275 2.4330797971 9.8199358727 -5.14220674763e-07 7.71331012145e-07 0.00034272807973
Sb -2.1166422084 6.0882035453 8.4491868017 0.00016789305031 -9.71877075303e-05 0.00105698059698
Sb 0 2.4238174955 1.4037560596 -1.79977236167e-06 0.000291306012253 0.00036921044448
Sb 2.1151302988 6.0873306437 1.4037560596 -0.000253253682321 -0.000144496009608 0.000373838430553
Sb 4.2142178275 2.4330797971 2.2145800094 2.31399303643e-06 -1.54266202429e-06 -3.88236609446e-05
Sb -2.1151302988 6.0873306437 1.4037560596 0.000250682578947 -0.000147067112982 0.000371010216842
Sb -0 -0 19.8974263537 7.71331012145e-07 -1.54266202429e-06 0.000740734881996
Sb 2.0132423027 3.7038135988 18.044032134 -6.14493706342e-05 3.3681454197e-05 0.000708596089824
Sb 4.2142178275 -0.108387806 18.044032134 -1.79977236167e-06 -7.01911221052e-05 0.000709624531173
Sb 6.4151933523 3.7038135988 18.044032134 6.04209292847e-05 3.52241162213e-05 0.000710138751848
Sb 0 -0 14.1960608427 8.48464113359e-06 0 -0.00168972913727
Sb 2.2238991966 3.5821907623 11.9720219617 0.000110300334737 -6.42775843454e-05 -0.00182188385069
Sb 4.2142178275 0.134857867 11.9720219617 -2.31399303643e-06 0.000127783837679 -0.00182316940237
Sb -2.2238991966 3.5821907623 11.9720219617 -0.000112357217436 -6.27349223211e-05 -0.00182625472642
Sb 2.1436565663 1.2376407055 28.8265833321 0.000351984051875 0.000202345835519 0.000100273031579
Sb 4.2142178275 4.8239579805 28.8265833321 1.28555168691e-06 -0.000404691671039 0.000101044362591
Sb 6.2847790888 1.2376407055 28.8265833321 -0.000350698500189 0.000202602945857 9.92445902293e-05
Sb 0 4.8661595943 29.8538660485 1.54266202429e-06 -2.57110337382e-07 0.000558186542456
Sb 1.9752264564 1.1403975077 22.1143375464 1.54266202429e-06 2.57110337382e-07 0.000581069362482
Sb 4.2142178275 5.0184443759 22.1143375464 5.14220674763e-07 -7.71331012145e-07 0.000580040921133
Sb 6.4532091986 1.1403975077 22.1143375464 -2.57110337382e-06 1.54266202429e-06 0.000583126245182
Sb 0 4.8661595943 23.4254231318 5.14220674763e-07 1.02844134953e-06 0.000303133087773
Cr 4.2142178275 2.4330797972 18.2170390305 2.31399303643e-06 -5.14220674763e-07 -0.00020028895282
