61
Lattice="8.42843558953249 0.0 0.0 -4.21421779476624 7.29923593142487 0.0 0.0 0.0 31.03344084160948" Properties=species:S:1:pos:R:3:forces:R:3 repair_mode=unwrap repair_image_index=0 migrant_element=Cr energy=-224.80226104587268 mlff_rel_energy_eV=0.0 mlff_fmax_eV_A=1.1524520367418671 calculator_label=/home/ycao73/.cache/mace/20231203mace128L1_epoch199model neb_image=0 neb_protocol=mlff_pre_neb pbc="T T T"
Te       2.10710960       1.21450109       3.47277178      -0.00000261       0.01009193       0.99880717
Te       4.21598382       4.86717840       3.47277178      -0.00873441      -0.00504274       0.99880138
Te       6.32132606       1.21654029       3.46337882       0.00000244       0.00000641       1.03075308
Te      -0.00176600       4.86717919       3.47277179       0.00873433      -0.00504565       0.99878204
Te      -0.02683937       0.01549573       6.87268349       0.06947001      -0.04010319      -1.10527393
Te       2.10710848       3.64961994       6.92335299       0.00000181      -0.00000425      -0.99000198
Te       4.24105720       0.01549523       6.87268330      -0.06947003      -0.04010123      -1.10525920
Te      -2.10710848       3.61862849       6.87268330      -0.00000161       0.08021295      -1.10525231
Te       0.00000000       0.00000000       0.00000000       0.00000004       0.00000694      -0.00000970
Te       2.10710891       3.64961970       0.00000000      -0.00000001      -0.00000141      -0.00000922
Te       4.21421783      -0.00000000      -0.00000000      -0.00000006       0.00000692      -0.00000971
Te      -2.10710891       3.64961970       0.00000000       0.00000011      -0.00000141      -0.00000925
Te       0.04960189       2.46171773      13.94762059      -0.21384470      -0.12346061       1.04407469
Te       2.10710870       6.02542401      13.94762059       0.00000052       0.24692315       1.04407984
Te       4.16461594       2.46171748      13.94762098       0.21384571      -0.12346065       1.04407793
Te      -2.10710870       6.08269937      13.89453363      -0.00000023      -0.00000560       1.15245204
Te       2.10710913       1.27381538      17.08581663      -0.00000055      -0.24692420      -1.04407466
Te       4.16461594       4.83752167      17.08581663       0.21384545       0.12345763      -1.04407921
Te       6.32132652       1.21654002      17.13890359       0.00000027       0.00000280      -1.15244504
Te       0.04960189       4.83752192      17.08581625      -0.21384648       0.12345766      -1.04408252
Te       2.10710868       1.19984378      10.38852379       0.00000091      -0.08080033      -0.00399011
Te       4.22867697       4.87450786      10.38852379       0.06998057       0.04039583      -0.00399069
Te       6.32132698       1.21653976      10.39111941      -0.00000131       0.00000669       0.19302548
Te      -0.01445914       4.87450759      10.38852421      -0.06998085       0.04039704      -0.00399157
Te       0.02683937      -0.01549573      24.16075373      -0.06946990       0.04011599       1.10527362
Te       2.10710934       3.64961945      24.11008424      -0.00000184       0.00000186       0.99000243
Te       4.18737845      -0.01549523      24.16075392       0.06946993       0.04011398       1.10525887
Te      -2.10710934       3.68061090      24.16075392       0.00000182      -0.08021541       1.10525275
Te      -0.00176600       2.43206099      27.56066545       0.00873449       0.00503895      -0.99879805
Te       2.10710823       6.08473830      27.56066545       0.00000253      -0.01009117      -0.99880367
Te       4.21598382       2.43206020      27.56066544      -0.00873436       0.00504185      -0.99877871
Te      -2.10710823       6.08269910      27.57005841      -0.00000245      -0.00000562      -1.03074952
Te      -0.01445914       2.42473153      20.64491344      -0.06998057      -0.04040070       0.00398979
Te       2.10710915       6.09939562      20.64491344      -0.00000097       0.08079944       0.00399087
Te       4.22867697       2.42473180      20.64491301       0.06998084      -0.04040192       0.00399070
Te      -2.10710915       6.08269963      20.64231782       0.00000129      -0.00000697      -0.19302531
Sb      -0.03018654       2.41564989       8.46733874       0.13262139       0.07658274       0.44133261
Sb       2.10711038       6.11755676       8.46733874      -0.00001072      -0.15315067       0.44133676
Sb       4.24440436       2.41565158       8.46733912      -0.13262133       0.07657027       0.44132399
Sb      -2.10711038       6.08270034       8.40301845       0.00001057      -0.00001187       0.49967257
Sb       0.00025079       2.43322202       1.88152630       0.01786681       0.01034015      -0.24564015
Sb       2.10711114       6.08241119       1.88152630      -0.00001757      -0.02065074      -0.24563953
Sb       4.21396703       2.43322459       1.88152659      -0.01786674       0.01031982      -0.24565393
Sb      -2.10711114       6.08270078       1.88047883       0.00001773      -0.00001993      -0.23490592
Sb      -0.05023393       0.02900259      18.75787975       0.10017534      -0.05782843       0.38356365
Sb       2.10710819       3.64962011      18.71293056       0.00000517      -0.00000678       0.68165875
Sb       4.26445176       0.02900175      18.75787999      -0.10017528      -0.05782254       0.38356720
Sb       6.32132747       3.59161494      18.75787999      -0.00000515       0.11566589       0.38356805
Sb       0.05023393      -0.02900259      12.27555748      -0.10017632       0.05784246      -0.38356625
Sb       2.10710964       3.64961928      12.32050666      -0.00000514       0.00000122      -0.68165705
Sb       4.16398389      -0.02900175      12.27555723       0.10017627       0.05783659      -0.38356973
Sb      -2.10710964       3.70762446      12.27555723       0.00000513      -0.11567079      -0.38356641
Sb       2.10710669       1.21682820      29.15191093       0.00001756       0.02064918       0.24564707
Sb       4.21396703       4.86601737      29.15191093      -0.01786682      -0.01034156       0.24564489
Sb       6.32132897       1.21653861      29.15295839      -0.00001776       0.00001840       0.23491347
Sb       0.00025079       4.86601480      29.15191064       0.01786675      -0.01032125       0.24565870
Sb       2.10710745       1.18168263      22.56609849       0.00001072       0.15314979      -0.44133344
Sb       4.24440436       4.88358950      22.56609849      -0.13262137      -0.07658988      -0.44133608
Sb       6.32132821       1.21653905      22.63041878      -0.00001059       0.00001120      -0.49966973
Sb      -0.03018654       4.88358781      22.56609810       0.13262121      -0.07657746      -0.44132733
Cr       2.10710891       3.64961970      15.51671861       0.00000002      -0.00000075      -0.00000049
61
Lattice="8.42843558953249 0.0 0.0 -4.21421779476624 7.29923593142487 0.0 0.0 0.0 31.03344084160948" Properties=species:S:1:pos:R:3:forces:R:3 repair_mode=unwrap repair_image_index=1 migrant_element=Cr energy=-227.8170119195138 mlff_rel_energy_eV=-3.0147508736411055 mlff_fmax_eV_A=0.01720538472702627 calculator_label=/home/ycao73/.cache/mace/20231203mace128L1_epoch199model neb_image=1 neb_protocol=mlff_pre_neb pbc="T T T"
Te       1.95992966       1.30228189       3.67099289      -0.00948473       0.00446375       0.00513335
Te       4.06637476       4.95075023       3.67099297      -0.00860810       0.00598206       0.00513320
Te       6.17287917       1.30224775       3.68357439      -0.00759718       0.00438616      -0.00194277
Te      -0.15132660       4.95352791       3.67683527      -0.00494344       0.00285408       0.00050949
Te      -0.19671244       0.11357323       6.50636902      -0.00116518       0.00067270      -0.00595659
Te       1.91849010       3.75851820       6.52152396      -0.01203834       0.00695036      -0.00969365
Te       4.01434524       0.10854514       6.50147031       0.00457949       0.00005148      -0.00393142
Te      -2.30104691       3.76844206       6.50147027       0.00224509      -0.00399182      -0.00393135
Te      -0.15234108       0.08795567      -0.07803141      -0.00480639       0.00277500       0.00107860
Te       1.96063551       3.73418595      -0.06918758      -0.00905878       0.00523005      -0.00466796
Te       4.06683172       0.08405357      -0.08504658      -0.00593082       0.00372809       0.00424562
Te      -2.25359314       3.73523349      -0.08504664      -0.00619401       0.00327222       0.00424570
Te      -0.24031179       2.55158154      14.08527732       0.00204598       0.00312693       0.00303987
Te       1.88432840       6.23156441      14.08527741      -0.00168509      -0.00333531       0.00303987
Te       3.99493422       2.55968433      14.09471325       0.00009872      -0.00005721      -0.00014788
Te      -2.33173293       6.21238552      14.02077420       0.00693582      -0.00400445      -0.00292378
Te       1.85347034       1.35199052      16.79809475       0.00582498      -0.01257440       0.00341547
Te       3.97009501       5.01809022      16.79809503       0.01380224       0.00124273       0.00341552
Te       6.06755044       1.36305777      16.87428426       0.00957725      -0.00552934      -0.00815427
Te      -0.25723821       5.01467456      16.78709712       0.00973980      -0.00562328       0.00144821
Te       1.89624557       1.33485172      10.28255010       0.00343190      -0.00694289       0.00202179
Te       4.00632620       4.98961679      10.28255003       0.00772866       0.00049926       0.00202165
Te       6.11354263       1.33650519      10.30134972      -0.00241639       0.00139514      -0.01325144
Te      -0.22039487       4.99340411      10.29339649      -0.00195031       0.00112594      -0.00360304
Te      -0.22788871       0.13157322      24.37632369       0.00047653      -0.00027518       0.00446638
Te       1.87360959       3.78443047      24.36774093       0.00078053      -0.00045048      -0.00020888
Te       3.97477303       0.13471864      24.38480635       0.00596560      -0.00214778       0.00147388
Te      -2.34349964       3.78962630      24.38480619       0.00484277      -0.00409241       0.00147378
Te      -0.15813302       2.52302986      27.19439816      -0.00463261       0.00587383       0.00444749
Te       1.95014310       6.17466946      27.19439813      -0.00740322       0.00107513       0.00444737
Te       4.04737719       2.52940497      27.20161287      -0.00184369       0.00106442      -0.00079477
Te      -2.26652243       6.17473489      27.21162273      -0.00515474       0.00297620      -0.00632703
Te      -0.25936823       2.57433045      20.60248268       0.00629530      -0.00779691      -0.00239560
Te       1.85509809       6.23669172      20.60248234       0.00990001      -0.00155340      -0.00239544
Te       3.97665681       2.57023563      20.59091197       0.00170560      -0.00098464       0.00575014
Te      -2.35717695       6.22707457      20.59593788       0.00522360      -0.00301580      -0.00194667
Sb      -0.21069253       2.54584916       8.23326610      -0.00110665       0.00086595       0.00079402
Sb       1.90410186       6.20877855       8.23326593      -0.00130331       0.00052544       0.00079405
Sb       4.03268704       2.53788708       8.22832987      -0.00918573       0.00530328       0.00579016
Sb      -2.31282138       6.20146629       8.24509917       0.00403976      -0.00233235      -0.00794336
Sb      -0.14541690       2.51640002       1.94261426      -0.00668085       0.00506991      -0.00191903
Sb       1.96224366       6.16697355       1.94261429      -0.00773107       0.00325075      -0.00191898
Sb       4.07629888       2.51270810       1.93572748      -0.01145219       0.00661194      -0.00042659
Sb      -2.25139907       6.16600445       1.92768401      -0.00654405       0.00377815       0.00772689
Sb      -0.30088522       0.17371681      18.65098946       0.00671193      -0.00387510       0.00223804
Sb       1.84979165       3.79818078      18.56882187       0.00701085      -0.00404752       0.00295463
Sb       4.00102788       0.16870018      18.64348984       0.00689626      -0.00172244       0.00252929
Sb       6.06863362       3.74989693      18.64349033       0.00493991      -0.00511103       0.00252925
Sb      -0.17168362       0.09912392      12.23343847       0.00501626      -0.00289634      -0.00623027
Sb       1.88694125       3.77673388      12.31751250       0.00055212      -0.00031868       0.00104538
Sb       3.94916993       0.10225801      12.24351493       0.00240127      -0.00075438      -0.00241064
Sb      -2.32818881       3.82803023      12.24351440       0.00185377      -0.00170246      -0.00241061
Sb       1.95390504       1.30580479      28.94610846      -0.00508742       0.00104408      -0.00054404
Sb       4.06031068       4.95420467      28.94610839      -0.00344781       0.00388382      -0.00054384
Sb       6.16731188       1.30546091      28.92797815      -0.00221496       0.00127893       0.00704525
Sb      -0.14382322       4.94919480      28.93497857      -0.01056196       0.00609789       0.00557615
Sb       1.86637457       1.35024542      22.64481971       0.00284551      -0.00728575       0.00300294
Sb       3.97805887       5.00778830      22.64481950       0.00773256       0.00117862       0.00300313
Sb       6.07611519       1.35811353      22.66258552       0.00618897      -0.00357312      -0.01565103
Sb      -0.25088911       5.01100956      22.65139359      -0.00160023       0.00092385       0.00415231
Cr       1.86462263       3.78961898      15.43464062       0.00444017      -0.00256364       0.00228204
61
Lattice="8.42843558953249 0.0 0.0 -4.21421779476624 7.29923593142487 0.0 0.0 0.0 31.03344084160948" Properties=species:S:1:pos:R:3:forces:R:3 repair_mode=unwrap repair_image_index=2 migrant_element=Cr energy=-227.61361027718428 mlff_rel_energy_eV=-2.8113492313115955 mlff_fmax_eV_A=0.19773202446511998 calculator_label=/home/ycao73/.cache/mace/20231203mace128L1_epoch199model neb_image=2 neb_protocol=mlff_pre_neb pbc="T T T"
Te       1.97164304       1.28030503       3.66866689      -0.00268810       0.00720707       0.00970032
Te       4.09126408       4.95159454       3.66866683      -0.00758557      -0.00127553       0.00970032
Te       6.20434260       1.28408233       3.67323689      -0.00986677       0.00569657       0.01178729
Te      -0.13060845       4.94156635       3.63212894      -0.00311523       0.00179858       0.02193543
Te      -0.13793860       0.07964016       6.53869139      -0.01066847       0.00615945      -0.01388373
Te       1.94183347       3.74504116       6.45477084      -0.00101000       0.00058306       0.02109216
Te       4.06871356       0.03349909       6.48479060       0.00091831       0.01211462      -0.00126322
Te      -2.20887068       3.75888094       6.48479052      -0.01003245      -0.00685272      -0.00126310
Te      -0.13518182       0.07804885      -0.11115259      -0.00311530       0.00179863       0.01487348
Te       1.98165568       3.72204999      -0.08117981      -0.00912054       0.00526574       0.00791383
Te       4.08287084       0.08362411      -0.08271350      -0.00590656      -0.00163768       0.00570080
Te      -2.24520166       3.72155807      -0.08271343      -0.00153498       0.00593405       0.00570079
Te      -0.18307938       2.30827587      14.21768422       0.02103540       0.03941065      -0.02453931
Te       2.12365520       6.30365245      14.21768489      -0.02361394      -0.03792293      -0.02453992
Te       4.02493127       2.54236500      14.05744372       0.02904323      -0.01676814       0.02866366
Te      -2.39154535       6.24691747      14.16855974       0.02576739      -0.01487678       0.01504198
Te       1.89818720       1.34171153      16.94684018       0.00942088       0.00204811       0.00892385
Te       4.00135526       4.98450320      16.94684053       0.00293667      -0.00918297       0.00892382
Te       6.04757406       1.37459098      16.97910542       0.02530168      -0.01460787      -0.01710096
Te      -0.20203396       4.98280234      16.79538794      -0.01299500       0.00750275       0.02886973
Te       1.98235456       1.32741453      10.25723742      -0.00646139      -0.01813858       0.02270237
Te       4.05582142       4.91876325      10.25723756       0.01247777       0.01466483       0.02270237
Te       6.15793125       1.31087758      10.22707458       0.01536016      -0.00886809       0.02756857
Te      -0.15720936       4.95692386      10.30255095       0.00438571      -0.00253210      -0.02197860
Te      -0.21920421       0.12655892      24.42567007       0.00345376      -0.00199388      -0.02275469
Te       1.87089212       3.78599921      24.42684725       0.01083847      -0.00625750       0.00318258
Te       3.99254987       0.12893799      24.41144878       0.00754675      -0.00243720       0.00647679
Te      -2.32960526       3.77712118      24.41144865       0.00588418      -0.00531691       0.00647679
Te      -0.14860562       2.52407504      27.20685657      -0.00393222      -0.00189498       0.00161073
Te       1.95400168       6.16589604      27.20685662      -0.00032503       0.00435283       0.00161071
Te       4.06459599       2.51946380      27.18312516      -0.00420866       0.00242982       0.00866291
Te      -2.24725951       6.16361352      27.20789612      -0.00741509       0.00428106      -0.00017978
Te      -0.22894989       2.56811526      20.66737673       0.00986283      -0.00468859       0.00682334
Te       1.87568954       6.21345612      20.66737658       0.00899190      -0.00619712       0.00682328
Te       3.98966710       2.56272392      20.63539739       0.00338163      -0.00195232      -0.01676873
Te      -2.36112640       6.22935457      20.69338347       0.01502040      -0.00867204      -0.00613637
Sb      -0.12844095       2.51246182       8.26943687      -0.01327374      -0.00269028       0.00774557
Sb       1.97414186       6.15424065       8.26943679      -0.00430699       0.01284044       0.00774539
Sb       4.07567511       2.51306813       8.07344999      -0.00504961       0.00291541       0.02308995
Sb      -2.26169581       6.17194910       8.29770933      -0.00321276       0.00185478      -0.01251177
Sb      -0.12536268       2.49586988       1.91773009      -0.00666096       0.00380999       0.01405837
Sb       1.99005046       6.15987117       1.91773008      -0.00663001       0.00386355       0.01405837
Sb       4.09023462       2.50466222       1.95873065      -0.00517626       0.00298859       0.00164263
Sb      -2.24276786       6.16102129       1.90716726      -0.00234209       0.00135217       0.01880814
Sb      -0.24406111       0.14090944      18.66533636       0.00430699      -0.00248667       0.00463335
Sb       1.88537341       3.77763772      18.64096465       0.00333938      -0.00192802       0.00843330
Sb       3.96946876       0.13753587      18.68465033       0.01463624      -0.01582100      -0.00584628
Sb       6.07984287       3.79280962      18.68465116       0.02101963      -0.00476478      -0.00584635
Sb      -0.15404673       0.08894166      11.90067443       0.00893429      -0.00515842       0.07769258
Sb       1.86334008       3.79036011      12.42887455       0.05077996      -0.02931773      -0.01814571
Sb       4.08586802      -0.00049356      12.45321038      -0.00614284       0.06564873      -0.06223777
Sb      -2.17085558       3.76102183      12.45320931      -0.05992320      -0.02750362      -0.06223606
Sb       1.97494531       1.29946170      28.93150142      -0.00710416       0.00030885      -0.00076278
Sb       4.07632418       4.93915500      28.93150145      -0.00381952       0.00599791      -0.00076271
Sb       6.17595412       1.30047146      28.92931473      -0.00240970       0.00139127       0.00032627
Sb      -0.13647201       4.94495064      28.95831459      -0.00535660       0.00309259      -0.00293840
Sb       1.86951719       1.35835605      22.69372634       0.01994843      -0.00124781      -0.00183947
Sb       3.97260594       5.00101096      22.69372601       0.01105496      -0.01665180      -0.00183941
Sb       6.09776053       1.34561642      22.68304393      -0.00278603       0.00160860      -0.00904850
Sb      -0.23624733       5.00255588      22.67638122       0.00540296      -0.00311932       0.00855746
Cr      -0.08717668       4.91649277      14.05343574      -0.09326017       0.05384263      -0.16583566
61
Lattice="8.42843558953249 0.0 0.0 -4.21421779476624 7.29923593142487 0.0 0.0 0.0 31.03344084160948" Properties=species:S:1:pos:R:3:forces:R:3 repair_mode=unwrap repair_image_index=3 migrant_element=Cr energy=-227.80842683348533 mlff_rel_energy_eV=-3.0061657876126446 mlff_fmax_eV_A=0.3348373127792204 calculator_label=/home/ycao73/.cache/mace/20231203mace128L1_epoch199model neb_image=3 neb_protocol=mlff_pre_neb pbc="T T T"
Te       2.20387802       1.17858558       3.77944837      -0.00658874      -0.00175864      -0.03592721
Te       4.29547315       4.80133300       3.77944862      -0.00177163       0.00658513      -0.03592751
Te       6.37847680       1.18354588       3.78708393       0.00533623      -0.00308122      -0.03842835
Te       0.08033182       4.81977980       3.82928865      -0.00068870       0.00039770      -0.04186042
Te       0.10121386      -0.05843410       6.35777143      -0.00018759       0.00010816       0.08780311
Te       2.27377460       3.55339496       6.51195146      -0.01464966       0.00845818       0.05402496
Te       4.32278161      -0.02445943       6.51326643       0.00507132       0.00435850       0.05461064
Te      -2.03164313       3.56783085       6.51326646      -0.00123910      -0.00657104       0.05461073
Te       0.06676209      -0.03854365       0.08474064       0.00211188      -0.00121949      -0.01043235
Te       2.16519567       3.61608294       0.06562133       0.00161027      -0.00092963      -0.01890014
Te       4.28217041      -0.04691850       0.05344346      -0.00096781      -0.00025968      -0.00360709
Te      -2.03249858       3.61423070       0.05344323      -0.00025930       0.00096792      -0.00360687
Te       0.11538547       2.46594995      14.11084584      -0.01519957      -0.03647525       0.01702457
Te       2.13633616       5.96633777      14.11084508       0.02398869       0.03140091       0.01702480
Te       4.32767387       2.36757714      14.16952023      -0.01269452       0.00732896      -0.05381525
Te      -1.88783797       5.95610299      14.11916556      -0.05554740       0.03207039       0.00728744
Te       2.16663979       1.19802904      17.10294962      -0.00223497      -0.00320615       0.00924307
Te       4.26001362       4.82385725      17.10294972       0.00165912       0.00353904       0.00924289
Te       6.33760554       1.20714074      17.11068162       0.01194257      -0.00689507       0.00333657
Te       0.04456744       4.84042629      17.20977585       0.00229672      -0.00132562      -0.05847566
Te       2.17032362       1.11872947      10.28259786       0.02076441       0.00256674      -0.01681539
Te       4.33053298       4.86031974      10.28259780       0.00815914      -0.01926596      -0.01681541
Te       6.51222513       1.10632647      10.27269555      -0.02650486       0.01530234      -0.00361772
Te       0.10981190       4.80275976      10.06413096      -0.00319494       0.00184441      -0.02006661
Te       0.03693459      -0.02132259      24.69020389       0.00130424      -0.00075349      -0.06395380
Te       2.12245019       3.64076216      24.66098326       0.01197001      -0.00691087      -0.07166483
Te       4.25122180      -0.03544600      24.65215587       0.00569622       0.00561318      -0.06497732
Te      -2.05790824       3.63529690      24.65215567      -0.00201367      -0.00773998      -0.06497718
Te       0.05598796       2.39637225      27.35575786       0.00218977       0.00055424       0.03195461
Te       2.16689224       6.05256378      27.35575776       0.00061489      -0.00217301       0.03195455
Te       4.26973035       2.40102917      27.37191130       0.00344798      -0.00199069       0.02019446
Te      -2.05329341       6.05162678      27.36368058       0.00260450      -0.00150319       0.02231648
Te       0.03570111       2.40366093      20.89727387       0.00503067      -0.00037146      -0.02583438
Te       2.15043665       6.06648850      20.89727362       0.00283705      -0.00417078      -0.02583420
Te       4.25149375       2.41155817      20.95110705       0.00013924      -0.00008042      -0.01140436
Te      -2.08944667       6.07250003      20.90789622       0.00948211      -0.00547433      -0.03392809
Sb       0.12308696       2.33719793       8.14730748      -0.00378436       0.00389676       0.05927210
Sb       2.25168911       6.02404323       8.14730703      -0.00526667       0.00132943       0.05927235
Sb       4.34553355       2.35726532       8.36715006      -0.01493463       0.00862246      -0.02095859
Sb      -2.03404278       6.04051351       8.14139394       0.00903109      -0.00521366       0.07669847
Sb       0.07165891       2.40178687       2.07909345       0.00097977      -0.00554160      -0.02081914
Sb       2.17003943       6.03628681       2.07909347       0.00528899       0.00192229      -0.02081896
Sb       4.28746312       2.39079246       2.02147826       0.00093487      -0.00053994      -0.00686329
Sb      -2.02048962       6.03268874       2.07002987      -0.00523881       0.00302470      -0.01375616
Sb       0.02814374      -0.01624847      18.76097847       0.01291784      -0.00745816       0.03773829
Sb       2.15429190       3.62237701      18.89696372       0.00514055      -0.00296777      -0.03485443
Sb       4.24397955      -0.01588605      18.91019357       0.00772779       0.00366111      -0.04098543
Sb       6.34996562       3.63178689      18.91019343       0.00069320      -0.00852290      -0.04098512
Sb       0.14011574      -0.08089295      12.52635415      -0.00924072       0.00533453      -0.12489424
Sb       2.38956693       3.48654333      12.18889384      -0.04659557       0.02690218       0.05991561
Sb       4.34703013       0.12385149      12.18659457      -0.01340775      -0.06658731       0.06799342
Sb      -2.14795919       3.47267727      12.18659505       0.05096246       0.04490527       0.06799330
Sb       2.16388426       1.18291837      29.10049172       0.00069816      -0.00389800       0.00527787
Sb       4.27172287       4.83380023      29.10049170       0.00372489       0.00134459       0.00527802
Sb       6.38307158       1.18089182      29.09715162       0.00382554      -0.00220864       0.00406948
Sb       0.06205915       4.83032843      29.07346072      -0.00074411       0.00042979       0.01970460
Sb       2.13891696       1.20058674      22.95198187       0.00056726      -0.00445586      -0.06628671
Sb       4.24393828       4.84658890      22.95198178       0.00414234       0.00173654      -0.06628645
Sb       6.35868155       1.19497374      22.93446282       0.00433159      -0.00250102      -0.04796176
Sb       0.02805087       4.84996350      22.84498242       0.00589608      -0.00340427       0.00767004
Cr       0.11905474       4.79742310      12.66237005      -0.00216435       0.00124965       0.33482799
61
Lattice="8.42843558953249 0.0 0.0 -4.21421779476624 7.29923593142487 0.0 0.0 0.0 31.03344084160948" Properties=species:S:1:pos:R:3:forces:R:3 repair_mode=unwrap repair_image_index=4 migrant_element=Cr energy=-225.46993034923602 mlff_rel_energy_eV=-0.6676693033633398 mlff_fmax_eV_A=1.0771270203971015 calculator_label=/home/ycao73/.cache/mace/20231203mace128L1_epoch199model neb_image=4 neb_protocol=mlff_pre_neb pbc="T T T"
Te       2.10098864       1.21300635       3.52044537       0.01023569       0.00591728       0.87609211
Te       4.21421783       4.87322669       3.52044537      -0.00000009      -0.01182230       0.87608631
Te       6.32744702       1.21300635       3.52044537      -0.01023582       0.00591724       0.87609220
Te      -0.00000000       4.86615959       3.51368646       0.00000001      -0.00000301       0.86826834
Te       0.00000000       0.00000000       6.80558913       0.00000001       0.00000552      -0.84700417
Te       2.12314963       3.64035858       6.77353864      -0.26855240       0.15504559      -1.03151969
Te       4.21421783       0.01852224       6.77353864      -0.00000007      -0.31009289      -1.03152558
Te      -2.12314963       3.64035858       6.77353864       0.26855258       0.15504566      -1.03151982
Te       0.00000000       0.00000000       0.01304124       0.00000007       0.00000655      -0.05336582
Te       2.10832252       3.64891902       0.00155926       0.01266378      -0.00731292       0.00391933
Te       4.21421783       0.00140136       0.00155926      -0.00000008       0.01462937       0.00391885
Te      -2.10832252       3.64891902       0.00155926      -0.01266367      -0.00731290       0.00391934
Te      -0.00000000       2.28878158      14.22382394       0.00000005      -0.29246490       0.26305177
Te       2.23207485       6.15484860      14.22382394       0.25328683       0.14623017       0.26305383
Te       4.21421783       2.43307980      13.80034036      -0.00000013       0.00000295       0.94143619
Te      -2.23207485       6.15484860      14.22382394      -0.25328671       0.14623021       0.26305377
Te       2.10799020       1.21704871      17.17526645       0.04321641       0.02495427      -0.82663282
Te       4.21421783       4.86514198      17.17526645      -0.00000007      -0.04990931      -0.82663904
Te       6.32044546       1.21704871      17.17526645      -0.04321654       0.02495427      -0.82663292
Te      -0.00000000       4.86615959      16.93861115       0.00000011      -0.00000722      -0.18658762
Te       2.07669424       1.19897997      10.28149754       0.31074374       0.17941443       0.31016648
Te       4.21421783       4.90127946      10.28149754      -0.00000008      -0.35882547       0.31016340
Te       6.35174142       1.19897997      10.28149754      -0.31074399       0.17941447       0.31016645
Te      -0.00000000       4.86615959      10.26823231       0.00000005      -0.00000496       0.36067044
Te       0.00000000       0.00000000      24.24482848       0.00000010       0.00000625       0.69763607
Te       2.11687289       3.64398246      24.19441993      -0.00076016       0.00043976       0.90983726
Te       4.21421783       0.01127447      24.19441993      -0.00000007      -0.00087064       0.90984284
Te      -2.11687289       3.64398246      24.19441993       0.00076023       0.00043975       0.90983737
Te       0.00000000       2.43687328      27.52586254       0.00000011      -0.00913515      -0.93842761
Te       2.10382366       6.08080275      27.52586254       0.00791052       0.00456016      -0.93843301
Te       4.21421783       2.43307980      27.54138885      -0.00000007      -0.00000083      -1.02073172
Te      -2.10382366       6.08080275      27.52586254      -0.00791044       0.00456024      -0.93843311
Te       0.00000000       2.42990033      20.68811130       0.00000012       0.10842575      -0.09752292
Te       2.10986241       6.08428923      20.68811130      -0.09389867      -0.05421892      -0.09752260
Te       4.21421783       2.43307980      20.72632209      -0.00000009       0.00000116      -0.42085855
Te      -2.10986241       6.08428923      20.68811130       0.09389878      -0.05421887      -0.09752261
Sb      -0.00000000       2.43230122       8.43536613       0.00000011      -0.09868686       0.14652982
Sb       2.10778318       6.08308878       8.43536613       0.08546621       0.04933769       0.14653280
Sb       4.21421783       2.43307980       8.19671022      -0.00000018       0.00000136       0.81890349
Sb      -2.10778318       6.08308878       8.43536613      -0.08546611       0.04933783       0.14653279
Sb       0.00000000       2.42671799       1.90473875       0.00000012       0.03481444      -0.25198414
Sb       2.11261840       6.08588040       1.90473875      -0.03014646      -0.01741450      -0.25198364
Sb       4.21421783       2.43307980       1.92089496      -0.00000008       0.00000439      -0.27281397
Sb      -2.11261840       6.08588040       1.90473875       0.03014657      -0.01741439      -0.25198367
Sb       0.00000000       0.00000000      18.81923863       0.00000009       0.00000936       0.23833462
Sb       2.10388635       3.65148025      18.72474621      -0.03303767       0.01907003       0.35931966
Sb       4.21421783      -0.00372110      18.72474621      -0.00000005      -0.03814029       0.35931898
Sb       6.32454930       3.65148025      18.72474621       0.03303762       0.01907004       0.35931972
Sb       0.00000000       0.00000000      11.88040369       0.00000014       0.00000595       0.41571453
Sb       1.97849168       3.72387690      12.48317439      -0.18517323       0.10690905      -0.26562339
Sb       4.21421783      -0.14851441      12.48317439      -0.00000010      -0.21381496      -0.26562706
Sb      -1.97849168       3.72387690      12.48317439       0.18517332       0.10690913      -0.26562342
Sb       2.10909386       1.21768591      29.12053626      -0.03699608      -0.02135163       0.34564400
Sb       4.21421783       4.86386757      29.12053626      -0.00000016       0.04271395       0.34564215
Sb       6.31934179       1.21768591      29.12053626       0.03699600      -0.02135173       0.34564399
Sb      -0.00000000       4.86615959      29.12384287       0.00000007      -0.00000546       0.32749665
Sb       2.10063901       1.21280450      22.57836874      -0.05315197      -0.03068145      -0.15491857
Sb       4.21421783       4.87363039      22.57836874      -0.00000013       0.06136712      -0.15492005
Sb       6.32779664       1.21280450      22.57836874       0.05315191      -0.03068146      -0.15491863
Sb      -0.00000000       4.86615959      22.63293601       0.00000003      -0.00000822      -0.29886312
Cr      -0.00000000       4.86615959      14.35116463      -0.00000002      -0.00000016      -0.51200629
