61
Lattice="8.428435589532 0.0 0.0 -4.214217794766 7.299235931425 0.0 0.0 0.0 31.033440841609" Properties=species:S:1:pos:R:3:forces:R:3 branch_id=tetradymite__Sb2Te3__Cr1__ingap_1-7__reused_path_s42 image_index=0 system_id=tetradymite__Sb2Te3__Cr1__ingap_1-7__reused_path_s42 mapping_role=material_transfer_reused_path energy=-224.8022610458681 mlff_rel_energy_eV=0.0 mlff_fmax_eV_A=1.1524520367417164 calculator_label=/home/ycao73/.cache/mace/20231203mace128L1_epoch199model neb_image=0 neb_protocol=mlff_pre_neb pbc="T T T"
Te       2.10710960       1.21450109       3.47277178      -0.00000261       0.01009193       0.99880717
Te       4.21598382       4.86717840       3.47277178      -0.00873441      -0.00504274       0.99880138
Te       6.32132606       1.21654029       3.46337882       0.00000244       0.00000641       1.03075308
Te      -0.00176600       4.86717919       3.47277179       0.00873433      -0.00504565       0.99878204
Te      -0.02683937       0.01549573       6.87268349       0.06947001      -0.04010319      -1.10527393
Te       2.10710848       3.64961994       6.92335299       0.00000181      -0.00000425      -0.99000198
Te       4.24105720       0.01549523       6.87268330      -0.06947003      -0.04010123      -1.10525920
Te      -2.10710848       3.61862849       6.87268330      -0.00000161       0.08021295      -1.10525231
Te       0.00000000       0.00000000       0.00000000       0.00000004       0.00000694      -0.00000970
Te       2.10710891       3.64961970       0.00000000      -0.00000001      -0.00000141      -0.00000922
Te       4.21421783       0.00000000       0.00000000      -0.00000006       0.00000692      -0.00000971
Te      -2.10710891       3.64961970       0.00000000       0.00000011      -0.00000141      -0.00000925
Te       0.04960189       2.46171773      13.94762059      -0.21384470      -0.12346061       1.04407469
Te       2.10710870       6.02542401      13.94762059       0.00000052       0.24692315       1.04407984
Te       4.16461594       2.46171748      13.94762098       0.21384571      -0.12346065       1.04407793
Te      -2.10710870       6.08269937      13.89453363      -0.00000023      -0.00000560       1.15245204
Te       2.10710913       1.27381538      17.08581663      -0.00000055      -0.24692420      -1.04407466
Te       4.16461594       4.83752167      17.08581663       0.21384545       0.12345763      -1.04407921
Te       6.32132652       1.21654002      17.13890359       0.00000027       0.00000280      -1.15244504
Te       0.04960189       4.83752192      17.08581625      -0.21384648       0.12345766      -1.04408252
Te       2.10710868       1.19984378      10.38852379       0.00000091      -0.08080033      -0.00399011
Te       4.22867697       4.87450786      10.38852379       0.06998057       0.04039583      -0.00399069
Te       6.32132698       1.21653976      10.39111941      -0.00000131       0.00000669       0.19302548
Te      -0.01445914       4.87450759      10.38852421      -0.06998085       0.04039704      -0.00399157
Te       0.02683937      -0.01549573      24.16075373      -0.06946990       0.04011599       1.10527362
Te       2.10710934       3.64961945      24.11008424      -0.00000184       0.00000186       0.99000243
Te       4.18737845      -0.01549523      24.16075392       0.06946993       0.04011398       1.10525887
Te      -2.10710934       3.68061090      24.16075392       0.00000182      -0.08021541       1.10525275
Te      -0.00176600       2.43206099      27.56066545       0.00873449       0.00503895      -0.99879805
Te       2.10710823       6.08473830      27.56066545       0.00000253      -0.01009117      -0.99880367
Te       4.21598382       2.43206020      27.56066544      -0.00873436       0.00504185      -0.99877871
Te      -2.10710823       6.08269910      27.57005841      -0.00000245      -0.00000562      -1.03074952
Te      -0.01445914       2.42473153      20.64491344      -0.06998057      -0.04040070       0.00398979
Te       2.10710915       6.09939562      20.64491344      -0.00000097       0.08079944       0.00399087
Te       4.22867697       2.42473180      20.64491301       0.06998084      -0.04040192       0.00399070
Te      -2.10710915       6.08269963      20.64231782       0.00000129      -0.00000697      -0.19302531
Sb      -0.03018654       2.41564989       8.46733874       0.13262139       0.07658274       0.44133261
Sb       2.10711038       6.11755676       8.46733874      -0.00001072      -0.15315067       0.44133676
Sb       4.24440436       2.41565158       8.46733912      -0.13262133       0.07657027       0.44132399
Sb      -2.10711038       6.08270034       8.40301845       0.00001057      -0.00001187       0.49967257
Sb       0.00025079       2.43322202       1.88152630       0.01786681       0.01034015      -0.24564015
Sb       2.10711114       6.08241119       1.88152630      -0.00001757      -0.02065074      -0.24563953
Sb       4.21396703       2.43322459       1.88152659      -0.01786674       0.01031982      -0.24565393
Sb      -2.10711114       6.08270078       1.88047883       0.00001773      -0.00001993      -0.23490592
Sb      -0.05023393       0.02900259      18.75787975       0.10017534      -0.05782843       0.38356365
Sb       2.10710819       3.64962011      18.71293056       0.00000517      -0.00000678       0.68165875
Sb       4.26445176       0.02900175      18.75787999      -0.10017528      -0.05782254       0.38356720
Sb       6.32132747       3.59161494      18.75787999      -0.00000515       0.11566589       0.38356805
Sb       0.05023393      -0.02900259      12.27555748      -0.10017632       0.05784246      -0.38356625
Sb       2.10710964       3.64961928      12.32050666      -0.00000514       0.00000122      -0.68165705
Sb       4.16398389      -0.02900175      12.27555723       0.10017627       0.05783659      -0.38356973
Sb      -2.10710964       3.70762446      12.27555723       0.00000513      -0.11567079      -0.38356641
Sb       2.10710669       1.21682820      29.15191093       0.00001756       0.02064918       0.24564707
Sb       4.21396703       4.86601737      29.15191093      -0.01786682      -0.01034156       0.24564489
Sb       6.32132897       1.21653861      29.15295839      -0.00001776       0.00001840       0.23491347
Sb       0.00025079       4.86601480      29.15191064       0.01786675      -0.01032125       0.24565870
Sb       2.10710745       1.18168263      22.56609849       0.00001072       0.15314979      -0.44133344
Sb       4.24440436       4.88358950      22.56609849      -0.13262137      -0.07658988      -0.44133608
Sb       6.32132821       1.21653905      22.63041878      -0.00001059       0.00001120      -0.49966973
Sb      -0.03018654       4.88358781      22.56609810       0.13262121      -0.07657746      -0.44132733
Cr       2.10710891       3.64961970      15.51671861       0.00000002      -0.00000075      -0.00000049
61
Lattice="8.428435589532 0.0 0.0 -4.214217794766 7.299235931425 0.0 0.0 0.0 31.033440841609" Properties=species:S:1:pos:R:3:forces:R:3 branch_id=tetradymite__Sb2Te3__Cr1__ingap_1-7__reused_path_s42 image_index=1 system_id=tetradymite__Sb2Te3__Cr1__ingap_1-7__reused_path_s42 mapping_role=material_transfer_reused_path energy=-227.82551092993975 mlff_rel_energy_eV=-3.023249884071646 mlff_fmax_eV_A=0.016538933449339332 calculator_label=/home/ycao73/.cache/mace/20231203mace128L1_epoch199model neb_image=1 neb_protocol=mlff_pre_neb pbc="T T T"
Te       1.58783488       1.51721816       3.56666987       0.00043972      -0.00038328      -0.01390873
Te       3.69418697       5.16552528       3.56666989       0.00055173      -0.00018918      -0.01390872
Te       5.80235481       1.51616985       3.56545938       0.00024691      -0.00014261      -0.01385474
Te      -0.51819462       5.16533905       3.56619194       0.00008472      -0.00004890      -0.01352173
Te      -0.51553937       0.29764770       6.37229434      -0.00145360       0.00083920       0.01444729
Te       1.59018477       3.94806504       6.38117162      -0.00007761       0.00004486       0.01653869
Te       3.69638117       0.29769401       6.37186423       0.00146595       0.00066991       0.01471179
Te      -2.62383700       3.94923204       6.37186424       0.00015278      -0.00160449       0.01471179
Te      -0.51898205       0.29963586      -0.19192944       0.00009869      -0.00005705       0.00005483
Te       1.58791038       3.94937877      -0.19238012       0.00019886      -0.00011479       0.00037301
Te       3.69479258       0.29988609      -0.19148474       0.00053962      -0.00033338      -0.00020190
Te      -2.62652924       3.94951247      -0.19148475       0.00055846      -0.00030065      -0.00020189
Te      -0.52771480       2.72362567      13.97225581       0.00285884       0.00149873      -0.01109934
Te       1.59163207       6.39444053      13.97225590       0.00013146      -0.00322517      -0.01109933
Te       3.71183522       2.72313129      13.97227102      -0.00354036       0.00204400      -0.01060188
Te      -2.62279391       6.38042936      13.89059358      -0.00034663       0.00020017      -0.00994793
Te       1.59275058       1.49907799      16.67849342      -0.00000305       0.00402832       0.01051145
Te       3.71235374       5.17033681      16.67849355      -0.00349016      -0.00201147       0.01051143
Te       5.80725793       1.51333815      16.76032919      -0.00036910       0.00021307       0.00961954
Te      -0.52722395       5.17055123      16.67849072       0.00289370      -0.00167062       0.01116784
Te       1.59106555       1.50620967      10.16153307      -0.00000984      -0.00048064       0.00073833
Te       3.70533565       5.16823097      10.16153295       0.00041129       0.00024886       0.00073834
Te       5.80507434       1.51459911      10.15983523       0.00012677      -0.00007322       0.00090196
Te      -0.52289353       5.16805141      10.16170319      -0.00051884       0.00029960       0.00052105
Te      -0.51659519       0.29825846      24.27826224       0.00121419      -0.00070111      -0.01410490
Te       1.59204095       3.94699471      24.26926569      -0.00023186       0.00013384      -0.01632586
Te       3.70009123       0.29804958      24.27819363      -0.00151240      -0.00068799      -0.01427512
Te      -2.62228888       3.94584285      24.27819359      -0.00016047       0.00165371      -0.01427511
Te      -0.51820165       2.73307565      27.08374128       0.00029113      -0.00030295       0.01373922
Te       1.58820380       6.38147519      27.08374129       0.00040794      -0.00010055       0.01373921
Te       3.69515202       2.73276229      27.08343347       0.00019186      -0.00011075       0.01384289
Te      -2.62587184       6.38220536      27.08342026       0.00026252      -0.00015146       0.01447999
Te      -0.52164950       2.72594090      20.48907353      -0.00045281       0.00005907      -0.00091643
Te       1.59265936       6.38802931      20.48907339      -0.00027758       0.00036267      -0.00091642
Te       3.70658818       2.72616032      20.48918306       0.00000208      -0.00000122      -0.00115155
Te      -2.62138009       6.37961281      20.49089581      -0.00042847       0.00024744      -0.00099651
Sb      -0.52529580       2.72622689       8.10095526      -0.00108597      -0.00074468       0.00873884
Sb       1.59058820       6.39104355       8.10095512       0.00010193       0.00131292       0.00873885
Sb       3.70644332       2.72624356       8.10039157       0.00106665      -0.00061583       0.00931531
Sb      -2.62335146       6.38075054       8.11272843      -0.00016248       0.00009390       0.00481733
Sb      -0.51938563       2.73287161       1.82611108       0.00018360      -0.00022952      -0.00754567
Sb       1.58778925       6.38260383       1.82611108       0.00029054      -0.00004419      -0.00754567
Sb       3.69479042       2.73297190       1.82672697       0.00041031      -0.00023693      -0.00779168
Sb      -2.62662119       6.38263886       1.82838790       0.00052088      -0.00030067      -0.00820510
Sb      -0.55747423       0.32185895      18.53678740      -0.00071743       0.00041417       0.00260013
Sb       1.59259863       3.94667171      18.44545020      -0.00010106       0.00005838       0.00491479
Sb       3.74368513       0.32222988      18.53687331      -0.00036351      -0.00006390       0.00227260
Sb       5.80700201       3.89599823      18.53687366      -0.00012646       0.00034674       0.00227259
Sb      -0.47241171       0.27274902      12.11396566       0.00032063      -0.00018521      -0.00279881
Sb       1.59175754       3.94715807      12.20462659      -0.00024660       0.00014236      -0.00453938
Sb       3.65494686       0.27253273      12.11420757      -0.00027559      -0.00010375      -0.00337083
Sb      -2.62276291       3.99769696      12.11420716      -0.00004803       0.00029050      -0.00337080
Sb       1.58803849       1.51610334      28.82289640       0.00030460      -0.00010754       0.00808317
Sb       3.69525348       5.16590506      28.82289641       0.00024542      -0.00020997       0.00808317
Sb       5.80228210       1.51621095      28.82279882       0.00011256      -0.00006500       0.00760540
Sb      -0.51964494       5.16617552      28.82339306       0.00069388      -0.00040055       0.00797356
Sb       1.59220367       1.50357776      22.54959376      -0.00013482      -0.00093512      -0.00854028
Sb       3.70818431       5.16856186      22.54959368       0.00074236       0.00058430      -0.00854028
Sb       5.80636401       1.51385494      22.53759514      -0.00016297       0.00009403      -0.00497196
Sb      -0.52330772       5.16829094      22.54955430      -0.00131366       0.00075846      -0.00852567
Cr       1.59248888       3.94673544      15.32517898      -0.00051119       0.00029515       0.00028983
61
Lattice="8.428435589532 0.0 0.0 -4.214217794766 7.299235931425 0.0 0.0 0.0 31.033440841609" Properties=species:S:1:pos:R:3:forces:R:3 branch_id=tetradymite__Sb2Te3__Cr1__ingap_1-7__reused_path_s42 image_index=2 system_id=tetradymite__Sb2Te3__Cr1__ingap_1-7__reused_path_s42 mapping_role=material_transfer_reused_path energy=-227.95984534093435 mlff_rel_energy_eV=-3.1575842950662434 mlff_fmax_eV_A=0.08716754256759776 calculator_label=/home/ycao73/.cache/mace/20231203mace128L1_epoch199model neb_image=2 neb_protocol=mlff_pre_neb pbc="T T T"
Te       2.31328667       1.09965537       3.82212893      -0.00141910       0.00339521       0.00122837
Te       4.41853316       4.74604759       3.82212891      -0.00364990      -0.00046871       0.00122840
Te       6.52254898       1.10036589       3.82504215      -0.00676284       0.00390450       0.00120607
Te       0.20306995       4.74891708       3.83687936      -0.00567706       0.00327765       0.00404748
Te       0.16197535      -0.09351406       6.57225693       0.00430351      -0.00248481       0.00792551
Te       2.27695100       3.55156209       6.60894819       0.00439852      -0.00253965       0.02121358
Te       4.37518769      -0.08023028       6.61036866       0.00587350       0.00151940       0.01589077
Te      -1.95714054       3.55033275       6.61036870       0.00162083      -0.00584659       0.01589059
Te       0.20792215      -0.12004251       0.09618129      -0.00374987       0.00216502      -0.00807318
Te       2.31351634       3.53044999       0.08492815      -0.00485295       0.00280186      -0.00426014
Te       4.42407882      -0.12324600       0.08008801      -0.00601068       0.00290674       0.00003405
Te      -1.89544298       3.52949811       0.08008799      -0.00552263       0.00375205       0.00003406
Te       0.15875694       2.36978896      14.21775751      -0.01679821      -0.02939734       0.02422906
Te       2.24130016       5.97685803      14.21775691       0.01705957       0.02924629       0.02422926
Te       4.36330106       2.34700795      14.28594726       0.00184626      -0.00106610      -0.00110518
Te      -1.94914027       5.99149626      14.21415900       0.01429696      -0.00825454       0.01245292
Te       2.26152440       1.12636240      17.10139736      -0.00171000      -0.00424191       0.00235703
Te       4.36952066       4.77751743      17.10139728       0.00281870       0.00360209       0.00235693
Te       6.47494844       1.12784532      17.10088607       0.00886021      -0.00511529      -0.00461541
Te       0.15549258       4.77638320      17.12860327       0.00173454      -0.00100133       0.00429263
Te       2.23357710       1.10718601      10.37683883      -0.01195283      -0.00059526       0.01098072
Te       4.37215742       4.81131363      10.37683881      -0.00546109       0.01064872       0.01098070
Te       6.49905069       1.11393350      10.37660367       0.00643180      -0.00371349       0.01039428
Te       0.15649523       4.77580776      10.31404798      -0.00474347       0.00273855       0.02704959
Te       0.17428270      -0.10062158      24.60123112      -0.00087552       0.00050560      -0.00933693
Te       2.28241340       3.54840645      24.59925098      -0.00267346       0.00154363       0.00169595
Te       4.38594210      -0.09982663      24.60005842      -0.00006584       0.00148961       0.00294723
Te      -1.93479385       3.55081450      24.60005848      -0.00132284      -0.00068759       0.00294715
Te       0.20630336       2.30992717      27.36990920      -0.00417398       0.00743702       0.00353785
Te       2.31691335       5.96560920      27.36990918      -0.00852759      -0.00010367       0.00353787
Te       4.41796319       2.31544670      27.38607386      -0.00233546       0.00134843      -0.01092135
Te      -1.90699520       5.96716146      27.37436120       0.00193004      -0.00111429       0.00156075
Te       0.16240744       2.33829456      20.85623618       0.00053272       0.00265491      -0.00698089
Te       2.27039798       5.98943958      20.85623624      -0.00203265      -0.00178859      -0.00698091
Te       4.37745259       2.33883494      20.86483305       0.00162874      -0.00094018      -0.00251100
Te      -1.94642223       5.98992408      20.85558742       0.00611130      -0.00352830      -0.00728524
Sb       0.15408107       2.33008364       8.31514930       0.00924906       0.00046316       0.00994052
Sb       2.27334825       6.00076026       8.31514939       0.00422322      -0.00824173       0.00994045
Sb       4.36764736       2.34449878       8.35900123       0.00062668      -0.00036198       0.00150641
Sb      -1.96149610       5.99862983       8.31614348       0.00782078      -0.00451542       0.01003501
Sb       0.20901881       2.31778906       2.09555152      -0.00585901      -0.00119134      -0.00577194
Sb       2.31146365       5.95932868       2.09555152      -0.00189779       0.00566973      -0.00577194
Sb       4.42474092       2.31153500       2.08776546      -0.00727263       0.00419883      -0.01599232
Sb      -1.89228840       5.95867188       2.09169843      -0.01020592       0.00589238      -0.00425509
Sb       0.15132551      -0.08736819      18.83028400       0.01103216      -0.00636930      -0.01045076
Sb       2.25920151       3.56180689      18.84247260       0.00856397      -0.00494428      -0.01113668
Sb       4.36830182      -0.09541294      18.84207354       0.00585642       0.00443009      -0.01197728
Sb       6.48099841       3.56388325      18.84207348      -0.00090820      -0.00728673      -0.01197730
Sb       0.13785815      -0.07958910      12.40690593       0.01645503      -0.00950039      -0.00767997
Sb       2.39449817       3.48369707      12.34731622       0.02023922      -0.01168524       0.01293349
Sb       4.36145601       0.07361110      12.35947693       0.00351952       0.00104027       0.00493133
Sb      -2.09723639       3.48530526      12.35947772       0.00085900      -0.00356822       0.00493145
Sb       2.31378111       1.09536779      29.11759455      -0.00370399       0.00115212      -0.00655012
Sb       4.42249232       4.74776102      29.11759454      -0.00284974       0.00263173      -0.00655014
Sb       6.53258793       1.09456848      29.11053042      -0.00320198       0.00184871      -0.00104617
Sb       0.20981770       4.74501989      29.09219964      -0.00447099       0.00258136       0.01345271
Sb       2.27617673       1.11967913      22.86037526      -0.00307390      -0.00326728      -0.00408570
Sb       4.38263530       4.76817067      22.86037530       0.00129269       0.00429589      -0.00408572
Sb       6.48941451       1.11949398      22.86790860       0.00330338      -0.00190708      -0.01208921
Sb       0.17087293       4.76750394      22.86707340      -0.00490760       0.00283353      -0.01771476
Cr       0.15141346       4.77874150      13.01295966      -0.02381860       0.01375159      -0.08271486
61
Lattice="8.428435589532 0.0 0.0 -4.214217794766 7.299235931425 0.0 0.0 0.0 31.033440841609" Properties=species:S:1:pos:R:3:forces:R:3 branch_id=tetradymite__Sb2Te3__Cr1__ingap_1-7__reused_path_s42 image_index=3 system_id=tetradymite__Sb2Te3__Cr1__ingap_1-7__reused_path_s42 mapping_role=material_transfer_reused_path energy=-227.96036574688992 mlff_rel_energy_eV=-3.158104701021813 mlff_fmax_eV_A=0.05150030893555289 calculator_label=/home/ycao73/.cache/mace/20231203mace128L1_epoch199model neb_image=3 neb_protocol=mlff_pre_neb pbc="T T T"
Te       2.79830255       0.82023810       4.01245591      -0.00032933       0.00068430       0.00791601
Te       4.90302355       4.46572011       4.01245586      -0.00075729      -0.00005700       0.00791604
Te       7.00808077       0.82004397       4.01208863      -0.00136734       0.00078943       0.00757731
Te       0.68914530       4.46828138       4.01990543      -0.00099032       0.00057170       0.00772816
Te       0.70245523      -0.40556029       6.81431019      -0.00317219       0.00183133      -0.01254762
Te       2.81921099       3.23848817       6.85004799      -0.00351162       0.00202722      -0.01430469
Te       4.91736237      -0.39588104       6.84954759      -0.00287555       0.00062920      -0.01418425
Te      -1.41269156       3.23862113       6.84954757      -0.00198283       0.00217539      -0.01418424
Te       0.68399956      -0.39490598       0.26647601      -0.00005595       0.00003236       0.00165275
Te       2.79032889       3.25516209       0.26214123      -0.00024281       0.00014019       0.00157856
Te       4.89803942      -0.39585249       0.26290383       0.00005218      -0.00017221       0.00079532
Te      -1.42237860       3.25533936       0.26290385       0.00017528       0.00004095       0.00079531
Te       0.69281645       2.03990605      14.44707708      -0.00032777       0.00806525      -0.00805611
Te       2.79401683       5.67929021      14.44707654      -0.00714871      -0.00374889      -0.00805615
Te       4.90359380       2.03506950      14.51116169       0.00040235      -0.00023228       0.01080985
Te      -1.40200030       5.67560465      14.44906009       0.00463259      -0.00267470      -0.00781863
Te       2.77183780       0.82837414      17.26129879       0.00270773      -0.00051883      -0.00109039
Te       4.88274271       4.48456710      17.26129864       0.00180329      -0.00208540      -0.00109036
Te       6.99293330       0.82878654      17.26073688       0.00090815      -0.00052418      -0.00105687
Te       0.66889946       4.47996754      17.28523095       0.00161270      -0.00093102       0.00774448
Te       2.78135240       0.79488519      10.61782496       0.00065895       0.00226191      -0.00442769
Te       4.91650550       4.49307667      10.61782494      -0.00162952      -0.00170195      -0.00442772
Te       7.05287503       0.79418289      10.61740608      -0.00518670       0.00299440      -0.00458627
Te       0.70067847       4.46162338      10.55987435      -0.00113338       0.00065417      -0.00771608
Te       0.66529439      -0.38410750      24.74435820       0.00220859      -0.00127491       0.01590659
Te       2.77244109       3.26548864      24.74142253       0.00141895      -0.00081908       0.01693751
Te       4.87946806      -0.38368550      24.74187037       0.00202531      -0.00210707       0.01648230
Te      -1.44220206       3.26533767      24.74187042       0.00283765      -0.00070017       0.01648230
Te       0.67884452       2.04066069      27.54794808       0.00075960      -0.00055931      -0.00653352
Te       2.78637545       5.69100967      27.54794808       0.00086423      -0.00037816      -0.00653350
Te       4.89318305       2.04107831      27.54979443       0.00067724      -0.00039094      -0.00543141
Te      -1.42834357       5.69081173      27.54725099       0.00045462      -0.00026248      -0.00562687
Te       0.66482659       2.05025796      20.99916900       0.00211120      -0.00239740       0.00842384
Te       2.77105447       5.69834996      20.99916908       0.00313197      -0.00062945       0.00842382
Te       4.87908420       2.04921767      21.00919692       0.00249615      -0.00144098       0.00698032
Te      -1.44180775       5.69858463      20.99827518       0.00151600      -0.00087516       0.00957700
Sb       0.70456512       2.01345361       8.55770351      -0.00253558       0.00239979      -0.01068451
Sb       2.82279993       5.68234216       8.55770364      -0.00334623       0.00099563      -0.01068451
Sb       4.91930063       2.02600170       8.58558908      -0.00250344       0.00144516      -0.00264632
Sb      -1.41377649       5.68240382       8.55679436      -0.00315726       0.00182258      -0.01021141
Sb       0.68716313       2.03852803       2.27824532      -0.00046704      -0.00016813       0.00359715
Sb       2.79238297       5.68487408       2.27824530      -0.00008794       0.00048847       0.00359715
Sb       4.90126333       2.03641462       2.27237888      -0.00042059       0.00024280       0.00286567
Sb      -1.41827825       5.68500198       2.27891714      -0.00068775       0.00039702       0.00334008
Sb       0.66543919      -0.38419196      18.99324392       0.00136480      -0.00078782       0.00300615
Sb       2.77011036       3.26683348      18.99467468       0.00193470      -0.00111688       0.00598223
Sb       4.87974482      -0.38767830      18.99398265       0.00224385      -0.00094327       0.00639075
Sb       6.98982905       3.26709316      18.99398254       0.00193896      -0.00147141       0.00639077
Sb       0.70315105      -0.40596115      12.61892773      -0.00249840       0.00144235       0.01236992
Sb       2.93781449       3.17001323      12.58870407       0.00814224      -0.00470105      -0.00965003
Sb       4.91609613      -0.24657318      12.59366709      -0.00228041       0.01100330      -0.01073841
Sb      -1.54262872       3.16506483      12.59366805      -0.01066934      -0.00352688      -0.01073844
Sb       2.78726168       0.82298665      29.28504725       0.00021200      -0.00048672      -0.00029775
Sb       4.89512152       4.47390528      29.28504725       0.00052756       0.00005981      -0.00029777
Sb       7.00253422       0.82324480      29.28568235       0.00106919      -0.00061724      -0.00055662
Sb       0.68071290       4.47314834      29.28250329       0.00051795      -0.00029901      -0.00032282
Sb       2.77034033       0.83322836      23.00759178       0.00256034      -0.00112759       0.01101084
Sb       4.87779055       4.48343754      23.00759182       0.00225687      -0.00165329       0.01101083
Sb       6.98532560       0.83317940      23.00795834       0.00192640      -0.00111201       0.01080295
Sb       0.66335009       4.48317193      23.00744648       0.00228026      -0.00131634       0.01189462
Cr       0.69676214       4.46388422      13.25054183      -0.00106455       0.00061450      -0.05148564
61
Lattice="8.428435589532 0.0 0.0 -4.214217794766 7.299235931425 0.0 0.0 0.0 31.033440841609" Properties=species:S:1:pos:R:3:forces:R:3 branch_id=tetradymite__Sb2Te3__Cr1__ingap_1-7__reused_path_s42 image_index=4 system_id=tetradymite__Sb2Te3__Cr1__ingap_1-7__reused_path_s42 mapping_role=material_transfer_reused_path energy=-225.46993034923182 mlff_rel_energy_eV=-0.6676693033637093 mlff_fmax_eV_A=1.0771270203970924 calculator_label=/home/ycao73/.cache/mace/20231203mace128L1_epoch199model neb_image=4 neb_protocol=mlff_pre_neb pbc="T T T"
Te       2.10098864       1.21300635       3.52044537       0.01023569       0.00591728       0.87609211
Te       4.21421783       4.87322669       3.52044537      -0.00000009      -0.01182230       0.87608631
Te       6.32744702       1.21300635       3.52044537      -0.01023582       0.00591724       0.87609220
Te       0.00000000       4.86615959       3.51368646       0.00000001      -0.00000301       0.86826834
Te       0.00000000       0.00000000       6.80558913       0.00000001       0.00000552      -0.84700417
Te       2.12314963       3.64035858       6.77353864      -0.26855240       0.15504559      -1.03151969
Te       4.21421783       0.01852224       6.77353864      -0.00000007      -0.31009289      -1.03152558
Te      -2.12314963       3.64035858       6.77353864       0.26855258       0.15504566      -1.03151982
Te       0.00000000       0.00000000       0.01304124       0.00000007       0.00000655      -0.05336582
Te       2.10832252       3.64891902       0.00155926       0.01266378      -0.00731292       0.00391933
Te       4.21421783       0.00140136       0.00155926      -0.00000008       0.01462937       0.00391885
Te      -2.10832252       3.64891902       0.00155926      -0.01266367      -0.00731290       0.00391934
Te       0.00000000       2.28878158      14.22382394       0.00000005      -0.29246490       0.26305177
Te       2.23207485       6.15484860      14.22382394       0.25328683       0.14623017       0.26305383
Te       4.21421783       2.43307980      13.80034036      -0.00000013       0.00000295       0.94143619
Te      -2.23207485       6.15484860      14.22382394      -0.25328671       0.14623021       0.26305377
Te       2.10799020       1.21704871      17.17526645       0.04321641       0.02495427      -0.82663282
Te       4.21421783       4.86514198      17.17526645      -0.00000007      -0.04990931      -0.82663904
Te       6.32044546       1.21704871      17.17526645      -0.04321654       0.02495427      -0.82663292
Te       0.00000000       4.86615959      16.93861115       0.00000011      -0.00000722      -0.18658762
Te       2.07669424       1.19897997      10.28149754       0.31074374       0.17941443       0.31016648
Te       4.21421783       4.90127946      10.28149754      -0.00000008      -0.35882547       0.31016340
Te       6.35174142       1.19897997      10.28149754      -0.31074399       0.17941447       0.31016645
Te       0.00000000       4.86615959      10.26823231       0.00000005      -0.00000496       0.36067044
Te       0.00000000       0.00000000      24.24482848       0.00000010       0.00000625       0.69763607
Te       2.11687289       3.64398246      24.19441993      -0.00076016       0.00043976       0.90983726
Te       4.21421783       0.01127447      24.19441993      -0.00000007      -0.00087064       0.90984284
Te      -2.11687289       3.64398246      24.19441993       0.00076023       0.00043975       0.90983737
Te       0.00000000       2.43687328      27.52586254       0.00000011      -0.00913515      -0.93842761
Te       2.10382366       6.08080275      27.52586254       0.00791052       0.00456016      -0.93843301
Te       4.21421783       2.43307980      27.54138885      -0.00000007      -0.00000083      -1.02073172
Te      -2.10382366       6.08080275      27.52586254      -0.00791044       0.00456024      -0.93843311
Te       0.00000000       2.42990033      20.68811130       0.00000012       0.10842575      -0.09752292
Te       2.10986241       6.08428923      20.68811130      -0.09389867      -0.05421892      -0.09752260
Te       4.21421783       2.43307980      20.72632209      -0.00000009       0.00000116      -0.42085855
Te      -2.10986241       6.08428923      20.68811130       0.09389878      -0.05421887      -0.09752261
Sb       0.00000000       2.43230122       8.43536613       0.00000011      -0.09868686       0.14652982
Sb       2.10778318       6.08308878       8.43536613       0.08546621       0.04933769       0.14653280
Sb       4.21421783       2.43307980       8.19671022      -0.00000018       0.00000136       0.81890349
Sb      -2.10778318       6.08308878       8.43536613      -0.08546611       0.04933783       0.14653279
Sb       0.00000000       2.42671799       1.90473875       0.00000012       0.03481444      -0.25198414
Sb       2.11261840       6.08588040       1.90473875      -0.03014646      -0.01741450      -0.25198364
Sb       4.21421783       2.43307980       1.92089496      -0.00000008       0.00000439      -0.27281397
Sb      -2.11261840       6.08588040       1.90473875       0.03014657      -0.01741439      -0.25198367
Sb       0.00000000       0.00000000      18.81923863       0.00000009       0.00000936       0.23833462
Sb       2.10388635       3.65148025      18.72474621      -0.03303767       0.01907003       0.35931966
Sb       4.21421783      -0.00372110      18.72474621      -0.00000005      -0.03814029       0.35931898
Sb       6.32454930       3.65148025      18.72474621       0.03303762       0.01907004       0.35931972
Sb       0.00000000       0.00000000      11.88040369       0.00000014       0.00000595       0.41571453
Sb       1.97849168       3.72387690      12.48317439      -0.18517323       0.10690905      -0.26562339
Sb       4.21421783      -0.14851441      12.48317439      -0.00000010      -0.21381496      -0.26562706
Sb      -1.97849168       3.72387690      12.48317439       0.18517332       0.10690913      -0.26562342
Sb       2.10909386       1.21768591      29.12053626      -0.03699608      -0.02135163       0.34564400
Sb       4.21421783       4.86386757      29.12053626      -0.00000016       0.04271395       0.34564215
Sb       6.31934179       1.21768591      29.12053626       0.03699600      -0.02135173       0.34564399
Sb       0.00000000       4.86615959      29.12384287       0.00000007      -0.00000546       0.32749665
Sb       2.10063901       1.21280450      22.57836874      -0.05315197      -0.03068145      -0.15491857
Sb       4.21421783       4.87363039      22.57836874      -0.00000013       0.06136712      -0.15492005
Sb       6.32779664       1.21280450      22.57836874       0.05315191      -0.03068146      -0.15491863
Sb       0.00000000       4.86615959      22.63293601       0.00000003      -0.00000822      -0.29886312
Cr       0.00000000       4.86615959      14.35116463      -0.00000002      -0.00000016      -0.51200629
