
     Program PWSCF v.7.3.1 starts on 13Sep2026 at 16:20: 4 

     This program is part of the open-source Quantum ESPRESSO suite
     for quantum simulation of materials; please cite
         "P. Giannozzi et al., J. Phys.:Condens. Matter 21 395502 (2009);
         "P. Giannozzi et al., J. Phys.:Condens. Matter 29 465901 (2017);
         "P. Giannozzi et al., J. Chem. Phys. 152 154105 (2020);
          URL http://www.quantum-espresso.org", 
     in publications or presentations arising from this work. More details at
     http://www.quantum-espresso.org/quote

     Parallel version (MPI), running on     4 processors

     MPI processes distributed on     1 nodes
     132846 MiB available memory on the printing compute node when the environment starts
 
     Reading input from scf.in

     Current dimensions of program PWSCF are:
     Max number of different atomic species (ntypx) = 10
     Max number of k-points (npk) =  40000
     Max angular momentum in pseudopotentials (lmaxx) =  4
 
     K-points division:     npool     =       4
     Subspace diagonalization in iterative solution of the eigenvalue problem:
     a serial algorithm will be used

 
     G-vector sticks info
     --------------------
     sticks:   dense  smooth     PW     G-vecs:    dense   smooth      PW
     Sum       10075   10075   2589              3207259  3207259  422537
 
     Using Slab Decomposition
 


     bravais-lattice index     =            0
     lattice parameter (alat)  =      32.3306  a.u.
     unit-cell volume          =   40541.4734 (a.u.)^3
     number of atoms/cell      =           81
     number of atomic types    =            3
     number of electrons       =      1262.00
     number of Kohn-Sham states=          757
     kinetic-energy cutoff     =      70.0000  Ry
     charge density cutoff     =     280.0000  Ry
     scf convergence threshold =      1.0E-06
     mixing beta               =       0.2000
     number of iterations used =            8  local-TF  mixing
     Exchange-correlation= PBE
                           (   1   4   3   4   0   0   0)

     celldm(1)=  32.330568  celldm(2)=   0.000000  celldm(3)=   0.000000
     celldm(4)=   0.000000  celldm(5)=   0.000000  celldm(6)=   0.000000

     crystal axes: (cart. coord. in units of alat)
               a(1) = (   1.000000   0.000000   0.000000 )  
               a(2) = (  -0.249533   0.432744   0.000000 )  
               a(3) = (   0.005235   0.003019   2.772225 )  

     reciprocal axes: (cart. coord. in units 2 pi/alat)
               b(1) = (  1.000000  0.576630 -0.002516 )  
               b(2) = (  0.000000  2.310835 -0.002517 )  
               b(3) = (  0.000000  0.000000  0.360721 )  


     PseudoPot. # 1 for Cr read from file:
     /home/ycao73/ONCVPseudoPack/SG15_v1.2/UPF/PBE/Cr_PBE_FR.SG15v1.2.UPF
     MD5 check sum: 19291ff833b3d067f23df56d5404fde6
     Pseudo is Norm-conserving, Zval = 14.0
     Generated using ONCVPSP code by D. R. Hamann
     Using radial grid of 1490 points,  6 beta functions with: 
                l(1) =   0
                l(2) =   0
                l(3) =   1
                l(4) =   1
                l(5) =   2
                l(6) =   2

     PseudoPot. # 2 for Sb read from file:
     /home/ycao73/ONCVPseudoPack/SG15_v1.2/UPF/PBE/Sb_PBE_FR.SG15v1.2.UPF
     MD5 check sum: 0e999992813bf262e14e71941f404476
     Pseudo is Norm-conserving, Zval = 15.0
     Generated using ONCVPSP code by D. R. Hamann
     Using radial grid of 1468 points,  6 beta functions with: 
                l(1) =   0
                l(2) =   0
                l(3) =   1
                l(4) =   1
                l(5) =   2
                l(6) =   2

     PseudoPot. # 3 for Te read from file:
     /home/ycao73/ONCVPseudoPack/SG15_v1.2/UPF/PBE/Te_PBE_FR.SG15v1.2.UPF
     MD5 check sum: 7c59b7da87cf03000ce4d32f994025eb
     Pseudo is Norm-conserving, Zval = 16.0
     Generated using ONCVPSP code by D. R. Hamann
     Using radial grid of 1324 points,  6 beta functions with: 
                l(1) =   0
                l(2) =   0
                l(3) =   1
                l(4) =   1
                l(5) =   2
                l(6) =   2

     atomic species   valence    mass     pseudopotential
     Cr               14.00    51.99600     Cr( 1.00)
     Sb               15.00   121.76000     Sb( 1.00)
     Te               16.00   127.60000     Te( 1.00)

     No symmetry found


                                    s                        frac. trans.

      isym =  1     identity                                     

 cryst.   s( 1) = (     1          0          0      )
                  (     0          1          0      )
                  (     0          0          1      )

 cart.    s( 1) = (  1.0000000  0.0000000 -0.0000000 )
                  (  0.0000000  1.0000000 -0.0000000 )
                  (  0.0000000  0.0000000  1.0000000 )


   Cartesian axes

     site n.     atom                  positions (alat units)
         1        Te     tau(   1) = (   0.7522379   0.4337652   0.8771282  )
         2        Te     tau(   2) = (   0.1271301   0.2174417   0.8772535  )
         3        Te     tau(   3) = (   0.0023428   0.4338498   0.8772535  )
         4        Te     tau(   4) = (   0.8770532   0.2174215   0.8769434  )
         5        Te     tau(   5) = (   0.0026058   0.1452560   1.3026119  )
         6        Te     tau(   6) = (   0.1276008   0.3618948   1.3028304  )
         7        Te     tau(   7) = (   0.2530209   0.1458999   1.3031617  )
         8        Te     tau(   8) = (  -0.1225106   0.3622350   1.3026120  )
         9        Te     tau(   9) = (   0.1265975   0.0730004   1.4671220  )
        10        Te     tau(  10) = (   0.2524982   0.2911976   1.4660520  )
        11        Te     tau(  11) = (   0.3785113   0.0726636   1.4660518  )
        12        Te     tau(  12) = (  -0.0015906   0.2873987   1.4655461  )
        13        Te     tau(  13) = (   0.1273437   0.0734305   1.0892674  )
        14        Te     tau(  14) = (   0.2524064   0.2896703   1.0898396  )
        15        Te     tau(  15) = (   0.3771437   0.0733489   1.0898396  )
        16        Te     tau(  16) = (   0.0023525   0.2896729   1.0898733  )
        17        Te     tau(  17) = (  -0.0054763  -0.0031582   1.9004893  )
        18        Te     tau(  18) = (   0.1305033   0.2186881   1.8975481  )
        19        Te     tau(  19) = (   0.2546449   0.0034001   1.8975483  )
        20        Te     tau(  20) = (  -0.1206437   0.2187488   1.8952420  )
        21        Te     tau(  21) = (   0.0059195   0.1461102   1.6841820  )
        22        Te     tau(  22) = (   0.1248018   0.3602800   1.6767862  )
        23        Te     tau(  23) = (   0.2535472   0.1462030   1.6662901  )
        24        Te     tau(  24) = (  -0.1201114   0.3646750   1.6841819  )
        25        Sb     tau(  25) = (   0.0024072   0.1454937   0.9759771  )
        26        Sb     tau(  26) = (   0.1276538   0.3619258   0.9761376  )
        27        Sb     tau(  27) = (   0.2524693   0.1455822   0.9762672  )
        28        Sb     tau(  28) = (  -0.1224047   0.3619447   0.9759771  )
        29        Sb     tau(  29) = (   0.0025880   0.0014923   1.5707257  )
        30        Sb     tau(  30) = (   0.1258680   0.2185043   1.5643979  )
        31        Sb     tau(  31) = (   0.2521633  -0.0005193   1.5643976  )
        32        Sb     tau(  32) = (   0.3809680   0.2196787   1.5618138  )
        33        Sb     tau(  33) = (   0.7529044   0.4341490   1.2029567  )
        34        Sb     tau(  34) = (   0.1274948   0.2176511   1.2036112  )
        35        Sb     tau(  35) = (   0.2522400   0.0013160   1.2036112  )
        36        Sb     tau(  36) = (   0.8775413   0.2177024   1.2033194  )
        37        Sb     tau(  37) = (   0.1310158   0.0755472   1.8020876  )
        38        Sb     tau(  38) = (   0.2456775   0.3061424   1.7925783  )
        39        Sb     tau(  39) = (   0.3880310   0.0592710   1.7925764  )
        40        Sb     tau(  40) = (   0.0024892   0.2897512   1.7972346  )
        41        Te     tau(  41) = (   0.2520881   0.4336788   0.8772275  )
        42        Te     tau(  42) = (   0.6268826   0.2172821   0.8771208  )
        43        Te     tau(  43) = (   0.5020808   0.4337156   0.8771208  )
        44        Te     tau(  44) = (   0.3769837   0.2173814   0.8771068  )
        45        Te     tau(  45) = (   0.5032164   0.1459909   1.3028189  )
        46        Te     tau(  46) = (   0.6286465   0.3624977   1.3027789  )
        47        Te     tau(  47) = (   0.7529075   0.1458344   1.3027406  )
        48        Te     tau(  48) = (   0.3784312   0.3623953   1.3028189  )
        49        Te     tau(  49) = (   0.6279666   0.0737899   1.4690631  )
        50        Te     tau(  50) = (   0.7537598   0.2900850   1.4716806  )
        51        Te     tau(  51) = (   0.8781803   0.0743123   1.4716808  )
        52        Te     tau(  52) = (   0.5065069   0.2920685   1.4657367  )
        53        Te     tau(  53) = (   0.6270748   0.0732754   1.0896271  )
        54        Te     tau(  54) = (   0.7523712   0.2896060   1.0892239  )
        55        Te     tau(  55) = (   0.8770704   0.0733505   1.0892240  )
        56        Te     tau(  56) = (   0.5024831   0.2897481   1.0895306  )
        57        Te     tau(  57) = (   0.5076726   0.0044275   1.9021712  )
        58        Te     tau(  58) = (   0.6279438   0.2169865   1.8955665  )
        59        Te     tau(  59) = (   0.7518896   0.0020375   1.8955665  )
        60        Te     tau(  60) = (   0.3810950   0.2197561   1.9133260  )
        61        Te     tau(  61) = (   0.5011632   0.1468746   1.6822276  )
        62        Te     tau(  62) = (   0.6296541   0.3630790   1.6821288  )
        63        Te     tau(  63) = (   0.7519149   0.1452622   1.6824580  )
        64        Te     tau(  64) = (   0.3781672   0.3601760   1.6822275  )
        65        Sb     tau(  65) = (   0.5023165   0.1455627   0.9760736  )
        66        Sb     tau(  66) = (   0.6274894   0.3618310   0.9761423  )
        67        Sb     tau(  67) = (   0.7524104   0.1455482   0.9758905  )
        68        Sb     tau(  68) = (   0.3776096   0.3618316   0.9760737  )
        69        Sb     tau(  69) = (   0.5030695   0.0017701   1.5656686  )
        70        Sb     tau(  70) = (   0.6286866   0.2177758   1.5688061  )
        71        Sb     tau(  71) = (   0.7529446   0.0022852   1.5688062  )
        72        Sb     tau(  72) = (  -0.1216694   0.2181576   1.5720632  )
        73        Sb     tau(  73) = (   0.5025289   0.0014581   1.2036323  )
        74        Sb     tau(  74) = (   0.6278062   0.2178835   1.2034689  )
        75        Sb     tau(  75) = (   0.7525971   0.0014690   1.2034689  )
        76        Sb     tau(  76) = (   0.3777101   0.2177998   1.2036967  )
        77        Sb     tau(  77) = (   0.6280281   0.0738253   1.7971637  )
        78        Sb     tau(  78) = (   0.7522786   0.2911339   1.7983201  )
        79        Sb     tau(  79) = (   0.8783466   0.0725047   1.7983200  )
        80        Sb     tau(  80) = (   0.5025411   0.2897819   1.7979415  )
        81        Cr     tau(  81) = (   0.3016367   0.1739308   1.8022432  )

     --------------------------------------------
     DFT-D3 Dispersion Correction (3-body terms):
     --------------------------------------------
       Reference C6 values for interpolation: 

         atom   Coordination number   C6
         Cr         0.000          1381.48
         Cr         1.827           571.38
         Cr        10.619           306.69
         Sb         0.000           985.88
         Sb         0.975           946.94
         Sb         1.952           896.11
         Sb         2.932           834.76
         Te         0.000           851.07
         Te         0.981           850.20
         Te         1.964           837.16

       Values used:

         atom   Coordination number  R0_AB[au]  C6      C8
         Te         2.767            3.676    837.16  84978.10
         Te         2.768            3.676    837.16  84978.10
         Te         2.768            3.676    837.16  84978.10
         Te         2.765            3.676    837.16  84978.11
         Te         3.146            3.676    837.16  84978.06
         Te         3.146            3.676    837.16  84978.06
         Te         3.134            3.676    837.16  84978.06
         Te         3.146            3.676    837.16  84978.06
         Te         3.132            3.676    837.16  84978.06
         Te         3.152            3.676    837.16  84978.06
         Te         3.152            3.676    837.16  84978.06
         Te         3.166            3.676    837.16  84978.06
         Te         4.544            3.676    837.16  84978.05
         Te         4.532            3.676    837.16  84978.05
         Te         4.532            3.676    837.16  84978.05
         Te         4.534            3.676    837.16  84978.05
         Te         2.645            3.676    837.16  84978.19
         Te         2.863            3.676    837.16  84978.08
         Te         2.863            3.676    837.16  84978.08
         Te         2.775            3.676    837.16  84978.10
         Te         4.430            3.676    837.16  84978.05
         Te         4.819            3.676    837.16  84978.05
         Te         4.717            3.676    837.16  84978.05
         Te         4.430            3.676    837.16  84978.05
         Sb         4.952            3.794    834.76  89580.53
         Sb         4.948            3.794    834.76  89580.53
         Sb         4.961            3.794    834.76  89580.53
         Sb         4.952            3.794    834.76  89580.53
         Sb         4.984            3.794    834.76  89580.53
         Sb         5.058            3.794    834.76  89580.53
         Sb         5.058            3.794    834.76  89580.53
         Sb         4.959            3.794    834.76  89580.53
         Sb         4.956            3.794    834.76  89580.53
         Sb         4.942            3.794    834.76  89580.53
         Sb         4.942            3.794    834.76  89580.53
         Sb         4.946            3.794    834.76  89580.53
         Sb         4.718            3.794    834.76  89580.53
         Sb         5.386            3.794    834.76  89580.53
         Sb         5.385            3.794    834.76  89580.53
         Sb         4.919            3.794    834.76  89580.53
         Te         2.769            3.676    837.16  84978.10
         Te         2.768            3.676    837.16  84978.10
         Te         2.768            3.676    837.16  84978.10
         Te         2.768            3.676    837.16  84978.10
         Te         3.137            3.676    837.16  84978.06
         Te         3.121            3.676    837.16  84978.06
         Te         3.093            3.676    837.16  84978.06
         Te         3.137            3.676    837.16  84978.06
         Te         3.135            3.676    837.16  84978.06
         Te         3.107            3.676    837.16  84978.06
         Te         3.107            3.676    837.16  84978.06
         Te         3.144            3.676    837.16  84978.06
         Te         4.530            3.676    837.16  84978.05
         Te         4.547            3.676    837.16  84978.05
         Te         4.547            3.676    837.16  84978.05
         Te         4.538            3.676    837.16  84978.05
         Te         2.858            3.676    837.16  84978.08
         Te         2.809            3.676    837.16  84978.09
         Te         2.809            3.676    837.16  84978.09
         Te         2.652            3.676    837.16  84978.18
         Te         4.455            3.676    837.16  84978.05
         Te         4.506            3.676    837.16  84978.05
         Te         4.490            3.676    837.16  84978.05
         Te         4.455            3.676    837.16  84978.05
         Sb         4.951            3.794    834.76  89580.53
         Sb         4.961            3.794    834.76  89580.53
         Sb         4.956            3.794    834.76  89580.53
         Sb         4.951            3.794    834.76  89580.53
         Sb         4.866            3.794    834.76  89580.53
         Sb         4.940            3.794    834.76  89580.53
         Sb         4.940            3.794    834.76  89580.53
         Sb         4.943            3.794    834.76  89580.53
         Sb         4.938            3.794    834.76  89580.53
         Sb         4.943            3.794    834.76  89580.53
         Sb         4.943            3.794    834.76  89580.53
         Sb         4.940            3.794    834.76  89580.53
         Sb         4.934            3.794    834.76  89580.53
         Sb         4.875            3.794    834.76  89580.53
         Sb         4.875            3.794    834.76  89580.53
         Sb         4.792            3.794    834.76  89580.53
         Cr         4.679            3.252    571.38  52732.00

         Molecular C6 ( Ry / a.u.^6 ) =   5460825.80


   Crystallographic axes

     site n.     atom                  positions (cryst. coord.)
         1        Te     tau(   1) = (  1.0001526  1.0001525  0.3163986  )
         2        Te     tau(   2) = (  0.2503059  0.5002643  0.3164438  )
         3        Te     tau(   3) = (  0.2503060  1.0003477  0.3164438  )
         4        Te     tau(   4) = (  1.0002182  0.5002184  0.3163320  )
         5        Te     tau(   5) = (  0.0830869  0.3323846  0.4698796  )
         6        Te     tau(   6) = (  0.3330017  0.8330007  0.4699584  )
         7        Te     tau(   7) = (  0.3338719  0.3338711  0.4700779  )
         8        Te     tau(   8) = (  0.0830870  0.8337872  0.4698796  )
         9        Te     tau(   9) = (  0.1650000  0.1649999  0.5292218  )
        10        Te     tau(  10) = (  0.4167222  0.6692201  0.5288359  )
        11        Te     tau(  11) = (  0.4167222  0.1642243  0.5288358  )
        12        Te     tau(  12) = (  0.1604442  0.6604429  0.5286534  )
        13        Te     tau(  13) = (  0.1669449  0.1669446  0.3929217  )
        14        Te     tau(  14) = (  0.4166965  0.6666376  0.3931281  )
        15        Te     tau(  15) = (  0.4166964  0.1667545  0.3931281  )
        16        Te     tau(  16) = (  0.1666440  0.6666436  0.3931403  )
        17        Te     tau(  17) = ( -0.0120796 -0.0120807  0.6855465  )
        18        Te     tau(  18) = (  0.2518304  0.5005769  0.6844856  )
        19        Te     tau(  19) = (  0.2518306  0.0030818  0.6844857  )
        20        Te     tau(  20) = (  0.0007242  0.5007229  0.6836538  )
        21        Te     tau(  21) = (  0.0859330  0.3333982  0.6075199  )
        22        Te     tau(  22) = (  0.3283306  0.8283281  0.6048521  )
        23        Te     tau(  23) = (  0.3336592  0.3336578  0.6010660  )
        24        Te     tau(  24) = (  0.0859330  0.8384655  0.6075199  )
        25        Sb     tau(  25) = (  0.0838473  0.3337558  0.3520555  )
        26        Sb     tau(  26) = (  0.3338946  0.8338943  0.3521134  )
        27        Sb     tau(  27) = (  0.3339596  0.3339596  0.3521602  )
        28        Sb     tau(  28) = (  0.0838475  0.8339385  0.3520555  )
        29        Sb     tau(  29) = ( -0.0005040 -0.0005044  0.5665939  )
        30        Sb     tau(  30) = (  0.2479275  0.5009904  0.5643113  )
        31        Sb     tau(  31) = (  0.2479273 -0.0051369  0.5643112  )
        32        Sb     tau(  32) = (  0.5037112  0.5037109  0.5633791  )
        33        Sb     tau(  33) = (  1.0002205  1.0002195  0.4339318  )
        34        Sb     tau(  34) = (  0.2499702  0.4999269  0.4341679  )
        35        Sb     tau(  35) = (  0.2499701  0.0000121  0.4341679  )
        36        Sb     tau(  36) = (  1.0000469  0.5000461  0.4340627  )
        37        Sb     tau(  37) = (  0.1700439  0.1700420  0.6500510  )
        38        Sb     tau(  38) = (  0.4176976  0.7029336  0.6466208  )
        39        Sb     tau(  39) = (  0.4176976  0.1324544  0.6466201  )
        40        Sb     tau(  40) = (  0.1650459  0.6650444  0.6483004  )
        41        Te     tau(  41) = (  0.4999527  0.9999526  0.3164345  )
        42        Te     tau(  42) = (  0.7499668  0.4998958  0.3163960  )
        43        Te     tau(  43) = (  0.7499669  1.0000378  0.3163960  )
        44        Te     tau(  44) = (  0.5001251  0.5001252  0.3163909  )
        45        Te     tau(  45) = (  0.5841207  0.3340823  0.4699542  )
        46        Te     tau(  46) = (  0.8343952  0.8343940  0.4699398  )
        47        Te     tau(  47) = (  0.8337218  0.3337208  0.4699260  )
        48        Te     tau(  48) = (  0.5841208  0.8341572  0.4699542  )
        49        Te     tau(  49) = (  0.6668194  0.1668193  0.5299220  )
        50        Te     tau(  50) = (  0.9173281  0.6666351  0.5308662  )
        51        Te     tau(  51) = (  0.9173277  0.1680198  0.5308663  )
        52        Te     tau(  52) = (  0.6712339  0.6712335  0.5287221  )
        53        Te     tau(  53) = (  0.6665858  0.1665854  0.3930515  )
        54        Te     tau(  54) = (  0.9166257  0.6664906  0.3929060  )
        55        Te     tau(  55) = (  0.9166256  0.1667598  0.3929060  )
        56        Te     tau(  56) = (  0.6668188  0.6668182  0.3930167  )
        57        Te     tau(  57) = (  0.5054392  0.0054444  0.6861532  )
        58        Te     tau(  58) = (  0.7482948  0.4966498  0.6837708  )
        59        Te     tau(  59) = (  0.7482946 -0.0000618  0.6837708  )
        60        Te     tau(  60) = (  0.5029983  0.5030051  0.6901770  )
        61        Te     tau(  61) = (  0.5816224  0.3351696  0.6068150  )
        62        Te     tau(  62) = (  0.8347834  0.8347825  0.6067793  )
        63        Te     tau(  63) = (  0.8314438  0.3314430  0.6068981  )
        64        Te     tau(  64) = (  0.5816223  0.8280740  0.6068149  )
        65        Sb     tau(  65) = (  0.5837961  0.3339151  0.3520903  )
        66        Sb     tau(  66) = (  0.8336756  0.8336752  0.3521151  )
        67        Sb     tau(  67) = (  0.8338821  0.3338820  0.3520243  )
        68        Sb     tau(  68) = (  0.5837963  0.8336768  0.3520904  )
        69        Sb     tau(  69) = (  0.5001504  0.0001504  0.5647697  )
        70        Sb     tau(  70) = (  0.7503150  0.4992960  0.5659014  )
        71        Sb     tau(  71) = (  0.7503147  0.0013326  0.5659015  )
        72        Sb     tau(  72) = (  0.0001709  0.5001701  0.5670763  )
        73        Sb     tau(  73) = (  0.5003409  0.0003403  0.4341755  )
        74        Sb     tau(  74) = (  0.7504160  0.5004643  0.4341166  )
        75        Sb     tau(  75) = (  0.7504159  0.0003661  0.4341166  )
        76        Sb     tau(  76) = (  0.5002711  0.5002703  0.4341988  )
        77        Sb     tau(  77) = (  0.6660757  0.1660754  0.6482748  )
        78        Sb     tau(  78) = (  0.9156299  0.6682370  0.6486920  )
        79        Sb     tau(  79) = (  0.9156298  0.1630209  0.6486919  )
        80        Sb     tau(  80) = (  0.6651138  0.6651137  0.6485554  )
        81        Cr     tau(  81) = (  0.3973954  0.3973901  0.6501071  )

     number of k points=     4  Marzari-Vanderbilt smearing, width (Ry)=  0.0100
                       cart. coord. in units 2pi/alat
        k(    1) = (   0.2500000   0.7218662   0.0889221), wk =   0.5000000
        k(    2) = (   0.2500000   0.7218662  -0.0914385), wk =   0.5000000
        k(    3) = (   0.2500000  -0.4335514   0.0901803), wk =   0.5000000
        k(    4) = (   0.2500000  -0.4335514  -0.0901802), wk =   0.5000000

                       cryst. coord.
        k(    1) = (   0.2500000   0.2500000   0.2500000), wk =   0.5000000
        k(    2) = (   0.2500000   0.2500000  -0.2500000), wk =   0.5000000
        k(    3) = (   0.2500000  -0.2500000   0.2500000), wk =   0.5000000
        k(    4) = (   0.2500000  -0.2500000  -0.2500000), wk =   0.5000000

     Dense  grid:  3207259 G-vectors     FFT dimensions: ( 180,  90, 480)

     Dynamical RAM for                 wfc:    4631.39 MB

     Dynamical RAM for     wfc (w. buffer):    4631.39 MB

     Dynamical RAM for           str. fact:     146.82 MB

     Dynamical RAM for           local pot:       0.00 MB

     Dynamical RAM for          nlocal pot:    8920.17 MB

     Dynamical RAM for                qrad:       4.03 MB

     Dynamical RAM for          rho,v,vnew:     324.80 MB

     Dynamical RAM for               rhoin:     108.27 MB

     Dynamical RAM for            rho*nmix:     783.02 MB

     Dynamical RAM for           G-vectors:     207.99 MB

     Dynamical RAM for          h,s,v(r/c):     104.93 MB

     Dynamical RAM for          <psi|beta>:      16.84 MB

     Dynamical RAM for                 psi:    9262.78 MB

     Dynamical RAM for                hpsi:    9262.78 MB

     Dynamical RAM for      wfcinit/wfcrot:    9275.91 MB

     Estimated static dynamical RAM per process >      14.49 GB

     Estimated max dynamical RAM per process >      33.46 GB

     Estimated total dynamical RAM >     131.56 GB

     Initial potential from superposition of free atoms

     starting charge    1261.9703, renormalised to    1262.0000

     negative rho (up, down):  2.705E-05 0.000E+00
     Starting wfcs are  730 randomized atomic wfcs +   27 random wfcs

     total cpu time spent up to now is      368.5 secs

     Self-consistent Calculation

     iteration #  1     ecut=    70.00 Ry     beta= 0.20
     Davidson diagonalization with overlap

---- Real-time Memory Report at c_bands before calling an iterative solver
         24087 MiB given to the printing process from OS
             0 MiB allocation reported by mallinfo(arena+hblkhd)
         73558 MiB available memory on the node where the printing process lives
------------------
     ethr =  1.00E-02,  avg # of iterations =  6.5

     total cpu time spent up to now is     1664.9 secs

     total energy              =  -13036.57651845 Ry
     estimated scf accuracy    <      15.34937524 Ry

     iteration #  2     ecut=    70.00 Ry     beta= 0.20
     Davidson diagonalization with overlap

---- Real-time Memory Report at c_bands before calling an iterative solver
         33574 MiB given to the printing process from OS
             0 MiB allocation reported by mallinfo(arena+hblkhd)
         80357 MiB available memory on the node where the printing process lives
------------------
     ethr =  1.22E-03,  avg # of iterations =  2.0

     negative rho (up, down):  1.253E-03 0.000E+00

     total cpu time spent up to now is     2765.8 secs

     total energy              =  -13037.19046400 Ry
     estimated scf accuracy    <       0.93092492 Ry

     iteration #  3     ecut=    70.00 Ry     beta= 0.20
     Davidson diagonalization with overlap

---- Real-time Memory Report at c_bands before calling an iterative solver
         33682 MiB given to the printing process from OS
             0 MiB allocation reported by mallinfo(arena+hblkhd)
         80250 MiB available memory on the node where the printing process lives
------------------
     ethr =  7.38E-05,  avg # of iterations = 18.2

     negative rho (up, down):  4.054E-03 0.000E+00

     total cpu time spent up to now is     4877.3 secs

     total energy              =  -13037.64319973 Ry
     estimated scf accuracy    <       0.47237155 Ry

     iteration #  4     ecut=    70.00 Ry     beta= 0.20
     Davidson diagonalization with overlap

---- Real-time Memory Report at c_bands before calling an iterative solver
         33782 MiB given to the printing process from OS
             0 MiB allocation reported by mallinfo(arena+hblkhd)
         80145 MiB available memory on the node where the printing process lives
------------------
     ethr =  3.74E-05,  avg # of iterations =  2.0

     negative rho (up, down):  3.106E-03 0.000E+00

     total cpu time spent up to now is     5981.3 secs

     total energy              =  -13037.63773867 Ry
     estimated scf accuracy    <       0.20445994 Ry

     iteration #  5     ecut=    70.00 Ry     beta= 0.20
     Davidson diagonalization with overlap

---- Real-time Memory Report at c_bands before calling an iterative solver
         33880 MiB given to the printing process from OS
             0 MiB allocation reported by mallinfo(arena+hblkhd)
         80050 MiB available memory on the node where the printing process lives
------------------
     ethr =  1.62E-05,  avg # of iterations =  8.0

     negative rho (up, down):  1.009E-03 0.000E+00

     total cpu time spent up to now is     7235.8 secs

     total energy              =  -13037.64786483 Ry
     estimated scf accuracy    <       0.04182858 Ry

     iteration #  6     ecut=    70.00 Ry     beta= 0.20
     Davidson diagonalization with overlap

---- Real-time Memory Report at c_bands before calling an iterative solver
         33979 MiB given to the printing process from OS
             0 MiB allocation reported by mallinfo(arena+hblkhd)
         79945 MiB available memory on the node where the printing process lives
------------------
     c_bands:  4 eigenvalues not converged
     ethr =  3.31E-06,  avg # of iterations = 14.5

     negative rho (up, down):  3.123E-04 0.000E+00

     total cpu time spent up to now is     9130.4 secs

     total energy              =  -13037.65892866 Ry
     estimated scf accuracy    <       0.00785411 Ry

     iteration #  7     ecut=    70.00 Ry     beta= 0.20
     Davidson diagonalization with overlap

---- Real-time Memory Report at c_bands before calling an iterative solver
         34077 MiB given to the printing process from OS
             0 MiB allocation reported by mallinfo(arena+hblkhd)
         79849 MiB available memory on the node where the printing process lives
------------------
     c_bands:  2 eigenvalues not converged
     ethr =  6.22E-07,  avg # of iterations = 11.0

     negative rho (up, down):  1.037E-08 0.000E+00

     total cpu time spent up to now is    10389.3 secs

     total energy              =  -13037.65818482 Ry
     estimated scf accuracy    <       0.00488869 Ry

     iteration #  8     ecut=    70.00 Ry     beta= 0.20
     Davidson diagonalization with overlap

---- Real-time Memory Report at c_bands before calling an iterative solver
         34175 MiB given to the printing process from OS
             0 MiB allocation reported by mallinfo(arena+hblkhd)
         79747 MiB available memory on the node where the printing process lives
------------------
     c_bands:  1 eigenvalues not converged
     ethr =  3.87E-07,  avg # of iterations = 18.5

     total cpu time spent up to now is    11733.1 secs

     total energy              =  -13037.65852859 Ry
     estimated scf accuracy    <       0.00101577 Ry

     iteration #  9     ecut=    70.00 Ry     beta= 0.20
     Davidson diagonalization with overlap

---- Real-time Memory Report at c_bands before calling an iterative solver
         34273 MiB given to the printing process from OS
             0 MiB allocation reported by mallinfo(arena+hblkhd)
         79643 MiB available memory on the node where the printing process lives
------------------
     ethr =  8.05E-08,  avg # of iterations =  2.0

     total cpu time spent up to now is    12848.0 secs

     total energy              =  -13037.65854247 Ry
     estimated scf accuracy    <       0.00075152 Ry

     iteration # 10     ecut=    70.00 Ry     beta= 0.20
     Davidson diagonalization with overlap

---- Real-time Memory Report at c_bands before calling an iterative solver
         34371 MiB given to the printing process from OS
             0 MiB allocation reported by mallinfo(arena+hblkhd)
         79545 MiB available memory on the node where the printing process lives
------------------
     ethr =  5.96E-08,  avg # of iterations =  2.0

     total cpu time spent up to now is    13939.9 secs

     total energy              =  -13037.65853676 Ry
     estimated scf accuracy    <       0.00046829 Ry

     iteration # 11     ecut=    70.00 Ry     beta= 0.20
     Davidson diagonalization with overlap

---- Real-time Memory Report at c_bands before calling an iterative solver
         34469 MiB given to the printing process from OS
             0 MiB allocation reported by mallinfo(arena+hblkhd)
         79544 MiB available memory on the node where the printing process lives
------------------
     ethr =  3.71E-08,  avg # of iterations =  2.5

     total cpu time spent up to now is    15053.5 secs

     total energy              =  -13037.65853069 Ry
     estimated scf accuracy    <       0.00032702 Ry

     iteration # 12     ecut=    70.00 Ry     beta= 0.20
     Davidson diagonalization with overlap

---- Real-time Memory Report at c_bands before calling an iterative solver
         34469 MiB given to the printing process from OS
             0 MiB allocation reported by mallinfo(arena+hblkhd)
         79544 MiB available memory on the node where the printing process lives
------------------
     ethr =  2.59E-08,  avg # of iterations =  8.2

     negative rho (up, down):  8.551E-06 0.000E+00

     total cpu time spent up to now is    16224.2 secs

     total energy              =  -13037.65853185 Ry
     estimated scf accuracy    <       0.00020347 Ry

     iteration # 13     ecut=    70.00 Ry     beta= 0.20
     Davidson diagonalization with overlap

---- Real-time Memory Report at c_bands before calling an iterative solver
         34470 MiB given to the printing process from OS
             0 MiB allocation reported by mallinfo(arena+hblkhd)
         79541 MiB available memory on the node where the printing process lives
------------------
     ethr =  1.61E-08,  avg # of iterations =  3.0

     negative rho (up, down):  6.393E-05 0.000E+00

     total cpu time spent up to now is    17328.2 secs

     total energy              =  -13037.65854402 Ry
     estimated scf accuracy    <       0.00010334 Ry

     iteration # 14     ecut=    70.00 Ry     beta= 0.20
     Davidson diagonalization with overlap

---- Real-time Memory Report at c_bands before calling an iterative solver
         34470 MiB given to the printing process from OS
             0 MiB allocation reported by mallinfo(arena+hblkhd)
         79544 MiB available memory on the node where the printing process lives
------------------
     ethr =  8.19E-09,  avg # of iterations =  4.2

     negative rho (up, down):  7.609E-04 0.000E+00

     total cpu time spent up to now is    18434.6 secs

     total energy              =  -13037.65858519 Ry
     estimated scf accuracy    <       0.00006505 Ry

     iteration # 15     ecut=    70.00 Ry     beta= 0.20
     Davidson diagonalization with overlap

---- Real-time Memory Report at c_bands before calling an iterative solver
         34470 MiB given to the printing process from OS
             0 MiB allocation reported by mallinfo(arena+hblkhd)
         79544 MiB available memory on the node where the printing process lives
------------------
     ethr =  5.15E-09,  avg # of iterations = 10.5

     negative rho (up, down):  1.629E-03 0.000E+00

     total cpu time spent up to now is    19704.9 secs

     total energy              =  -13037.65860470 Ry
     estimated scf accuracy    <       0.00001801 Ry

     iteration # 16     ecut=    70.00 Ry     beta= 0.20
     Davidson diagonalization with overlap

---- Real-time Memory Report at c_bands before calling an iterative solver
         34470 MiB given to the printing process from OS
             0 MiB allocation reported by mallinfo(arena+hblkhd)
         79546 MiB available memory on the node where the printing process lives
------------------
     ethr =  1.43E-09,  avg # of iterations =  6.0

     negative rho (up, down):  9.085E-04 0.000E+00

     total cpu time spent up to now is    20915.2 secs

     total energy              =  -13037.65862070 Ry
     estimated scf accuracy    <       0.00000973 Ry

     iteration # 17     ecut=    70.00 Ry     beta= 0.20
     Davidson diagonalization with overlap

---- Real-time Memory Report at c_bands before calling an iterative solver
         34470 MiB given to the printing process from OS
             0 MiB allocation reported by mallinfo(arena+hblkhd)
         79543 MiB available memory on the node where the printing process lives
------------------
     ethr =  7.71E-10,  avg # of iterations =  9.5

     negative rho (up, down):  5.833E-04 0.000E+00

     total cpu time spent up to now is    22067.5 secs

     total energy              =  -13037.65862639 Ry
     estimated scf accuracy    <       0.00000311 Ry

     iteration # 18     ecut=    70.00 Ry     beta= 0.20
     Davidson diagonalization with overlap

---- Real-time Memory Report at c_bands before calling an iterative solver
         34470 MiB given to the printing process from OS
             0 MiB allocation reported by mallinfo(arena+hblkhd)
         79531 MiB available memory on the node where the printing process lives
------------------
     ethr =  2.46E-10,  avg # of iterations =  6.0

     negative rho (up, down):  1.863E-05 0.000E+00

     total cpu time spent up to now is    23384.1 secs

     total energy              =  -13037.65862896 Ry
     estimated scf accuracy    <       0.00000161 Ry

     iteration # 19     ecut=    70.00 Ry     beta= 0.20
     Davidson diagonalization with overlap

---- Real-time Memory Report at c_bands before calling an iterative solver
         34471 MiB given to the printing process from OS
             0 MiB allocation reported by mallinfo(arena+hblkhd)
         79528 MiB available memory on the node where the printing process lives
------------------
     c_bands:  1 eigenvalues not converged
     ethr =  1.28E-10,  avg # of iterations = 17.5

     total cpu time spent up to now is    24593.0 secs

     End of self-consistent calculation

          k = 0.2500 0.7219 0.0889 (400999 PWs)   bands (ev):

   -69.1583 -40.6610 -40.5768 -40.4805 -35.1019 -35.0937 -35.0683 -35.0542
   -35.0390 -35.0356 -35.0186 -35.0181 -34.9860 -34.9835 -34.9435 -34.9414
   -34.9386 -34.9172 -34.9164 -34.9027 -34.9026 -34.9020 -34.9017 -34.9004
   -34.8934 -34.8928 -34.8904 -34.8903 -34.8852 -34.8832 -34.8770 -34.8766
   -34.8751 -34.8747 -34.8743 -34.8724 -34.8639 -34.8628 -34.8597 -34.8509
   -34.8505 -34.8473 -34.8469 -34.8391 -34.8388 -34.8383 -34.8381 -34.8378
   -34.8369 -34.8368 -34.8364 -34.8354 -34.8350 -34.8349 -34.8344 -34.8338
   -34.8337 -34.8335 -34.8332 -34.8308 -34.8303 -34.8303 -34.8298 -34.8292
   -34.8290 -34.8271 -34.8268 -34.8267 -34.8266 -34.8262 -34.8249 -34.8248
   -34.8246 -34.8244 -34.8242 -34.8241 -34.8241 -34.8238 -34.8237 -34.8233
   -34.8231 -34.8229 -34.8227 -34.8225 -34.8223 -34.8218 -34.8215 -34.8212
   -34.8204 -34.8200 -34.8199 -34.8196 -34.8169 -34.8164 -34.8161 -34.8154
   -34.8149 -34.8146 -34.8106 -34.8105 -34.8104 -34.8103 -34.8101 -34.8090
   -34.8079 -34.8079 -34.8075 -34.8069 -34.8062 -34.8052 -34.8051 -34.8007
   -34.7996 -34.7983 -34.7981 -34.7905 -34.7904 -34.7847 -34.7819 -34.7816
   -34.7758 -34.7713 -34.7713 -34.7696 -34.7693 -34.7682 -34.7668 -34.7649
   -34.7640 -34.7628 -34.7626 -34.7609 -34.7579 -34.7576 -34.7573 -34.7542
   -34.7542 -34.7539 -34.7536 -34.7521 -34.7491 -34.7488 -34.7483 -34.7471
   -34.7469 -34.7466 -34.7464 -34.7464 -34.7463 -34.7461 -34.7459 -34.7457
   -34.7453 -34.7453 -34.7452 -34.7449 -34.7449 -34.7448 -34.7445 -34.7436
   -34.7433 -34.7431 -34.7430 -34.7430 -34.7429 -34.7427 -34.7427 -34.7426
   -34.7425 -34.7423 -34.7419 -34.7409 -34.7405 -34.7403 -34.7399 -34.7386
   -34.7371 -34.7370 -34.7364 -34.7356 -34.7349 -34.7348 -34.7347 -34.7339
   -34.7267 -34.7267 -34.7259 -34.7257 -34.7257 -34.7256 -34.7256 -34.7249
   -34.7241 -34.7233 -34.7233 -34.7213 -34.7198 -34.7198 -34.7191 -34.7178
   -34.7166 -34.7166 -34.7163 -34.7160 -34.7160 -34.7153 -34.7151 -34.7149
   -34.7143 -34.7139 -34.7130 -34.7125 -34.7122 -34.7116 -34.7114 -34.7110
   -34.7106 -34.7100 -34.7099 -34.7098 -34.7094 -34.7093 -34.7092 -34.7091
   -34.7087 -34.7086 -34.7083 -34.7081 -34.7079 -34.7077 -34.7076 -34.7071
   -34.7069 -34.7062 -34.7055 -34.7054 -34.6671 -34.6523 -34.6457 -34.6333
   -34.6317 -34.5693 -34.5548 -34.5476 -27.6637 -27.6597 -27.6484 -27.6424
   -27.6371 -27.6227 -27.6197 -27.6157 -27.6155 -27.6116 -27.6115 -27.6093
   -27.6063 -27.6060 -27.6050 -27.6041 -27.6025 -27.6013 -27.6009 -27.5990
   -27.5984 -27.5981 -27.5976 -27.5973 -27.5971 -27.5968 -27.5967 -27.5961
   -27.5959 -27.5944 -27.5941 -27.5938 -27.5930 -27.5928 -27.5923 -27.5922
   -27.5917 -27.5906 -27.5899 -27.5897 -27.5893 -27.5887 -27.5878 -27.5876
   -27.5873 -27.5872 -27.5867 -27.5861 -27.5860 -27.5858 -27.5856 -27.5854
   -27.5852 -27.5850 -27.5843 -27.5841 -27.5838 -27.5835 -27.5832 -27.5831
   -27.5826 -27.5824 -27.5820 -27.5815 -27.5809 -27.5805 -27.5802 -27.5792
   -27.5768 -27.5754 -27.5741 -27.5736 -27.5732 -27.5727 -27.5720 -27.5716
   -27.5712 -27.5710 -27.5708 -27.5706 -27.5701 -27.5698 -27.5696 -27.5695
   -27.5691 -27.5684 -27.5683 -27.5680 -27.5679 -27.5674 -27.5672 -27.5671
   -27.5663 -27.5662 -27.5660 -27.5652 -27.5652 -27.5649 -27.5648 -27.5645
   -27.5645 -27.5642 -27.5640 -27.5638 -27.5635 -27.5634 -27.5628 -27.5625
   -27.5623 -27.5621 -27.5620 -27.5618 -27.5617 -27.5615 -27.5613 -27.5609
   -27.5607 -27.5606 -27.5601 -27.5600 -27.5597 -27.5597 -27.5585 -27.5580
   -27.5577 -27.5575 -27.5572 -27.5569 -27.5560 -27.5559 -27.5546 -27.5530
   -27.5529 -27.5519 -27.5497 -27.5488 -27.5484 -27.5458 -27.5449 -27.5448
   -27.5447 -27.5432 -27.5425 -27.5411 -27.5389 -27.5379 -27.5351 -27.5324
   -27.5197 -27.5147 -27.5022 -27.5006 -27.4952 -27.4947 -27.4650 -27.4480
   -27.4393 -27.4332 -27.4165 -27.4109 -10.9237 -10.8662 -10.8163 -10.7922
   -10.3711 -10.3286 -10.1915 -10.1603 -10.0896 -10.0735 -10.0184 -10.0073
    -9.8786  -9.8457  -9.7907  -9.7820  -9.6486  -9.6345  -9.5292  -9.4948
    -9.4679  -9.4336  -9.3934  -9.3395  -9.3231  -9.3089  -9.2955  -9.2371
    -9.2189  -9.1892  -9.1522  -9.1339  -9.1149  -9.0848  -9.0359  -9.0192
    -9.0134  -8.9931  -8.9882  -8.9776  -8.9479  -8.9395  -8.9395  -8.9128
    -8.8916  -8.8799  -8.8713  -8.7992  -7.5626  -7.5446  -7.5177  -7.5142
    -7.3035  -7.2557  -7.2094  -7.1985  -7.1896  -7.1883  -7.1696  -7.1331
    -7.0761  -7.0457  -6.9825  -6.9669  -6.8625  -6.7422  -6.7251  -6.6956
    -6.6847  -6.6671  -6.5172  -6.4825  -6.4684  -6.4260  -6.4114  -6.4029
    -5.5403  -5.4304  -5.2707  -5.2383  -3.3957  -3.3405  -3.2326  -3.2191
    -3.1936  -3.1756  -3.1297  -3.1228  -3.0474  -3.0278  -2.9689  -2.9470
    -2.5632  -2.5254  -2.4477  -2.4318  -2.3654  -2.3576  -2.3318  -2.3114
    -2.2510  -2.2361  -2.1873  -2.1777  -2.1681  -2.1209  -2.0110  -1.9970
    -1.9732  -1.9275  -1.9205  -1.8982  -1.8159  -1.7802  -1.7197  -1.6917
    -1.6592  -1.6396  -1.6266  -1.6066  -1.5991  -1.5845  -1.5151  -1.5063
    -1.4998  -1.4729  -1.4685  -1.4590  -1.4512  -1.4444  -1.3973  -1.3899
    -1.2994  -1.2565  -1.2378  -1.2118  -1.2001  -1.1884  -1.1834  -1.1378
    -1.0875  -1.0682  -1.0269  -1.0190  -1.0079  -0.9978  -0.9844  -0.9535
    -0.8923  -0.8314  -0.7898  -0.7820  -0.7568  -0.7221  -0.7006  -0.6810
    -0.6369  -0.6172  -0.5702  -0.5428  -0.4726  -0.4270  -0.4233  -0.4014
    -0.3734  -0.3353  -0.2483  -0.2187  -0.1947  -0.1746  -0.1535  -0.1473
    -0.1284  -0.0840  -0.0558  -0.0482  -0.0302  -0.0266  -0.0176   0.0106
     0.0732   0.2596   0.3179   0.3288   0.3589   0.4103   0.4211   0.4228
     0.4470   0.4805   0.5180   0.5238   0.5416   0.5531   0.5700   0.6282
     0.6473   0.7575   0.7650   0.7831   0.7916   0.8535   0.9074   0.9105
     0.9427   1.0327   1.0597   1.1155   1.1389   1.1667   1.1720   1.2404
     1.2621   1.3386   1.3516   1.3652   1.4223   1.4420   1.4497   1.4795
     1.5031   1.5946   1.6569   1.6736   1.8545   2.1343   2.1678   2.2100
     2.2443   2.6062   2.6650   2.7573   2.8433   2.8571   2.8849   2.9045
     2.9458   2.9618   2.9770   2.9966   3.0188   3.0351   3.0565   3.0857
     3.1412   3.1655   3.1854   3.2299   3.2413   3.2728   3.3274   3.3453
     3.3534   3.3917   3.4027   3.4358   3.4424   3.4712   3.4799   3.5015
     3.5237   3.5565   3.5781   3.5920   3.6072   3.6453   3.6594   3.6715
     3.7744   3.8513   3.8952   3.9218   3.9380   4.0080   4.0371   4.0662
     4.0854   4.1137   4.1179   4.1489   4.2267   4.3190   4.3499   4.4618
     4.4752   4.5822   4.6530   4.6587   4.6757   4.7073   4.7132   4.7851
     4.8112   4.8296   4.8440   4.8496   4.8856   4.9417   4.9611   4.9732
     5.0358   5.0717   5.1256   5.2000   5.2295   5.2567   5.2849   5.3207
     5.3497   5.3704   5.3850   5.4080   5.4322   5.4514   5.4715   5.5388
     5.5766   5.6123   5.6254   5.6626   5.7083   5.7331   5.7405   5.7737
     5.7969   5.8171   5.8512   5.9187   5.9416   5.9592   5.9919   6.1870
     6.2055   6.2347   6.2547   6.2656   6.2912   6.3032   6.3537   6.4187
     6.4193   6.4949   6.5174   6.5898   6.6035   6.7473   6.7601   6.7729
     6.8036   6.8129   6.8349   6.8817   6.9100

     occupation numbers 
     1.0000   1.0000   1.0000   1.0000   1.0000   1.0000   1.0000   1.0000
     1.0000   1.0000   1.0000   1.0000   1.0000   1.0000   1.0000   1.0000
     1.0000   1.0000   1.0000   1.0000   1.0000   1.0000   1.0000   1.0000
     1.0000   1.0000   1.0000   1.0000   1.0000   1.0000   1.0000   1.0000
     1.0000   1.0000   1.0000   1.0000   1.0000   1.0000   1.0000   1.0000
     1.0000   1.0000   1.0000   1.0000   1.0000   1.0000   1.0000   1.0000
     1.0000   1.0000   1.0000   1.0000   1.0000   1.0000   1.0000   1.0000
     1.0000   1.0000   1.0000   1.0000   1.0000   1.0000   1.0000   1.0000
     1.0000   1.0000   1.0000   1.0000   1.0000   1.0000   1.0000   1.0000
     1.0000   1.0000   1.0000   1.0000   1.0000   1.0000   1.0000   1.0000
     1.0000   1.0000   1.0000   1.0000   1.0000   1.0000   1.0000   1.0000
     1.0000   1.0000   1.0000   1.0000   1.0000   1.0000   1.0000   1.0000
     1.0000   1.0000   1.0000   1.0000   1.0000   1.0000   1.0000   1.0000
     1.0000   1.0000   1.0000   1.0000   1.0000   1.0000   1.0000   1.0000
     1.0000   1.0000   1.0000   1.0000   1.0000   1.0000   1.0000   1.0000
     1.0000   1.0000   1.0000   1.0000   1.0000   1.0000   1.0000   1.0000
     1.0000   1.0000   1.0000   1.0000   1.0000   1.0000   1.0000   1.0000
     1.0000   1.0000   1.0000   1.0000   1.0000   1.0000   1.0000   1.0000
     1.0000   1.0000   1.0000   1.0000   1.0000   1.0000   1.0000   1.0000
     1.0000   1.0000   1.0000   1.0000   1.0000   1.0000   1.0000   1.0000
     1.0000   1.0000   1.0000   1.0000   1.0000   1.0000   1.0000   1.0000
     1.0000   1.0000   1.0000   1.0000   1.0000   1.0000   1.0000   1.0000
     1.0000   1.0000   1.0000   1.0000   1.0000   1.0000   1.0000   1.0000
     1.0000   1.0000   1.0000   1.0000   1.0000   1.0000   1.0000   1.0000
     1.0000   1.0000   1.0000   1.0000   1.0000   1.0000   1.0000   1.0000
     1.0000   1.0000   1.0000   1.0000   1.0000   1.0000   1.0000   1.0000
     1.0000   1.0000   1.0000   1.0000   1.0000   1.0000   1.0000   1.0000
     1.0000   1.0000   1.0000   1.0000   1.0000   1.0000   1.0000   1.0000
     1.0000   1.0000   1.0000   1.0000   1.0000   1.0000   1.0000   1.0000
     1.0000   1.0000   1.0000   1.0000   1.0000   1.0000   1.0000   1.0000
     1.0000   1.0000   1.0000   1.0000   1.0000   1.0000   1.0000   1.0000
     1.0000   1.0000   1.0000   1.0000   1.0000   1.0000   1.0000   1.0000
     1.0000   1.0000   1.0000   1.0000   1.0000   1.0000   1.0000   1.0000
     1.0000   1.0000   1.0000   1.0000   1.0000   1.0000   1.0000   1.0000
     1.0000   1.0000   1.0000   1.0000   1.0000   1.0000   1.0000   1.0000
     1.0000   1.0000   1.0000   1.0000   1.0000   1.0000   1.0000   1.0000
     1.0000   1.0000   1.0000   1.0000   1.0000   1.0000   1.0000   1.0000
     1.0000   1.0000   1.0000   1.0000   1.0000   1.0000   1.0000   1.0000
     1.0000   1.0000   1.0000   1.0000   1.0000   1.0000   1.0000   1.0000
     1.0000   1.0000   1.0000   1.0000   1.0000   1.0000   1.0000   1.0000
     1.0000   1.0000   1.0000   1.0000   1.0000   1.0000   1.0000   1.0000
     1.0000   1.0000   1.0000   1.0000   1.0000   1.0000   1.0000   1.0000
     1.0000   1.0000   1.0000   1.0000   1.0000   1.0000   1.0000   1.0000
     1.0000   1.0000   1.0000   1.0000   1.0000   1.0000   1.0000   1.0000
     1.0000   1.0000   1.0000   1.0000   1.0000   1.0000   1.0000   1.0000
     1.0000   1.0000   1.0000   1.0000   1.0000   1.0000   1.0000   1.0000
     1.0000   1.0000   1.0000   1.0000   1.0000   1.0000   1.0000   1.0000
     1.0000   1.0000   1.0000   1.0000   1.0000   1.0000   1.0000   1.0000
     1.0000   1.0000   1.0000   1.0000   1.0000   1.0000   1.0000   1.0000
     1.0000   1.0000   1.0000   1.0000   1.0000   1.0000   1.0000   1.0000
     1.0000   1.0000   1.0000   1.0000   1.0000   1.0000   1.0000   1.0000
     1.0000   1.0000   1.0000   1.0000   1.0000   1.0000   1.0000   1.0000
     1.0000   1.0000   1.0000   1.0000   1.0000   1.0000   1.0000   1.0000
     1.0000   1.0000   1.0000   1.0000   1.0000   1.0000   1.0000   1.0000
     1.0000   1.0000   1.0000   1.0000   1.0000   1.0000   1.0000   1.0000
     1.0000   1.0000   1.0000   1.0000   1.0000   1.0000   1.0000   1.0000
     1.0000   1.0000   1.0000   1.0000   1.0000   1.0000   1.0000   1.0000
     1.0000   1.0000   1.0000   1.0000   1.0000   1.0000   1.0000   1.0000
     1.0000   1.0000   1.0000   1.0000   1.0000   1.0000   1.0000   1.0000
     1.0000   1.0000   1.0000   1.0000   1.0000   1.0000   1.0000   1.0000
     1.0000   1.0000   1.0000   1.0000   1.0000   1.0000   1.0000   1.0000
     1.0000   1.0000   1.0000   1.0000   1.0000   1.0000   1.0000   1.0000
     1.0000   1.0000   1.0000   1.0000   1.0000   1.0000   1.0000   1.0000
     1.0000   1.0000   1.0000   1.0000   1.0000   1.0000   1.0000   1.0000
     1.0000   1.0000   1.0000   1.0000   1.0000   1.0000   1.0000   1.0000
     1.0000   1.0000   1.0000   1.0000   1.0000   1.0000   1.0000   1.0000
     1.0000   1.0000   1.0000   1.0000   1.0000   1.0000   1.0000   1.0000
     1.0000   1.0000   1.0000   1.0000   1.0000   1.0000   1.0000   1.0000
     1.0000   1.0000   1.0000   1.0000   1.0000   1.0000   1.0000   1.0000
     1.0000   1.0000   1.0000   1.0000   1.0000   1.0000   1.0000   1.0000
     1.0000   1.0000   1.0000   1.0000   1.0000   1.0000   1.0000   1.0000
     1.0000   1.0000   1.0000   1.0000   1.0000   1.0000   1.0000   1.0000
     1.0000   1.0000   1.0000   1.0000   1.0000   1.0000   1.0000   1.0000
     1.0000   1.0000   1.0000   1.0000   1.0000   1.0000   1.0000   1.0000
     1.0000   1.0000   1.0000   1.0000   1.0000   1.0000   1.0000   1.0000
     1.0000   1.0000   1.0000   1.0000   1.0000   1.0000   1.0000   1.0000
     1.0000   1.0000   1.0000   1.0000   1.0000   1.0000   1.0000   1.0000
     1.0000   1.0000   1.0000   1.0000   1.0000   1.0000   1.0000   1.0000
     1.0000   1.0000   1.0000   1.0000   1.0088   0.7630   0.5816   0.3596
     0.2152   0.0000   0.0000   0.0000   0.0000   0.0000   0.0000   0.0000
     0.0000   0.0000   0.0000   0.0000   0.0000   0.0000   0.0000   0.0000
     0.0000   0.0000   0.0000   0.0000   0.0000   0.0000   0.0000   0.0000
     0.0000   0.0000   0.0000   0.0000   0.0000   0.0000   0.0000   0.0000
     0.0000   0.0000   0.0000   0.0000   0.0000   0.0000   0.0000   0.0000
     0.0000   0.0000   0.0000   0.0000   0.0000   0.0000   0.0000   0.0000
     0.0000   0.0000   0.0000   0.0000   0.0000   0.0000   0.0000   0.0000
     0.0000   0.0000   0.0000   0.0000   0.0000   0.0000   0.0000   0.0000
     0.0000   0.0000   0.0000   0.0000   0.0000   0.0000   0.0000   0.0000
     0.0000   0.0000   0.0000   0.0000   0.0000   0.0000   0.0000   0.0000
     0.0000   0.0000   0.0000   0.0000   0.0000   0.0000   0.0000   0.0000
     0.0000   0.0000   0.0000   0.0000   0.0000   0.0000   0.0000   0.0000
     0.0000   0.0000   0.0000   0.0000   0.0000   0.0000   0.0000   0.0000
     0.0000   0.0000   0.0000   0.0000   0.0000   0.0000   0.0000   0.0000
     0.0000   0.0000   0.0000   0.0000   0.0000   0.0000   0.0000   0.0000
     0.0000   0.0000   0.0000   0.0000   0.0000

          k = 0.2500 0.7219-0.0914 (401000 PWs)   bands (ev):

   -69.1583 -40.6610 -40.5768 -40.4805 -35.1019 -35.0937 -35.0683 -35.0542
   -35.0390 -35.0356 -35.0186 -35.0181 -34.9860 -34.9835 -34.9435 -34.9414
   -34.9386 -34.9172 -34.9164 -34.9027 -34.9026 -34.9020 -34.9017 -34.9004
   -34.8934 -34.8928 -34.8904 -34.8903 -34.8852 -34.8832 -34.8770 -34.8766
   -34.8751 -34.8747 -34.8743 -34.8724 -34.8639 -34.8628 -34.8597 -34.8509
   -34.8505 -34.8473 -34.8469 -34.8391 -34.8388 -34.8383 -34.8381 -34.8378
   -34.8369 -34.8368 -34.8364 -34.8354 -34.8350 -34.8349 -34.8344 -34.8338
   -34.8337 -34.8335 -34.8332 -34.8308 -34.8303 -34.8303 -34.8298 -34.8292
   -34.8290 -34.8271 -34.8268 -34.8267 -34.8266 -34.8262 -34.8249 -34.8248
   -34.8246 -34.8244 -34.8242 -34.8241 -34.8241 -34.8238 -34.8237 -34.8233
   -34.8231 -34.8229 -34.8227 -34.8225 -34.8223 -34.8218 -34.8215 -34.8212
   -34.8204 -34.8200 -34.8199 -34.8196 -34.8169 -34.8164 -34.8161 -34.8154
   -34.8149 -34.8146 -34.8106 -34.8105 -34.8104 -34.8103 -34.8101 -34.8090
   -34.8079 -34.8079 -34.8075 -34.8069 -34.8062 -34.8052 -34.8051 -34.8007
   -34.7996 -34.7983 -34.7981 -34.7905 -34.7904 -34.7847 -34.7819 -34.7816
   -34.7758 -34.7713 -34.7713 -34.7696 -34.7693 -34.7682 -34.7668 -34.7649
   -34.7640 -34.7628 -34.7626 -34.7609 -34.7579 -34.7576 -34.7573 -34.7542
   -34.7542 -34.7539 -34.7536 -34.7521 -34.7491 -34.7488 -34.7483 -34.7471
   -34.7469 -34.7466 -34.7464 -34.7464 -34.7463 -34.7461 -34.7459 -34.7457
   -34.7453 -34.7453 -34.7452 -34.7449 -34.7449 -34.7448 -34.7445 -34.7436
   -34.7433 -34.7431 -34.7430 -34.7430 -34.7429 -34.7427 -34.7427 -34.7426
   -34.7425 -34.7423 -34.7419 -34.7409 -34.7405 -34.7403 -34.7399 -34.7386
   -34.7371 -34.7370 -34.7364 -34.7356 -34.7349 -34.7348 -34.7347 -34.7339
   -34.7267 -34.7267 -34.7259 -34.7257 -34.7257 -34.7256 -34.7256 -34.7249
   -34.7241 -34.7233 -34.7233 -34.7213 -34.7198 -34.7198 -34.7191 -34.7178
   -34.7166 -34.7166 -34.7163 -34.7160 -34.7160 -34.7153 -34.7151 -34.7149
   -34.7143 -34.7139 -34.7130 -34.7125 -34.7122 -34.7116 -34.7114 -34.7110
   -34.7106 -34.7100 -34.7099 -34.7098 -34.7094 -34.7093 -34.7092 -34.7091
   -34.7087 -34.7086 -34.7083 -34.7081 -34.7079 -34.7077 -34.7076 -34.7071
   -34.7069 -34.7062 -34.7055 -34.7054 -34.6671 -34.6523 -34.6457 -34.6333
   -34.6317 -34.5693 -34.5548 -34.5476 -27.6637 -27.6597 -27.6484 -27.6424
   -27.6371 -27.6227 -27.6197 -27.6157 -27.6155 -27.6116 -27.6115 -27.6093
   -27.6063 -27.6060 -27.6050 -27.6041 -27.6025 -27.6013 -27.6009 -27.5990
   -27.5984 -27.5981 -27.5976 -27.5973 -27.5971 -27.5968 -27.5967 -27.5961
   -27.5959 -27.5944 -27.5941 -27.5938 -27.5930 -27.5928 -27.5923 -27.5922
   -27.5917 -27.5906 -27.5899 -27.5897 -27.5893 -27.5887 -27.5878 -27.5876
   -27.5873 -27.5872 -27.5867 -27.5861 -27.5860 -27.5858 -27.5856 -27.5854
   -27.5852 -27.5850 -27.5843 -27.5841 -27.5838 -27.5835 -27.5832 -27.5831
   -27.5826 -27.5824 -27.5820 -27.5815 -27.5809 -27.5805 -27.5802 -27.5792
   -27.5768 -27.5754 -27.5741 -27.5736 -27.5732 -27.5727 -27.5720 -27.5716
   -27.5712 -27.5710 -27.5708 -27.5706 -27.5701 -27.5698 -27.5696 -27.5695
   -27.5691 -27.5684 -27.5683 -27.5680 -27.5679 -27.5674 -27.5672 -27.5671
   -27.5663 -27.5662 -27.5660 -27.5652 -27.5652 -27.5649 -27.5648 -27.5645
   -27.5645 -27.5642 -27.5640 -27.5638 -27.5635 -27.5634 -27.5628 -27.5625
   -27.5623 -27.5621 -27.5620 -27.5618 -27.5617 -27.5615 -27.5613 -27.5609
   -27.5607 -27.5606 -27.5601 -27.5600 -27.5597 -27.5597 -27.5585 -27.5580
   -27.5577 -27.5575 -27.5572 -27.5569 -27.5560 -27.5559 -27.5546 -27.5530
   -27.5529 -27.5519 -27.5497 -27.5488 -27.5484 -27.5458 -27.5449 -27.5448
   -27.5447 -27.5432 -27.5425 -27.5411 -27.5389 -27.5379 -27.5351 -27.5324
   -27.5197 -27.5147 -27.5022 -27.5006 -27.4952 -27.4947 -27.4650 -27.4480
   -27.4393 -27.4332 -27.4165 -27.4109 -10.9237 -10.8662 -10.8163 -10.7922
   -10.3711 -10.3286 -10.1915 -10.1603 -10.0896 -10.0735 -10.0184 -10.0073
    -9.8786  -9.8457  -9.7907  -9.7820  -9.6486  -9.6345  -9.5292  -9.4948
    -9.4679  -9.4336  -9.3934  -9.3395  -9.3231  -9.3089  -9.2955  -9.2371
    -9.2189  -9.1892  -9.1522  -9.1339  -9.1149  -9.0848  -9.0359  -9.0192
    -9.0134  -8.9931  -8.9882  -8.9776  -8.9479  -8.9395  -8.9395  -8.9128
    -8.8916  -8.8799  -8.8713  -8.7992  -7.5626  -7.5446  -7.5177  -7.5142
    -7.3035  -7.2557  -7.2094  -7.1985  -7.1896  -7.1883  -7.1696  -7.1331
    -7.0761  -7.0457  -6.9825  -6.9669  -6.8625  -6.7422  -6.7251  -6.6956
    -6.6847  -6.6671  -6.5172  -6.4825  -6.4684  -6.4260  -6.4114  -6.4029
    -5.5403  -5.4304  -5.2707  -5.2383  -3.3957  -3.3405  -3.2326  -3.2191
    -3.1936  -3.1756  -3.1297  -3.1228  -3.0474  -3.0278  -2.9689  -2.9470
    -2.5632  -2.5254  -2.4477  -2.4318  -2.3654  -2.3576  -2.3318  -2.3114
    -2.2510  -2.2361  -2.1873  -2.1777  -2.1681  -2.1209  -2.0110  -1.9970
    -1.9732  -1.9275  -1.9205  -1.8982  -1.8159  -1.7802  -1.7197  -1.6917
    -1.6592  -1.6396  -1.6266  -1.6066  -1.5991  -1.5845  -1.5151  -1.5063
    -1.4998  -1.4729  -1.4685  -1.4590  -1.4512  -1.4444  -1.3973  -1.3899
    -1.2994  -1.2565  -1.2378  -1.2118  -1.2001  -1.1884  -1.1834  -1.1378
    -1.0875  -1.0682  -1.0269  -1.0190  -1.0079  -0.9978  -0.9844  -0.9535
    -0.8923  -0.8314  -0.7898  -0.7820  -0.7568  -0.7221  -0.7006  -0.6810
    -0.6369  -0.6172  -0.5702  -0.5428  -0.4726  -0.4270  -0.4233  -0.4014
    -0.3734  -0.3353  -0.2483  -0.2187  -0.1947  -0.1746  -0.1535  -0.1473
    -0.1284  -0.0840  -0.0558  -0.0482  -0.0302  -0.0266  -0.0176   0.0106
     0.0732   0.2596   0.3179   0.3288   0.3589   0.4103   0.4211   0.4228
     0.4470   0.4805   0.5180   0.5238   0.5416   0.5531   0.5700   0.6282
     0.6473   0.7575   0.7650   0.7831   0.7916   0.8535   0.9074   0.9105
     0.9427   1.0327   1.0597   1.1155   1.1389   1.1667   1.1720   1.2404
     1.2621   1.3386   1.3516   1.3652   1.4223   1.4420   1.4497   1.4795
     1.5031   1.5946   1.6569   1.6736   1.8545   2.1343   2.1678   2.2100
     2.2443   2.6062   2.6650   2.7573   2.8433   2.8571   2.8849   2.9045
     2.9458   2.9618   2.9770   2.9966   3.0188   3.0351   3.0565   3.0857
     3.1412   3.1655   3.1854   3.2299   3.2413   3.2728   3.3274   3.3453
     3.3534   3.3917   3.4027   3.4358   3.4424   3.4712   3.4799   3.5015
     3.5237   3.5565   3.5781   3.5920   3.6072   3.6453   3.6594   3.6715
     3.7744   3.8513   3.8952   3.9218   3.9380   4.0080   4.0371   4.0662
     4.0854   4.1137   4.1179   4.1489   4.2267   4.3190   4.3499   4.4618
     4.4752   4.5822   4.6530   4.6587   4.6757   4.7073   4.7132   4.7851
     4.8112   4.8296   4.8440   4.8496   4.8856   4.9417   4.9611   4.9732
     5.0358   5.0717   5.1256   5.2000   5.2295   5.2567   5.2849   5.3207
     5.3497   5.3704   5.3850   5.4080   5.4322   5.4514   5.4715   5.5388
     5.5766   5.6123   5.6254   5.6626   5.7083   5.7331   5.7405   5.7737
     5.7969   5.8171   5.8512   5.9187   5.9416   5.9592   5.9919   6.1870
     6.2055   6.2347   6.2547   6.2656   6.2912   6.3032   6.3537   6.4187
     6.4193   6.4949   6.5174   6.5898   6.6035   6.7473   6.7603   6.7729
     6.8036   6.8128   6.8349   6.8817   6.9100

     occupation numbers 
     1.0000   1.0000   1.0000   1.0000   1.0000   1.0000   1.0000   1.0000
     1.0000   1.0000   1.0000   1.0000   1.0000   1.0000   1.0000   1.0000
     1.0000   1.0000   1.0000   1.0000   1.0000   1.0000   1.0000   1.0000
     1.0000   1.0000   1.0000   1.0000   1.0000   1.0000   1.0000   1.0000
     1.0000   1.0000   1.0000   1.0000   1.0000   1.0000   1.0000   1.0000
     1.0000   1.0000   1.0000   1.0000   1.0000   1.0000   1.0000   1.0000
     1.0000   1.0000   1.0000   1.0000   1.0000   1.0000   1.0000   1.0000
     1.0000   1.0000   1.0000   1.0000   1.0000   1.0000   1.0000   1.0000
     1.0000   1.0000   1.0000   1.0000   1.0000   1.0000   1.0000   1.0000
     1.0000   1.0000   1.0000   1.0000   1.0000   1.0000   1.0000   1.0000
     1.0000   1.0000   1.0000   1.0000   1.0000   1.0000   1.0000   1.0000
     1.0000   1.0000   1.0000   1.0000   1.0000   1.0000   1.0000   1.0000
     1.0000   1.0000   1.0000   1.0000   1.0000   1.0000   1.0000   1.0000
     1.0000   1.0000   1.0000   1.0000   1.0000   1.0000   1.0000   1.0000
     1.0000   1.0000   1.0000   1.0000   1.0000   1.0000   1.0000   1.0000
     1.0000   1.0000   1.0000   1.0000   1.0000   1.0000   1.0000   1.0000
     1.0000   1.0000   1.0000   1.0000   1.0000   1.0000   1.0000   1.0000
     1.0000   1.0000   1.0000   1.0000   1.0000   1.0000   1.0000   1.0000
     1.0000   1.0000   1.0000   1.0000   1.0000   1.0000   1.0000   1.0000
     1.0000   1.0000   1.0000   1.0000   1.0000   1.0000   1.0000   1.0000
     1.0000   1.0000   1.0000   1.0000   1.0000   1.0000   1.0000   1.0000
     1.0000   1.0000   1.0000   1.0000   1.0000   1.0000   1.0000   1.0000
     1.0000   1.0000   1.0000   1.0000   1.0000   1.0000   1.0000   1.0000
     1.0000   1.0000   1.0000   1.0000   1.0000   1.0000   1.0000   1.0000
     1.0000   1.0000   1.0000   1.0000   1.0000   1.0000   1.0000   1.0000
     1.0000   1.0000   1.0000   1.0000   1.0000   1.0000   1.0000   1.0000
     1.0000   1.0000   1.0000   1.0000   1.0000   1.0000   1.0000   1.0000
     1.0000   1.0000   1.0000   1.0000   1.0000   1.0000   1.0000   1.0000
     1.0000   1.0000   1.0000   1.0000   1.0000   1.0000   1.0000   1.0000
     1.0000   1.0000   1.0000   1.0000   1.0000   1.0000   1.0000   1.0000
     1.0000   1.0000   1.0000   1.0000   1.0000   1.0000   1.0000   1.0000
     1.0000   1.0000   1.0000   1.0000   1.0000   1.0000   1.0000   1.0000
     1.0000   1.0000   1.0000   1.0000   1.0000   1.0000   1.0000   1.0000
     1.0000   1.0000   1.0000   1.0000   1.0000   1.0000   1.0000   1.0000
     1.0000   1.0000   1.0000   1.0000   1.0000   1.0000   1.0000   1.0000
     1.0000   1.0000   1.0000   1.0000   1.0000   1.0000   1.0000   1.0000
     1.0000   1.0000   1.0000   1.0000   1.0000   1.0000   1.0000   1.0000
     1.0000   1.0000   1.0000   1.0000   1.0000   1.0000   1.0000   1.0000
     1.0000   1.0000   1.0000   1.0000   1.0000   1.0000   1.0000   1.0000
     1.0000   1.0000   1.0000   1.0000   1.0000   1.0000   1.0000   1.0000
     1.0000   1.0000   1.0000   1.0000   1.0000   1.0000   1.0000   1.0000
     1.0000   1.0000   1.0000   1.0000   1.0000   1.0000   1.0000   1.0000
     1.0000   1.0000   1.0000   1.0000   1.0000   1.0000   1.0000   1.0000
     1.0000   1.0000   1.0000   1.0000   1.0000   1.0000   1.0000   1.0000
     1.0000   1.0000   1.0000   1.0000   1.0000   1.0000   1.0000   1.0000
     1.0000   1.0000   1.0000   1.0000   1.0000   1.0000   1.0000   1.0000
     1.0000   1.0000   1.0000   1.0000   1.0000   1.0000   1.0000   1.0000
     1.0000   1.0000   1.0000   1.0000   1.0000   1.0000   1.0000   1.0000
     1.0000   1.0000   1.0000   1.0000   1.0000   1.0000   1.0000   1.0000
     1.0000   1.0000   1.0000   1.0000   1.0000   1.0000   1.0000   1.0000
     1.0000   1.0000   1.0000   1.0000   1.0000   1.0000   1.0000   1.0000
     1.0000   1.0000   1.0000   1.0000   1.0000   1.0000   1.0000   1.0000
     1.0000   1.0000   1.0000   1.0000   1.0000   1.0000   1.0000   1.0000
     1.0000   1.0000   1.0000   1.0000   1.0000   1.0000   1.0000   1.0000
     1.0000   1.0000   1.0000   1.0000   1.0000   1.0000   1.0000   1.0000
     1.0000   1.0000   1.0000   1.0000   1.0000   1.0000   1.0000   1.0000
     1.0000   1.0000   1.0000   1.0000   1.0000   1.0000   1.0000   1.0000
     1.0000   1.0000   1.0000   1.0000   1.0000   1.0000   1.0000   1.0000
     1.0000   1.0000   1.0000   1.0000   1.0000   1.0000   1.0000   1.0000
     1.0000   1.0000   1.0000   1.0000   1.0000   1.0000   1.0000   1.0000
     1.0000   1.0000   1.0000   1.0000   1.0000   1.0000   1.0000   1.0000
     1.0000   1.0000   1.0000   1.0000   1.0000   1.0000   1.0000   1.0000
     1.0000   1.0000   1.0000   1.0000   1.0000   1.0000   1.0000   1.0000
     1.0000   1.0000   1.0000   1.0000   1.0000   1.0000   1.0000   1.0000
     1.0000   1.0000   1.0000   1.0000   1.0000   1.0000   1.0000   1.0000
     1.0000   1.0000   1.0000   1.0000   1.0000   1.0000   1.0000   1.0000
     1.0000   1.0000   1.0000   1.0000   1.0000   1.0000   1.0000   1.0000
     1.0000   1.0000   1.0000   1.0000   1.0000   1.0000   1.0000   1.0000
     1.0000   1.0000   1.0000   1.0000   1.0000   1.0000   1.0000   1.0000
     1.0000   1.0000   1.0000   1.0000   1.0000   1.0000   1.0000   1.0000
     1.0000   1.0000   1.0000   1.0000   1.0000   1.0000   1.0000   1.0000
     1.0000   1.0000   1.0000   1.0000   1.0000   1.0000   1.0000   1.0000
     1.0000   1.0000   1.0000   1.0000   1.0000   1.0000   1.0000   1.0000
     1.0000   1.0000   1.0000   1.0000   1.0000   1.0000   1.0000   1.0000
     1.0000   1.0000   1.0000   1.0000   1.0000   1.0000   1.0000   1.0000
     1.0000   1.0000   1.0000   1.0000   1.0000   1.0000   1.0000   1.0000
     1.0000   1.0000   1.0000   1.0000   1.0000   1.0000   1.0000   1.0000
     1.0000   1.0000   1.0000   1.0000   1.0000   1.0000   1.0000   1.0000
     1.0000   1.0000   1.0000   1.0000   1.0088   0.7630   0.5816   0.3596
     0.2152   0.0000   0.0000   0.0000   0.0000   0.0000   0.0000   0.0000
     0.0000   0.0000   0.0000   0.0000   0.0000   0.0000   0.0000   0.0000
     0.0000   0.0000   0.0000   0.0000   0.0000   0.0000   0.0000   0.0000
     0.0000   0.0000   0.0000   0.0000   0.0000   0.0000   0.0000   0.0000
     0.0000   0.0000   0.0000   0.0000   0.0000   0.0000   0.0000   0.0000
     0.0000   0.0000   0.0000   0.0000   0.0000   0.0000   0.0000   0.0000
     0.0000   0.0000   0.0000   0.0000   0.0000   0.0000   0.0000   0.0000
     0.0000   0.0000   0.0000   0.0000   0.0000   0.0000   0.0000   0.0000
     0.0000   0.0000   0.0000   0.0000   0.0000   0.0000   0.0000   0.0000
     0.0000   0.0000   0.0000   0.0000   0.0000   0.0000   0.0000   0.0000
     0.0000   0.0000   0.0000   0.0000   0.0000   0.0000   0.0000   0.0000
     0.0000   0.0000   0.0000   0.0000   0.0000   0.0000   0.0000   0.0000
     0.0000   0.0000   0.0000   0.0000   0.0000   0.0000   0.0000   0.0000
     0.0000   0.0000   0.0000   0.0000   0.0000   0.0000   0.0000   0.0000
     0.0000   0.0000   0.0000   0.0000   0.0000   0.0000   0.0000   0.0000
     0.0000   0.0000   0.0000   0.0000   0.0000

          k = 0.2500-0.4336 0.0902 (401031 PWs)   bands (ev):

   -69.1583 -40.6610 -40.5768 -40.4805 -35.1019 -35.0937 -35.0683 -35.0542
   -35.0390 -35.0356 -35.0186 -35.0181 -34.9860 -34.9835 -34.9435 -34.9414
   -34.9386 -34.9172 -34.9164 -34.9027 -34.9026 -34.9020 -34.9017 -34.9004
   -34.8934 -34.8928 -34.8904 -34.8903 -34.8852 -34.8832 -34.8770 -34.8766
   -34.8751 -34.8747 -34.8743 -34.8724 -34.8639 -34.8628 -34.8597 -34.8509
   -34.8505 -34.8473 -34.8469 -34.8391 -34.8388 -34.8383 -34.8381 -34.8378
   -34.8369 -34.8368 -34.8364 -34.8354 -34.8350 -34.8349 -34.8344 -34.8338
   -34.8337 -34.8335 -34.8332 -34.8308 -34.8303 -34.8303 -34.8298 -34.8292
   -34.8290 -34.8271 -34.8268 -34.8267 -34.8266 -34.8262 -34.8249 -34.8248
   -34.8246 -34.8244 -34.8242 -34.8241 -34.8241 -34.8238 -34.8237 -34.8233
   -34.8231 -34.8229 -34.8227 -34.8225 -34.8223 -34.8218 -34.8215 -34.8212
   -34.8204 -34.8200 -34.8199 -34.8196 -34.8169 -34.8164 -34.8161 -34.8154
   -34.8149 -34.8146 -34.8106 -34.8105 -34.8104 -34.8103 -34.8101 -34.8090
   -34.8079 -34.8079 -34.8075 -34.8069 -34.8062 -34.8052 -34.8051 -34.8007
   -34.7996 -34.7983 -34.7981 -34.7905 -34.7904 -34.7847 -34.7819 -34.7816
   -34.7758 -34.7713 -34.7713 -34.7696 -34.7693 -34.7682 -34.7668 -34.7649
   -34.7640 -34.7628 -34.7626 -34.7609 -34.7579 -34.7576 -34.7573 -34.7542
   -34.7542 -34.7539 -34.7536 -34.7521 -34.7491 -34.7488 -34.7483 -34.7471
   -34.7469 -34.7466 -34.7464 -34.7464 -34.7463 -34.7461 -34.7459 -34.7457
   -34.7453 -34.7453 -34.7452 -34.7449 -34.7448 -34.7448 -34.7445 -34.7436
   -34.7433 -34.7431 -34.7430 -34.7430 -34.7429 -34.7427 -34.7427 -34.7426
   -34.7425 -34.7423 -34.7419 -34.7409 -34.7405 -34.7403 -34.7399 -34.7386
   -34.7371 -34.7370 -34.7364 -34.7356 -34.7349 -34.7348 -34.7347 -34.7339
   -34.7267 -34.7267 -34.7259 -34.7257 -34.7257 -34.7256 -34.7256 -34.7249
   -34.7241 -34.7233 -34.7233 -34.7213 -34.7198 -34.7198 -34.7191 -34.7178
   -34.7166 -34.7166 -34.7163 -34.7160 -34.7160 -34.7153 -34.7151 -34.7149
   -34.7143 -34.7139 -34.7130 -34.7125 -34.7122 -34.7116 -34.7114 -34.7110
   -34.7106 -34.7100 -34.7099 -34.7098 -34.7095 -34.7093 -34.7091 -34.7091
   -34.7087 -34.7086 -34.7083 -34.7081 -34.7079 -34.7077 -34.7076 -34.7071
   -34.7069 -34.7062 -34.7055 -34.7054 -34.6671 -34.6523 -34.6457 -34.6333
   -34.6317 -34.5693 -34.5548 -34.5476 -27.6637 -27.6597 -27.6484 -27.6424
   -27.6371 -27.6227 -27.6197 -27.6157 -27.6155 -27.6116 -27.6115 -27.6093
   -27.6063 -27.6060 -27.6050 -27.6041 -27.6025 -27.6013 -27.6009 -27.5990
   -27.5985 -27.5982 -27.5977 -27.5972 -27.5971 -27.5968 -27.5966 -27.5958
   -27.5953 -27.5947 -27.5946 -27.5943 -27.5928 -27.5926 -27.5922 -27.5922
   -27.5917 -27.5906 -27.5899 -27.5897 -27.5893 -27.5887 -27.5878 -27.5876
   -27.5873 -27.5873 -27.5866 -27.5861 -27.5860 -27.5858 -27.5856 -27.5853
   -27.5852 -27.5852 -27.5843 -27.5841 -27.5838 -27.5834 -27.5832 -27.5831
   -27.5826 -27.5823 -27.5819 -27.5818 -27.5809 -27.5805 -27.5801 -27.5792
   -27.5768 -27.5755 -27.5741 -27.5736 -27.5734 -27.5727 -27.5717 -27.5715
   -27.5712 -27.5710 -27.5710 -27.5701 -27.5701 -27.5700 -27.5699 -27.5695
   -27.5690 -27.5685 -27.5683 -27.5683 -27.5678 -27.5674 -27.5672 -27.5669
   -27.5662 -27.5662 -27.5660 -27.5654 -27.5651 -27.5649 -27.5646 -27.5646
   -27.5645 -27.5642 -27.5639 -27.5638 -27.5635 -27.5634 -27.5628 -27.5625
   -27.5623 -27.5621 -27.5620 -27.5618 -27.5617 -27.5615 -27.5613 -27.5609
   -27.5607 -27.5606 -27.5601 -27.5600 -27.5597 -27.5597 -27.5585 -27.5580
   -27.5577 -27.5575 -27.5572 -27.5569 -27.5560 -27.5559 -27.5546 -27.5530
   -27.5529 -27.5519 -27.5497 -27.5488 -27.5484 -27.5458 -27.5449 -27.5448
   -27.5447 -27.5432 -27.5425 -27.5411 -27.5389 -27.5379 -27.5351 -27.5324
   -27.5197 -27.5147 -27.5022 -27.5006 -27.4952 -27.4947 -27.4650 -27.4480
   -27.4393 -27.4332 -27.4165 -27.4109 -11.0331 -10.9492 -10.5253 -10.4781
   -10.4523 -10.4118 -10.3763 -10.2972 -10.2055 -10.1368  -9.9826  -9.9752
    -9.8269  -9.8117  -9.7921  -9.7279  -9.7101  -9.6868  -9.6385  -9.5736
    -9.4510  -9.3996  -9.3695  -9.2849  -9.2740  -9.2612  -9.2205  -9.1925
    -9.1840  -9.1542  -9.1385  -9.1163  -9.1088  -9.0750  -9.0290  -9.0219
    -9.0076  -8.9936  -8.9860  -8.9730  -8.9500  -8.9444  -8.9255  -8.9040
    -8.8939  -8.8898  -8.8204  -8.7770  -7.6224  -7.5882  -7.5653  -7.5515
    -7.5497  -7.5199  -7.3616  -7.3316  -7.2778  -7.2601  -7.1245  -7.0444
    -6.9147  -6.8398  -6.8227  -6.8008  -6.7907  -6.7707  -6.7154  -6.7060
    -6.7008  -6.6502  -6.6410  -6.4227  -6.4026  -6.3400  -6.0847  -6.0464
    -5.9641  -5.9555  -5.2780  -4.9887  -3.4679  -3.4324  -3.3890  -3.2995
    -3.2548  -3.2191  -3.1244  -3.0581  -2.8400  -2.7007  -2.6488  -2.5644
    -2.5496  -2.4784  -2.4647  -2.4501  -2.4486  -2.3702  -2.3362  -2.2870
    -2.2706  -2.2599  -2.2517  -2.2319  -2.1877  -2.1178  -2.0985  -2.0675
    -2.0490  -2.0050  -1.9906  -1.9685  -1.9449  -1.9358  -1.8895  -1.8511
    -1.7688  -1.7264  -1.6972  -1.6925  -1.6654  -1.6200  -1.6007  -1.5264
    -1.5176  -1.5042  -1.4938  -1.4671  -1.4241  -1.3322  -1.2762  -1.2286
    -1.1980  -1.1686  -1.1393  -1.1177  -1.1120  -1.0935  -1.0819  -1.0699
    -1.0605  -1.0196  -1.0133  -0.9861  -0.9672  -0.9635  -0.9331  -0.9115
    -0.8840  -0.8767  -0.8632  -0.8550  -0.8426  -0.7598  -0.7137  -0.6702
    -0.6635  -0.6242  -0.6069  -0.5974  -0.5690  -0.5405  -0.4381  -0.3869
    -0.3653  -0.3518  -0.3003  -0.2796  -0.2616  -0.2342  -0.1417  -0.1203
    -0.0851  -0.0635  -0.0470  -0.0375  -0.0335   0.0251   0.0917   0.1843
     0.2348   0.2765   0.2966   0.3398   0.3436   0.3870   0.4043   0.4541
     0.4781   0.4998   0.5327   0.5520   0.5695   0.6015   0.6215   0.6870
     0.7003   0.7070   0.7262   0.8564   0.8996   0.9344   0.9628   0.9981
     1.0249   1.0398   1.0971   1.1117   1.1427   1.1695   1.1764   1.2074
     1.2346   1.2584   1.2957   1.3092   1.3360   1.3609   1.3812   1.4412
     1.5361   1.5501   1.5604   1.6184   1.8107   2.0681   2.1720   2.2088
     2.2742   2.6127   2.6917   2.7069   2.7430   2.8372   2.8903   2.9338
     2.9544   2.9691   2.9921   3.0351   3.0802   3.1098   3.1242   3.1365
     3.1445   3.1550   3.1761   3.1917   3.1975   3.2172   3.2745   3.2996
     3.3069   3.3225   3.3505   3.3735   3.3965   3.4337   3.4501   3.4806
     3.5080   3.5098   3.5858   3.6040   3.6355   3.7251   3.7328   3.7756
     3.8350   3.8619   3.8649   3.8886   3.9497   3.9566   3.9754   4.0100
     4.0223   4.0352   4.1046   4.1304   4.1799   4.2688   4.3081   4.4034
     4.4471   4.4652   4.4819   4.5311   4.7086   4.7320   4.8017   4.8167
     4.8413   4.8762   4.9756   4.9922   5.0139   5.0446   5.0661   5.1124
     5.1577   5.1844   5.1946   5.2250   5.2389   5.2573   5.2878   5.3111
     5.3156   5.3412   5.3615   5.3758   5.4080   5.4275   5.4752   5.5271
     5.5667   5.5834   5.6126   5.6627   5.7410   5.7488   5.7667   5.7978
     5.8440   5.9131   5.9716   5.9865   6.0492   6.0778   6.0961   6.1768
     6.2021   6.2388   6.2586   6.3228   6.3861   6.4053   6.4294   6.4554
     6.4973   6.5476   6.5829   6.6368   6.6640   6.6673   6.7063   6.7256
     6.7598   6.8001   6.8395   6.9091   6.9587

     occupation numbers 
     1.0000   1.0000   1.0000   1.0000   1.0000   1.0000   1.0000   1.0000
     1.0000   1.0000   1.0000   1.0000   1.0000   1.0000   1.0000   1.0000
     1.0000   1.0000   1.0000   1.0000   1.0000   1.0000   1.0000   1.0000
     1.0000   1.0000   1.0000   1.0000   1.0000   1.0000   1.0000   1.0000
     1.0000   1.0000   1.0000   1.0000   1.0000   1.0000   1.0000   1.0000
     1.0000   1.0000   1.0000   1.0000   1.0000   1.0000   1.0000   1.0000
     1.0000   1.0000   1.0000   1.0000   1.0000   1.0000   1.0000   1.0000
     1.0000   1.0000   1.0000   1.0000   1.0000   1.0000   1.0000   1.0000
     1.0000   1.0000   1.0000   1.0000   1.0000   1.0000   1.0000   1.0000
     1.0000   1.0000   1.0000   1.0000   1.0000   1.0000   1.0000   1.0000
     1.0000   1.0000   1.0000   1.0000   1.0000   1.0000   1.0000   1.0000
     1.0000   1.0000   1.0000   1.0000   1.0000   1.0000   1.0000   1.0000
     1.0000   1.0000   1.0000   1.0000   1.0000   1.0000   1.0000   1.0000
     1.0000   1.0000   1.0000   1.0000   1.0000   1.0000   1.0000   1.0000
     1.0000   1.0000   1.0000   1.0000   1.0000   1.0000   1.0000   1.0000
     1.0000   1.0000   1.0000   1.0000   1.0000   1.0000   1.0000   1.0000
     1.0000   1.0000   1.0000   1.0000   1.0000   1.0000   1.0000   1.0000
     1.0000   1.0000   1.0000   1.0000   1.0000   1.0000   1.0000   1.0000
     1.0000   1.0000   1.0000   1.0000   1.0000   1.0000   1.0000   1.0000
     1.0000   1.0000   1.0000   1.0000   1.0000   1.0000   1.0000   1.0000
     1.0000   1.0000   1.0000   1.0000   1.0000   1.0000   1.0000   1.0000
     1.0000   1.0000   1.0000   1.0000   1.0000   1.0000   1.0000   1.0000
     1.0000   1.0000   1.0000   1.0000   1.0000   1.0000   1.0000   1.0000
     1.0000   1.0000   1.0000   1.0000   1.0000   1.0000   1.0000   1.0000
     1.0000   1.0000   1.0000   1.0000   1.0000   1.0000   1.0000   1.0000
     1.0000   1.0000   1.0000   1.0000   1.0000   1.0000   1.0000   1.0000
     1.0000   1.0000   1.0000   1.0000   1.0000   1.0000   1.0000   1.0000
     1.0000   1.0000   1.0000   1.0000   1.0000   1.0000   1.0000   1.0000
     1.0000   1.0000   1.0000   1.0000   1.0000   1.0000   1.0000   1.0000
     1.0000   1.0000   1.0000   1.0000   1.0000   1.0000   1.0000   1.0000
     1.0000   1.0000   1.0000   1.0000   1.0000   1.0000   1.0000   1.0000
     1.0000   1.0000   1.0000   1.0000   1.0000   1.0000   1.0000   1.0000
     1.0000   1.0000   1.0000   1.0000   1.0000   1.0000   1.0000   1.0000
     1.0000   1.0000   1.0000   1.0000   1.0000   1.0000   1.0000   1.0000
     1.0000   1.0000   1.0000   1.0000   1.0000   1.0000   1.0000   1.0000
     1.0000   1.0000   1.0000   1.0000   1.0000   1.0000   1.0000   1.0000
     1.0000   1.0000   1.0000   1.0000   1.0000   1.0000   1.0000   1.0000
     1.0000   1.0000   1.0000   1.0000   1.0000   1.0000   1.0000   1.0000
     1.0000   1.0000   1.0000   1.0000   1.0000   1.0000   1.0000   1.0000
     1.0000   1.0000   1.0000   1.0000   1.0000   1.0000   1.0000   1.0000
     1.0000   1.0000   1.0000   1.0000   1.0000   1.0000   1.0000   1.0000
     1.0000   1.0000   1.0000   1.0000   1.0000   1.0000   1.0000   1.0000
     1.0000   1.0000   1.0000   1.0000   1.0000   1.0000   1.0000   1.0000
     1.0000   1.0000   1.0000   1.0000   1.0000   1.0000   1.0000   1.0000
     1.0000   1.0000   1.0000   1.0000   1.0000   1.0000   1.0000   1.0000
     1.0000   1.0000   1.0000   1.0000   1.0000   1.0000   1.0000   1.0000
     1.0000   1.0000   1.0000   1.0000   1.0000   1.0000   1.0000   1.0000
     1.0000   1.0000   1.0000   1.0000   1.0000   1.0000   1.0000   1.0000
     1.0000   1.0000   1.0000   1.0000   1.0000   1.0000   1.0000   1.0000
     1.0000   1.0000   1.0000   1.0000   1.0000   1.0000   1.0000   1.0000
     1.0000   1.0000   1.0000   1.0000   1.0000   1.0000   1.0000   1.0000
     1.0000   1.0000   1.0000   1.0000   1.0000   1.0000   1.0000   1.0000
     1.0000   1.0000   1.0000   1.0000   1.0000   1.0000   1.0000   1.0000
     1.0000   1.0000   1.0000   1.0000   1.0000   1.0000   1.0000   1.0000
     1.0000   1.0000   1.0000   1.0000   1.0000   1.0000   1.0000   1.0000
     1.0000   1.0000   1.0000   1.0000   1.0000   1.0000   1.0000   1.0000
     1.0000   1.0000   1.0000   1.0000   1.0000   1.0000   1.0000   1.0000
     1.0000   1.0000   1.0000   1.0000   1.0000   1.0000   1.0000   1.0000
     1.0000   1.0000   1.0000   1.0000   1.0000   1.0000   1.0000   1.0000
     1.0000   1.0000   1.0000   1.0000   1.0000   1.0000   1.0000   1.0000
     1.0000   1.0000   1.0000   1.0000   1.0000   1.0000   1.0000   1.0000
     1.0000   1.0000   1.0000   1.0000   1.0000   1.0000   1.0000   1.0000
     1.0000   1.0000   1.0000   1.0000   1.0000   1.0000   1.0000   1.0000
     1.0000   1.0000   1.0000   1.0000   1.0000   1.0000   1.0000   1.0000
     1.0000   1.0000   1.0000   1.0000   1.0000   1.0000   1.0000   1.0000
     1.0000   1.0000   1.0000   1.0000   1.0000   1.0000   1.0000   1.0000
     1.0000   1.0000   1.0000   1.0000   1.0000   1.0000   1.0000   1.0000
     1.0000   1.0000   1.0000   1.0000   1.0000   1.0000   1.0000   1.0000
     1.0000   1.0000   1.0000   1.0000   1.0000   1.0000   1.0000   1.0000
     1.0000   1.0000   1.0000   1.0000   1.0000   1.0000   1.0000   1.0000
     1.0000   1.0000   1.0000   1.0000   1.0000   1.0000   1.0000   1.0000
     1.0000   1.0000   1.0000   1.0000   1.0000   1.0000   1.0000   1.0000
     1.0000   1.0000   1.0000   1.0000   1.0000   1.0000   1.0000   1.0000
     1.0000   1.0000   1.0000   1.0000   1.0000   1.0000   1.0000   1.0000
     1.0000   1.0000   1.0000   1.0000   1.0000   1.0000   1.0000   1.0000
     1.0000   1.0000   1.0000   1.0000   1.0000   1.0000   1.0000   1.0000
     1.0000   1.0000   1.0000   1.0000   1.0000   1.0000   1.0000   1.0000
     1.0000   1.0000   1.0000   1.0000   1.0000   1.0000   1.0000   1.0000
     1.0000   1.0000   1.0000   1.0000   1.0026   1.0208   0.5580   0.3651
     0.1253   0.0000   0.0000   0.0000   0.0000   0.0000   0.0000   0.0000
     0.0000   0.0000   0.0000   0.0000   0.0000   0.0000   0.0000   0.0000
     0.0000   0.0000   0.0000   0.0000   0.0000   0.0000   0.0000   0.0000
     0.0000   0.0000   0.0000   0.0000   0.0000   0.0000   0.0000   0.0000
     0.0000   0.0000   0.0000   0.0000   0.0000   0.0000   0.0000   0.0000
     0.0000   0.0000   0.0000   0.0000   0.0000   0.0000   0.0000   0.0000
     0.0000   0.0000   0.0000   0.0000   0.0000   0.0000   0.0000   0.0000
     0.0000   0.0000   0.0000   0.0000   0.0000   0.0000   0.0000   0.0000
     0.0000   0.0000   0.0000   0.0000   0.0000   0.0000   0.0000   0.0000
     0.0000   0.0000   0.0000   0.0000   0.0000   0.0000   0.0000   0.0000
     0.0000   0.0000   0.0000   0.0000   0.0000   0.0000   0.0000   0.0000
     0.0000   0.0000   0.0000   0.0000   0.0000   0.0000   0.0000   0.0000
     0.0000   0.0000   0.0000   0.0000   0.0000   0.0000   0.0000   0.0000
     0.0000   0.0000   0.0000   0.0000   0.0000   0.0000   0.0000   0.0000
     0.0000   0.0000   0.0000   0.0000   0.0000   0.0000   0.0000   0.0000
     0.0000   0.0000   0.0000   0.0000   0.0000

          k = 0.2500-0.4336-0.0902 (401031 PWs)   bands (ev):

   -69.1583 -40.6610 -40.5768 -40.4805 -35.1019 -35.0937 -35.0683 -35.0542
   -35.0390 -35.0356 -35.0186 -35.0181 -34.9860 -34.9835 -34.9435 -34.9414
   -34.9386 -34.9172 -34.9164 -34.9027 -34.9026 -34.9020 -34.9017 -34.9004
   -34.8934 -34.8928 -34.8904 -34.8903 -34.8852 -34.8832 -34.8770 -34.8766
   -34.8751 -34.8747 -34.8743 -34.8724 -34.8639 -34.8628 -34.8597 -34.8509
   -34.8505 -34.8473 -34.8469 -34.8391 -34.8388 -34.8383 -34.8381 -34.8378
   -34.8369 -34.8368 -34.8364 -34.8354 -34.8350 -34.8349 -34.8344 -34.8338
   -34.8337 -34.8335 -34.8332 -34.8308 -34.8303 -34.8303 -34.8298 -34.8292
   -34.8290 -34.8271 -34.8268 -34.8267 -34.8266 -34.8262 -34.8249 -34.8248
   -34.8246 -34.8244 -34.8242 -34.8241 -34.8241 -34.8238 -34.8237 -34.8233
   -34.8231 -34.8229 -34.8227 -34.8225 -34.8223 -34.8218 -34.8215 -34.8212
   -34.8204 -34.8200 -34.8199 -34.8196 -34.8169 -34.8164 -34.8161 -34.8154
   -34.8149 -34.8146 -34.8106 -34.8105 -34.8104 -34.8103 -34.8101 -34.8090
   -34.8079 -34.8079 -34.8075 -34.8069 -34.8062 -34.8052 -34.8051 -34.8007
   -34.7996 -34.7983 -34.7981 -34.7905 -34.7904 -34.7847 -34.7819 -34.7816
   -34.7758 -34.7713 -34.7713 -34.7696 -34.7693 -34.7682 -34.7668 -34.7649
   -34.7640 -34.7628 -34.7626 -34.7609 -34.7579 -34.7576 -34.7573 -34.7542
   -34.7542 -34.7539 -34.7536 -34.7521 -34.7491 -34.7488 -34.7483 -34.7471
   -34.7469 -34.7466 -34.7464 -34.7464 -34.7463 -34.7461 -34.7459 -34.7457
   -34.7453 -34.7453 -34.7452 -34.7449 -34.7448 -34.7448 -34.7445 -34.7436
   -34.7433 -34.7431 -34.7430 -34.7430 -34.7429 -34.7427 -34.7427 -34.7426
   -34.7425 -34.7423 -34.7419 -34.7409 -34.7405 -34.7403 -34.7399 -34.7386
   -34.7371 -34.7370 -34.7364 -34.7356 -34.7349 -34.7348 -34.7347 -34.7339
   -34.7267 -34.7267 -34.7259 -34.7257 -34.7257 -34.7256 -34.7256 -34.7249
   -34.7241 -34.7233 -34.7233 -34.7213 -34.7198 -34.7198 -34.7191 -34.7178
   -34.7166 -34.7166 -34.7163 -34.7160 -34.7160 -34.7153 -34.7151 -34.7149
   -34.7143 -34.7139 -34.7130 -34.7125 -34.7122 -34.7116 -34.7114 -34.7110
   -34.7106 -34.7100 -34.7099 -34.7098 -34.7095 -34.7093 -34.7091 -34.7091
   -34.7087 -34.7086 -34.7083 -34.7081 -34.7079 -34.7077 -34.7076 -34.7071
   -34.7069 -34.7062 -34.7055 -34.7054 -34.6671 -34.6523 -34.6457 -34.6333
   -34.6317 -34.5693 -34.5548 -34.5476 -27.6637 -27.6597 -27.6484 -27.6424
   -27.6371 -27.6227 -27.6197 -27.6157 -27.6155 -27.6116 -27.6115 -27.6093
   -27.6063 -27.6060 -27.6050 -27.6041 -27.6025 -27.6013 -27.6009 -27.5990
   -27.5985 -27.5982 -27.5977 -27.5972 -27.5971 -27.5968 -27.5966 -27.5958
   -27.5953 -27.5947 -27.5946 -27.5943 -27.5928 -27.5926 -27.5922 -27.5922
   -27.5917 -27.5906 -27.5899 -27.5897 -27.5893 -27.5887 -27.5878 -27.5876
   -27.5873 -27.5873 -27.5866 -27.5861 -27.5860 -27.5858 -27.5856 -27.5853
   -27.5852 -27.5852 -27.5843 -27.5841 -27.5838 -27.5834 -27.5832 -27.5831
   -27.5826 -27.5823 -27.5819 -27.5818 -27.5809 -27.5805 -27.5801 -27.5792
   -27.5768 -27.5755 -27.5741 -27.5736 -27.5734 -27.5727 -27.5717 -27.5715
   -27.5712 -27.5710 -27.5710 -27.5701 -27.5701 -27.5700 -27.5699 -27.5695
   -27.5690 -27.5685 -27.5683 -27.5683 -27.5678 -27.5674 -27.5672 -27.5669
   -27.5662 -27.5662 -27.5660 -27.5654 -27.5651 -27.5649 -27.5646 -27.5646
   -27.5645 -27.5642 -27.5639 -27.5638 -27.5635 -27.5634 -27.5628 -27.5625
   -27.5623 -27.5621 -27.5620 -27.5618 -27.5617 -27.5615 -27.5613 -27.5609
   -27.5607 -27.5606 -27.5601 -27.5600 -27.5597 -27.5597 -27.5585 -27.5580
   -27.5577 -27.5575 -27.5572 -27.5569 -27.5560 -27.5559 -27.5546 -27.5530
   -27.5529 -27.5519 -27.5497 -27.5488 -27.5484 -27.5458 -27.5449 -27.5448
   -27.5447 -27.5432 -27.5425 -27.5411 -27.5389 -27.5379 -27.5351 -27.5324
   -27.5197 -27.5147 -27.5022 -27.5006 -27.4952 -27.4947 -27.4650 -27.4480
   -27.4393 -27.4332 -27.4165 -27.4109 -11.0331 -10.9492 -10.5253 -10.4781
   -10.4523 -10.4118 -10.3763 -10.2972 -10.2055 -10.1368  -9.9826  -9.9752
    -9.8269  -9.8117  -9.7921  -9.7279  -9.7101  -9.6868  -9.6385  -9.5736
    -9.4510  -9.3996  -9.3695  -9.2849  -9.2740  -9.2612  -9.2205  -9.1925
    -9.1840  -9.1542  -9.1385  -9.1163  -9.1088  -9.0750  -9.0290  -9.0219
    -9.0076  -8.9936  -8.9860  -8.9730  -8.9500  -8.9444  -8.9255  -8.9040
    -8.8939  -8.8898  -8.8204  -8.7770  -7.6224  -7.5882  -7.5653  -7.5515
    -7.5497  -7.5199  -7.3616  -7.3316  -7.2778  -7.2601  -7.1245  -7.0444
    -6.9147  -6.8398  -6.8227  -6.8008  -6.7907  -6.7707  -6.7154  -6.7060
    -6.7008  -6.6502  -6.6410  -6.4227  -6.4026  -6.3400  -6.0847  -6.0464
    -5.9641  -5.9555  -5.2780  -4.9887  -3.4679  -3.4324  -3.3890  -3.2995
    -3.2548  -3.2191  -3.1244  -3.0581  -2.8400  -2.7007  -2.6488  -2.5644
    -2.5496  -2.4784  -2.4647  -2.4501  -2.4486  -2.3702  -2.3362  -2.2870
    -2.2706  -2.2599  -2.2517  -2.2319  -2.1877  -2.1178  -2.0985  -2.0675
    -2.0490  -2.0050  -1.9906  -1.9685  -1.9449  -1.9358  -1.8895  -1.8511
    -1.7688  -1.7264  -1.6972  -1.6925  -1.6654  -1.6200  -1.6007  -1.5264
    -1.5176  -1.5042  -1.4938  -1.4671  -1.4241  -1.3322  -1.2762  -1.2286
    -1.1980  -1.1686  -1.1393  -1.1177  -1.1120  -1.0935  -1.0819  -1.0699
    -1.0605  -1.0196  -1.0133  -0.9861  -0.9672  -0.9635  -0.9331  -0.9115
    -0.8840  -0.8767  -0.8632  -0.8550  -0.8426  -0.7598  -0.7137  -0.6702
    -0.6635  -0.6242  -0.6069  -0.5974  -0.5690  -0.5405  -0.4381  -0.3869
    -0.3653  -0.3518  -0.3003  -0.2796  -0.2616  -0.2342  -0.1417  -0.1203
    -0.0851  -0.0635  -0.0470  -0.0375  -0.0335   0.0251   0.0917   0.1843
     0.2348   0.2765   0.2966   0.3398   0.3436   0.3870   0.4043   0.4541
     0.4781   0.4998   0.5327   0.5520   0.5695   0.6015   0.6215   0.6870
     0.7003   0.7070   0.7262   0.8564   0.8996   0.9344   0.9628   0.9981
     1.0249   1.0398   1.0971   1.1117   1.1427   1.1695   1.1764   1.2074
     1.2346   1.2584   1.2957   1.3092   1.3360   1.3609   1.3812   1.4412
     1.5361   1.5501   1.5604   1.6184   1.8107   2.0681   2.1720   2.2088
     2.2742   2.6127   2.6917   2.7069   2.7430   2.8372   2.8903   2.9338
     2.9544   2.9691   2.9921   3.0351   3.0802   3.1098   3.1242   3.1365
     3.1445   3.1550   3.1761   3.1917   3.1975   3.2172   3.2745   3.2996
     3.3069   3.3225   3.3505   3.3735   3.3965   3.4337   3.4501   3.4806
     3.5080   3.5098   3.5858   3.6040   3.6355   3.7251   3.7328   3.7756
     3.8350   3.8619   3.8649   3.8886   3.9497   3.9566   3.9754   4.0100
     4.0223   4.0352   4.1046   4.1304   4.1799   4.2688   4.3081   4.4034
     4.4471   4.4652   4.4819   4.5311   4.7086   4.7320   4.8017   4.8167
     4.8413   4.8762   4.9756   4.9922   5.0139   5.0446   5.0661   5.1124
     5.1578   5.1844   5.1946   5.2250   5.2389   5.2573   5.2878   5.3111
     5.3156   5.3412   5.3615   5.3758   5.4080   5.4275   5.4752   5.5271
     5.5667   5.5834   5.6126   5.6627   5.7410   5.7488   5.7667   5.7978
     5.8440   5.9131   5.9716   5.9865   6.0492   6.0778   6.0961   6.1768
     6.2021   6.2388   6.2586   6.3228   6.3861   6.4053   6.4294   6.4554
     6.4973   6.5476   6.5829   6.6368   6.6640   6.6673   6.7063   6.7256
     6.7598   6.8002   6.8395   6.9091   6.9587

     occupation numbers 
     1.0000   1.0000   1.0000   1.0000   1.0000   1.0000   1.0000   1.0000
     1.0000   1.0000   1.0000   1.0000   1.0000   1.0000   1.0000   1.0000
     1.0000   1.0000   1.0000   1.0000   1.0000   1.0000   1.0000   1.0000
     1.0000   1.0000   1.0000   1.0000   1.0000   1.0000   1.0000   1.0000
     1.0000   1.0000   1.0000   1.0000   1.0000   1.0000   1.0000   1.0000
     1.0000   1.0000   1.0000   1.0000   1.0000   1.0000   1.0000   1.0000
     1.0000   1.0000   1.0000   1.0000   1.0000   1.0000   1.0000   1.0000
     1.0000   1.0000   1.0000   1.0000   1.0000   1.0000   1.0000   1.0000
     1.0000   1.0000   1.0000   1.0000   1.0000   1.0000   1.0000   1.0000
     1.0000   1.0000   1.0000   1.0000   1.0000   1.0000   1.0000   1.0000
     1.0000   1.0000   1.0000   1.0000   1.0000   1.0000   1.0000   1.0000
     1.0000   1.0000   1.0000   1.0000   1.0000   1.0000   1.0000   1.0000
     1.0000   1.0000   1.0000   1.0000   1.0000   1.0000   1.0000   1.0000
     1.0000   1.0000   1.0000   1.0000   1.0000   1.0000   1.0000   1.0000
     1.0000   1.0000   1.0000   1.0000   1.0000   1.0000   1.0000   1.0000
     1.0000   1.0000   1.0000   1.0000   1.0000   1.0000   1.0000   1.0000
     1.0000   1.0000   1.0000   1.0000   1.0000   1.0000   1.0000   1.0000
     1.0000   1.0000   1.0000   1.0000   1.0000   1.0000   1.0000   1.0000
     1.0000   1.0000   1.0000   1.0000   1.0000   1.0000   1.0000   1.0000
     1.0000   1.0000   1.0000   1.0000   1.0000   1.0000   1.0000   1.0000
     1.0000   1.0000   1.0000   1.0000   1.0000   1.0000   1.0000   1.0000
     1.0000   1.0000   1.0000   1.0000   1.0000   1.0000   1.0000   1.0000
     1.0000   1.0000   1.0000   1.0000   1.0000   1.0000   1.0000   1.0000
     1.0000   1.0000   1.0000   1.0000   1.0000   1.0000   1.0000   1.0000
     1.0000   1.0000   1.0000   1.0000   1.0000   1.0000   1.0000   1.0000
     1.0000   1.0000   1.0000   1.0000   1.0000   1.0000   1.0000   1.0000
     1.0000   1.0000   1.0000   1.0000   1.0000   1.0000   1.0000   1.0000
     1.0000   1.0000   1.0000   1.0000   1.0000   1.0000   1.0000   1.0000
     1.0000   1.0000   1.0000   1.0000   1.0000   1.0000   1.0000   1.0000
     1.0000   1.0000   1.0000   1.0000   1.0000   1.0000   1.0000   1.0000
     1.0000   1.0000   1.0000   1.0000   1.0000   1.0000   1.0000   1.0000
     1.0000   1.0000   1.0000   1.0000   1.0000   1.0000   1.0000   1.0000
     1.0000   1.0000   1.0000   1.0000   1.0000   1.0000   1.0000   1.0000
     1.0000   1.0000   1.0000   1.0000   1.0000   1.0000   1.0000   1.0000
     1.0000   1.0000   1.0000   1.0000   1.0000   1.0000   1.0000   1.0000
     1.0000   1.0000   1.0000   1.0000   1.0000   1.0000   1.0000   1.0000
     1.0000   1.0000   1.0000   1.0000   1.0000   1.0000   1.0000   1.0000
     1.0000   1.0000   1.0000   1.0000   1.0000   1.0000   1.0000   1.0000
     1.0000   1.0000   1.0000   1.0000   1.0000   1.0000   1.0000   1.0000
     1.0000   1.0000   1.0000   1.0000   1.0000   1.0000   1.0000   1.0000
     1.0000   1.0000   1.0000   1.0000   1.0000   1.0000   1.0000   1.0000
     1.0000   1.0000   1.0000   1.0000   1.0000   1.0000   1.0000   1.0000
     1.0000   1.0000   1.0000   1.0000   1.0000   1.0000   1.0000   1.0000
     1.0000   1.0000   1.0000   1.0000   1.0000   1.0000   1.0000   1.0000
     1.0000   1.0000   1.0000   1.0000   1.0000   1.0000   1.0000   1.0000
     1.0000   1.0000   1.0000   1.0000   1.0000   1.0000   1.0000   1.0000
     1.0000   1.0000   1.0000   1.0000   1.0000   1.0000   1.0000   1.0000
     1.0000   1.0000   1.0000   1.0000   1.0000   1.0000   1.0000   1.0000
     1.0000   1.0000   1.0000   1.0000   1.0000   1.0000   1.0000   1.0000
     1.0000   1.0000   1.0000   1.0000   1.0000   1.0000   1.0000   1.0000
     1.0000   1.0000   1.0000   1.0000   1.0000   1.0000   1.0000   1.0000
     1.0000   1.0000   1.0000   1.0000   1.0000   1.0000   1.0000   1.0000
     1.0000   1.0000   1.0000   1.0000   1.0000   1.0000   1.0000   1.0000
     1.0000   1.0000   1.0000   1.0000   1.0000   1.0000   1.0000   1.0000
     1.0000   1.0000   1.0000   1.0000   1.0000   1.0000   1.0000   1.0000
     1.0000   1.0000   1.0000   1.0000   1.0000   1.0000   1.0000   1.0000
     1.0000   1.0000   1.0000   1.0000   1.0000   1.0000   1.0000   1.0000
     1.0000   1.0000   1.0000   1.0000   1.0000   1.0000   1.0000   1.0000
     1.0000   1.0000   1.0000   1.0000   1.0000   1.0000   1.0000   1.0000
     1.0000   1.0000   1.0000   1.0000   1.0000   1.0000   1.0000   1.0000
     1.0000   1.0000   1.0000   1.0000   1.0000   1.0000   1.0000   1.0000
     1.0000   1.0000   1.0000   1.0000   1.0000   1.0000   1.0000   1.0000
     1.0000   1.0000   1.0000   1.0000   1.0000   1.0000   1.0000   1.0000
     1.0000   1.0000   1.0000   1.0000   1.0000   1.0000   1.0000   1.0000
     1.0000   1.0000   1.0000   1.0000   1.0000   1.0000   1.0000   1.0000
     1.0000   1.0000   1.0000   1.0000   1.0000   1.0000   1.0000   1.0000
     1.0000   1.0000   1.0000   1.0000   1.0000   1.0000   1.0000   1.0000
     1.0000   1.0000   1.0000   1.0000   1.0000   1.0000   1.0000   1.0000
     1.0000   1.0000   1.0000   1.0000   1.0000   1.0000   1.0000   1.0000
     1.0000   1.0000   1.0000   1.0000   1.0000   1.0000   1.0000   1.0000
     1.0000   1.0000   1.0000   1.0000   1.0000   1.0000   1.0000   1.0000
     1.0000   1.0000   1.0000   1.0000   1.0000   1.0000   1.0000   1.0000
     1.0000   1.0000   1.0000   1.0000   1.0000   1.0000   1.0000   1.0000
     1.0000   1.0000   1.0000   1.0000   1.0000   1.0000   1.0000   1.0000
     1.0000   1.0000   1.0000   1.0000   1.0000   1.0000   1.0000   1.0000
     1.0000   1.0000   1.0000   1.0000   1.0000   1.0000   1.0000   1.0000
     1.0000   1.0000   1.0000   1.0000   1.0000   1.0000   1.0000   1.0000
     1.0000   1.0000   1.0000   1.0000   1.0000   1.0000   1.0000   1.0000
     1.0000   1.0000   1.0000   1.0000   1.0026   1.0208   0.5580   0.3651
     0.1253   0.0000   0.0000   0.0000   0.0000   0.0000   0.0000   0.0000
     0.0000   0.0000   0.0000   0.0000   0.0000   0.0000   0.0000   0.0000
     0.0000   0.0000   0.0000   0.0000   0.0000   0.0000   0.0000   0.0000
     0.0000   0.0000   0.0000   0.0000   0.0000   0.0000   0.0000   0.0000
     0.0000   0.0000   0.0000   0.0000   0.0000   0.0000   0.0000   0.0000
     0.0000   0.0000   0.0000   0.0000   0.0000   0.0000   0.0000   0.0000
     0.0000   0.0000   0.0000   0.0000   0.0000   0.0000   0.0000   0.0000
     0.0000   0.0000   0.0000   0.0000   0.0000   0.0000   0.0000   0.0000
     0.0000   0.0000   0.0000   0.0000   0.0000   0.0000   0.0000   0.0000
     0.0000   0.0000   0.0000   0.0000   0.0000   0.0000   0.0000   0.0000
     0.0000   0.0000   0.0000   0.0000   0.0000   0.0000   0.0000   0.0000
     0.0000   0.0000   0.0000   0.0000   0.0000   0.0000   0.0000   0.0000
     0.0000   0.0000   0.0000   0.0000   0.0000   0.0000   0.0000   0.0000
     0.0000   0.0000   0.0000   0.0000   0.0000   0.0000   0.0000   0.0000
     0.0000   0.0000   0.0000   0.0000   0.0000   0.0000   0.0000   0.0000
     0.0000   0.0000   0.0000   0.0000   0.0000

     the Fermi energy is     2.2016 ev

!    total energy              =  -13037.65863007 Ry
     estimated scf accuracy    <       0.00000059 Ry
     smearing contrib. (-TS)   =      -0.00839141 Ry
     internal energy E=F+TS    =  -13037.65023866 Ry

     The total energy is F=E-TS. E is the sum of the following terms:
     one-electron contribution = -227940.42923327 Ry
     hartree contribution      =  113879.49422479 Ry
     xc contribution           =   -1411.55966376 Ry
     ewald contribution        =  102436.18243371 Ry
     DFT-D3 Dispersion         =      -1.33800013 Ry

     convergence has been achieved in  19 iterations

     Writing all to output data dir ./out/sb2te3.save/ :
     XML data file, charge density, pseudopotentials, collected wavefunctions
 
     init_run     :    357.94s CPU    368.38s WALL (       1 calls)
     electrons    :  23428.20s CPU  24259.13s WALL (       1 calls)

     Called by init_run:
     wfcinit      :    352.49s CPU    362.32s WALL (       1 calls)
     wfcinit:atom :      1.53s CPU      2.34s WALL (       1 calls)
     wfcinit:wfcr :    347.76s CPU    355.15s WALL (       1 calls)
     potinit      :      2.51s CPU      2.91s WALL (       1 calls)
     hinit0       :      1.95s CPU      2.10s WALL (       1 calls)

     Called by electrons:
     c_bands      :  20886.64s CPU  21597.74s WALL (      19 calls)
     sum_band     :   1962.93s CPU   1985.31s WALL (      19 calls)
     v_of_rho     :     44.10s CPU     50.93s WALL (      20 calls)
     v_h          :      3.30s CPU      4.35s WALL (      20 calls)
     v_xc         :     40.80s CPU     46.58s WALL (      20 calls)
     mix_rho      :    533.93s CPU    590.24s WALL (      19 calls)
     energy_dftd3 :      0.33s CPU      0.33s WALL (       1 calls)

     Called by c_bands:
     init_us_2    :    121.39s CPU    124.52s WALL (      39 calls)
     cegterg      :  20163.50s CPU  20871.91s WALL (      19 calls)

     Called by sum_band:
     sum_band:wei :      0.03s CPU      0.03s WALL (      19 calls)
     sum_band:loo :   1951.01s CPU   1972.49s WALL (      19 calls)
     sum_band:buf :      0.00s CPU      0.00s WALL (      19 calls)
     sum_band:ini :     59.35s CPU     60.13s WALL (      19 calls)

     Called by *egterg:
     cdiaghg      :    195.96s CPU    198.16s WALL (     187 calls)
     cegterg:over :   2691.41s CPU   2785.95s WALL (     168 calls)
     cegterg:upda :   1516.52s CPU   1651.99s WALL (     168 calls)
     cegterg:last :   2622.94s CPU   2773.92s WALL (      40 calls)
     h_psi        :  12442.46s CPU  12713.83s WALL (     188 calls)
     g_psi        :     18.60s CPU     22.56s WALL (     168 calls)

     Called by h_psi:
     h_psi:calbec :   2133.77s CPU   2165.91s WALL (     188 calls)
     vloc_psi     :   8023.68s CPU   8123.52s WALL (     188 calls)
     add_vuspsi   :   2254.51s CPU   2305.40s WALL (     188 calls)

     General routines
     calbec       :   2133.77s CPU   2165.91s WALL (     188 calls)
     fft          :     14.47s CPU     14.56s WALL (     199 calls)
     ffts         :    153.69s CPU    154.24s WALL (    2195 calls)
     fftw         :   7872.68s CPU   7926.47s WALL (   80493 calls)
 
     Parallel routines
 
     PWSCF        :      6h36m CPU      6h50m WALL

 
   This run was terminated on:  23:10:37  13Sep2026            

=------------------------------------------------------------------------------=
   JOB DONE.
=------------------------------------------------------------------------------=
