81
Properties=species:S:1:pos:R:3:forces:R:3 energy=-267.64913870859266 mlff_rel_energy_eV=0.0 mlff_fmax_eV_A=2.3308643852862914 calculator_label=/data/pclancy3/yi/flare-data/1-Cr-Sb2Te3/3.fine-tuning/2-layer/MACE-omat/MACE-matpes-pbe-omat-ft.model neb_image=0 neb_protocol=mlff_pre_neb pbc="F F F"
Te      12.83419756       7.42867709      14.99806759      -0.99654298      -0.75607453       0.86942386
Te       2.17560346       3.72087047      15.01610442      -0.66453471       0.02155313       0.46760775
Te       0.03272262       7.41790464      15.00124804      -0.93695503      -0.84232493       1.08113285
Te      14.99305981       3.68473810      14.99806589      -1.22560032      -0.54724374       0.99986181
Te       0.06945868       2.50639035      22.38753635       1.02522015       0.46597040       0.00007723
Te       2.17751924       6.15770160      22.39152392       0.10193614      -0.98448816       0.05489070
Te       4.28561251       2.50182399      22.39152233       0.28464074      -0.93310926      -0.16783803
Te      -2.10198766       6.18695015      22.31193256       0.56660813      -0.30235249       0.38422280
Te       2.19719077       1.29763077      25.03740842      -0.38449492      -1.43414127       0.35540986
Te       4.30518974       4.94885991      25.04141823      -0.18457835      -0.06336689      -0.17398529
Te       6.47669596       1.26833091      25.11694332       0.00169304      -0.91661691       0.11034623
Te       0.08914882       4.95342969      25.03741001      -0.70946797      -0.05562195      -0.02681164
Te       2.18771554       1.23068098      18.64202229       0.02969770      -0.30898803      -0.01857636
Te       4.32262520       4.95890975      18.62332542       0.03740600      -0.55747323      -0.13059540
Te       6.44155407       1.24806430      18.65766683      -0.10048062      -1.15420196       0.70810987
Te       0.02646425       4.97876382      18.64202180      -1.05105553      -0.40226257      -0.89725511
Te       0.05551086       0.03005198      32.42316331       1.06468387       0.78512386      -0.91501868
Te       2.19912366       3.73442427      32.41278173       0.12317733      -0.73039217      -0.23669424
Te       4.34200621       0.03739181      32.42763810       0.04315385       0.54116567      -0.81617123
Te      -2.08075783       3.73481030      32.42316269       1.03499827       0.33361435      -0.74530114
Te       0.05210876       2.49639184      28.80558468      -0.85924722      -0.33536373      -0.84371129
Te       2.18698591       6.22458981      28.78685872       0.10068281      -0.81444122       0.19790312
Te       4.34823036       2.47651552      28.78685750      -0.05578858      -0.18230822      -0.30613335
Te      -2.06683208       6.20723044      28.77124840       0.23407546      -1.56543832      -0.86680319
Sb       0.02387655       2.48010897      16.67609978       1.03344886       1.14848570       0.59800535
Sb       2.18495003       6.20529538      16.70195406       0.04840219       0.31923032      -0.81269294
Sb       4.33050819       2.48441704      16.70195852      -0.23289301       0.44270248       0.57849561
Sb      -2.07966272       6.19982965      16.71435923       1.98244501       0.23794436      -0.46465131
Sb       0.02194412       0.04640019      26.83297972       0.64740093       1.08618528       0.00956000
Sb       2.19133563       3.72994201      26.75502658      -0.01255845       1.43060649       0.87530799
Sb       4.39640547       0.06876643      26.83699314      -0.08496349       0.82163724      -0.26223405
Sb       6.46985837       3.70812629      26.83239915       0.24332985       1.49205682       0.05872193
Sb      12.89842248       7.41504560      20.59649060      -1.10285968      -1.24212186       0.36384723
Sb       2.18337951       3.72534247      20.67398788      -0.74985417       0.20539576       0.24129869
Sb       4.24746818      -0.01712412      20.59189472      -0.03344951       1.27180870      -0.32534528
Sb      15.01344623       3.74714963      20.59648700      -0.82516937      -0.66426537      -0.76500520
Sb       2.18977538       1.24999594      30.72694748      -0.61739836      -0.87785993       2.06908434
Sb       4.35083175       4.97517208      30.75274189      -0.25500799       0.67872007      -0.92462811
Sb       6.45438470       1.25546338      30.71452178       0.05433714      -0.45945836       1.57164262
Sb       0.04420695       4.97087428      30.72694815      -1.19993714       0.00001727      -0.07727551
Te       4.31919401       7.42523591      15.00571599       0.01887065      -0.50624957       0.55256123
Te      10.70750005       3.70795299      15.01653459      -0.12561922       0.34211326       0.46135998
Te       8.62636042       7.44058922      15.00666837      -0.03877765      -0.63649353       0.81755658
Te       6.45546271       3.72047760      15.00571662       0.10409191       0.36614891       0.21071183
Te       8.58782893       2.48567176      22.28998018       0.04996130      -0.89089111       0.27529919
Te      10.75164421       6.20062396      22.29432711       1.11947573       0.39950392      -0.54316608
Te      12.88698552       2.49748402      22.29432356       0.70394301      -0.38523793       0.20501433
Te       6.47932576       6.20253340      22.29835232       0.05482992      -0.99185709      -0.19847313
Te      10.73166552       1.25466907      25.13460180      -0.15518753      -0.99649870       0.33642015
Te      12.89548764       4.96961955      25.13896242      -1.03442213      -0.63557632       0.23547166
Te      15.00398568       1.25275963      25.13058857      -1.45544141      -0.70640706       1.01452620
Te       8.59631908       4.95780901      25.13460194      -0.17960100      -0.39258665       0.17351128
Te      10.71776477       1.24478050      18.66386228      -0.02202946      -1.03040578       0.75446672
Te      12.89110019       4.96708228      18.68586109       0.78110173       0.03350046       0.68334164
Te      15.01176676       1.25723793      18.64075930      -0.46399881       0.27690942       1.28641042
Te       8.58081496       4.95071755      18.66386087      -0.04410662      -0.65819298       0.07552977
Te       8.64911046       0.02660397      32.43076038      -0.06835046       0.55326763      -0.72820165
Te      10.77578914       3.74732464      32.41229851       0.73755362      -0.27689793      -0.40942998
Te      12.85695444       0.01470210      32.42215447       0.98742952       0.88319027      -1.19178944
Te       6.49024992       3.77054466      32.43075866       0.10368989      -0.85063287      -0.13911473
Te       8.59219927       2.48819877      28.74302163      -0.02167725      -0.23980909       0.00221689
Te      10.76555351       6.21051424      28.76503926       0.72811223      -0.80578108       0.78244215
Te      12.90249990       2.50457890      28.76503896       1.17644911      -0.33822741       0.53524599
Te       6.47152928       6.19804142      28.78811144       0.06933721      -0.75452691       0.14167007
Sb       8.58365738       2.48327401      16.71841598       0.05168834       0.87538411       0.02723143
Sb      10.72867714       6.19966275      16.69163740       0.42630320       0.93346145      -1.96017968
Sb      12.87464171       2.47809448      16.69163658       1.42418071       0.86248463      -1.03506669
Sb       6.43997540       6.17984245      16.70324898       0.08701595       0.52692571      -1.27142139
Sb       8.58487528       0.04024059      26.83239897       0.08447505       0.79458709      -0.36754055
Sb      10.75083998       3.73295066      26.81847716       0.61743066       1.73968995      -0.83859514
Sb      12.86436847       0.01899054      26.83641810       1.01800192       1.36978448      -1.20133086
Sb      -2.08343437       3.69757352      26.83298458       1.25447891       1.45208933       1.05939082
Sb       8.62194150       0.00525580      20.59594065       0.02612789       1.24711816      -0.21893580
Sb      10.73246632       3.72234066      20.61044834      -0.05556559       0.58590045      -0.39562354
Sb      12.88809292       0.03266032      20.59250397       0.24718005       1.16865141      -0.65612642
Sb       6.45816320       3.75772807      20.59594092      -0.02821600       1.35140091       0.33844808
Sb      10.75462745       1.25563028      30.73717689      -0.12779787      -0.42315914       0.99749982
Sb      12.89965748       4.97202073      30.71045819      -1.55533636      -0.18795356      -0.74416684
Sb      15.04333261       1.27544373      30.72563546      -2.01480471      -0.31157338       0.45897434
Sb       8.60867486       4.97719000      30.73717428      -0.29246328       0.63327122      -0.92445202
Cr       2.18733961       3.72763026      23.71424376      -0.56283322       0.47127247      -0.41990911
81
Properties=species:S:1:pos:R:3:forces:R:3 energy=-282.6951908734035 mlff_rel_energy_eV=-15.046052164810817 mlff_fmax_eV_A=0.028520266543218677 calculator_label=/data/pclancy3/yi/flare-data/1-Cr-Sb2Te3/3.fine-tuning/2-layer/MACE-omat/MACE-matpes-pbe-omat-ft.model neb_image=1 neb_protocol=mlff_pre_neb pbc="F F F"
Te      13.07023909       6.37113838      14.53405105       0.00710823      -0.00506402       0.00924046
Te       2.49395453       3.74795579      15.33006223       0.00352755      -0.00294453       0.00328260
Te       0.42704593       7.20339471      14.61854855       0.00265697      -0.00517224      -0.00132146
Te      14.76693297       4.36204485      15.38629641      -0.00267907      -0.00522084      -0.00421601
Te      -0.06654658       2.78685521      22.31050169      -0.00588658       0.01063562       0.00074974
Te       1.97974903       6.18036286      22.53704008      -0.00519503      -0.00154178       0.00219621
Te       4.09563567       2.80922280      22.53754661      -0.00141570       0.00176621      -0.00110898
Te      -1.52954326       4.97138798      21.64044517       0.01594019       0.01303491       0.01358740
Te       1.91394335       1.27324551      24.86306965      -0.00104029       0.00099632       0.00285742
Te       3.82795674       5.28408991      25.25060371       0.00340388       0.00094885       0.00188806
Te       6.28884080       1.23393175      25.14835409      -0.02560357       0.00538234      -0.00015729
Te      -0.09809130       5.17443318      25.37762499      -0.00106982       0.00218662       0.00281905
Te       2.19212036       1.22579905      18.93162406       0.00354942      -0.00367612       0.00330141
Te       4.48420744       5.12825098      18.92471760      -0.00239738       0.00401861       0.00102433
Te       6.44102695       0.81460687      19.25060406      -0.00277063      -0.00498043       0.00374541
Te      -0.37366527       5.15031640      18.67465256       0.00503171      -0.00626263      -0.00333255
Te       0.04207016       0.50279354      32.82465286      -0.00234884      -0.00143718      -0.00445952
Te       2.34417760       3.75441244      32.55064564      -0.00153620      -0.00310991      -0.00114315
Te       4.55471329       0.10793045      32.66392599       0.00329207       0.00176210      -0.00703939
Te      -1.67088804       2.56182742      32.36806035       0.00276877      -0.01011367      -0.00041093
Te      -0.12325862       2.15221437      28.93932184      -0.00440567       0.00152386      -0.00266757
Te       1.87864825       6.30236980      29.14027065      -0.00259166      -0.00393211       0.00451568
Te       4.23688407       2.65568389      28.88027934       0.00144878      -0.00159368       0.00091487
Te      -2.35175628       5.41901181      29.03148146       0.00080881      -0.00291412      -0.00284802
Sb      -0.03264393       3.18671245      16.58417583       0.00065529      -0.00048764      -0.00140806
Sb       2.52759360       6.43261327      16.43234356       0.00214816      -0.00085021       0.00034975
Sb       4.35288843       2.68271015      17.39953122       0.00339646       0.00253479       0.00577704
Sb      -1.43108273       5.62545785      15.95011968       0.00683912      -0.00657037       0.00018661
Sb       0.84910895       0.04309296      27.26868350       0.00302312       0.00294762       0.00480618
Sb       1.99716855       4.20346582      27.22302096       0.00093829       0.00283457       0.00017837
Sb       3.74891159       0.45290713      26.96756569      -0.00130896      -0.00051185       0.00485792
Sb       6.18068579       4.04667049      26.68028281      -0.00104472       0.00604026       0.01093320
Sb      13.31768042       6.90668011      21.22504619      -0.00155109       0.00390745      -0.00372596
Sb       2.11831103       4.07982864      20.63056698      -0.00286779      -0.00203592       0.00009348
Sb       4.04637173       0.42540594      20.88271399      -0.00176479      -0.00145975       0.00539177
Sb      14.78325908       4.44011295      21.04046848      -0.00212762       0.01335252      -0.00162229
Sb       2.37637623       1.26042591      31.23319355      -0.00038651      -0.00122545      -0.00190583
Sb       4.23302616       5.17316369      30.66162102      -0.00057431      -0.00091418       0.00126865
Sb       6.52290659       1.21215798      30.85194534       0.00743656       0.00347589      -0.00253057
Sb      -0.09264239       4.62528317      30.88560286      -0.00613320       0.00094742       0.00279964
Te       4.57752132       7.30177421      14.71003924      -0.00090852      -0.00073786      -0.00077751
Te      10.63040700       3.37138682      15.30218070      -0.00044859      -0.00105995       0.00154651
Te       8.77729602       7.20459616      14.65800072       0.00073999      -0.00817326      -0.00622788
Te       6.54557768       3.69637026      15.36123780      -0.00015235      -0.00239075       0.00016943
Te       8.72489741       2.48489937      22.66935909      -0.00626160       0.00422897      -0.00284677
Te      11.00259751       6.16750609      22.65871914       0.00339761       0.00322405       0.00095493
Te      13.20684672       2.52560058      22.54545681       0.00230817       0.00622930      -0.00143121
Te       6.79220398       6.24732550      22.52127961       0.00337540       0.00529778      -0.00132391
Te      10.57640841       0.76324720      25.53583268      -0.00304597      -0.00321293      -0.01039740
Te      12.55261368       5.28554782      24.84081580      -0.00447999       0.00265675       0.00109508
Te      14.44079584       0.29800549      25.18229159      -0.00095534       0.00981353       0.02407680
Te       8.17028039       5.39031550      24.91446115      -0.01307115       0.00665541      -0.00618120
Te      10.93877804       1.00119493      19.10292657      -0.00071487       0.00269055       0.00702900
Te      12.99514058       4.95686537      18.85665469       0.00086137      -0.00068090      -0.00170421
Te      15.31871956       1.50994794      18.81645239       0.00288433       0.00764879       0.00204792
Te       8.72484965       4.95151821      18.93838538      -0.00347265      -0.00083558      -0.00165066
Te       8.91271595       0.09562112      32.05166912       0.01040565       0.00408533      -0.01003569
Te      10.94943974       3.59399969      31.69420465       0.00795812      -0.01038740      -0.00308785
Te      13.06085872      -0.02187155      31.15298062      -0.00237257      -0.00795951       0.02728411
Te       6.52839232       3.70255561      32.23465542       0.00805791       0.00260588      -0.00594070
Te       8.37204355       2.80377035      28.53532690       0.00689139      -0.00889061      -0.00543041
Te      10.51942041       6.29869592      28.32568250       0.00695184      -0.01209065      -0.00696559
Te      13.20300657       3.11543146      27.81723313      -0.00584153       0.00047757      -0.01049747
Te       6.25741681       6.34933880      28.63503647       0.00809406       0.00491272       0.00596123
Sb       8.57851816       2.65267218      17.16858654      -0.00072265      -0.00185777       0.00084162
Sb      10.80350287       6.03894581      16.26984054      -0.00049044      -0.00020581      -0.00076256
Sb      13.18781800       2.60013008      17.00442649      -0.00105451      -0.00091065      -0.00015353
Sb       6.68155314       6.35402049      16.40117464       0.00104737      -0.00022414      -0.00406999
Sb       8.19692829       0.25731672      26.95360234      -0.00953989      -0.00431849      -0.02300398
Sb      10.47336504       4.03984059      26.42293153      -0.01364394      -0.00754591      -0.01842974
Sb      12.61821220      -0.96400249      26.73562438      -0.00953064       0.00700294       0.00954335
Sb      -1.84190329       3.57735226      27.05860790      -0.00166349      -0.00016844      -0.00331105
Sb       8.74820847       0.22748614      20.92659364      -0.00034541       0.00195377       0.00088646
Sb      10.82968681       3.66670295      20.75995234      -0.00042953       0.00601146       0.00262284
Sb      13.48082394       0.42532179      20.58465441       0.00584030       0.00775200      -0.00045025
Sb       6.61440417       3.94862637      20.91150012      -0.00162853       0.00387045      -0.00380709
Sb      10.67527298       1.19732182      30.15002328       0.01461424      -0.00637974      -0.00787734
Sb      12.57688709       5.03725491      29.87813694       0.00189556      -0.00930643      -0.00519921
Sb      14.23470205       0.52795045      28.66871340      -0.01677108       0.00302405       0.01903236
Sb       8.34680516       5.18522117      30.34418089       0.01402413      -0.01050333      -0.01294130
Cr       1.84993736       3.89244699      23.93924889       0.00092382       0.00142146       0.00454519
81
Properties=species:S:1:pos:R:3:forces:R:3 energy=-283.05779985901864 mlff_rel_energy_eV=-15.408661150425985 mlff_fmax_eV_A=0.09473999518276403 calculator_label=/data/pclancy3/yi/flare-data/1-Cr-Sb2Te3/3.fine-tuning/2-layer/MACE-omat/MACE-matpes-pbe-omat-ft.model neb_image=2 neb_protocol=mlff_pre_neb pbc="F F F"
Te      13.37108056       6.86882583      15.82792978      -0.00129393      -0.00099517       0.00651822
Te       2.74548646       3.90702540      15.34010918       0.00632069      -0.00210414       0.00002995
Te       0.72827987       7.34728672      14.64429934       0.00445296      -0.00033905      -0.00039671
Te      14.67291382       4.43275877      15.65551544       0.00275028      -0.00711078       0.01212891
Te       0.01474610       2.33275321      22.28761528       0.00577496      -0.01113081       0.00636927
Te       1.50398615       6.01957605      22.58814101      -0.01933854      -0.00211462      -0.00083145
Te       3.99194500       2.75630220      22.57546096       0.00040515       0.00607729       0.00141136
Te      -0.98193146       6.17926806      21.51049906       0.01891252       0.02411707       0.00761332
Te       1.90481767       1.00117084      24.78429826       0.00245576      -0.00188513      -0.00144661
Te       3.54735221       5.20494815      25.21254139      -0.00613060       0.00528264      -0.00003853
Te       6.15642755       1.05484803      25.04021672       0.00120349       0.00540605       0.00094528
Te      -0.40106402       4.74965019      25.44025605      -0.00579137      -0.00273272       0.00291893
Te       2.28605690       1.26065638      18.80779707       0.00125395      -0.00187327       0.00455002
Te       4.48381488       5.05577572      19.05294448      -0.00126159      -0.00229489       0.00187035
Te       6.44661412       0.74026095      19.45130874       0.00042898      -0.00025301       0.00626349
Te      -0.24794793       5.23386266      18.61197370       0.00281942      -0.00382785      -0.00516917
Te       0.38693595       0.78801151      33.16969267       0.00173564       0.00200088      -0.00014307
Te       2.59305765       3.85791416      32.50173691       0.00070045      -0.00334492      -0.00104463
Te       4.88301889       0.31914435      32.59715736      -0.00010505      -0.00120795      -0.00201822
Te      -1.35746961       2.56531018      31.99432201       0.00224003       0.00010872      -0.01403830
Te      -0.01420940       1.71963221      28.89735815       0.00396066      -0.00376347      -0.00131141
Te       1.72030693       6.05673825      29.03534488      -0.00240650      -0.00344643       0.00141885
Te       4.28363053       2.62503973      28.73976115      -0.00019602       0.00196180      -0.00195700
Te      -2.34772996       4.96480309      29.42548769       0.00185143      -0.00367138       0.00803416
Sb       0.16272072       3.30684613      16.45896713       0.00532135      -0.00256765      -0.00298895
Sb       2.72011363       6.54459360      16.56582001       0.00529186      -0.00197530      -0.00004154
Sb       4.53674654       2.73210148      17.39282995       0.00611825      -0.00112129       0.00223690
Sb      -1.20085687       5.75593530      15.85080365       0.00491558      -0.00300502      -0.00396768
Sb       0.87865767      -0.26872360      27.16040198       0.00352969      -0.00057897      -0.00120604
Sb       1.85636522       3.87353099      27.16808372      -0.00238001      -0.00347470      -0.00042949
Sb       3.81345299       0.31658037      26.90073366       0.00468105       0.00079473       0.00019911
Sb       6.07926045       4.08098504      26.44223644      -0.00308477       0.00488861      -0.00062919
Sb      11.99247470       7.58711109      19.86902397      -0.04451933       0.01607589      -0.05356303
Sb       1.82853261       3.71987089      20.62389440      -0.00774073      -0.01366774      -0.00046098
Sb       3.96897013       0.37896720      20.93258413       0.00311162       0.00166946       0.00807393
Sb      14.96539168       3.28127016      21.29193380       0.02086453      -0.02548491       0.01107047
Sb       2.55365484       1.29410691      31.27672389       0.00047425      -0.00241735      -0.00468418
Sb       4.32245197       5.20654664      30.45688840      -0.00045532       0.00215193       0.00264550
Sb       6.72247370       1.38172697      30.64787181      -0.00069151      -0.00122123      -0.00266991
Sb       0.04548758       4.98392852      31.23585264       0.00086360       0.01153998       0.01197308
Te       4.91607859       7.51194254      15.09841953       0.00800909      -0.00462399       0.00290368
Te      10.92346516       3.41974502      15.74340752       0.00540767       0.00562601       0.01614955
Te       9.10516473       7.70718008      15.72054018       0.01134164       0.00149093       0.02082781
Te       6.88034724       3.95895280      15.52490180       0.00898755      -0.00583906       0.00789802
Te       8.58990312       2.57796011      22.94851506      -0.00725214       0.00365461       0.01055982
Te      10.30307141       6.79624217      21.95870570      -0.02382541       0.03670884      -0.02305865
Te      12.96616286       2.11952038      23.08726835      -0.02095605       0.02192114       0.00096728
Te       6.34392022       6.30510262      22.40296380      -0.00262383       0.00634499      -0.00313952
Te      10.43575915       0.46266186      25.33111809       0.00508584       0.01210639      -0.02641959
Te      12.08992107       5.46267263      23.77844708      -0.02493721       0.02403985      -0.03379002
Te      14.23988799      -0.68762630      24.67422390       0.00763113      -0.05436071      -0.06919871
Te       7.90472443       5.78305792      24.73815026      -0.00629960       0.01217211       0.00288244
Te      10.88796231       0.97660934      19.57061316      -0.01595498       0.01945277       0.01232510
Te      13.24468160       4.79664869      19.45899194       0.00378010      -0.00587954       0.01946029
Te      15.14708591       0.84395904      19.86450785      -0.00415778       0.00203966       0.04966831
Te       8.80191001       4.70431649      19.22267951       0.00121178       0.00591393       0.00721153
Te       9.14775777       0.41965186      31.88863818       0.00204556       0.00024526      -0.00972920
Te      11.07122663       3.93317453      31.16202365       0.00324883       0.00119125      -0.00358386
Te      13.33386030       0.46456082      30.82884547      -0.00871528      -0.01396381      -0.01958885
Te       6.76983719       3.95569709      31.88556027       0.00073233      -0.00047290      -0.00121741
Te       8.46852424       2.89475578      28.09344481       0.00187829       0.00617217      -0.01033875
Te      10.51140502       6.36022907      27.55768160      -0.00372508      -0.00279402      -0.00900369
Te      13.00295399       3.18065936      27.18541782      -0.00035892       0.00096140      -0.00859349
Te       6.15723107       6.40652511      28.24892853      -0.00091822       0.00220759       0.00238907
Sb       8.68537881       2.56304306      17.31404403       0.01146626      -0.00595524       0.02224889
Sb      10.96761745       6.27064064      17.30089359       0.00927214       0.00581164       0.02617931
Sb      13.16902864       2.69011046      17.30833918      -0.00732325      -0.00136805       0.00628231
Sb       6.83751369       6.45239763      16.95292037       0.00447045      -0.00721649       0.01011034
Sb       8.09710691       0.16005597      26.88657227       0.00942184       0.00569593      -0.00630028
Sb      10.30060453       4.10482597      25.69826348      -0.00067044       0.00612880      -0.01176302
Sb      12.46314417      -1.10681970      26.71036658      -0.00541299       0.00201483      -0.04279300
Sb      -1.93794403       3.18167159      27.32037872      -0.00096182      -0.00295834       0.00554477
Sb       8.64599628       0.23167790      21.31004778       0.00825616       0.00578610       0.00277187
Sb      10.90096218       3.61799847      21.24558922       0.00090509      -0.01497777       0.01165499
Sb      12.97752350      -0.20418622      21.42329478       0.00769238      -0.04050747       0.08529736
Sb       6.46957907       3.84510032      20.99646729       0.00270464       0.00262594       0.00001227
Sb      10.80271462       1.40360220      29.83283980       0.00282514       0.00208687      -0.01024511
Sb      12.62079820       5.21924082      29.16237369      -0.00062405       0.00011121      -0.00634061
Sb      14.21085360       0.75377157      28.20323610       0.00509576      -0.00573784      -0.02944782
Sb       8.45200535       5.33879523      29.80524003      -0.00092093       0.00084169       0.00074273
Cr       1.63372460       3.63503937      23.95887669      -0.00287456      -0.00116197       0.00322885
81
Properties=species:S:1:pos:R:3:forces:R:3 energy=-283.3214097357971 mlff_rel_energy_eV=-15.672271027204431 mlff_fmax_eV_A=0.09996804817212163 calculator_label=/data/pclancy3/yi/flare-data/1-Cr-Sb2Te3/3.fine-tuning/2-layer/MACE-omat/MACE-matpes-pbe-omat-ft.model neb_image=3 neb_protocol=mlff_pre_neb pbc="F F F"
Te      13.52640903       6.69827492      15.86515867       0.00520179       0.01012392       0.00640939
Te       2.97230750       3.73944757      15.20185729       0.00142263      -0.00003687       0.00669458
Te       0.98120085       7.13162057      14.23225834      -0.00536834      -0.00477173       0.00778785
Te      14.95001380       4.34665568      16.13321273      -0.03804425      -0.00882187       0.00428358
Te       0.24367947       2.21739712      22.28379135      -0.00566770      -0.01064232      -0.00779361
Te       1.67956309       5.95556639      22.48530753      -0.03037108      -0.00445333       0.00219003
Te       4.06336579       2.68854271      22.52955770      -0.00395416       0.00230718       0.01059010
Te      -1.99581346       3.38308665      23.42419453      -0.04928355       0.02019626      -0.02494136
Te       2.17325213       1.06291260      24.93805130       0.00827708      -0.00608515       0.00858996
Te       3.53000033       5.23587396      25.42425028      -0.01140845      -0.00315144      -0.00918525
Te       6.22383052       0.95681281      25.21900820       0.00523835       0.00116328      -0.01257717
Te      -0.33156988       4.59591230      25.35386818      -0.00417183       0.01303405      -0.00689738
Te       2.35274075       1.18225287      18.68707002       0.00764687       0.01672691       0.00500675
Te       4.49977404       5.07752787      18.96223119       0.01951390       0.00575681       0.01243608
Te       6.47989095       0.80193807      19.57649735       0.02448128      -0.00396080      -0.00111144
Te       0.15168348       5.34672760      18.35584124      -0.00176541       0.00051688       0.01277542
Te       0.57722958       0.95419318      33.50774872      -0.00356481      -0.00465293      -0.00490213
Te       2.84017623       4.02236585      32.81007252       0.00141419      -0.00256293      -0.01058452
Te       5.06024985       0.36584067      32.83075787       0.00139356       0.00350980      -0.01511170
Te      -1.06862012       2.66963993      32.07684774      -0.00573126      -0.00069926      -0.00200028
Te       0.13078636       1.52359244      29.03512719      -0.00138544       0.00295787      -0.00278194
Te       1.92632972       6.03673616      29.22299476      -0.00868074      -0.00517011      -0.00148634
Te       4.36850173       2.65380018      28.92170777      -0.00070579       0.00110393      -0.00545063
Te      -2.10004196       5.00967165      29.62752968      -0.00706671      -0.00007212      -0.00106694
Sb       0.41811873       3.26514425      16.45127864      -0.00100989       0.00729447      -0.00070330
Sb       3.00010352       6.48159612      16.19112981      -0.00772923       0.00447340       0.01536893
Sb       4.65048339       2.65311843      17.40092653      -0.02222325       0.00585182       0.00886742
Sb      -0.93064193       5.69834924      15.63101986      -0.01347504      -0.00031898       0.01115534
Sb       0.96116620      -0.35439554      27.13252697       0.01087524       0.00146419       0.00891078
Sb       2.03932497       3.80633695      27.44817622      -0.00460648       0.00008691      -0.00781111
Sb       3.94675706       0.26644374      27.09580761       0.01042379      -0.00685861       0.00731579
Sb       6.10112018       4.14178768      26.54852996      -0.00370903      -0.00050965      -0.00336208
Sb      11.93148785       7.91935855      19.73249661       0.00188389      -0.03349493      -0.00328925
Sb       2.02315198       3.98459561      20.54482347      -0.01253623      -0.00143449       0.00837420
Sb       3.92838578       0.32909301      20.85917222       0.00112103       0.00662329       0.01744561
Sb      14.98966490       3.21712941      21.50857469      -0.01005920      -0.01918610      -0.01915653
Sb       2.72459297       1.42767141      31.62566257      -0.00944112      -0.00161781      -0.00812504
Sb       4.57795335       5.20195489      30.66970736      -0.00070073       0.00354822      -0.00416676
Sb       6.86343566       1.34126933      30.80160291       0.00299474       0.00500533      -0.01116031
Sb       0.31368466       5.11985277      31.50196491      -0.00696508      -0.00584290      -0.00495868
Te       5.26309613       7.26104814      14.73597407       0.03486219       0.00613191       0.01843227
Te      11.11808923       3.29897670      16.07190938       0.00636074      -0.01471982      -0.00274094
Te       9.33849122       7.50202499      15.57101018      -0.01628811       0.00558177       0.03117859
Te       7.10244156       3.79482660      15.66664594       0.02028806       0.01006776      -0.02095274
Te       8.46617286       2.71720777      23.09963273       0.01649028      -0.01090579       0.02190309
Te      10.05351709       7.52748536      21.69791625      -0.00573864       0.01419556       0.00942832
Te      12.91718186       2.47924687      23.40682674       0.01601663      -0.01545069      -0.03894282
Te       5.94271506       6.33535327      22.49077549       0.03972815       0.00173385       0.00515962
Te      10.48336335       0.34117528      25.05833305       0.03255273       0.00741349      -0.02786455
Te      11.62009444       5.86629528      23.48507974      -0.01705866       0.00336841      -0.02102872
Te      14.49520205      -1.28464526      24.48858628      -0.04360678       0.04335651      -0.03734143
Te       7.68812007       5.98530756      24.78130483      -0.01724143       0.01802626       0.00287634
Te      10.81839138       1.03600217      19.82684975       0.00188432      -0.01078473       0.01433886
Te      13.24332964       4.88626772      19.78405439       0.00026754       0.00934763       0.01012264
Te      15.03483585       0.63854662      20.40304894       0.00539187       0.00627244       0.02149236
Te       8.86699311       4.94809776      19.38447709       0.00479839      -0.01830595      -0.00516957
Te       9.24922730       0.34163782      31.99433354      -0.00137435       0.00986092      -0.01038636
Te      11.24863168       3.78907297      31.18025520       0.00333402      -0.00074649       0.00678730
Te      13.28122906       0.02543716      30.55094941      -0.00722043      -0.00920125      -0.02645114
Te       7.00806329       3.92781268      32.01984039      -0.00065440       0.00474463      -0.00957355
Te       8.51555770       2.89595276      28.09224057       0.00717186       0.00142675      -0.00289412
Te      10.68154552       6.36298956      27.62458212       0.00759203       0.00357703      -0.01085832
Te      12.63740001       2.84607586      27.19089329      -0.00480004       0.00416362      -0.00030024
Te       6.32459258       6.39720013      28.38936123       0.00713426       0.00883669      -0.00269397
Sb       8.87520009       2.59241271      17.71860617      -0.02542709      -0.00922583       0.00365247
Sb      11.11471732       6.24000255      17.38028945       0.01308971       0.00260088      -0.00044121
Sb      13.29073466       2.72550580      17.78645890       0.02511157      -0.00878705       0.01301695
Sb       7.03658635       6.38340666      16.84003099      -0.01666548       0.00371925       0.01068810
Sb       8.32224921       0.13215236      26.91080110      -0.00746255      -0.01893049       0.00009954
Sb      10.11096360       4.37014282      25.54831801       0.00653940       0.01815316       0.00098540
Sb      12.44007502      -1.31183763      26.40807007       0.05686415       0.00184787      -0.03529132
Sb      -1.76404507       3.15656243      27.60140145       0.00035135       0.00188604      -0.00517491
Sb       8.63086586       0.33341382      21.53503024       0.00450637      -0.01691424       0.02657798
Sb      10.89895359       3.65153489      21.43916276       0.00821204      -0.00688279      -0.02330929
Sb      12.96846307      -0.17694322      22.27249200       0.01513799      -0.03721743       0.09153860
Sb       6.45531845       3.97770680      21.01326635       0.01406886      -0.00224156       0.00849232
Sb      10.80643547       1.29886892      29.80952072       0.01322593       0.00591160      -0.00456190
Sb      12.76332979       4.96541988      29.07099688      -0.00851336       0.01487205       0.01114828
Sb      14.15937443       0.52680978      27.95486210      -0.00740086      -0.00392517       0.00891017
Sb       8.65521376       5.27572442      29.87819596       0.00138858      -0.00403541      -0.01805134
Cr       1.87864601       3.67850656      23.92212307      -0.01518039      -0.00622158       0.00162118
81
Properties=species:S:1:pos:R:3:forces:R:3 energy=-282.6640208016445 mlff_rel_energy_eV=-15.014882093051824 mlff_fmax_eV_A=0.14354973949410504 calculator_label=/data/pclancy3/yi/flare-data/1-Cr-Sb2Te3/3.fine-tuning/2-layer/MACE-omat/MACE-matpes-pbe-omat-ft.model neb_image=4 neb_protocol=mlff_pre_neb pbc="F F F"
Te      13.36067140       6.51189141      14.96586989       0.00041292       0.01816251       0.03082196
Te       2.63443243       3.58229458      15.26253656       0.00643706      -0.00414245      -0.01015457
Te       0.72108945       7.03942011      14.30994390       0.00779696       0.00109156      -0.00904694
Te      14.97373223       4.34243654      15.60238569      -0.00830838      -0.00940363      -0.00025508
Te       0.02900745       3.50829911      22.29916670      -0.02926743      -0.03979208      -0.03660508
Te       2.67650977       6.28234926      22.47842355      -0.04994812      -0.02217927       0.01627032
Te       4.21489509       2.85019230      22.55107808      -0.01393597      -0.00842200       0.00011172
Te      -0.24190183       6.22651034      22.10094297      -0.04678539      -0.03540557      -0.00200977
Te       1.94268819       1.24055000      24.61518047       0.00145902      -0.00624293      -0.01568180
Te       3.58767928       5.33773294      25.78576937       0.01427613       0.01312859       0.02170300
Te       6.21703223       1.14747874      25.09354144      -0.00072104       0.00851781       0.02738262
Te      -0.22424807       4.69347541      25.78251995       0.03974917       0.02553400      -0.01271826
Te       2.30837261       1.30242364      19.06473314      -0.00539564      -0.01101124      -0.01149348
Te       4.68914844       5.01852077      18.69568814      -0.00279243       0.00079386       0.00009699
Te       6.55840840       0.85789432      19.40449984      -0.00168490      -0.00341366       0.00125391
Te       0.17712972       5.51623052      18.57636813      -0.00856239      -0.01404801      -0.01398587
Te       0.54197443       0.75212909      33.86271633       0.00012560      -0.00540334      -0.02885229
Te       2.63010639       3.95147481      33.02610227       0.00928219      -0.01141955       0.00052628
Te       4.96301461       0.34367556      33.23276979       0.00485325      -0.01088288      -0.01055555
Te      -1.10531556       2.16806828      32.11226681       0.00062225       0.00430163      -0.01385490
Te       0.05626529       1.27616860      28.88252972      -0.01533431       0.00913266      -0.01230821
Te       1.61599077       5.84407501      29.42210349       0.01912377      -0.00654754       0.00140869
Te       4.27201419       2.49482591      29.19991616       0.03448352       0.00841118      -0.00530811
Te      -2.39314881       4.36370602      29.79420829       0.01272558       0.03336169      -0.01677736
Sb       0.17484750       3.32795865      16.76317372      -0.00181300      -0.00949946      -0.02337364
Sb       2.89604740       6.36170895      16.07100404      -0.00021906      -0.00342475      -0.00205962
Sb       4.56217575       2.52778782      17.27542824       0.00480615       0.00027734      -0.00454771
Sb      -1.12317881       5.77831214      15.94906912       0.00208610      -0.00770000      -0.01997576
Sb       0.94136063      -0.38167085      26.82276692      -0.04056573      -0.01179011      -0.01914059
Sb       1.93233014       3.71564152      27.53121143       0.02555505      -0.01112577       0.00754670
Sb       3.75809207       0.53863137      26.80742126      -0.03609335       0.00192901      -0.04635366
Sb       6.10999421       4.04115162      26.74792057       0.00115438       0.00015167       0.01843844
Sb      11.86116936       7.44901421      20.00449417      -0.05374069       0.01366310      -0.05245584
Sb       2.36131321       4.04829449      20.41156694      -0.00771681      -0.01419810      -0.01710926
Sb       4.17109520       0.41056120      21.03665610      -0.00870794      -0.00587418      -0.00489952
Sb      14.84169990       4.05376702      21.50251002      -0.00061272      -0.04175597       0.00717981
Sb       2.63952607       1.30348251      31.97085268       0.01264010       0.00438332      -0.01825432
Sb       4.33982661       5.01801922      30.79168915       0.01379197      -0.00375273       0.00849045
Sb       6.70993393       1.36693409      31.15331718       0.01540858      -0.00661646      -0.00087100
Sb       0.02084336       4.77919198      31.61571471       0.01101871      -0.00121891      -0.00556798
Te       5.00023256       6.86519102      14.26606707       0.00473581       0.00387872       0.00458664
Te      11.03915422       3.32521333      15.66409800       0.00507372       0.00367191       0.01590063
Te       9.22160113       6.94549097      14.67979569       0.00137212      -0.00084129       0.01324079
Te       6.90678242       3.39444354      15.36407383       0.00426657       0.00376742       0.00378723
Te       8.73005062       2.62508080      22.79918471      -0.01340631       0.00774714       0.01282114
Te      10.36542286       6.42294535      22.16497986      -0.01395471       0.00989883      -0.00997933
Te      12.94594888       2.46374694      22.98539456      -0.01218534      -0.01759871       0.02601200
Te       5.78896208       6.43696355      22.27818203      -0.03661547      -0.01166464       0.03532886
Te      10.18840460       0.24534528      25.61752770       0.01303501       0.02094086      -0.00604495
Te      12.02960137       5.59310840      24.35086467       0.00628481       0.01939541      -0.01642434
Te      13.97651679      -0.43754467      25.05076916       0.00606946      -0.02070219      -0.04051089
Te       7.80460393       5.50322062      24.85936698       0.00630005       0.00456508       0.02100020
Te      11.16138046       0.92718784      19.38274709      -0.00761623       0.00083742       0.01279674
Te      13.28527286       5.04645898      19.25251899      -0.00000196      -0.00620705       0.01267547
Te      15.51710449       1.79609126      19.89849323      -0.00864679      -0.00593963       0.04516282
Te       8.86186135       4.86677600      18.97139290      -0.00301272      -0.00719586       0.01592659
Te       9.15268853       0.40472509      32.34753482       0.01587613      -0.01647753      -0.00713310
Te      11.12830334       3.75918621      31.35975765       0.02233023      -0.00922615       0.01383139
Te      13.21548056       0.19815776      31.06251603       0.01731831      -0.01189612      -0.01297493
Te       6.77304096       3.96340272      32.31169284       0.01688232      -0.00902067       0.00714869
Te       8.36952096       2.72987287      28.47154614       0.02557384       0.01094857       0.00532594
Te      10.40688973       6.19901127      27.85602101       0.02816785       0.00733764       0.01865745
Te      12.91199954       2.86320108      27.32035836       0.02412957       0.02071326       0.00460660
Te       6.18994845       6.33558722      28.59178195       0.02456196       0.00497623       0.01805222
Sb       8.80044560       2.47299050      17.37022056      -0.00279719      -0.00285264       0.01107136
Sb      11.08591784       6.09481808      16.64112483      -0.00460763       0.00711482       0.01993466
Sb      13.38557954       2.65978716      17.21391055      -0.00548010      -0.00603971       0.00255975
Sb       6.96195614       6.14517596      16.21080620      -0.00168242       0.00311270       0.00952151
Sb       7.84899318       0.09937279      27.13089750       0.02606432       0.01097985       0.00961088
Sb      10.07862809       4.06484043      25.88739021       0.02276665       0.01698229       0.01069734
Sb      12.21914107      -1.33052871      26.93084630       0.01362346       0.01383999      -0.01483542
Sb      -1.82378090       2.92115027      27.46507612       0.00509005       0.03911820      -0.02134609
Sb       8.84178932       0.29144255      21.14870585      -0.00767251       0.00633195       0.01296443
Sb      10.84211371       3.64422987      20.90909267      -0.00508646      -0.00156093       0.01506952
Sb      13.43767515       0.28735073      21.19782173      -0.01980296      -0.02168924       0.02935322
Sb       6.53520632       4.06477176      20.91485403      -0.01314918       0.00116326       0.01525168
Sb      10.71378715       1.20217938      30.14153746       0.01397641      -0.00023932      -0.00185790
Sb      12.60185209       4.95050872      29.25007865       0.02376244       0.00457605       0.02290173
Sb      14.06214993       0.45060008      28.38227922       0.01152523       0.01267497      -0.00645374
Sb       8.46729444       5.24603677      30.09112021       0.02001065       0.00055513       0.01905691
Cr       2.00653388       3.95861596      24.10464596      -0.10868216       0.07645464      -0.05430840
81
Properties=species:S:1:pos:R:3:forces:R:3 energy=-282.68787991926115 mlff_rel_energy_eV=-15.03874121066849 mlff_fmax_eV_A=0.03646465830624658 calculator_label=/data/pclancy3/yi/flare-data/1-Cr-Sb2Te3/3.fine-tuning/2-layer/MACE-omat/MACE-matpes-pbe-omat-ft.model neb_image=5 neb_protocol=mlff_pre_neb pbc="F F F"
Te      13.46395880       5.65873903      14.09027303      -0.00986053      -0.00858720       0.00029173
Te       2.38939288       3.75033722      15.58837593      -0.00359020       0.00105689      -0.00135901
Te       0.83937327       7.28982315      14.41214361       0.00301534       0.01003120       0.00519006
Te      15.21720104       4.15423972      15.59112628      -0.00549399      -0.01704025      -0.01635530
Te       0.59228781       4.69540377      22.93091420      -0.00406703      -0.00682009       0.00442873
Te       3.98588152       7.04068809      22.22055620      -0.02075360       0.01033664      -0.01681117
Te       4.65956774       3.32943536      22.59411155      -0.00480398      -0.00230231      -0.00230684
Te       1.02745891       7.32996550      22.44539379      -0.01552079      -0.00410978      -0.00291586
Te       1.81269359       1.44805519      24.34873634       0.01661422       0.00061271       0.00140022
Te       3.00136553       5.06942306      25.60818097       0.01759773      -0.00877080      -0.00816050
Te       6.19103106       1.01403642      24.66761531       0.00974837      -0.00653418      -0.01230894
Te      -1.10470533       3.96446773      26.18215602      -0.00326626       0.00771826      -0.00671366
Te       2.30201744       1.84375050      19.51930571      -0.01156596      -0.00496923       0.00243867
Te       4.91810804       5.16232250      18.62650527      -0.00540770      -0.00735794       0.00807486
Te       6.54050553       0.94165249      19.45122486      -0.00718401       0.00106539       0.00433782
Te       0.67684467       6.42217726      18.88166219      -0.01238130      -0.01005915       0.00076829
Te       0.52245991       0.62412084      34.57063936      -0.01805588      -0.02040146      -0.01937685
Te       2.27111817       4.01796747      33.28450389      -0.00461068      -0.01709073      -0.00842715
Te       5.11136912       0.83726593      33.98179341      -0.00475746      -0.02432517      -0.01189701
Te      -0.89639529       1.46460655      32.14775573      -0.02049286      -0.00073241       0.00001227
Te       0.26835706       0.53861645      28.64172977      -0.00059215       0.01830562      -0.00399792
Te       1.00576649       5.48796349      29.48873641       0.00294640      -0.00346857      -0.01175672
Te       3.52893877       2.34287270      29.80318238      -0.00915853      -0.00053499      -0.00289453
Te      -2.69571129       2.96088448      30.13755382      -0.01356064       0.02757253      -0.00484179
Sb       0.18590242       4.02520893      17.44075462      -0.00935285      -0.00449740      -0.00985433
Sb       3.12528802       6.52933434      15.98329388      -0.00441228      -0.00020015       0.00876563
Sb       4.42271994       2.61345640      17.46524389      -0.01100611      -0.00511758       0.00450088
Sb      -0.90524387       6.51847383      16.43247844      -0.00280833      -0.00042324      -0.00444319
Sb       1.76346096      -0.47819627      26.41783678       0.01818305       0.01558084       0.01158430
Sb       1.45019722       3.43394941      27.44714748       0.00035989       0.00203357      -0.01828721
Sb       4.16087950       0.92321898      27.30773494       0.02582051      -0.00125786       0.01475608
Sb       5.87378335       4.15865294      26.53883666       0.01445393       0.00170429      -0.00396965
Sb      13.02376723       7.12065072      21.03658142       0.01770047       0.00457626      -0.00618224
Sb       2.68132420       4.72015805      20.80822538      -0.00972371      -0.00110498       0.00075085
Sb       4.25335792       0.82516396      21.36073455      -0.01088072      -0.00091753       0.00213318
Sb      14.80030899       4.86815781      21.19884790       0.01652586      -0.00597217      -0.01576163
Sb       2.58887719       1.18278192      32.75195996      -0.00388179      -0.01596511      -0.00953890
Sb       3.83536298       5.02280340      30.89914972      -0.00480224      -0.00215244      -0.00195990
Sb       6.40419174       1.58967626      31.50715551      -0.00504208      -0.01359121      -0.01043207
Sb      -0.31714186       4.29148477      31.77323197      -0.00609508      -0.00256460      -0.01410834
Te       5.04418871       6.49251605      13.92660305      -0.00685843       0.00792383       0.00870503
Te      11.00932512       2.78415402      15.26590340      -0.00956699      -0.00899739       0.00372588
Te       9.21027001       6.39657778      13.97933134      -0.01064257      -0.00443844       0.00517541
Te       6.78701000       3.05621967      15.30899266      -0.01098876      -0.00268965       0.00678321
Te       8.97755154       2.62697911      22.54983305       0.00718653       0.00940484       0.00404041
Te      10.63507038       6.24853857      22.27035911       0.02559908       0.00612189       0.00200072
Te      13.37293416       2.77520470      22.60065972       0.00816603       0.00925239      -0.00682321
Te       6.86464380       6.80008023      21.51384174      -0.00244811      -0.01647487       0.03067754
Te       9.80980612       0.12636662      25.76568307       0.01556267       0.02362834      -0.00326366
Te      11.73054316       5.11271690      24.65535941       0.02492698       0.01483806       0.00173162
Te      13.55111736      -0.03918938      25.02496581       0.00791278       0.00215346       0.01157165
Te       7.36548807       5.54500089      24.48024592       0.01439724       0.02945434      -0.00680000
Te      11.30422271       0.85729975      19.26117509      -0.00545304       0.00154859       0.00363557
Te      13.22998755       5.05228300      18.80434908       0.00392242      -0.00785830      -0.01013430
Te      15.74210830       1.77491367      19.06322795       0.00063205      -0.01560679      -0.00734398
Te       9.09009358       4.77932684      18.56673315      -0.00192708       0.00154014      -0.00103042
Te       8.99288120       0.88943918      32.54475382      -0.00437505      -0.01193923      -0.01060546
Te      10.70394928       4.11238336      31.12790954      -0.00368999      -0.00154442       0.01534925
Te      12.86984759       0.49495965      31.02087565      -0.00621213      -0.00892699       0.00872446
Te       6.40812610       4.30496780      32.35510366      -0.00733840      -0.01548260      -0.00170329
Te       7.69930913       2.63840518      28.49694691       0.00650332       0.00630114       0.00099926
Te       9.64710735       6.14443790      27.50534516       0.01346278       0.01057091       0.01850861
Te      12.26667975       2.85425209      27.19714720       0.02387768       0.01602966       0.01417038
Te       5.47665968       6.24712689      28.47178087      -0.00121075      -0.00786755      -0.00024013
Sb       8.89574572       2.25024290      17.13886909      -0.00790855      -0.00061186       0.00571096
Sb      11.18456514       5.55631404      15.82884589      -0.00896548      -0.00868600       0.00306611
Sb      13.56133135       2.48403379      17.21517597      -0.00080901      -0.00879172      -0.00293833
Sb       7.09720516       5.85681671      15.80701223      -0.00839441      -0.00314964       0.00689530
Sb       7.29249675      -0.02708398      27.09916870       0.01573715       0.00942011      -0.01023403
Sb       9.37152655       3.78628112      25.72634410       0.02206953       0.02901122      -0.00097766
Sb      12.02274032      -1.31919607      26.89369144      -0.00154144       0.01105395       0.00907906
Sb      -2.11963110       1.80198175      27.62640070      -0.00814109       0.01613593       0.00444261
Sb       8.94317968       0.25671912      21.01491672      -0.00448103       0.00850927       0.00477220
Sb      11.04534651       3.62131661      20.60673504       0.00455496       0.00641992      -0.00272670
Sb      13.92216638       0.60747527      20.80080449      -0.00342712       0.00188787       0.00132685
Sb       6.93944708       4.07259040      20.53258024      -0.00236576      -0.01207677       0.00372118
Sb      10.35379058       1.45702549      30.12586263       0.00410058       0.00487627      -0.00168903
Sb      11.99561169       5.18546179      28.84116900       0.00863793       0.00654651       0.02603896
Sb      13.72212494       0.58935932      28.32255356       0.00464604       0.00243764       0.01294731
Sb       7.91085279       5.34488977      29.87517610      -0.00370912      -0.00111138       0.00934243
Cr       4.06104563       2.62686338      25.17430994       0.00872152      -0.00253835      -0.00140462
81
Properties=species:S:1:pos:R:3:forces:R:3 energy=-282.68605666283383 mlff_rel_energy_eV=-15.036917954241176 mlff_fmax_eV_A=0.15597604079774688 calculator_label=/data/pclancy3/yi/flare-data/1-Cr-Sb2Te3/3.fine-tuning/2-layer/MACE-omat/MACE-matpes-pbe-omat-ft.model neb_image=6 neb_protocol=mlff_pre_neb pbc="F F F"
Te      13.06447400       6.52129421      14.44254568       0.00296263      -0.00178121       0.00162869
Te       2.49654056       3.52107826      15.13149266      -0.00345595      -0.00710772      -0.00118405
Te       0.41587386       6.88885010      14.33117322       0.00147305       0.00102783      -0.00543989
Te      14.82060042       4.55749506      15.27380631       0.00009682      -0.00266289       0.00213494
Te      -0.01178419       4.15861638      22.62084533       0.00869672      -0.02863070      -0.00122715
Te       3.11843744       6.49125425      21.87732761       0.01331318       0.00722089      -0.01480007
Te       4.16877631       2.53740358      22.31418637       0.01879194       0.01059383       0.00334740
Te       0.09980226       6.63918769      21.49922175      -0.02850566      -0.00049385       0.15334832
Te       1.17560209       1.53861200      24.75990173       0.02597022      -0.00550017      -0.00956240
Te       3.69777987       4.85115256      25.21593033       0.01140321       0.01101544      -0.00162253
Te       6.38120995       1.42981004      24.88519259      -0.00899298      -0.00029299       0.01049187
Te      -0.50175311       5.20845869      26.09872749       0.00264185      -0.00959396      -0.03027271
Te       2.17331559       1.19827450      18.93179285      -0.00203701       0.00200914       0.00633805
Te       4.47652441       4.83288283      18.63820830       0.00049055       0.00133206      -0.00882113
Te       6.57348603       0.81210870      19.15409122       0.00138438      -0.00514021      -0.00556015
Te      -0.09115601       5.14356673      18.46587988       0.00179978       0.00039803      -0.00032489
Te       0.29520348       0.40103997      33.25988004       0.00145492       0.00409496       0.00400378
Te       2.48538853       3.71444922      32.82139164      -0.00482543       0.00143241      -0.01136979
Te       4.71664505       0.16142486      33.00000012      -0.00338274      -0.00449463      -0.01539637
Te      -1.47489707       2.42174965      32.87577995      -0.00615302      -0.00884969      -0.02386151
Te      -0.02933574       1.98849651      29.23143400      -0.00413934       0.01096707      -0.01491940
Te       1.85053295       6.07399114      29.22825208      -0.00124973       0.00554247      -0.01077969
Te       4.24236709       2.65828936      29.11312863      -0.00192619      -0.00581838      -0.00636950
Te      -2.60584880       5.20152438      29.89364187      -0.02208100      -0.01970356       0.02275218
Sb       0.03871303       3.02335525      16.55057769      -0.00074664      -0.00090235      -0.00058616
Sb       2.57615185       6.25377631      16.11505740      -0.00113791      -0.00270808      -0.00582466
Sb       4.38754569       2.41893029      17.14993395      -0.00697655      -0.00336305      -0.00039746
Sb      -1.39112613       5.43539292      15.86541816       0.00609511       0.00386441       0.00395653
Sb       1.05088589       0.08487466      27.17331688      -0.02859905       0.00866876      -0.01561030
Sb       1.83733820       3.91840316      27.32917238      -0.00556284       0.01456004      -0.00898203
Sb       3.86717510       0.45330195      27.17968239      -0.02440309      -0.01475879       0.00920007
Sb       6.12423643       4.18352046      26.77423675       0.00733631       0.00193472       0.00040002
Sb      13.27674776       7.12257317      21.18265166       0.00118031      -0.00385215      -0.00101545
Sb       2.14401326       3.96038471      20.58012839       0.01224553       0.00911343       0.00673198
Sb       4.14630650       0.18184550      20.68589838       0.00120096       0.01163867       0.00262681
Sb      14.83892680       4.71942509      20.96726867      -0.00033373      -0.00429904       0.00023780
Sb       2.51452571       1.21557089      31.52647851      -0.00733619      -0.00112025      -0.00649424
Sb       4.21133465       5.16327848      30.79025832      -0.00211201      -0.00272413      -0.01708805
Sb       6.57933112       1.28273102      31.10815947      -0.00184890      -0.00017645      -0.00675200
Sb      -0.02075248       4.35400802      31.16311329      -0.00358642      -0.00023238      -0.00322949
Te       4.61398462       7.01812425      14.32332400      -0.00067082      -0.01330155      -0.00823663
Te      10.72386843       3.42746835      15.23219335      -0.00156039      -0.00433401      -0.00204071
Te       8.75834112       7.09172327      14.43057983      -0.00275544      -0.00475693       0.00379235
Te       6.62469289       3.47642491      15.20722090      -0.00192994      -0.00384609       0.00497617
Te       8.81268906       2.73091264      22.55068746      -0.00324243       0.00050078      -0.00294873
Te      11.01529143       6.27861178      22.63011900       0.00195079      -0.00186883       0.00239890
Te      13.32146475       2.72358652      22.41052120       0.00212846      -0.00257115       0.00427038
Te       6.00652488       6.33147157      22.07905685       0.01260916       0.00073770      -0.01141461
Te      10.05457433       0.31373528      25.96850068       0.00285643       0.01177728      -0.00663042
Te      12.39648918       5.19279259      24.84699654       0.00091179      -0.00434611       0.00266932
Te      13.80628418      -0.12150952      25.52789066       0.00496505       0.01719986      -0.01079133
Te       8.06644575       5.47421559      25.00126310       0.00597647      -0.00168809      -0.00376496
Te      11.09116840       1.14672822      19.04826637       0.00123508      -0.00151478       0.00466065
Te      13.04472821       5.20230008      18.77548652       0.00105329      -0.00234727       0.00011549
Te      15.51778104       1.84247444      18.70358258      -0.00043296      -0.00111155       0.00159396
Te       8.70556805       4.99789273      18.80117322       0.00920902       0.00263685      -0.00583961
Te       8.94903908       0.13575005      32.28338485      -0.00141579       0.00137631       0.00076540
Te      10.90242738       3.63582085      31.62949476       0.00605318      -0.00047913       0.00179860
Te      13.06907146       0.18767175      31.44195233       0.00380806      -0.00636118      -0.00672096
Te       6.64941957       3.81777307      32.39024982      -0.00679130      -0.00326611      -0.00467393
Te       8.30389414       2.74891445      28.62490633       0.00327605       0.00331601       0.00168218
Te      10.47763607       6.14339599      28.17091764      -0.00001360       0.00380038       0.00407647
Te      13.02646125       2.85303487      27.71927396      -0.00008542       0.00498447      -0.00457428
Te       6.14965100       6.40233662      28.71605744       0.00536457       0.00441965       0.00128115
Sb       8.68874466       2.63762553      17.09599644       0.00113109      -0.00235607      -0.00120637
Sb      10.79252201       6.10893098      16.15284223      -0.00086487      -0.00434645      -0.00001855
Sb      13.29651686       2.81972868      16.95559909      -0.00108801      -0.00241940       0.00189073
Sb       6.66012978       6.19158728      16.13324609      -0.00484527      -0.00573576       0.00296327
Sb       7.51753360       0.23722788      27.19934462       0.00818589       0.00216819      -0.00016869
Sb      10.16411060       3.95161688      26.26010248      -0.00069561       0.00305304       0.00191819
Sb      12.07768589      -1.27839324      27.29370496       0.00818585       0.00823093      -0.01714315
Sb      -2.07300983       3.58371666      27.72209126      -0.01837450       0.01204581       0.00382945
Sb       8.89944790       0.41379749      20.90726685      -0.00077916      -0.00069452       0.00264955
Sb      10.88989695       3.82571593      20.62649296       0.00389483      -0.00120704       0.00343951
Sb      13.72208009       0.66254466      20.45048366       0.00042261      -0.00296963       0.00161530
Sb       6.52263336       3.90737551      20.65512311       0.00787483       0.00032416      -0.01061179
Sb      10.65589832       1.11927177      30.26819399       0.00043224       0.00110164       0.00435596
Sb      12.56143115       4.89210020      29.68985947       0.00162826       0.00047935      -0.00194399
Sb      14.03206253       0.35126477      28.76936233      -0.00162402       0.00386908      -0.00495014
Sb       8.35963752       5.17422724      30.31902192      -0.00184854      -0.00101536       0.00412540
Cr       3.76446927       2.09910988      24.96822063       0.00672000       0.01930795       0.04310309
81
Properties=species:S:1:pos:R:3:forces:R:3 energy=-282.45283729958 mlff_rel_energy_eV=-14.803698590987324 mlff_fmax_eV_A=0.10382346608900485 calculator_label=/data/pclancy3/yi/flare-data/1-Cr-Sb2Te3/3.fine-tuning/2-layer/MACE-omat/MACE-matpes-pbe-omat-ft.model neb_image=7 neb_protocol=mlff_pre_neb pbc="F F F"
Te      13.16222764       6.76711326      14.53498028       0.00119631      -0.00299667      -0.00112429
Te       2.26537166       3.66167480      15.22470924      -0.00034183       0.00251349      -0.00032902
Te       0.26642374       7.16330274      14.78634657       0.00164188      -0.00054082      -0.00828224
Te      14.86503530       4.68917963      15.16130544       0.00299437       0.00026201       0.00129530
Te       0.47381157       2.82874719      22.88611699       0.01015688      -0.00005573      -0.00116465
Te       3.13761410       6.27398306      21.75547317       0.00118525      -0.00107749       0.01507897
Te       4.51388619       2.24663452      22.23470355      -0.00870439       0.00548094       0.00495332
Te      -1.42940686       6.60141372      27.02973773       0.05591422      -0.00790442      -0.08712309
Te       2.02691030       1.04557233      24.76664590      -0.01084827       0.02213800       0.00594404
Te       4.01676644       4.70268872      24.87823997       0.00098416      -0.00602035       0.00465734
Te       6.21657052       1.31135908      25.24791128      -0.00182740      -0.00239065      -0.00819583
Te      -0.21182349       4.92607944      24.82163496      -0.01180163      -0.02230905       0.01567786
Te       2.33535231       0.99016976      18.72549751      -0.00415780       0.01058204       0.00375900
Te       4.48676453       4.69261023      18.59289561      -0.00325956       0.00234891       0.00867255
Te       6.71196517       0.74418322      18.74814189      -0.00349585       0.00399752       0.00909192
Te       0.21159019       5.30433233      18.89771467      -0.00285806       0.01169680      -0.01261541
Te      -0.04896119       0.59494436      32.84540884       0.01567942      -0.01079266       0.01494820
Te       2.23847066       3.83779370      32.25241833      -0.00017344       0.00083256       0.01677182
Te       4.28989438       0.27558946      32.63955015      -0.00969581      -0.00319376      -0.00258087
Te      -1.81658725       2.59391874      31.99472863       0.02200169      -0.00850241       0.02203064
Te      -0.25670247       2.47867875      28.64798349       0.00781039       0.01095792       0.02640472
Te       1.81754407       6.27077156      28.58285517       0.00956761       0.00921124       0.01578909
Te       4.18121125       2.68828258      28.87843561      -0.01963625       0.00469892      -0.00576099
Te      -3.29989190       5.02669017      30.33864673      -0.02279374      -0.01178967      -0.01966766
Sb      -0.00269632       3.24152558      16.96233799      -0.00185999       0.00238558      -0.00617660
Sb       2.60363634       6.35731663      16.27451360       0.00027259       0.00131441      -0.00317128
Sb       4.36581495       2.39417915      16.94590628       0.00242318       0.00685460       0.00421486
Sb      -1.39478349       5.74363203      16.49409660      -0.00330229      -0.00089127      -0.01377664
Sb       0.60971362       0.03426656      27.08645724      -0.00287305      -0.00972188      -0.01522140
Sb       1.70124827       3.99171899      26.85295689      -0.00893871       0.00238578       0.00871602
Sb       3.35631806      -0.05433228      27.60427667      -0.01014157       0.00441047      -0.00168833
Sb       6.33755754       4.15768628      26.54026230       0.00376363       0.00498311       0.00151127
Sb      13.58135241       6.81768403      21.21064215      -0.00578783       0.00052874      -0.00007497
Sb       2.35358714       3.66203110      20.73258078      -0.00318283       0.00517864       0.00262353
Sb       4.39645460       0.05363121      20.41237082      -0.00771851       0.00309816       0.00467917
Sb      15.00010086       4.35972947      20.73509992      -0.00279535       0.00224266       0.00388035
Sb       2.12057520       1.24001111      31.06027786       0.00288904      -0.00081618       0.01019033
Sb       4.12820074       5.37843248      30.16142080      -0.00189470      -0.00394665       0.00371205
Sb       6.39968723       1.30765427      30.92192853      -0.00003356       0.01367509      -0.00741845
Sb      -0.11676011       4.64359028      30.79765382       0.00620014      -0.01809438       0.00395811
Te       4.59689805       7.07416429      14.42626953       0.00226172      -0.00138946      -0.00364802
Te      10.77694271       3.63372755      14.98362212      -0.00179029      -0.00242150       0.00131997
Te       8.73481402       7.31163761      14.61300163       0.00365722       0.00010469      -0.00531313
Te       6.65056909       3.61545580      15.05353261       0.00280040      -0.00175888       0.00005955
Te       8.83458155       2.36354225      22.35041110       0.00715238      -0.00143652       0.00485070
Te      11.36609408       5.94882918      22.70463743      -0.00500290      -0.00088388       0.00145815
Te      13.45116594       2.39567363      22.16926977       0.00169232      -0.00344676       0.00053637
Te       5.89729378       6.07389344      22.03574731       0.00944941      -0.00301824       0.01015404
Te      10.35413489       0.67946592      25.86405431      -0.00327600       0.00908260      -0.01080180
Te      12.70024521       4.79696999      24.92743432      -0.00659456      -0.00204660      -0.00152795
Te      14.25524178       0.57407882      25.73933439      -0.00870004      -0.03273103      -0.01954208
Te       8.38150676       5.15116088      24.71520650       0.00106297      -0.00077099       0.00259980
Te      11.12974611       1.07590200      18.74693689       0.00392878       0.00177537      -0.00190912
Te      13.08312812       5.05808477      18.71315577       0.00112773       0.00096773      -0.00053963
Te      15.52616483       1.68946431      18.33727597       0.00208814       0.00345240      -0.00031316
Te       8.84018022       4.91406037      18.68233456       0.00051994      -0.00396596       0.00235059
Te       8.74570582       0.23270281      32.25253465      -0.00554726       0.00985859      -0.00198910
Te      10.74304568       3.73163421      31.81652276       0.00389978       0.00298399       0.00237167
Te      12.89550880       0.20265311      31.61399184      -0.00373298       0.00070241       0.00404091
Te       6.28054770       3.86622035      32.16690354       0.01055911       0.00526517      -0.00308620
Te       8.30751581       2.85214595      28.67409192       0.00528119       0.00632022      -0.00146625
Te      10.47235874       6.34857574      28.37207572      -0.01325781       0.00215536      -0.00773151
Te      13.17037764       3.14144114      28.08481120      -0.00052186      -0.00512063       0.00291233
Te       6.31228211       6.53405138      28.49497666      -0.01044056       0.00084231       0.01150087
Sb       8.76648256       2.69158514      16.81929263       0.00065707      -0.00246468       0.00327212
Sb      10.84169013       6.20935436      16.17510204       0.00045601      -0.00197583      -0.00186674
Sb      13.29384792       2.85244474      16.68288646       0.00245893      -0.00018274      -0.00080224
Sb       6.65218338       6.21199619      16.23231263       0.00422416       0.00086323      -0.00662529
Sb       7.94711056       0.26898476      27.24786442       0.00044102       0.00730329      -0.00861849
Sb      10.37585072       4.03787762      26.48614744       0.00104161      -0.00647880       0.00215717
Sb      12.46839933      -0.88050583      27.16321334      -0.00901850       0.00612152       0.00102123
Sb      -2.65026496       4.27257044      27.77236702       0.00725313      -0.02625948       0.01314009
Sb       8.94963912       0.19074393      20.53969073       0.00104127       0.00264480       0.00111999
Sb      10.96393589       3.62930298      20.53829315      -0.00011058      -0.00219681      -0.00156848
Sb      13.74747105       0.44662721      20.06297186       0.00389652      -0.00074261      -0.00150320
Sb       6.58430921       3.66040372      20.48482925      -0.00247373       0.00215633       0.01034029
Sb      10.56311304       1.26760490      30.36530407       0.00170101       0.00536662       0.00146474
Sb      12.45958041       5.13126542      30.02010401      -0.00866165       0.00597128      -0.00687296
Sb      14.11313051       0.59615884      29.09532671      -0.00333939      -0.00676431       0.00552544
Sb       8.23938322       5.26650081      30.40508870       0.00662943       0.00614522      -0.00729166
Cr       3.87970786       2.33317603      26.24609450       0.00062852       0.00523901      -0.00336778
81
Properties=species:S:1:pos:R:3:forces:R:3 energy=-281.96569017824834 mlff_rel_energy_eV=-14.316551469655678 mlff_fmax_eV_A=0.09310247076609786 calculator_label=/data/pclancy3/yi/flare-data/1-Cr-Sb2Te3/3.fine-tuning/2-layer/MACE-omat/MACE-matpes-pbe-omat-ft.model neb_image=8 neb_protocol=mlff_pre_neb pbc="F F F"
Te      12.77595272       6.53919368      14.36436521      -0.00178777       0.02118781       0.00568376
Te       2.09659705       3.80718949      15.57124695       0.00108464      -0.00189691      -0.00810213
Te       0.17209913       7.25790182      14.94627951       0.00057383       0.00956412       0.01079439
Te      14.60035081       4.68470827      15.25790837       0.01391763      -0.01911312      -0.00977500
Te       0.24208078       2.66380916      22.98559577      -0.00944736       0.00187093      -0.03734674
Te       2.81607298       6.36035667      22.35108424      -0.02074994       0.01066972      -0.01148431
Te       4.29261957       2.49045700      22.45094356       0.00576759       0.00540208      -0.00091184
Te       0.24009539       7.10052757      21.81479138      -0.07894444      -0.02245363       0.02747271
Te       2.23978299       0.95701849      24.97411229      -0.00166033       0.01341845      -0.00419275
Te       4.05447981       4.90982439      25.10089972       0.00107366       0.00003730      -0.00059495
Te       6.34538390       1.18193655      25.01343881       0.00999828       0.00032744       0.00463888
Te      -0.12070805       4.80574384      24.72095255      -0.00190874      -0.00064777       0.01046151
Te       2.01141003       1.22046469      19.13740866       0.00945807       0.00470923      -0.00921817
Te       4.31749685       4.93148438      18.94115723       0.01028259       0.00179615      -0.00759536
Te       6.42630519       0.71622853      19.01216283       0.00483087       0.01977613      -0.00718870
Te      -0.14489579       5.51948277      19.17305646       0.00782732      -0.01142032      -0.00813962
Te      -0.08896287       0.69896290      32.94370711       0.01325993      -0.01348343       0.00495164
Te       2.08960590       3.81407402      32.22640175       0.00089701       0.00101970       0.00659638
Te       4.37178611       0.28271941      32.78947538       0.00238686      -0.00569979      -0.00962551
Te      -1.90341054       2.40334121      31.86008705       0.00019036       0.02307115       0.01848403
Te      -0.11304012       2.01234529      28.60520687       0.00511785       0.00787360       0.00637609
Te       1.75710080       6.11517490      28.66512729       0.00247261      -0.00039045       0.00596415
Te       4.16979979       2.61005263      28.91315091       0.00031654      -0.00124771       0.00361127
Te      -2.38682335       5.33535289      28.33157095       0.00012369       0.01455515       0.01588554
Sb      -0.27164591       3.40180877      17.13553223       0.01028862      -0.02435002       0.00094888
Sb       2.39463679       6.49900146      16.61286654      -0.00158874      -0.00910112       0.00941118
Sb       4.14196503       2.58211627      17.35472654       0.00836108      -0.00378771      -0.01637737
Sb      -1.58841456       5.88901410      16.60421615      -0.01242847       0.01640329       0.01207389
Sb       1.07566809      -0.33620896      27.26432473      -0.02826530       0.01138760      -0.02528421
Sb       1.92028527       3.87484801      26.88044904      -0.00141446      -0.00453868       0.00186539
Sb       3.86127680      -0.09277146      27.59028541       0.01712650      -0.00075086      -0.01876289
Sb       6.43920581       4.12649487      26.69337066      -0.00336602      -0.01275612      -0.00157345
Sb      13.62914198       6.77262817      21.38740125      -0.02240466       0.02388110      -0.02253400
Sb       2.07820368       3.83366395      20.90364592       0.00984514       0.00600510      -0.00899273
Sb       4.13327354       0.22290155      20.75285425       0.01040004      -0.00212260       0.00140254
Sb      14.93739185       4.27495946      20.85656573       0.00564421      -0.01458738      -0.00336819
Sb       2.18786521       1.16973876      31.19719559      -0.00084906       0.00290050      -0.00709128
Sb       4.04620676       5.23366054      30.43744057       0.00377083      -0.00357962       0.00950488
Sb       6.44890718       1.26781306      31.00085644      -0.00004833       0.00858202      -0.00708632
Sb      -0.28113800       4.49269909      30.39627673       0.00350035       0.00901923       0.01251833
Te       4.41795487       7.19328645      14.77355525      -0.00125631       0.00389217       0.01003521
Te      10.48325629       3.52519460      15.24791911       0.01242959      -0.00134657      -0.00929913
Te       8.54535754       7.26631457      14.78338220       0.00414089      -0.00064990      -0.00063802
Te       6.39799467       3.68374516      15.45433596       0.00662531      -0.00488131      -0.01278422
Te       8.74584559       2.41822888      22.50899282       0.00677925      -0.00377797      -0.00466385
Te      11.38427735       5.96353463      22.87065741      -0.02860524       0.01248247      -0.03035587
Te      13.38893837       2.33123155      22.32731274      -0.01253931       0.00574689      -0.00053039
Te       6.10502837       6.17437506      22.29110422       0.02134643       0.00260020       0.00395020
Te      10.45363274       0.91251072      25.44744696       0.03146439      -0.01113917       0.03073026
Te      12.74388658       4.73979829      25.02209062      -0.00249187       0.02071822      -0.00357924
Te      14.43796394      -0.04864552      25.22165016      -0.00025132       0.03966037      -0.00618223
Te       8.38776734       5.11059641      24.76202007       0.00502933      -0.00056347       0.00430807
Te      10.97844378       1.06688455      18.94115597       0.00341509       0.00447733      -0.01344165
Te      13.01888857       5.06920506      18.86289462       0.00133839       0.00075343      -0.00448012
Te      15.36768828       1.64110728      18.43568624      -0.00372553      -0.00641503       0.00881598
Te       8.75469517       5.00437408      18.94118818       0.00156813      -0.00433078      -0.01239303
Te       8.87183414       0.36264731      32.31772938      -0.00903762      -0.00083140       0.00835442
Te      10.88159723       3.80206093      31.76445628      -0.00686075       0.00252248       0.01703040
Te      13.00885580       0.10200528      31.60276802      -0.00461982       0.00204182       0.00855998
Te       6.30932679       3.87608198      32.16077170       0.00058282       0.00511964       0.00692683
Te       8.35562176       2.72296550      28.69219209       0.00524345      -0.00025123      -0.00008500
Te      10.44655134       6.39305893      28.33166951       0.00530970      -0.00520009       0.00857270
Te      13.15758461       2.98705041      28.13230377      -0.00881390       0.02002903       0.00479201
Te       6.24095081       6.41382402      28.52045592       0.00211128      -0.00528120       0.00300451
Sb       8.53127466       2.71278623      17.19548022       0.00791012      -0.01158288      -0.01495904
Sb      10.66410656       6.15386934      16.30274712       0.00541316      -0.00345707       0.00382788
Sb      13.09179192       2.83661380      16.85433524       0.00157093      -0.00488378      -0.00476912
Sb       6.49386102       6.32554348      16.54012843       0.00492018      -0.00889216       0.00222632
Sb       8.18407541       0.28555175      26.94598675       0.00987028      -0.01070267       0.00914946
Sb      10.39146399       3.98425503      26.51957887       0.00830533      -0.00295000       0.00561661
Sb      12.62022371      -0.37542184      27.09435013      -0.00724087      -0.09106993      -0.01794180
Sb      -1.82792194       3.33845776      26.55508255      -0.01087052       0.00127238       0.00810283
Sb       8.74508837       0.21752031      20.71280452       0.00528890      -0.00732736      -0.00691057
Sb      10.89868832       3.64385408      20.70326611      -0.00006234       0.00009137      -0.00566887
Sb      13.62752409       0.39840691      20.20025939      -0.01556297      -0.00957880       0.01248905
Sb       6.46958642       3.85012602      20.81356163       0.00820678      -0.00277196      -0.00184043
Sb      10.68177978       1.32161369      30.36433839      -0.00415546      -0.00089669       0.01101940
Sb      12.50490379       5.20030811      29.88634802       0.00911075      -0.00080930       0.02905005
Sb      14.40965066       0.65638796      29.30599371      -0.02991541       0.01993923      -0.00549032
Sb       8.27185919       5.26014586      30.32095592       0.00651949      -0.00168212       0.00699402
Cr       4.23975431       2.34392558      26.19278789      -0.00214321      -0.00160473       0.00905676
81
Properties=species:S:1:pos:R:3:forces:R:3 energy=-265.73273632791364 mlff_rel_energy_eV=1.916402380679017 mlff_fmax_eV_A=2.4358236594703486 calculator_label=/data/pclancy3/yi/flare-data/1-Cr-Sb2Te3/3.fine-tuning/2-layer/MACE-omat/MACE-matpes-pbe-omat-ft.model neb_image=9 neb_protocol=mlff_pre_neb pbc="F F F"
Te      12.89820488       7.43753552      14.96903123      -1.00558596      -0.77903620       0.87303922
Te       2.19789131       3.73360567      14.97679894      -0.61235811       0.03228473       0.44576233
Te       0.06320718       7.43561131      14.97679881      -0.98355437      -0.85970567       1.08269061
Te      15.03040478       3.73434177      14.97791054      -1.22951462      -0.52730008       0.97301038
Te       0.07240212       2.52585091      22.27347359       0.82997187       0.44987491      -0.08389083
Te       2.22190728       6.21391280      22.26179978       0.20711364      -0.84092676      -0.22928784
Te       4.35227335       2.50966079      22.24996534       0.10443077      -0.94960160      -0.01418821
Te      -2.04680699       6.20101708      22.27347531       0.59021569      -0.33362181       0.39721083
Te       2.17769796       1.25572565      24.99263658      -0.57273073      -0.74886615       0.23759845
Te       4.29887265       4.89016213      25.09954412      -0.13090583      -0.56363464      -0.18670483
Te       6.38580089       1.27097931      25.09954543      -0.21473268      -0.89739657       0.12432264
Te       0.00719080       4.93682912      25.08853316      -0.93302595      -0.57923127      -0.24758198
Te       2.20943034       1.27403211      18.60907474      -0.07960205      -0.41857058      -0.15536581
Te       4.34507608       4.97387246      18.60965942       0.08697247      -0.51118122      -0.25127484
Te       6.48139703       1.26902961      18.60965956      -0.04487509      -1.18886236       0.58407302
Te       0.06383309       4.96950068      18.60688633      -1.13530976      -0.34299542      -0.86617118
Te      -0.02419857      -0.01396362      32.48719709       1.05627496       0.80658658      -0.89882046
Te       2.15917489       3.73867366      32.46616943       0.12528553      -0.71708880      -0.18034448
Te       4.31737597      -0.00410990      32.46616836       0.06416736       0.56610926      -0.77435932
Te      -2.10421285       3.71932009      32.43954710       1.03438664       0.31117804      -0.73528663
Te       0.05016394       2.46586174      28.79895617      -0.88261558      -0.32395128      -0.61569675
Te       2.23410044       6.22094215      28.88137257      -0.02479027      -0.71153112      -0.11709243
Te       4.34777946       2.50706826      29.09824492      -0.02290655       0.22943072       0.19831372
Te      -2.10986512       6.21181092      28.79895821       0.24823986      -1.62947890      -0.79728702
Sb       0.06776192       2.50149214      16.66903250       1.00125512       1.08871237       0.61148210
Sb       2.20845481       6.20616269      16.66965763       0.09834126       0.35563361      -0.80357531
Sb       4.33983493       2.50249705      16.67233991      -0.16962698       0.48340446       0.57302488
Sb      -2.07021747       6.20921271      16.66903157       2.02129274       0.26043790      -0.48243478
Sb       0.09069233       0.05229073      26.74471859       0.68775349       0.92945542      -0.03839108
Sb       2.01416676       3.85012797      26.99214269      -0.49664806       1.49441888       0.41376237
Sb       4.34117932      -0.18543386      26.99214560      -0.13341255       0.57763520      -0.47643716
Sb       6.42694594       3.70598911      26.76451677       0.63142109       1.75216163       0.09247368
Sb      12.89693357       7.43679481      20.55300454      -1.05960308      -1.22954627       0.33684597
Sb       2.20686565       3.74422192      20.56129736      -0.98107080       0.41368785       1.34928914
Sb       4.34605679       0.03440346      20.56129844       0.04560863       1.34073093      -0.17832062
Sb      15.05129359       3.74637934      20.57494064      -0.85807258      -0.71820597      -0.76411210
Sb       2.13847127       1.23310201      30.80144489      -0.72918511      -0.99021856       2.10028124
Sb       4.34089700       4.99754436      30.83563548      -0.11686087       0.66500230      -0.84541097
Sb       6.49979816       1.25354251      30.83563347       0.11382828      -0.68665081       1.48223141
Sb       0.01017860       4.93854803      30.78646390      -1.37791866      -0.04565034      -0.06027707
Te       4.33946639       7.43497238      14.97703744       0.02827194      -0.51135202       0.55803920
Te      10.75136544       3.73578888      14.97291562      -0.17438902       0.34863332       0.43863313
Te       8.61898295       7.43380247      14.97291562       0.01359860      -0.58640062       0.76745572
Te       6.47647982       3.73455491      14.97748436       0.09956190       0.38024355       0.20417354
Te       8.62183323       2.51413241      22.26453825       0.04169754      -0.90223685       0.27385737
Te      10.78680746       6.22002353      22.25861574       1.05316825       0.36202326      -0.52713092
Te      12.90127421       2.50660381      22.25551852       0.71411288      -0.37462231       0.20346114
Te       6.49491105       6.20267242      22.26453851      -0.01452267      -1.01209391      -0.20761589
Te      10.68920280       1.23105565      25.12776321      -0.05735748      -0.95499229       0.36964946
Te      12.88780440       4.94192504      25.11978686      -1.00432833      -0.65500132       0.27223819
Te      15.00225368       1.27501053      25.11978680      -1.51237220      -0.72524494       1.00902767
Te       8.72476021       5.03098459      25.04231293      -0.44591486      -0.50574042       0.21870856
Te      10.75772498       1.27056655      18.61372525      -0.07634204      -1.02850408       0.78688492
Te      12.89443725       4.97433950      18.61462544       0.82035787       0.00915169       0.76378252
Te      15.03362670       1.26452185      18.61462572      -0.46903548       0.30720336       1.31133861
Te       8.62384019       4.97278867      18.60398426       0.00467411      -0.64372190       0.06052697
Te       8.72949088       0.10101460      32.56076207      -0.16506489       0.43142903      -0.60643722
Te      10.72559219       3.73612024      32.39750262       0.75755952      -0.34192248      -0.33443311
Te      12.87552979       0.00766322      32.39749977       0.80763329       0.79914770      -1.07639788
Te       6.49354135       3.74437898      32.45442720       0.18551518      -0.74197792      -0.01856319
Te       8.55985422       2.47204097      28.77123218       0.00652749      -0.25648138      -0.05447156
Te      10.73043686       6.18751593      28.77788882       0.73260496      -0.67226294       0.68485045
Te      12.88852461       2.49925015      28.78004239       1.10461359      -0.36216930       0.49064561
Te       6.42743489       6.17011652      28.77123400       0.12205410      -0.63000634       0.26034666
Sb       8.61929403       2.50525541      16.66834957       0.06515116       0.87848735       0.01348176
Sb      10.76912850       6.20983700      16.67361637       0.41884466       0.96750119      -1.97415988
Sb      12.89148396       2.50096669      16.65482422       1.48135766       0.85254109      -1.00853943
Sb       6.48595414       6.20492918      16.66834952      -0.00945814       0.47995533      -1.24781341
Sb       8.57241187       0.01044550      26.82825004      -0.08759734       0.81952907      -0.43096294
Sb      10.70903943       3.73479649      26.79507331       0.70422762       1.59193343      -0.85525541
Sb      12.86608326      -0.00598711      26.79507342       0.99070730       1.49621582      -1.15734439
Sb      -2.14364136       3.69658950      26.83334928       1.41182363       1.78668569       0.86472260
Sb       8.62076029       0.03832288      20.56658901       0.02752126       1.23298896      -0.19289421
Sb      10.76268601       3.73923278      20.55981305      -0.07999492       0.57887678      -0.39889155
Sb      12.89680023       0.03821777      20.55981406       0.26847708       1.18402006      -0.67273099
Sb       6.48967138       3.74215712      20.55675615      -0.06252725       1.35949170       0.42120191
Sb      10.69927793       1.23685863      30.71701541       0.08578010      -0.32342349       0.92811476
Sb      12.83757905       4.94473236      30.75128787      -1.39972390      -0.20937805      -0.77859319
Sb      14.97952916       1.23013321      30.75128405      -1.84188620      -0.22923080       0.35904586
Sb       8.61766521       4.96922216      30.65124715      -0.50648955       0.62895966      -0.84928296
Cr       4.04834793       2.33439988      26.60371583       0.80950944       0.00825289      -0.94176881
