61
Lattice="8.42843558953249 0.0 0.0 -4.21421779476624 7.29923593142487 0.0 0.0 0.0 31.03344084160948" Properties=species:S:1:pos:R:3 repair_mode=unwrap repair_image_index=0 migrant_element=Cr pbc="T T T"
Te       2.10710960       1.21626748       3.59502237
Te       4.21445409       4.86629521       3.59502237
Te       6.32132606       1.21654029       3.59454265
Te      -0.00023626       4.86629600       3.59502239
Te      -0.00091566       0.00052866       6.74933386
Te       2.10710848       3.64961994       6.75037367
Te       4.21513349       0.00052816       6.74933367
Te      -2.10710848       3.64856263       6.74933367
Te       0.00000000       0.00000000      -0.00000000
Te       2.10710891       3.64961970       0.00000000
Te       4.21421783       0.00000000      -0.00000000
Te      -2.10710891       3.64961970       0.00000000
Te       0.00853734       2.43800909      13.95271096
Te       2.10710870       6.07284129      13.95271096
Te       4.20568048       2.43800884      13.95271135
Te      -2.10710870       6.08269937      13.93702124
Te       2.10710913       1.22639810      17.08072626
Te       4.20568048       4.86123030      17.08072626
Te       6.32132652       1.21654002      17.09641599
Te       0.00853734       4.86123055      17.08072588
Te       2.10710868       1.21532339      10.34626835
Te       4.21527124       4.86676805      10.34626835
Te       6.32132698       1.21653976      10.34347047
Te      -0.00105341       4.86676778      10.34626878
Te       0.00091566      -0.00052866      24.28410336
Te       2.10710934       3.64961945      24.28306356
Te       4.21330216      -0.00052816      24.28410355
Te      -2.10710934       3.65067676      24.28410355
Te      -0.00023626       2.43294418      27.43841485
Te       2.10710823       6.08297191      27.43841485
Te       4.21445409       2.43294339      27.43841484
Te      -2.10710823       6.08269910      27.43889457
Te      -0.00105341       2.43247134      20.68716887
Te       2.10710915       6.08391600      20.68716887
Te       4.21527124       2.43247161      20.68716845
Te      -2.10710915       6.08269963      20.68996676
Sb      -0.00256829       2.43159530       8.41286590
Sb       2.10711038       6.08566595       8.41286590
Sb       4.21678612       2.43159699       8.41286629
Sb      -2.10711038       6.08270034       8.40751439
Sb      -0.00005462       2.43304569       1.93206324
Sb       2.10711114       6.08276385       1.93206324
Sb       4.21427245       2.43304826       1.93206353
Sb      -2.10711114       6.08270078       1.93179050
Sb      -0.01025543       0.00592098      18.75704518
Sb       2.10710819       3.64962011      18.74714310
Sb       4.22447325       0.00592014      18.75704543
Sb       6.32132747       3.63777816      18.75704543
Sb       0.01025543      -0.00592098      12.27639204
Sb       2.10710964       3.64961928      12.28629413
Sb       4.20396240      -0.00592014      12.27639180
Sb      -2.10710964       3.66146123      12.27639180
Sb       2.10710669       1.21647554      29.10137398
Sb       4.21427245       4.86619370      29.10137398
Sb       6.32132897       1.21653861      29.10164672
Sb      -0.00005462       4.86619113      29.10137369
Sb       2.10710745       1.21357345      22.62057133
Sb       4.21678612       4.86764409      22.62057133
Sb       6.32132821       1.21653905      22.62592284
Sb      -0.00256829       4.86764240      22.62057094
Cr       2.10710891       3.64961970      15.51671861
61
Lattice="8.42843558953249 0.0 0.0 -4.21421779476624 7.29923593142487 0.0 0.0 0.0 31.03344084160948" Properties=species:S:1:pos:R:3 repair_mode=unwrap repair_image_index=1 migrant_element=Cr pbc="T T T"
Te       2.10710960       1.20719038       3.61694275
Te       4.22231509       4.87083376       3.61694275
Te       6.32132606       1.21654029       3.62021060
Te      -0.00809726       4.87083455       3.61694276
Te       0.00565182      -0.00326308       6.70933285
Te       2.10710848       3.64961994       6.61808625
Te       4.20856601      -0.00326357       6.70933266
Te      -2.10710848       3.65614610       6.70933266
Te      -0.00307225       0.00177376      -0.00153814
Te       2.10710891       3.64961970       0.00184455
Te       4.21729007       0.00177376      -0.00153814
Te      -2.10710891       3.64607217      -0.00153814
Te      -0.05329782       2.40230852      14.00250101
Te       2.10710870       6.14424242      14.00250101
Te       4.26751565       2.40230827      14.00250140
Te      -2.10710870       6.08269937      14.01426243
Te       2.10710913       1.21497535      17.07535909
Te       4.21557288       4.86694168      17.07535909
Te       6.32132652       1.21654002      17.07977888
Te      -0.00135505       4.86694193      17.07535871
Te       2.10710868       1.22036235      10.34288771
Te       4.21090736       4.86424857      10.34288771
Te       6.32132698       1.21653976      10.41543120
Te       0.00331047       4.86424830      10.34288813
Te      -0.00078649       0.00045408      24.30594866
Te       2.10710934       3.64961945      24.30817155
Te       4.21500431       0.00045458      24.30594885
Te      -2.10710934       3.64871129      24.30594885
Te       0.00159695       2.43400259      27.41569991
Te       2.10710823       6.08085510      27.41569991
Te       4.21262088       2.43400180      27.41569990
Te      -2.10710823       6.08269910      27.42002490
Te       0.00074547       2.43350992      20.69094194
Te       2.10710915       6.08183884      20.69094194
Te       4.21347236       2.43351019      20.69094151
Te      -2.10710915       6.08269963      20.69312382
Sb      -0.03388861       2.41351251       8.39336229
Sb       2.10711038       6.12183153       8.39336229
Sb       4.24810644       2.41351420       8.39336268
Sb      -2.10711038       6.08270034       8.41920377
Sb      -0.00033795       2.43288211       1.94821390
Sb       2.10711114       6.08309101       1.94821390
Sb       4.21455578       2.43288468       1.94821419
Sb      -2.10711114       6.08270078       1.93111253
Sb       0.00084267      -0.00048651      18.74799912
Sb       2.10710819       3.64962011      18.74322732
Sb       4.21337516      -0.00048735      18.74799937
Sb       6.32132747       3.65059314      18.74799937
Sb       0.00430696      -0.00248663      12.31077033
Sb       2.10710964       3.64961928      12.21064563
Sb       4.20991087      -0.00248579      12.31077009
Sb      -2.10710964       3.65459253      12.31077009
Sb       2.10710669       1.21811935      29.08927544
Sb       4.21284887       4.86537180      29.08927544
Sb       6.32132897       1.21653861      29.08473542
Sb       0.00136895       4.86536923      29.08927515
Sb       2.10710745       1.21723947      22.63618380
Sb       4.21361125       4.86581108      22.63618380
Sb       6.32132821       1.21653905      22.63286730
Sb       0.00060658       4.86580938      22.63618342
Cr       2.10710877       3.64961978      14.01064563
61
Lattice="8.42843558953249 0.0 0.0 -4.21421779476624 7.29923593142487 0.0 0.0 0.0 31.03344084160948" Properties=species:S:1:pos:R:3 repair_mode=unwrap repair_image_index=2 migrant_element=Cr pbc="T T T"
Te       2.10710960       1.20594071       3.61833428
Te       4.22339733       4.87145860       3.61833428
Te       6.32132606       1.21654029       3.62124101
Te      -0.00917950       4.87145938       3.61833429
Te       0.01105576      -0.00638305       6.70506499
Te       2.10710848       3.64961994       6.60451276
Te       4.20316207      -0.00638354       6.70506481
Te      -2.10710848       3.66238604       6.70506481
Te      -0.00345289       0.00199353      -0.00159504
Te       2.10710891       3.64961970       0.00269830
Te       4.21767072       0.00199353      -0.00159504
Te      -2.10710891       3.64563264      -0.00159504
Te      -0.07064656       2.39229222      13.99409729
Te       2.10710870       6.16427502      13.99409729
Te       4.28486438       2.39229197      13.99409767
Te      -2.10710870       6.08269937      14.01947914
Te       2.10710913       1.21405327      17.07487814
Te       4.21637142       4.86740272      17.07487814
Te       6.32132652       1.21654002      17.07476327
Te      -0.00215360       4.86740297      17.07487775
Te       2.10710868       1.23507530      10.35289339
Te       4.19816558       4.85689210      10.35289339
Te       6.32132698       1.21653976      10.42009798
Te       0.01605224       4.85689183      10.35289381
Te      -0.00092316       0.00053299      24.30808958
Te       2.10710934       3.64961945      24.30962223
Te       4.21514099       0.00053349      24.30808977
Te      -2.10710934       3.64855347      24.30808977
Te       0.00195004       2.43420644      27.41376210
Te       2.10710823       6.08044738      27.41376210
Te       4.21226778       2.43420566      27.41376209
Te      -2.10710823       6.08269910      27.41840441
Te       0.00087062       2.43358218      20.69122330
Te       2.10710915       6.08169432      20.69122330
Te       4.21334721       2.43358245      20.69122287
Te      -2.10710915       6.08269963      20.69200182
Sb      -0.03589726       2.41235281       8.39320475
Sb       2.10711038       6.12415092       8.39320475
Sb       4.25011509       2.41235451       8.39320514
Sb      -2.10711038       6.08270034       8.40817674
Sb      -0.00000297       2.43307551       1.94979603
Sb       2.10711114       6.08270421       1.94979603
Sb       4.21422080       2.43307808       1.94979632
Sb      -2.10711114       6.08270078       1.93075765
Sb       0.00230520      -0.00133091      18.74665891
Sb       2.10710819       3.64962011      18.74146521
Sb       4.21191263      -0.00133174      18.74665915
Sb       6.32132747       3.65228193      18.74665915
Sb      -0.00075610       0.00043654      12.32439006
Sb       2.10710964       3.64961928      13.50118643
Sb       4.21497393       0.00043737      12.32438982
Sb      -2.10710964       3.64874620      12.32438982
Sb       2.10710669       1.21798629      29.08809145
Sb       4.21296411       4.86543833      29.08809145
Sb       6.32132897       1.21653861      29.08261735
Sb       0.00125372       4.86543576      29.08809116
Sb       2.10710745       1.21779362      22.63786536
Sb       4.21313134       4.86553400      22.63786536
Sb       6.32132821       1.21653905      22.63388219
Sb       0.00108649       4.86553231      22.63786497
Cr       2.10710880       3.64961976      11.70118643
61
Lattice="8.42843558953249 0.0 0.0 -4.21421779476624 7.29923593142487 0.0 0.0 0.0 31.03344084160948" Properties=species:S:1:pos:R:3 repair_mode=unwrap repair_image_index=3 migrant_element=Cr pbc="T T T"
Te       2.10710960       1.19618164       3.64727369
Te       4.23184893       4.87633813       3.64727369
Te       6.32132606       1.21654029       3.65509214
Te      -0.01763111       4.87633892       3.64727370
Te       0.02956193      -0.01706759       6.65491527
Te       2.10710848       3.64961994       6.41858105
Te       4.18465590      -0.01706809       6.65491508
Te      -2.10710848       3.68375512       6.65491508
Te      -0.00724623       0.00418361      -0.00282968
Te       2.10710891       3.64961970       0.00816727
Te       4.22146406       0.00418361      -0.00282968
Te      -2.10710891       3.64125247      -0.00282968
Te      -0.01894505       2.42214212      14.06369798
Te       2.10710870       6.10457523      14.06369798
Te       4.23316288       2.42214186      14.06369837
Te      -2.10710870       6.08269937      14.11847228
Te       2.10710913       1.21317853      17.04471483
Te       4.21712896       4.86784009      17.04471483
Te       6.32132652       1.21654002      17.04905073
Te      -0.00291114       4.86784034      17.04471445
Te       2.10710868       1.20260836      10.35896458
Te       4.22628275       4.87312557      10.35896458
Te       6.32132698       1.21653976      10.51518549
Te      -0.01206492       4.87312529      10.35896501
Te      -0.00106623       0.00061559      24.33870630
Te       2.10710934       3.64961945      24.34532315
Te       4.21528406       0.00061608      24.33870649
Te      -2.10710934       3.64838827      24.33870649
Te       0.00305610       2.43484502      27.38166639
Te       2.10710823       6.07917022      27.38166639
Te       4.21116173       2.43484424      27.38166637
Te      -2.10710823       6.08269910      27.39391889
Te       0.00167523       2.43404672      20.69420001
Te       2.10710915       6.08076524      20.69420001
Te       4.21254260       2.43404699      20.69419959
Te      -2.10710915       6.08269963      20.69838207
Sb      -0.08580650       2.38353771       8.36667810
Sb       2.10711038       6.18178114       8.36667810
Sb       4.30002433       2.38353940       8.36667849
Sb      -2.10711038       6.08270034       8.37666929
Sb       0.00067108       2.43346468       1.96872613
Sb       2.10711114       6.08192588       1.96872613
Sb       4.21354674       2.43346725       1.96872642
Sb      -2.10711114       6.08270078       1.92972535
Sb       0.00302637      -0.00174728      18.73582606
Sb       2.10710819       3.64962011      18.72504048
Sb       4.21119146      -0.00174811      18.73582630
Sb       6.32132747       3.65311467      18.73582630
Sb       0.00373014      -0.00215360      12.38943045
Sb       2.10710964       3.64961928      12.61664961
Sb       4.21048769      -0.00215276      12.38943020
Sb      -2.10710964       3.65392647      12.38943020
Sb       2.10710669       1.21915492      29.07123094
Sb       4.21195204       4.86485401      29.07123094
Sb       6.32132897       1.21653861      29.06211601
Sb       0.00226579       4.86485144      29.07123066
Sb       2.10710745       1.21804654      22.65712587
Sb       4.21291231       4.86540754      22.65712587
Sb       6.32132821       1.21653905      22.64879431
Sb       0.00130552       4.86540585      22.65712548
Cr       2.10710906       3.64961961      10.38456109
61
Lattice="8.42843558953249 0.0 0.0 -4.21421779476624 7.29923593142487 0.0 0.0 0.0 31.03344084160948" Properties=species:S:1:pos:R:3 repair_mode=unwrap repair_image_index=4 migrant_element=Cr pbc="T T T"
Te       2.10710960       1.18408157       3.67157898
Te       4.24232791       4.88238817       3.67157898
Te       6.32132606       1.21654029       3.68124484
Te      -0.02811008       4.88238896       3.67157899
Te       0.03530565      -0.02038372       6.61797966
Te       2.10710848       3.64961994       6.24819520
Te       4.17891218      -0.02038422       6.61797947
Te      -2.10710848       3.69038739       6.61797947
Te      -0.01158614       0.00668926      -0.00504885
Te       2.10710891       3.64961970       0.01065370
Te       4.22580397       0.00668926      -0.00504885
Te      -2.10710891       3.63624117      -0.00504885
Te      -0.01879063       2.42223127      14.10729535
Te       2.10710870       6.10439692      14.10729535
Te       4.23300846       2.42223102      14.10729574
Te      -2.10710870       6.08269937      14.20453021
Te       2.10710913       1.21214448      17.02071185
Te       4.21802448       4.86835712      17.02071185
Te       6.32132652       1.21654002      17.03927420
Te      -0.00380665       4.86835737      17.02071146
Te       2.10710868       1.26418388      10.36252263
Te       4.17295681       4.84233781      10.36252263
Te       6.32132698       1.21653976      10.61834592
Te       0.04126102       4.84233754      10.36252305
Te      -0.00106873       0.00061703      24.36451834
Te       2.10710934       3.64961945      24.37136313
Te       4.21528655       0.00061753      24.36451852
Te      -2.10710934       3.64838539      24.36451852
Te       0.00611286       2.43660985      27.35474563
Te       2.10710823       6.07564058      27.35474563
Te       4.20810497       2.43660906      27.35474562
Te      -2.10710823       6.08269910      27.37097275
Te       0.00124786       2.43379998      20.69657298
Te       2.10710915       6.08125873      20.69657298
Te       4.21296997       2.43380025      20.69657256
Te      -2.10710915       6.08269963      20.70103878
Sb      -0.14468480       2.34954430       8.36480494
Sb       2.10711038       6.24976795       8.36480494
Sb       4.35890262       2.34954599       8.36480533
Sb      -2.10711038       6.08270034       8.36862078
Sb       0.00087587       2.43358291       1.98390355
Sb       2.10711114       6.08168942       1.98390355
Sb       4.21334196       2.43358548       1.98390384
Sb      -2.10711114       6.08270078       1.92670502
Sb       0.00310543      -0.00179292      18.73015904
Sb       2.10710819       3.64962011      18.71028061
Sb       4.21111240      -0.00179376      18.73015929
Sb       6.32132747       3.65320596      18.73015929
Sb      -0.00553097       0.00319331      12.41249793
Sb       2.10710964       3.64961928      12.46477605
Sb       4.21974880       0.00319415      12.41249769
Sb      -2.10710964       3.64323266      12.41249769
Sb       2.10710669       1.22043185      29.06062256
Sb       4.21084619       4.86421555      29.06062256
Sb       6.32132897       1.21653861      29.04963399
Sb       0.00337164       4.86421298      29.06062227
Sb       2.10710745       1.21920845      22.67212449
Sb       4.21190606       4.86482659      22.67212449
Sb       6.32132821       1.21653905      22.65597063
Sb       0.00231176       4.86482490      22.67212411
Cr       2.10710912       3.64961958       8.65062336
