61
Lattice="8.42843558953 0 0 -4.21421779477 7.29923593142 0 0 0 31.0334408416" Properties=species:S:1:pos:R:3:forces:R:3 energy=-133593.032865 ionic_step=0 pbc="T T T"
Te 2.1071096 1.20719038 3.61694275 -2.57110337382e-07 0.00230036618855 -0.0335554701317
Te 4.22231509 4.87083376 3.61694275 -0.00199209089403 -0.00115031164945 -0.0335552130213
Te 6.32132606 1.21654029 3.6202106 2.57110337382e-07 0 -0.0331759752737
Te -0.00809726 4.87083455 3.61694276 0.00199209089403 -0.00115056875978 -0.0335552130213
Te 0.00565182 -0.00326308 6.70933285 -0.00400269373236 0.00231116482272 0.0379754539416
Te 2.10710848 3.64961994 6.61808625 2.57110337382e-07 -5.14220674763e-07 0.037404926103
Te 4.20856601 -0.00326357 6.70933266 0.00400269373236 0.00231142193306 0.0379754539416
Te -2.10710848 3.6561461 6.70933266 -2.57110337382e-07 -0.00462232964545 0.0379754539416
Te -0.00307225 0.00177376 -0.00153814 0.000783929418677 -0.000452257083454 0.000561014756167
Te 2.10710891 3.6496197 0.00184455 -0 -2.57110337382e-07 0.000952336689662
Te 4.21729007 0.00177376 -0.00153814 -0.000783929418677 -0.000452257083454 0.000561014756167
Te -2.10710891 3.64607217 -0.00153814 0 0.000905028387583 0.000561014756167
Te -0.05329782 2.40230852 14.00250101 0.00872863884377 0.00503961972302 -0.0325313996579
Te 2.1071087 6.14424242 14.00250101 0 -0.0100789823357 -0.0325313996579
Te 4.26751565 2.40230827 14.0025014 -0.00872863884377 0.00503961972302 -0.0325316567682
Te -2.1071087 6.08269937 14.01426243 -0 -2.57110337382e-07 -0.038103752
Te 2.10710913 1.21497535 17.07535909 -0 -0.00977276392388 0.0424319474194
Te 4.21557288 4.86694168 17.07535909 0.00846381519627 0.00488638196194 0.0424322045298
Te 6.32132652 1.21654002 17.07977888 0 2.57110337382e-07 0.0207410909166
Te -0.00135505 4.86694193 17.07535871 -0.00846381519627 0.00488638196194 0.0424322045298
Te 2.10710868 1.22036235 10.34288771 0 0.012427942378 0.0213589270573
Te 4.21090736 4.86424857 10.34288771 -0.0107626387228 -0.00621435685451 0.0213591841676
Te 6.32132698 1.21653976 10.4154312 -0 2.57110337382e-07 -0.00517897352588
Te 0.00331047 4.8642483 10.34288813 0.0107626387228 -0.00621409974418 0.0213591841676
Te -0.00078649 0.00045408 24.30594866 0.000205688269905 -0.000118527865533 -0.0328342756353
Te 2.10710934 3.64961945 24.30817155 -2.57110337382e-07 -2.57110337382e-07 -0.033067988932
Te 4.21500431 0.00045458 24.30594885 -0.000205688269905 -0.00011878497587 -0.0328342756353
Te -2.10710934 3.64871129 24.30594885 2.57110337382e-07 0.000237312841403 -0.0328345327457
Te 0.00159695 2.43400259 27.41569991 -0.000401092126315 -0.000231656413981 0.0329322346739
Te 2.10710823 6.0808551 27.41569991 2.57110337382e-07 0.000463055717624 0.0329319775635
Te 4.21262088 2.4340018 27.4156999 0.000401092126315 -0.000231399303643 0.0329322346739
Te -2.10710823 6.0826991 27.4200249 -2.57110337382e-07 -0 0.0328826123787
Te 0.00074547 2.43350992 20.69094194 0.000247083034224 0.000143210457922 -0.00178228885873
Te 2.10710915 6.08183884 20.69094194 -0 -0.000285649584831 -0.00178228885873
Te 4.21347236 2.43351019 20.69094151 -0.000247083034224 0.000142953347584 -0.00178228885873
Te -2.10710915 6.08269963 20.69312382 0 -2.57110337382e-07 -0.00114979742877
Sb -0.03388861 2.41351251 8.39336229 0.00334911925473 0.00193398395778 -0.00529852983276
Sb 2.10711038 6.12183153 8.39336229 -2.57110337382e-07 -0.00386719658456 -0.00529852983276
Sb 4.24810644 2.4135142 8.39336268 -0.00334911925473 0.00193372684745 -0.00529852983276
Sb -2.10711038 6.08270034 8.41920377 2.57110337382e-07 -0 -0.00474677104874
Sb -0.00033795 2.43288211 1.9482139 6.89055704183e-05 4.03663229689e-05 0.00956399032992
Sb 2.10711114 6.08309101 1.9482139 -2.57110337382e-07 -7.99613149257e-05 0.00956399032992
Sb 4.21455578 2.43288468 1.94821419 -6.89055704183e-05 3.98521022942e-05 0.00956373321958
Sb -2.10711114 6.08270078 1.93111253 2.57110337382e-07 -2.57110337382e-07 0.00956193344722
Sb 0.00084267 -0.00048651 18.74799912 -0.000258138778731 0.000149123995681 -0.0163154506792
Sb 2.10710819 3.64962011 18.74322732 0 -2.57110337382e-07 -0.0225848291459
Sb 4.21337516 -0.00048735 18.74799937 0.000258138778731 0.000149381106019 -0.0163151935689
Sb 6.32132747 3.65059314 18.74799937 -0 -0.0002985051017 -0.0163151935689
Sb 0.00430696 -0.00248663 12.31077033 -0.00162082356685 0.000935881628069 0.0197715278343
Sb 2.10710964 3.64961928 12.21064563 -0 -0 0.00394124436172
Sb 4.20991087 -0.00248579 12.31077009 0.00162082356685 0.000935881628069 0.0197715278343
Sb -2.10710964 3.65459253 12.31077009 0 -0.00187176325614 0.019771270724
Sb 2.10710669 1.21811935 29.08927544 2.57110337382e-07 0.000148352664669 -0.00902662972479
Sb 4.21284887 4.8653718 29.08927544 -0.000128298058353 -7.45619978407e-05 -0.00902662972479
Sb 6.32132897 1.21653861 29.08473542 -2.57110337382e-07 2.57110337382e-07 -0.00843090507308
Sb 0.00136895 4.86536923 29.08927515 0.000128298058353 -7.40477771659e-05 -0.00902637261446
Sb 2.10710745 1.21723947 22.6361838 2.57110337382e-07 1.05415238326e-05 0.00873352394018
Sb 4.21361125 4.86581108 22.6361838 -8.99886180836e-06 -5.39931708501e-06 0.00873352394018
Sb 6.32132821 1.21653905 22.6328673 -2.57110337382e-07 2.57110337382e-07 0.00884690959896
Sb 0.00060658 4.86580938 22.63618342 8.99886180836e-06 -5.39931708501e-06 0.00873378105052
Cr 2.10710877 3.64961978 14.01064563 -0 -0 -0.093847330027
61
Lattice="8.42843558953 0 0 -4.21421779477 7.29923593142 0 0 0 31.0334408416" Properties=species:S:1:pos:R:3:forces:R:3 energy=-133596.664883 ionic_step=1 pbc="T T T"
Te 2.1071096 1.2075053205 3.6053468564 -2.57110337382e-07 0.00213195891757 -0.032514687486
Te 4.2220423436 4.8706762897 3.6053468564 -0.00184630933274 -0.00106597945878 -0.0325144303756
Te 6.32132606 1.21654029 3.6103619085 2.57110337382e-07 0 -0.0323827898829
Te -0.0078245136 4.8706770797 3.6053468664 0.00184630933274 -0.00106623656912 -0.0325144303756
Te -0.0002211882 0.0001277044 6.7229959542 -0.00225974275525 0.00130483496221 0.0372681434035
Te 2.10710848 3.64961994 6.6400553362 2.57110337382e-07 -5.14220674763e-07 0.0385074152296
Te 4.2144390182 0.0001272144 6.7229957642 0.00225974275525 0.00130509207255 0.0372684005138
Te -2.10710848 3.6493645311 6.7229957642 -2.57110337382e-07 -0.00260966992442 0.0372684005138
Te -0.0030572701 0.0017651114 -0.0017182644 0.000720937386018 -0.000416004525883 0.000697026124642
Te 2.10710891 3.6496197 0.0012605229 -0 -2.57110337382e-07 0.00104798173517
Te 4.2172750901 0.0017651114 -0.0017182644 -0.000720937386018 -0.000416004525883 0.000697026124642
Te -2.10710891 3.6460894673 -0.0017182644 0 0.000832266162104 0.000697026124642
Te -0.0659605411 2.3949976912 14.0104183245 0.0104489641112 0.00603283695632 -0.0308763804162
Te 2.1071087 6.1588640777 14.0104183245 0 -0.0120654168023 -0.0308763804162
Te 4.2801783711 2.3949974412 14.0104187145 -0.0104489641112 0.00603283695632 -0.0308763804162
Te -2.1071087 6.08269937 13.9997889119 -0 -2.57110337382e-07 -0.0350261412615
Te 2.10710913 1.2153618902 17.0873677223 -0 -0.0221364287175 0.0549149114097
Te 4.2152381266 4.8667484099 17.0873677223 0.0191709180862 0.0110680858036 0.0549149114097
Te 6.32132652 1.21654002 17.0935757733 0 2.57110337382e-07 0.0206133070789
Te -0.0010202966 4.8667486599 17.0873673423 -0.0191709180862 0.0110680858036 0.0549149114097
Te 2.10710868 1.2101955404 10.3396805609 0 0.0160007476263 0.0246890201471
Te 4.2197120713 4.8693319748 10.3396805609 -0.0138567045228 -0.0080005023683 0.0246892772574
Te 6.32132698 1.21653976 10.4126202793 -0 2.57110337382e-07 -0.00472903043546
Te -0.0054942413 4.8693317048 10.3396809809 0.0138567045228 -0.0080005023683 0.0246892772574
Te -0.0010954892 0.0006324809 24.2934768609 0.000270222964588 -0.000155808864453 -0.0316487398697
Te 2.10710934 3.64961945 24.2960265648 -2.57110337382e-07 -2.57110337382e-07 -0.0319696135707
Te 4.2153133092 0.0006329809 24.2934770509 -0.000270222964588 -0.000155808864453 -0.0316487398697
Te -2.10710934 3.6483544883 24.2934770509 2.57110337382e-07 0.000311874839244 -0.0316487398697
Te 0.001872 2.4341613903 27.4278425208 -0.000504450481943 -0.000291306012253 0.0316700800277
Te 2.10710823 6.0805374995 27.4278425208 2.57110337382e-07 0.000582612024507 0.0316700800277
Te 4.21234583 2.4341606003 27.4278425108 0.000504450481943 -0.000291048901916 0.0316700800277
Te -2.10710823 6.0826991 27.4320291899 -2.57110337382e-07 -0 0.0315705783271
Te 0.0008933506 2.4335952989 20.6902051193 0.000419089849932 0.000242455048151 -0.00229085310607
Te 2.10710915 6.0816680822 20.6902051193 -0 -0.00048413876529 -0.00229085310607
Te 4.2133244794 2.4335955689 20.6902046893 -0.000419089849932 0.000242197937813 -0.00229085310607
Te -2.10710915 6.08269963 20.6933597939 0 -2.57110337382e-07 -0.00159562675379
Sb -0.0302920861 2.415588965 8.3856705457 -0.00286215227573 -0.00165219102801 -0.0152682402751
Sb 2.10711038 6.11767862 8.3856705457 -2.57110337382e-07 0.0033048962767 -0.0152682402751
Sb 4.2445099161 2.415590655 8.3856709357 0.00286215227573 -0.00165219102801 -0.0152682402751
Sb -2.10711038 6.08270034 8.4248658023 2.57110337382e-07 -0 -0.00558855029333
Sb -0.000521125 2.4327763538 1.9510253975 4.73083020782e-05 2.77679164372e-05 0.00907882312328
Sb 2.10711114 6.0833025223 1.9510253975 -2.57110337382e-07 -5.50216121997e-05 0.00907882312328
Sb 4.214738955 2.4327789238 1.9510256875 -4.73083020782e-05 2.75108060998e-05 0.00907856601295
Sb -2.10711114 6.08270078 1.9336276531 2.57110337382e-07 -2.57110337382e-07 0.00895669571303
Sb 0.0001315289 -7.59323e-05 18.7468235966 -0.000312646170256 0.000180491456842 -0.016662806745
Sb 2.10710819 3.64962011 18.7419604426 0 -2.57110337382e-07 -0.0192377667739
Sb 4.2140863011 -7.67723e-05 18.7468238466 0.000312646170256 0.000180491456842 -0.0166625496347
Sb 6.32132747 3.6497719846 18.7468238466 -0 -0.000360982913684 -0.0166625496347
Sb 0.0108150813 -0.0062440973 12.3022913885 -0.00260015684194 0.00150126725997 0.0225832864839
Sb 2.10710964 3.64961928 11.9482440583 -0 -0 0.00016197951255
Sb 4.2034027487 -0.0062432573 12.3022911485 0.00260015684194 0.00150101014963 0.0225830293736
Sb -2.10710964 3.6621074647 12.3022911485 0 -0.00300253451994 0.0225830293736
Sb 2.10710669 1.2186563844 29.0869351264 2.57110337382e-07 0.000101301472928 -0.0085568891384
Sb 4.2123837848 4.8651032828 29.0869351264 -8.74175147098e-05 -5.09078468016e-05 -0.0085568891384
Sb 6.32132897 1.21653861 29.082143763 -2.57110337382e-07 2.57110337382e-07 -0.00798507574806
Sb 0.0018340352 4.8651007128 29.0869348364 8.74175147098e-05 -5.06507364642e-05 -0.00855663202806
Sb 2.10710745 1.2171308159 22.6387583923 2.57110337382e-07 2.98247991363e-05 0.00829592214596
Sb 4.2137053472 4.8658654071 22.6387583923 -2.57110337382e-05 -1.51695099055e-05 0.00829617925629
Sb 6.32132821 1.21653905 22.6367112888 -2.57110337382e-07 2.57110337382e-07 0.00854326229052
Sb 0.0005124828 4.8658637071 22.6387580123 2.57110337382e-05 -1.49123995681e-05 0.00829617925629
Cr 2.10710877 3.64961978 14.2470221655 -0 -0 -0.125023501097
61
Lattice="8.42843558953 0 0 -4.21421779477 7.29923593142 0 0 0 31.0334408416" Properties=species:S:1:pos:R:3:forces:R:3 energy=-133596.912789 ionic_step=2 pbc="T T T"
Te 2.1071096 1.2075412618 3.5934030005 -2.57110337382e-07 0.00194735369533 -0.0311347763052
Te 4.2220112176 4.8706583191 3.5934030005 -0.00168638670289 -0.000973676847664 -0.0311345191949
Te 6.32132606 1.21654029 3.5992280553 2.57110337382e-07 0 -0.0312075385307
Te -0.0077933876 4.8706591091 3.5934030105 0.00168638670289 -0.000973933958002 -0.0311345191949
Te -0.0061984788 0.0035786964 6.7404322726 -0.000379494857975 0.000219315117787 0.0352012334013
Te 2.10710848 3.64961994 6.6630992436 2.57110337382e-07 -5.14220674763e-07 0.0387244163544
Te 4.2204163088 0.0035782064 6.7404320826 0.000379494857975 0.000219572228124 0.0352012334013
Te -2.10710848 3.6424625472 6.7404320826 -2.57110337382e-07 -0.000438630235573 0.0352012334013
Te -0.003165052 0.0018273393 -0.0016589986 0.000701397000377 -0.000404691671039 0.000785214970363
Te 2.10710891 3.6496197 0.0011167867 -0 -2.57110337382e-07 0.00112588616739
Te 4.217382872 0.0018273393 -0.0016589986 -0.000701397000377 -0.000404691671039 0.000785214970363
Te -2.10710891 3.6459650115 -0.0016589986 0 0.000809640452415 0.000785214970363
Te -0.0722158452 2.3913861879 14.0071410217 0.0118741267113 0.00685559003594 -0.0307126011312
Te 2.1071087 6.1660870841 14.0071410217 0 -0.0137111800719 -0.0307123440209
Te 4.2864336752 2.3913859379 14.0071414117 -0.0118741267113 0.00685584714628 -0.0307126011312
Te -2.1071087 6.08269937 13.983957941 -0 -2.57110337382e-07 -0.0325018319691
Te 2.10710913 1.2174122142 17.0979745155 -0 -0.0237243421612 0.0546338898109
Te 4.2134624947 4.8657232479 17.0979745155 0.0205462012808 0.0118622996358 0.0546338898109
Te 6.32132652 1.21654002 17.108551788 0 2.57110337382e-07 0.019880285507
Te 0.0007553353 4.8657234979 17.0979741355 -0.0205462012808 0.0118620425254 0.0546341469212
Te 2.10710868 1.1976354352 10.3380592915 0 0.0199790158766 0.02642117249
Te 4.2305894364 4.8756120274 10.3380592915 -0.0173019830438 -0.00998976504863 0.0264214296003
Te 6.32132698 1.21653976 10.4089917766 -0 2.57110337382e-07 -0.00256287584302
Te -0.0163716064 4.8756117574 10.3380597115 0.0173019830438 -0.00998950793829 0.02642117249
Te -0.0011866736 0.0006851262 24.2803759257 0.000258910109743 -0.000149381106019 -0.0303598457484
Te 2.10710934 3.64961945 24.2829556692 -2.57110337382e-07 -2.57110337382e-07 -0.0308103030595
Te 4.2154044936 0.0006856262 24.2803761157 -0.000258910109743 -0.000149381106019 -0.0303601028587
Te -2.10710934 3.6482491975 24.2803761157 2.57110337382e-07 0.000298762212037 -0.0303601028587
Te 0.0021241265 2.4343069557 27.4404406656 -0.000595210431038 -0.000343756521079 0.0302176637318
Te 2.10710823 6.0802463687 27.4404406656 2.57110337382e-07 0.000687255931821 0.0302176637318
Te 4.2120937035 2.4343061657 27.4404406556 0.000595210431038 -0.000343499410742 0.0302176637318
Te -2.10710823 6.0826991 27.4449917263 -2.57110337382e-07 -0 0.0300525988952
Te 0.0008201493 2.4335530362 20.6883628342 0.000563585859541 0.000325758797463 -0.00223891681792
Te 2.10710915 6.0817526077 20.6883628342 -0 -0.00065100337425 -0.00223891681792
Te 4.2133976807 2.4335533062 20.6883624042 -0.000563585859541 0.000325758797463 -0.00223891681792
Te -2.10710915 6.08269963 20.6928175194 0 -2.57110337382e-07 -0.00207822285706
Sb -0.0288110337 2.4164440514 8.3781419638 -0.00359517384761 -0.00207539464334 -0.0163666156364
Sb 2.10711038 6.1159684472 8.3781419638 -2.57110337382e-07 0.00415130350736 -0.0163666156364
Sb 4.2430288637 2.4164457414 8.3781423538 0.00359517384761 -0.00207539464334 -0.0163666156364
Sb -2.10711038 6.08270034 8.4161952705 2.57110337382e-07 -0 -0.00607371749997
Sb -0.0008821993 2.4325678874 1.9518070583 4.75654124156e-05 2.80250267746e-05 0.00865433395627
Sb 2.10711114 6.0837194552 1.9518070583 -2.57110337382e-07 -5.52787225371e-05 0.0086545910666
Sb 4.2151000293 2.4325704574 1.9518073483 -4.75654124156e-05 2.77679164372e-05 0.00865433395627
Sb -2.10711114 6.08270078 1.9345944474 2.57110337382e-07 -2.57110337382e-07 0.00846381519627
Sb -0.0017380061 0.0010034447 18.7481245203 -0.000207488042267 0.00011981341722 -0.0163162220102
Sb 2.10710819 3.64962011 18.742598268 0 -2.57110337382e-07 -0.0178141468358
Sb 4.2159558361 0.0010026047 18.7481247703 0.000207488042267 0.00011981341722 -0.0163159648999
Sb 6.32132747 3.6476132305 18.7481247703 -0 -0.00023962683444 -0.0163159648999
Sb 0.0157565053 -0.0090970312 12.2963545038 -0.00308840937263 0.00178306018974 0.0218302103057
Sb 2.10710964 3.64961928 11.9219768081 -0 -0 -0.00152852095573
Sb 4.1984613247 -0.0090961912 12.2963542638 0.00308840937263 0.00178306018974 0.0218299531954
Sb -2.10710964 3.6678133323 12.2963542638 0 -0.00356637748982 0.0218299531954
Sb 2.10710669 1.2191228105 29.085601841 2.57110337382e-07 5.11649571389e-05 -0.00823755809937
Sb 4.2119798481 4.8648700697 29.085601841 -4.42229780296e-05 -2.57110337382e-05 -0.00823730098903
Sb 6.32132897 1.21653861 29.0809879105 -2.57110337382e-07 2.57110337382e-07 -0.00769351262547
Sb 0.0022379719 4.8648674997 29.085601551 4.42229780296e-05 -2.54539234008e-05 -0.0082370438787
Sb 2.10710745 1.2170329507 22.6406677897 2.57110337382e-07 4.9879405452e-05 0.00811594490979
Sb 4.2137901009 4.8659143396 22.6406677897 -4.31945366801e-05 -2.51968130634e-05 0.00811594490979
Sb 6.32132821 1.21653905 22.6396971738 -2.57110337382e-07 2.57110337382e-07 0.00859417013732
Sb 0.0004277291 4.8659126396 22.6406674097 4.31945366801e-05 -2.4939702726e-05 0.00811620202013
Cr 2.10710877 3.64961978 14.2775687596 -0 -0 -0.126051942446
61
Lattice="8.42843558953 0 0 -4.21421779477 7.29923593142 0 0 0 31.0334408416" Properties=species:S:1:pos:R:3:forces:R:3 energy=-133597.171383 ionic_step=3 pbc="T T T"
Te 2.1071096 1.2074419166 3.5763302277 -2.57110337382e-07 0.00173266656361 -0.0286032679234
Te 4.222097253 4.8707079917 3.5763302277 -0.00150049592896 -0.000866461836976 -0.0286032679234
Te 6.32132606 1.21654029 3.5828650216 2.57110337382e-07 0 -0.029192050596
Te -0.007879423 4.8707087817 3.5763302377 0.00150049592896 -0.000866718947313 -0.0286032679234
Te -0.0148861007 0.0085944995 6.7658179755 0.0024155516197 -0.00139430935962 0.031609401988
Te 2.10710848 3.64961994 6.6967004971 2.57110337382e-07 -5.14220674763e-07 0.0382371922651
Te 4.2291039307 0.0085940095 6.7658177855 -0.0024155516197 -0.00139405224928 0.0316096590984
Te -2.10710848 3.6324309409 6.7658177855 -2.57110337382e-07 0.00278861871924 0.0316096590984
Te -0.0033631254 0.0019416971 -0.001475746 0.000688541483508 -0.000397235471255 0.000904514166909
Te 2.10710891 3.6496197 0.0010902571 -0 -2.57110337382e-07 0.0012428713709
Te 4.2175809454 0.0019416971 -0.001475746 -0.000688541483508 -0.000397235471255 0.000904514166909
Te -2.10710891 3.6457362958 -0.001475746 0 0.000794728052847 0.000904514166909
Te -0.0791251405 2.3873971026 14.0012397355 0.0134941789471 0.00779095744334 -0.030572990218
Te 2.1071087 6.1740652548 14.0012397355 0 -0.0155819148867 -0.030572990218
Te 4.2933429705 2.3873968526 14.0012401255 -0.0134941789471 0.00779121455368 -0.030572990218
Te -2.1071087 6.08269937 13.9613402072 -0 -2.57110337382e-07 -0.0285173930707
Te 2.10710913 1.220692468 17.1128671276 -0 -0.0255883921072 0.0534642948861
Te 4.2106217129 4.864083121 17.1128671276 0.0221603399789 0.0127940674984 0.0534642948861
Te 6.32132652 1.21654002 17.1297786585 0 2.57110337382e-07 0.0186489841013
Te 0.0035961171 4.864083371 17.1128667476 -0.0221603399789 0.0127940674984 0.0534642948861
Te 2.10710868 1.1798650544 10.3356144623 0 0.0255025172545 0.0288660346882
Te 4.2459790304 4.8844972178 10.3356144623 -0.0220855208707 -0.0127513871824 0.0288662917985
Te 6.32132698 1.21653976 10.4038251992 -0 2.57110337382e-07 0.000948480034601
Te -0.0317612004 4.8844969478 10.3356148823 0.0220855208707 -0.0127513871824 0.0288662917985
Te -0.0011877315 0.000685737 24.2614752773 0.00020723093193 -0.000119299196545 -0.028180064308
Te 2.10710934 3.64961945 24.2640594612 -2.57110337382e-07 -2.57110337382e-07 -0.0288480369646
Te 4.2154055515 0.000686237 24.2614754673 -0.00020723093193 -0.000119556306882 -0.0281803214184
Te -2.10710934 3.6482479761 24.2614754673 2.57110337382e-07 0.000239112613765 -0.0281803214184
Te 0.0025015967 2.4345248883 27.458581794 -0.000736106895924 -0.000425003387692 0.0278023692224
Te 2.10710823 6.0798105034 27.458581794 2.57110337382e-07 0.000849749665046 0.0278023692224
Te 4.2117162333 2.4345240983 27.458581784 0.000736106895924 -0.000424746277354 0.0278026263328
Te -2.10710823 6.0826991 27.4639616731 -2.57110337382e-07 -0 0.0275154340859
Te 0.000652538 2.4334562657 20.6854459347 0.000778015880917 0.00044968598008 -0.00211396119395
Te 2.10710915 6.0819461486 20.6854459347 -0 -0.000898600629149 -0.00211396119395
Te 4.213565292 2.4334565357 20.6854455047 -0.000778015880917 0.000449428869743 -0.00211396119395
Te -2.10710915 6.08269963 20.6918032025 0 -2.57110337382e-07 -0.00281741507703
Sb -0.027091062 2.417437078 8.3697883718 -0.00422535128453 -0.00243920577074 -0.017383744131
Sb 2.10711038 6.113982394 8.3697883718 -2.57110337382e-07 0.00487892576215 -0.017383744131
Sb 4.241308892 2.417438768 8.3697887618 0.00422535128453 -0.00243946288108 -0.017383744131
Sb -2.10711038 6.08270034 8.4018617045 2.57110337382e-07 -0 -0.00680519640982
Sb -0.0015279641 2.4321950547 1.9508098275 6.09351499594e-05 3.54812265587e-05 0.00818845002493
Sb 2.10711114 6.0844651205 1.9508098275 -2.57110337382e-07 -7.04482324426e-05 0.00818845002493
Sb 4.2157457941 2.4321976247 1.9508101175 -6.09351499594e-05 3.52241162213e-05 0.00818819291459
Sb -2.10711114 6.08270078 1.9339670143 2.57110337382e-07 -2.57110337382e-07 0.00792542614979
Sb -0.0043286057 0.0024991288 18.7519876636 -5.19362881511e-05 3.00819094737e-05 -0.0158937897259
Sb 2.10710819 3.64962011 18.7454380422 0 -2.57110337382e-07 -0.0162753414666
Sb 4.2185464357 0.0024982888 18.7519879136 5.19362881511e-05 3.00819094737e-05 -0.0158935326156
Sb 6.32132747 3.6446218624 18.7519879136 -0 -6.01638189473e-05 -0.0158935326156
Sb 0.021935981 -0.0126647547 12.2865769539 -0.00359851628199 0.00207770863638 0.0206264197061
Sb 2.10710964 3.64961928 11.9010098231 -0 -0 -0.00334731948237
Sb 4.192281849 -0.0126639147 12.2865767139 0.00359851628199 0.00207745152604 0.0206264197061
Sb -2.10710964 3.6749487795 12.2865767139 0 -0.00415516016242 0.0206261625958
Sb 2.10710669 1.2197211238 29.0855010347 2.57110337382e-07 -1.33697375438e-05 -0.00794805185948
Sb 4.2114616938 4.8645709131 29.0855010347 1.18270755196e-05 6.42775843454e-06 -0.00794805185948
Sb 6.32132897 1.21653861 29.0811816375 -2.57110337382e-07 2.57110337382e-07 -0.00744462981889
Sb 0.0027561262 4.8645683431 29.0855007447 -1.18270755196e-05 6.68486877192e-06 -0.00794779474914
Sb 2.10710745 1.2167950422 22.6416562984 2.57110337382e-07 9.38452731443e-05 0.0080321269398
Sb 4.2139961356 4.8660332939 22.6416562984 -8.12468666126e-05 -4.70511917408e-05 0.0080321269398
Sb 6.32132821 1.21653905 22.6420882925 -2.57110337382e-07 2.57110337382e-07 0.00881785613084
Sb 0.0002216944 4.8660315939 22.6416559184 8.12468666126e-05 -4.70511917408e-05 0.00803238405014
Cr 2.10710877 3.64961978 14.3073922539 -0 -0 -0.126483630703
61
Lattice="8.42843558953 0 0 -4.21421779477 7.29923593142 0 0 0 31.0334408416" Properties=species:S:1:pos:R:3:forces:R:3 energy=-133597.425751 ionic_step=4 pbc="T T T"
Te 2.1071096 1.2071621665 3.5510039736 -2.57110337382e-07 0.0015159225492 -0.0235878165721
Te 4.2223395236 4.8708478667 3.5510039736 -0.00131280538267 -0.000757961274601 -0.0235878165721
Te 6.32132606 1.21654029 3.5580179513 2.57110337382e-07 0 -0.0254215274983
Te -0.0081216936 4.8708486567 3.5510039836 0.00131280538267 -0.000758218384938 -0.0235878165721
Te -0.0272673347 0.0157428117 6.803778015 0.00647326696426 -0.00373709875384 0.0250500030608
Te 2.10710848 3.64961994 6.7471023773 2.57110337382e-07 -5.14220674763e-07 0.0356828010632
Te 4.2414851647 0.0157423217 6.803777825 -0.00647326696426 -0.0037368416435 0.0250502601711
Te -2.10710848 3.6181343166 6.803777825 -2.57110337382e-07 0.00747419750768 0.0250502601711
Te -0.0037039328 0.0021384624 -0.0011375115 0.000693683690256 -0.000400063684966 0.00104901017652
Te 2.10710891 3.6496197 0.0012896969 -0 -2.57110337382e-07 0.00139893734569
Te 4.2179217528 0.0021384624 -0.0011375115 -0.000693683690256 -0.000400320795303 0.00104901017652
Te -2.10710891 3.6453427652 -0.0011375115 0 0.000800641590606 0.00104901017652
Te -0.0869274711 2.3828924228 13.9915832716 0.0153805974925 0.00888007683249 -0.0303593315277
Te 2.1071087 6.1830746144 13.9915832716 0 -0.017760153665 -0.0303590744173
Te 4.3011453011 2.3828921728 13.9915836616 -0.0153805974925 0.00888007683249 -0.0303593315277
Te -2.1071087 6.08269937 13.9288400994 -0 -2.57110337382e-07 -0.0219685356672
Te 2.10710913 1.2258374814 17.1344022423 -0 -0.0280769630627 0.0508736511267
Te 4.2061660027 4.8615106143 17.1344022423 0.0243156959372 0.0140384815314 0.0508736511267
Te 6.32132652 1.21654002 17.1599543005 0 2.57110337382e-07 0.0165753892303
Te 0.0080518273 4.8615108643 17.1344018623 -0.0243156959372 0.0140384815314 0.050873908237
Te 2.10710868 1.1544725218 10.3314529937 0 0.0329499752871 0.0325419411817
Te 4.2679695984 4.8971934841 10.3314529937 -0.028535133684 -0.0164751161987 0.0325421982921
Te 6.32132698 1.21653976 10.3964099738 -0 2.57110337382e-07 0.00657019756145
Te -0.0537517684 4.8971932141 10.3314534137 0.028535133684 -0.0164751161987 0.0325421982921
Te -0.0009541374 0.0005508713 24.2334662251 6.35062533333e-05 -3.62525575708e-05 -0.0241778847964
Te 2.10710934 3.64961945 24.2358785166 -2.57110337382e-07 -2.57110337382e-07 -0.0251952704014
Te 4.2151719574 0.0005513713 24.2334664151 -6.35062533333e-05 -3.65096679082e-05 -0.0241778847964
Te -2.10710934 3.6485177073 24.2334664151 2.57110337382e-07 7.30193358164e-05 -0.0241778847964
Te 0.0030803017 2.4348590039 27.4854903093 -0.000951308248312 -0.000549187680647 0.0234654320515
Te 2.10710823 6.0791422722 27.4854903093 2.57110337382e-07 0.00109837536129 0.0234654320515
Te 4.2111375283 2.4348582139 27.4854902993 0.000951308248312 -0.00054893057031 0.0234656891618
Te -2.10710823 6.0826991 27.4922874879 -2.57110337382e-07 -0 0.0229632955626
Te 0.0003234683 2.4332662771 20.6809048046 0.0010778065343 0.000622721237138 -0.00194426837128
Te 2.10710915 6.0823261258 20.6809048046 -0 -0.00124467114326 -0.00194426837128
Te 4.2138943617 2.4332665471 20.6809043746 -0.0010778065343 0.000622464126801 -0.00194426837128
Te -2.10710915 6.08269963 20.6900778127 0 -2.57110337382e-07 -0.00397518292626
Sb -0.0249226201 2.4186890291 8.3619560353 -0.00477916695125 -0.0027587939201 -0.0184119283702
Sb 2.10711038 6.1114784918 8.3619560353 -2.57110337382e-07 0.00551835917122 -0.0184121854806
Sb 4.2391404501 2.4186907191 8.3619564253 0.00477916695125 -0.00275905103044 -0.0184121854806
Sb -2.10711038 6.08270034 8.3790272154 2.57110337382e-07 -0 -0.00791951261203
Sb -0.002550846 2.4316044933 1.9461432514 9.74448178676e-05 5.6564274224e-05 0.00774004959654
Sb 2.10711114 6.0856462434 1.9461432514 -2.57110337382e-07 -0.000112614327773 0.00774030670687
Sb 4.216768676 2.4316070633 1.9461435414 -9.74448178676e-05 5.63071638866e-05 0.00774004959654
Sb -2.10711114 6.08270078 1.9299013218 2.57110337382e-07 -2.57110337382e-07 0.00741429079907
Sb -0.0077655129 0.004483429 18.7605994787 0.000160436850526 -9.25597214574e-05 -0.0154464177389
Sb 2.10710819 3.64962011 18.752576486 0 -2.57110337382e-07 -0.0147481060625
Sb 4.2219833429 0.004482589 18.7605997287 -0.000160436850526 -9.230261112e-05 -0.0154461606285
Sb 6.32132747 3.640653262 18.7605997287 -0 0.000184862332577 -0.0154461606285
Sb 0.0293951842 -0.0169713297 12.2701338951 -0.00404280294499 0.00233404764275 0.0188557008126
Sb 2.10710964 3.64961928 11.8838709283 -0 -0 -0.00525842062013
Sb 4.1848226458 -0.0169704897 12.2701336551 0.00404280294499 0.00233404764275 0.0188554437022
Sb -2.10710964 3.6835619295 12.2701336551 0 -0.00466835239584 0.0188554437022
Sb 2.10710669 1.2204866859 29.0882358826 2.57110337382e-07 -9.7701928205e-05 -0.00777861614714
Sb 4.210798698 4.8641881321 29.0882358826 8.48464113359e-05 4.85938537651e-05 -0.00777861614714
Sb 6.32132897 1.21653861 29.0843160582 -2.57110337382e-07 2.57110337382e-07 -0.00733998591157
Sb 0.003419122 4.8641855621 29.0882355926 -8.48464113359e-05 4.88509641025e-05 -0.00777835903681
Sb 2.10710745 1.2162967203 22.6402972148 2.57110337382e-07 0.000174063698407 0.00817610872874
Sb 4.2144276948 4.8662824548 22.6402972148 -0.000150409547368 -8.71604043724e-05 0.00817636583907
Sb 6.32132821 1.21653905 22.6425811277 -2.57110337382e-07 2.57110337382e-07 0.00938067065937
Sb -0.0002098648 4.8662807548 22.6402968348 0.000150409547368 -8.6903294035e-05 0.00817636583907
Cr 2.10710877 3.64961978 14.3379521618 -0 0 -0.126298254149
61
Lattice="8.42843558953 0 0 -4.21421779477 7.29923593142 0 0 0 31.0334408416" Properties=species:S:1:pos:R:3:forces:R:3 energy=-133597.643506 ionic_step=5 pbc="T T T"
Te 2.1071096 1.206552529 3.5139246285 -2.57110337382e-07 0.00151258011482 -0.0135875099996
Te 4.2228674849 4.8711526855 3.5139246285 -0.00130997716896 -0.000756418612577 -0.0135875099996
Te 6.32132606 1.21654029 3.5212601037 2.57110337382e-07 0 -0.0181337349852
Te -0.0086496549 4.8711534755 3.5139246385 0.00130997716896 -0.000756675722914 -0.0135875099996
Te -0.0431162978 0.0248932191 6.859280499 0.0117026341163 -0.00675608833538 0.0132368114994
Te 2.10710848 3.64961994 6.8217373276 2.57110337382e-07 -5.14220674763e-07 0.0276419323719
Te 4.2573341278 0.0248927291 6.859280309 -0.0117026341163 -0.00675583122504 0.0132368114994
Te -2.10710848 3.5998335019 6.859280309 -2.57110337382e-07 0.0135124337811 0.0132370686098
Te -0.0042640058 0.0024618208 -0.0006463151 0.000725565372091 -0.000418832739595 0.00124801357765
Te 2.10710891 3.6496197 0.0019963276 -0 -2.57110337382e-07 0.00158997032637
Te 4.2184818258 0.0024618208 -0.0006463151 -0.000725565372091 -0.000418832739595 0.00124801357765
Te -2.10710891 3.6446960483 -0.0006463151 0 0.000837665479189 0.00124801357765
Te -0.0942205131 2.3786817811 13.976656568 0.0173510911182 0.0100177900754 -0.0299757229043
Te 2.1071087 6.1914958978 13.976656568 0 -0.0200355801508 -0.0299757229043
Te 4.3084383431 2.3786815311 13.976656958 -0.0173510911182 0.0100177900754 -0.0299757229043
Te -2.1071087 6.08269937 13.8828299659 -0 -2.57110337382e-07 -0.0114853758812
Te 2.10710913 1.2339740194 17.1651013342 -0 -0.0314903599018 0.045790836867
Te 4.1991195573 4.8574423453 17.1651013342 0.0272716934861 0.0157451799509 0.045790836867
Te 6.32132652 1.21654002 17.200882426 0 2.57110337382e-07 0.0132062153693
Te 0.0150982727 4.8574425953 17.1651009542 -0.0272716934861 0.0157451799509 0.0457910939773
Te 2.10710868 1.1202784805 10.3232286558 0 0.0416788712412 0.0380477019464
Te 4.2975824931 4.9142905047 10.3232286558 -0.0360946918237 -0.0208395641758 0.0380479590567
Te 6.32132698 1.21653976 10.3861967566 -0 2.57110337382e-07 0.0148712619142
Te -0.0833646631 4.9142902347 10.3232290758 0.0360946918237 -0.0208395641758 0.0380479590567
Te -5.57667e-05 3.21965e-05 24.192479329 -0.000302104646423 0.000174577919082 -0.0166165268843
Te 2.10710934 3.64961945 24.1945499089 -2.57110337382e-07 -2.57110337382e-07 -0.0182113823071
Te 4.2142735867 3.26965e-05 24.192479519 0.000302104646423 0.000174577919082 -0.0166165268843
Te -2.10710934 3.6495550569 24.192479519 2.57110337382e-07 -0.000349155838164 -0.0166165268843
Te 0.0039684395 2.4353717707 27.5249550741 -0.00127835259746 -0.000737906668285 0.0154939831513
Te 2.10710823 6.0781167386 27.5249550741 2.57110337382e-07 0.00147581333657 0.0154939831513
Te 4.2102493905 2.4353709807 27.5249550641 0.00127809548712 -0.000737649557948 0.0154939831513
Te -2.10710823 6.0826991 27.5342904077 -2.57110337382e-07 -0 0.0146298353074
Te -0.0003064211 2.4329026101 20.6742690437 0.00144881675115 0.000836894148177 -0.00181751297495
Te 2.10710915 6.0830534598 20.6742690437 -0 -0.00167327407568 -0.00181751297495
Te 4.2145242511 2.4329028801 20.6742686137 -0.00144881675115 0.000836894148177 -0.00181751297495
Te -2.10710915 6.08269963 20.6874967869 0 -2.57110337382e-07 -0.00579989499065
Sb -0.0217550434 2.4205178312 8.3609081459 -0.00512498035503 -0.00295856865225 -0.0193501239913
Sb 2.10711038 6.1078208876 8.3609081459 -2.57110337382e-07 0.00591790863551 -0.0193501239913
Sb 4.2359728734 2.4205195212 8.3609085359 0.00512498035503 -0.00295882576259 -0.0193501239913
Sb -2.10711038 6.08270034 8.3442762564 2.57110337382e-07 -0 -0.0095583339025
Sb -0.0038813627 2.4308363188 1.9334143862 0.000154266202429 8.94743974088e-05 0.0076194648483
Sb 2.10711114 6.0871825924 1.9334143862 -2.57110337382e-07 -0.000178434574143 0.0076194648483
Sb 4.2180991927 2.4308388888 1.9334146762 -0.000154266202429 8.92172870714e-05 0.00761920773797
Sb -2.10711114 6.08270078 1.9179928508 2.57110337382e-07 -2.57110337382e-07 0.00727185167216
Sb -0.0117201855 0.0067666614 18.7781561261 0.00039569280923 -0.000228313979595 -0.0152756964749
Sb 2.10710819 3.64962011 18.7684742543 0 -2.57110337382e-07 -0.0142169161055
Sb 4.2259380155 0.0067658214 18.7781563761 -0.00039569280923 -0.000228313979595 -0.0152756964749
Sb 6.32132747 3.6360867973 18.7781563761 -0 0.00045662795919 -0.0152754393645
Sb 0.0364539734 -0.0210467255 12.2426326014 -0.00403226142116 0.00232787699465 0.0165921014022
Sb 2.10710964 3.64961928 11.8760023697 -0 -0 -0.00646426810245
Sb 4.1777638566 -0.0210458855 12.2426323614 0.00403226142116 0.00232787699465 0.0165918442919
Sb -2.10710964 3.691712721 12.2426323614 0 -0.00465601109964 0.0165918442919
Sb 2.10710669 1.2213199332 29.097959159 2.57110337382e-07 -0.000190261649662 -0.00808766277268
Sb 4.2100770849 4.8637715084 29.097959159 0.000165064836599 9.48737144938e-05 -0.00808740566234
Sb 6.32132897 1.21653861 29.0944374969 -2.57110337382e-07 2.57110337382e-07 -0.0077205092109
Sb 0.0041407351 4.8637689384 29.097958869 -0.000165064836599 9.51308248312e-05 -0.00808740566234
Sb 2.10710745 1.2152788845 22.6325143322 2.57110337382e-07 0.00031418883228 0.00892429981052
Sb 4.2153091661 4.8667913728 22.6325143322 -0.00027202273695 -0.000157351526478 0.00892429981052
Sb 6.32132821 1.21653905 22.6371440056 -2.57110337382e-07 2.57110337382e-07 0.0106289413474
Sb -0.0010913361 4.8667896728 22.6325139522 0.00027202273695 -0.00015709441614 0.00892429981052
Cr 2.10710877 3.64961978 14.3609458109 -0 0 -0.124977735456
61
Lattice="8.42843558953 0 0 -4.21421779477 7.29923593142 0 0 0 31.0334408416" Properties=species:S:1:pos:R:3:forces:R:3 energy=-133597.76927 ionic_step=6 pbc="T T T"
Te 2.1071096 1.2059349704 3.4884552926 -2.57110337382e-07 0.00182316940237 -0.00527461857138
Te 4.2234023061 4.8714614648 3.4884552926 -0.00157891458186 -0.000911713256355 -0.00527461857138
Te 6.32132606 1.21654029 3.4951227167 2.57110337382e-07 0 -0.0121605476271
Te -0.0091844761 4.8714622548 3.4884553026 0.00157891458186 -0.000911970366693 -0.00527461857138
Te -0.0535849149 0.0309372808 6.8954161236 0.0150720650876 -0.00870164225834 0.00454802475794
Te 2.10710848 3.64961994 6.8737794346 2.57110337382e-07 -5.14220674763e-07 0.0192133412919
Te 4.2678027449 0.0309367908 6.8954159336 -0.0150720650876 -0.00870138514801 0.00454828186828
Te -2.10710848 3.5877453785 6.8954159336 -2.57110337382e-07 0.0174032845167 0.00454828186828
Te -0.0047191663 0.002724608 -0.0003250827 0.000795242273521 -0.000458941952226 0.00129686454175
Te 2.10710891 3.6496197 0.0028472765 -0 -2.57110337382e-07 0.00161439580842
Te 4.2189369863 0.002724608 -0.0003250827 -0.000795242273521 -0.000458941952226 0.00129686454175
Te -2.10710891 3.644170474 -0.0003250827 0 0.00091814101479 0.00129686454175
Te -0.0955977217 2.377886649 13.966159931 0.018082570028 0.0104402223597 -0.0295969993773
Te 2.1071087 6.193086162 13.966159931 0 -0.0208801876091 -0.0295969993773
Te 4.3098155517 2.377886399 13.966160321 -0.018082570028 0.0104402223597 -0.0295969993773
Te -2.1071087 6.08269937 13.853910727 -0 -2.57110337382e-07 -0.00436933307346
Te 2.10710913 1.2395880825 17.1855957012 -0 -0.0333554382892 0.04153308968
Te 4.1942576383 4.8546353137 17.1855957012 0.0288871177358 0.0166777191446 0.04153308968
Te 6.32132652 1.21654002 17.2256038656 0 2.57110337382e-07 0.0107832075498
Te 0.0199601917 4.8546355637 17.1855953212 -0.0288871177358 0.0166777191446 0.04153308968
Te 2.10710868 1.1009081266 10.3168267988 0 0.0456396559886 0.0415570009413
Te 4.3143577038 4.9239756817 10.3168267988 -0.039525057945 -0.0228200851046 0.0415572580517
Te 6.32132698 1.21653976 10.3808871089 -0 2.57110337382e-07 0.0200142399928
Te -0.1001398738 4.9239754117 10.3168272188 0.039525057945 -0.0228200851046 0.0415572580517
Te 0.0013339028 -0.0007701299 24.1648372735 -0.000774159225856 0.000447114876707 -0.010582147266
Te 2.10710934 3.64961945 24.1662131988 -2.57110337382e-07 -2.57110337382e-07 -0.0125287296303
Te 4.2128839172 -0.0007696299 24.1648374635 0.000774159225856 0.000447114876707 -0.0105824043763
Te -2.10710934 3.6511597099 24.1648374635 2.57110337382e-07 -0.000893972643076 -0.0105824043763
Te 0.0045412102 2.4357024602 27.5517212324 -0.00148172687433 -0.000855663202806 0.00917601083081
Te 2.10710823 6.0774553596 27.5517212324 2.57110337382e-07 0.00171106929527 0.00917601083081
Te 4.2096766198 2.4357016702 27.5517212224 0.00148172687433 -0.000855148982131 0.00917626794115
Te -2.10710823 6.0826991 27.5630406694 -2.57110337382e-07 -0 0.00814448415724
Te -0.0010053448 2.4324990861 20.6697547358 0.00166350388286 0.000960821330795 -0.00179283038256
Te 2.10710915 6.0838605078 20.6697547358 -0 -0.00192112844092 -0.00179283038256
Te 4.2152231748 2.4324993561 20.6697543058 -0.00166350388286 0.000960821330795 -0.00179283038256
Te -2.10710915 6.08269963 20.6850144022 0 -2.57110337382e-07 -0.00694892108841
Sb -0.0197521343 2.4216742118 8.3724463466 -0.00498074145576 -0.00287526490294 -0.0199317075745
Sb 2.10711038 6.1055081263 8.3724463466 -2.57110337382e-07 0.00575104402655 -0.0199317075745
Sb 4.2339699643 2.4216759018 8.3724467366 0.00498074145576 -0.00287552201328 -0.0199317075745
Sb -2.10711038 6.08270034 8.318330975 2.57110337382e-07 -0 -0.0109323315455
Sb -0.0047749208 2.4303204225 1.9180570651 0.000186919215276 0.000108243452038 0.00827406776728
Sb 2.10711114 6.088214385 1.9180570651 -2.57110337382e-07 -0.000215972683401 0.00827432487762
Sb 4.2189927508 2.4303229925 1.9180573551 -0.000186919215276 0.0001079863417 0.00827381065694
Sb -2.10711114 6.08270078 1.9030519007 2.57110337382e-07 -2.57110337382e-07 0.00795550805926
Sb -0.0129502654 0.0074768487 18.7959111942 0.000436830463211 -0.000252225240971 -0.0158259125969
Sb 2.10710819 3.64962011 18.7861328599 0 -2.57110337382e-07 -0.0156899012284
Sb 4.2271680954 0.0074760087 18.7959114442 -0.000436830463211 -0.000251968130634 -0.0158259125969
Sb 6.32132747 3.6346664227 18.7959114442 -0 0.000504193371605 -0.0158256554865
Sb 0.0376549054 -0.0217400842 12.2188317808 -0.00334294860664 0.00193012730272 0.0156235667613
Sb 2.10710964 3.64961928 11.8806311349 -0 -0 -0.00572738987551
Sb 4.1765629246 -0.0217392442 12.2188315408 0.00334294860664 0.00192987019239 0.0156235667613
Sb -2.10710964 3.6930994384 12.2188315408 0 -0.00385999749511 0.015623309651
Sb 2.10710669 1.2217057719 29.1115428664 2.57110337382e-07 -0.000232170634656 -0.00901505975961
Sb 4.209742939 4.8635785891 29.1115428664 0.00020131739417 0.000115699651822 -0.00901505975961
Sb 6.32132897 1.21653861 29.1078555809 -2.57110337382e-07 2.57110337382e-07 -0.00869392894822
Sb 0.004474881 4.8635760191 29.1115425764 -0.00020131739417 0.000116213872496 -0.00901480264927
Sb 2.10710745 1.2144476154 22.6205233398 2.57110337382e-07 0.000407262774413 0.0101751416019
Sb 4.2160290659 4.8672070073 22.6205233398 -0.000352755382888 -0.000203888497544 0.0101751416019
Sb 6.32132821 1.21653905 22.6262114559 -2.57110337382e-07 2.57110337382e-07 0.012024022038
Sb -0.0018112359 4.8672053073 22.6205229598 0.000352755382888 -0.000203631387206 0.0101753987122
Cr 2.10710877 3.64961978 14.359116656 -0 0 -0.123192875494
61
Lattice="8.42843558953 0 0 -4.21421779477 7.29923593142 0 0 0 31.0334408416" Properties=species:S:1:pos:R:3:forces:R:3 energy=-133597.939942 ionic_step=7 pbc="T T T"
Te 2.1071096 1.2050688414 3.4606331236 -2.57110337382e-07 0.00247185878359 0.0044734627601
Te 4.2241523954 4.8718945293 3.4606331236 -0.00214070066904 -0.00123592939179 0.0044734627601
Te 6.32132606 1.21654029 3.4656937299 2.57110337382e-07 0 -0.00530855713592
Te -0.0099345654 4.8718953193 3.4606331336 0.00214070066904 -0.00123618650213 0.0044734627601
Te -0.0657936256 0.0379859865 6.9313876234 0.0187749681666 -0.0108395147137 -0.00462412941781
Te 2.10710848 3.64961994 6.9310257522 2.57110337382e-07 -5.14220674763e-07 0.00765443185419
Te 4.2800114556 0.0379854965 6.9313874334 -0.0187749681666 -0.0108392576033 -0.00462387230747
Te -2.10710848 3.5736479671 6.9313874334 -2.57110337382e-07 0.0216792865377 -0.00462412941781
Te -0.0053075059 0.0030642862 -7.4567e-05 0.000911713256355 -0.000526047750283 0.00127115350801
Te 2.10710891 3.6496197 0.0042535968 -0 -2.57110337382e-07 0.00150255281166
Te 4.2195253259 0.0030642862 -7.4567e-05 -0.000911713256355 -0.000526047750283 0.00127115350801
Te -2.10710891 3.6434911176 -7.4567e-05 0 0.0010523526109 0.00127115350801
Te -0.0932431234 2.3792460776 13.9541326246 0.0182725745674 0.0105497513634 -0.0290982053228
Te 2.1071087 6.1903673048 13.9541326246 0 -0.0210995027269 -0.0290982053228
Te 4.3074609534 2.3792458276 13.9541330146 -0.0182725745674 0.0105500084738 -0.0290984624332
Te -2.1071087 6.08269937 13.8255001981 -0 -2.57110337382e-07 0.00252688039579
Te 2.10710913 1.245424345 17.2075052033 -0 -0.0343494268535 0.0359813061649
Te 4.1892032891 4.8517171825 17.2075052033 0.0297476660351 0.0171747134268 0.0359813061649
Te 6.32132652 1.21654002 17.2491940645 0 2.57110337382e-07 0.00808046368323
Te 0.0250145409 4.8517174325 17.2075048233 -0.0297476660351 0.0171747134268 0.0359815632752
Te 2.10710868 1.0857730129 10.3084229232 0 0.0480181837197 0.0449688551184
Te 4.3274650906 4.9315432385 10.3084229232 -0.0415847688578 -0.024009220415 0.0449688551184
Te 6.32132698 1.21653976 10.3776574745 -0 2.57110337382e-07 0.0247021327743
Te -0.1132472606 4.9315429685 10.3084233432 0.0415847688578 -0.024009220415 0.0449688551184
Te 0.0038969657 -0.0022499157 24.1351225403 -0.0015791716922 0.000911970366693 -0.00350878477425
Te 2.10710934 3.64961945 24.1350891707 -2.57110337382e-07 -2.57110337382e-07 -0.00574204516474
Te 4.2103208543 -0.0022494157 24.1351227303 0.0015791716922 0.000911713256355 -0.00350904188458
Te -2.10710934 3.6541192813 24.1351227303 2.57110337382e-07 -0.00182342651271 -0.00350904188458
Te 0.0051284033 2.4360414765 27.5804208909 -0.00166761764826 -0.000962878213494 0.00180465745808
Te 2.10710823 6.0767773271 27.5804208909 2.57110337382e-07 0.00192549931665 0.00180465745808
Te 4.2090894267 2.4360406865 27.5804208809 0.00166761764826 -0.000962363992819 0.00180465745808
Te -2.10710823 6.0826991 27.594554515 -2.57110337382e-07 -0 0.000715280958596
Te -0.0022140919 2.4318012153 20.6651936992 0.00190801581371 0.00110197490602 -0.00182728316777
Te 2.10710915 6.0852562493 20.6651936992 -0 -0.0022036927017 -0.00182728316777
Te 4.2164319219 2.4318014853 20.6651932692 -0.00190801581371 0.00110197490602 -0.00182728316777
Te -2.10710915 6.08269963 20.6812739287 0 -2.57110337382e-07 -0.00801232944382
Sb -0.0177034184 2.4228570391 8.4018984254 -0.00433410895724 -0.00250194069306 -0.0208105107077
Sb 2.10711038 6.1031424719 8.4018984254 -2.57110337382e-07 0.00500465271713 -0.020810767818
Sb 4.2319212484 2.4228587291 8.4018988154 0.00433410895724 -0.0025021978034 -0.020810767818
Sb -2.10711038 6.08270034 8.288666379 2.57110337382e-07 -0 -0.0127627000373
Sb -0.0056065634 2.4298402732 1.8930668562 0.000189233208313 0.000109529003725 0.0100460722125
Sb 2.10711114 6.0891746836 1.8930668562 -2.57110337382e-07 -0.000218543786774 0.0100460722125
Sb 4.2198243934 2.4298428432 1.8930671462 -0.000189233208313 0.000109271893387 0.0100458151022
Sb -2.10711114 6.08270078 1.8783984989 2.57110337382e-07 -2.57110337382e-07 0.00979667518525
Sb -0.012266041 0.0070818113 18.8220205408 0.000299276432712 -0.00017277814672 -0.0173765450416
Sb 2.10710819 3.64962011 18.8137824006 0 -2.57110337382e-07 -0.0193676074943
Sb 4.226483871 0.0070809713 18.8220207908 -0.000299276432712 -0.00017277814672 -0.0173762879313
Sb 6.32132747 3.6354564973 18.8220207908 -0 0.000345556293441 -0.0173762879313
Sb 0.0343467891 -0.0198301415 12.187226765 -0.00168818647525 0.000974705289014 0.015665218636
Sb 2.10710964 3.64961928 11.8959251497 -0 -0 -0.0029300294048
Sb 4.1798710409 -0.0198293015 12.187226525 0.00168818647525 0.000974705289014 0.0156649615257
Sb -2.10710964 3.689279553 12.187226525 0 -0.00194941057803 0.0156649615257
Sb 2.10710669 1.2219385988 29.1351521981 2.57110337382e-07 -0.000259167220081 -0.0110647433692
Sb 4.2095413051 4.8634621756 29.1351521981 0.000224714434872 0.000129326499703 -0.0110647433692
Sb 6.32132897 1.21653861 29.1305611893 -2.57110337382e-07 2.57110337382e-07 -0.0107706091433
Sb 0.0046765149 4.8634596056 29.1351519081 -0.000224714434872 0.00012958361004 -0.0110644862589
Sb 2.10710745 1.2135011788 22.5990002941 2.57110337382e-07 0.000486709868663 0.0125719241669
Sb 4.2168487037 4.8676802256 22.5990002941 -0.000421403842968 -0.0002434834895 0.0125721812773
Sb 6.32132821 1.21653905 22.6052920203 -2.57110337382e-07 2.57110337382e-07 0.0142523973321
Sb -0.0026308737 4.8676785256 22.5989999141 0.000421403842968 -0.000243226379163 0.0125721812773
Cr 2.10710877 3.64961978 14.3348182685 -0 0 -0.119754538953
61
Lattice="8.42843558953 0 0 -4.21421779477 7.29923593142 0 0 0 31.0334408416" Properties=species:S:1:pos:R:3:forces:R:3 energy=-133598.119655 ionic_step=8 pbc="T T T"
Te 2.1071096 1.2039464787 3.4280562451 -2.57110337382e-07 0.00349695769873 0.0156032550447
Te 4.2251243896 4.8724557107 3.4280562451 -0.00302850266402 -0.00174860740453 0.0156032550447
Te 6.32132606 1.21654029 3.4299102017 2.57110337382e-07 0 0.00195352434343
Te -0.0109065596 4.8724565007 3.4280562551 0.00302850266402 -0.00174886451487 0.0156032550447
Te -0.0836321641 0.0482850763 6.965799377 0.0236292113364 -0.0136420173911 -0.013889614646
Te 2.10710848 3.64961994 6.9968350383 2.57110337382e-07 -5.14220674763e-07 -0.00748859568658
Te 4.2978499941 0.0482845863 6.965799187 -0.0236292113364 -0.0136420173911 -0.013889614646
Te -2.10710848 3.5530497874 6.965799187 -2.57110337382e-07 0.0272842918926 -0.013889614646
Te -0.0061316844 0.0035401261 -3.73666e-05 0.0011238292847 -0.000648689381214 0.00112357217436
Te 2.10710891 3.6496197 0.0066688095 -0 -2.57110337382e-07 0.00115236853214
Te 4.2203495044 0.0035401261 -3.73666e-05 -0.0011238292847 -0.000648689381214 0.00112357217436
Te -2.10710891 3.6425394378 -3.73666e-05 0 0.00129737876243 0.00112357217436
Te -0.0860554032 2.3833959117 13.9393879048 0.0177293004245 0.0102360767518 -0.0283070768147
Te 2.1071087 6.1820676365 13.9393879048 0 -0.0204721535037 -0.0283070768147
Te 4.3002732332 2.3833956617 13.9393882948 -0.0177293004245 0.0102363338622 -0.028307333925
Te -2.1071087 6.08269937 13.7966926427 -0 -2.57110337382e-07 0.00875949208425
Te 2.10710913 1.2514385429 17.2328742432 -0 -0.0332731629812 0.0277056957356
Te 4.1839948434 4.8487100836 17.2328742432 0.028815641062 0.0166365814906 0.0277056957356
Te 6.32132652 1.21654002 17.2715774619 0 2.57110337382e-07 0.00502933530952
Te 0.0302229866 4.8487103336 17.2328738632 -0.0288158981724 0.0166365814906 0.0277059528459
Te 2.10710868 1.0783187944 10.2960765608 0 0.0485930824341 0.0481847912184
Te 4.3339206302 4.9352703478 10.2960765608 -0.0420827915813 -0.0242966697722 0.0481847912184
Te 6.32132698 1.21653976 10.3785422254 -0 2.57110337382e-07 0.0286104670128
Te -0.1197028002 4.9352700778 10.2960769808 0.0420827915813 -0.0242966697722 0.0481847912184
Te 0.0084385211 -0.0048719851 24.101410337 -0.00294159936998 0.00169872799908 0.0049645435045
Te 2.10710934 3.64961945 24.0985655059 -2.57110337382e-07 -2.57110337382e-07 0.00262226833096
Te 4.2057792989 -0.0048714851 24.101410527 0.00294159936998 0.00169847088874 0.0049645435045
Te -2.10710934 3.6593634203 24.101410527 2.57110337382e-07 -0.00339694177749 0.0049645435045
Te 0.0057326773 2.4363903544 27.6131216518 -0.00180362901673 -0.0010412968664 -0.00695277774347
Te 2.10710823 6.0760795713 27.6131216518 2.57110337382e-07 0.00208259373279 -0.00695277774347
Te 4.2084851527 2.4363895644 27.6131216418 0.00180362901673 -0.00104103975606 -0.00695277774347
Te -2.10710823 6.0826991 27.6309168586 -2.57110337382e-07 -0 -0.00777913036782
Te -0.0044446715 2.430513389 20.6613777824 0.00226668473436 0.00130920583795 -0.00200057553517
Te 2.10710915 6.0878319019 20.6613777824 -0 -0.00261764034488 -0.00200057553517
Te 4.2186625015 2.430513659 20.6613773524 -0.00226668473436 0.00130894872761 -0.00200057553517
Te -2.10710915 6.08269963 20.675550173 0 -2.57110337382e-07 -0.00884948070234
Sb -0.0157739525 2.4239710173 8.4625216871 -0.00290817502612 -0.00167867339276 -0.0223865970758
Sb 2.10711038 6.1009145155 8.4625216871 -2.57110337382e-07 0.0033578610062 -0.0223865970758
Sb 4.2299917825 2.4239727073 8.4625220771 0.00290817502612 -0.0016789305031 -0.0223865970758
Sb -2.10711038 6.08270034 8.2553754268 2.57110337382e-07 -0 -0.0151381424444
Sb -0.0061938699 2.4295011915 1.8529485843 0.000100015921241 5.81069362482e-05 0.0136476738186
Sb 2.10711114 6.089852847 1.8529485843 -2.57110337382e-07 -0.000115699651822 0.0136476738186
Sb 4.2204116999 2.4295037615 1.8529488743 -0.000100015921241 5.78498259109e-05 0.0136474167082
Sb -2.10711114 6.08270078 1.8386053503 2.57110337382e-07 -2.57110337382e-07 0.0134774667752
Sb -0.0082923986 0.0047876268 18.8600935261 -0.000163265064237 9.43594938191e-05 -0.0205490294946
Sb 2.10710819 3.64962011 18.8566584864 0 -2.57110337382e-07 -0.0253693340998
Sb 4.2225102286 0.0047867868 18.8600937761 0.000163265064237 9.43594938191e-05 -0.0205487723842
Sb 6.32132747 3.6400448665 18.8600937761 -0 -0.000188718987638 -0.0205487723842
Sb 0.0241040307 -0.0139164794 12.1451780568 0.00150358125301 -0.000868004499 0.0176832776741
Sb 2.10710964 3.64961928 11.9207819077 -0 -0 0.00268937412901
Sb 4.1901137993 -0.0139156394 12.1451778168 -0.00150358125301 -0.000868004499 0.0176832776741
Sb -2.10710964 3.6774522288 12.1451778168 0 0.001736008998 0.0176830205638
Sb 2.10710669 1.2219891712 29.1750016023 2.57110337382e-07 -0.000282050040108 -0.0149057146994
Sb 4.2094975081 4.8634368894 29.1750016023 0.00024451193085 0.000140896464885 -0.0149057146994
Sb 6.32132897 1.21653861 29.1680944505 -2.57110337382e-07 2.57110337382e-07 -0.0146000105082
Sb 0.0047203119 4.8634343194 29.1750013123 -0.00024451193085 0.000141153575223 -0.014905457589
Sb 2.10710745 1.2126512685 22.5616448315 2.57110337382e-07 0.000494423178785 0.0166993164129
Sb 4.2175847472 4.8681051807 22.5616448315 -0.000427831601403 -0.000247340144561 0.0166993164129
Sb 6.32132821 1.21653905 22.5682481112 -2.57110337382e-07 2.57110337382e-07 0.0176022879178
Sb -0.0033669172 4.8681034807 22.5616444515 0.00042808871174 -0.000247083034224 0.0166995735233
Cr 2.10710877 3.64961978 14.2756260398 0 0 -0.1125353949
61
Lattice="8.42843558953 0 0 -4.21421779477 7.29923593142 0 0 0 31.0334408416" Properties=species:S:1:pos:R:3:forces:R:3 energy=-133598.180169 ionic_step=9 pbc="T T T"
Te 2.1071096 1.203750562 3.4251880897 -2.57110337382e-07 0.00364556747373 0.0157567499161
Te 4.2252940584 4.872553669 3.4251880897 -0.00315705783271 -0.00182291229204 0.0157567499161
Te 6.32132606 1.21654029 3.4253699107 2.57110337382e-07 0 0.000982161488798
Te -0.0110762284 4.872554459 3.4251880997 0.00315705783271 -0.00182316940237 0.0157567499161
Te -0.0906815212 0.0523550264 6.9616807631 0.0253528790382 -0.0146372915071 -0.0133594531303
Te 2.10710848 3.64961994 7.0003997162 2.57110337382e-07 -5.14220674763e-07 -0.0093912121832
Te 4.3048993512 0.0523545364 6.9616805731 -0.0253528790382 -0.0146370343968 -0.01335919602
Te -2.10710848 3.5449098872 6.9616805731 -2.57110337382e-07 0.0292745830143 -0.01335919602
Te -0.006337574 0.0036589966 -0.0003615429 0.00121458923379 -0.00070113989004 0.0010310124529
Te 2.10710891 3.6496197 0.0075541599 -0 -2.57110337382e-07 0.000945908931227
Te 4.220555394 0.0036589966 -0.0003615429 -0.00121458923379 -0.00070113989004 0.0010310124529
Te -2.10710891 3.6423016968 -0.0003615429 0 0.00140227978008 0.0010310124529
Te -0.0828392122 2.3852527813 13.9377829868 0.0172364199077 0.00995171271869 -0.0282273726101
Te 2.1071087 6.1783538973 13.9377829868 0 -0.019903168327 -0.0282273726101
Te 4.2970570422 2.3852525313 13.9377833768 -0.0172364199077 0.00995171271869 -0.0282273726101
Te -2.1071087 6.08269937 13.7965391009 -0 -2.57110337382e-07 0.00748859568658
Te 2.10710913 1.2510048068 17.2357529514 -0 -0.0315654361203 0.0260964421339
Te 4.1843704697 4.8489269516 17.2357529514 0.0273367424014 0.0157827180602 0.0260964421339
Te 6.32132652 1.21654002 17.2698137885 0 2.57110337382e-07 0.00516971755373
Te 0.0298473603 4.8489272016 17.2357525714 -0.0273367424014 0.0157827180602 0.0260966992442
Te 2.10710868 1.0867418289 10.2928452855 0 0.0471828322336 0.0481590801846
Te 4.3266260718 4.9310588306 10.2928452855 -0.0408612603684 -0.0235916732271 0.048159337295
Te 6.32132698 1.21653976 10.3832541325 -0 2.57110337382e-07 0.0280250267746
Te -0.1124082418 4.9310585606 10.2928457055 0.0408612603684 -0.0235914161168 0.048159337295
Te 0.0101739124 -0.0058739142 24.0993338912 -0.00341648216313 0.00197280761873 0.00550884608874
Te 2.10710934 3.64961945 24.0952584938 -2.57110337382e-07 -2.57110337382e-07 0.00327301459487
Te 4.2040439076 -0.0058734142 24.0993340812 0.00341648216313 0.00197255050839 0.00550884608874
Te -2.10710934 3.6613672784 24.0993340812 2.57110337382e-07 -0.00394510101678 0.00550884608874
Te 0.0058010772 2.4364298451 27.6152216113 -0.00178357441042 -0.00102972690121 -0.00737263892442
Te 2.10710823 6.0760005898 27.6152216113 2.57110337382e-07 0.00205945380243 -0.00737263892442
Te 4.2084167528 2.4364290551 27.6152216013 0.00178357441042 -0.00102946979088 -0.00737263892442
Te -2.10710823 6.0826991 27.6336025434 -2.57110337382e-07 -0 -0.00797736243794
Te -0.005515593 2.4298950919 20.663110463 0.00244151976378 0.0014099930902 -0.00213890089668
Te 2.10710915 6.0890684962 20.663110463 -0 -0.00281947195973 -0.00213890089668
Te 4.219733423 2.4298953619 20.663110033 -0.00244151976378 0.0014099930902 -0.00213890089668
Te -2.10710915 6.08269963 20.6742296968 0 -2.57110337382e-07 -0.00858774237888
Sb -0.0163195436 2.4236560199 8.4905990196 -0.00252328085106 -0.00145653006127 -0.0227925742985
Sb 2.10711038 6.1015445101 8.4905990196 -2.57110337382e-07 0.00291357434321 -0.0227925742985
Sb 4.2305373736 2.4236577099 8.4905994096 0.00252328085106 -0.0014567871716 -0.0227925742985
Sb -2.10711038 6.08270034 8.2552263374 2.57110337382e-07 -0 -0.0154505315043
Sb -0.0058539122 2.4296974663 1.841548589 -2.8282137112e-06 -1.28555168691e-06 0.0149741060491
Sb 2.10711114 6.0894602974 1.841548589 -2.57110337382e-07 3.08532404858e-06 0.0149741060491
Sb 4.2200717422 2.4297000363 1.841548879 2.8282137112e-06 -1.54266202429e-06 0.0149738489388
Sb -2.10711114 6.08270078 1.8274284154 2.57110337382e-07 -2.57110337382e-07 0.0148352664669
Sb -0.0052875574 0.0030527801 18.8670111575 -0.000457913510877 0.000264309426828 -0.0217551340872
Sb 2.10710819 3.64962011 18.8670908298 0 -2.57110337382e-07 -0.0272326127148
Sb 4.2195053874 0.0030519401 18.8670114075 0.000457913510877 0.000264566537166 -0.0217548769769
Sb 6.32132747 3.6435145598 18.8670114075 -0 -0.000528875963994 -0.0217548769769
Sb 0.0185912336 -0.0107336631 12.1397843328 0.00263023875141 -0.00151849365258 0.01956249713
Sb 2.10710964 3.64961928 11.9165482625 -0 -0 0.00426726026952
Sb 4.1956265964 -0.0107328231 12.1397840928 -0.00263023875141 -0.00151875076291 0.0195622400197
Sb -2.10710964 3.6710865961 12.1397840928 0 0.00303698730515 0.0195622400197
Sb 2.10710669 1.2218629485 29.1877890658 2.57110337382e-07 -0.000287192246855 -0.0161532140563
Sb 4.2096068202 4.8635000008 29.1877890658 0.000248882806585 0.000143210457922 -0.016152956946
Sb 6.32132897 1.21653861 29.17945877 -2.57110337382e-07 2.57110337382e-07 -0.015795573577
Sb 0.0046109998 4.8634974308 29.1877887758 -0.000248882806585 0.000143724678596 -0.016152956946
Sb 2.10710745 1.2130623135 22.5486276211 2.57110337382e-07 0.000384379954386 0.0177506405825
Sb 4.217228772 4.8678996582 22.5486276211 -0.000332700776572 -0.000192318532361 0.0177506405825
Sb 6.32132821 1.21653905 22.5554375612 -2.57110337382e-07 2.57110337382e-07 0.0180997964207
Sb -0.003010942 4.8678979582 22.5486272411 0.000332700776572 -0.000192318532361 0.0177508976928
Cr 2.10710877 3.64961978 14.2500591865 0 0 -0.109772744324
61
Lattice="8.42843558953 0 0 -4.21421779477 7.29923593142 0 0 0 31.0334408416" Properties=species:S:1:pos:R:3:forces:R:3 energy=-133598.235974 ionic_step=10 pbc="T T T"
Te 2.1071096 1.2036851407 3.4254412302 -2.57110337382e-07 0.0036288553018 0.0145444746753
Te 4.2253507148 4.8725863796 3.4254412302 -0.00314265965382 -0.0018144276509 0.0145444746753
Te 6.32132606 1.21654029 3.4231659287 2.57110337382e-07 0 -0.0017318952326
Te -0.0111328848 4.8725871696 3.4254412402 0.00314265965382 -0.00181468476124 0.0145444746753
Te -0.1018935286 0.0588282849 6.9505256289 0.0279463510114 -0.0161344450017 -0.0112557763499
Te 2.10710848 3.64961994 6.9954229041 2.57110337382e-07 -5.14220674763e-07 -0.0098995193202
Te 4.3161113586 0.0588277949 6.9505254389 -0.0279463510114 -0.0161344450017 -0.0112557763499
Te -2.10710848 3.5319633702 6.9505254389 -2.57110337382e-07 0.0322694042241 -0.0112557763499
Te -0.0065600739 0.003787457 -0.0009643872 0.00134263018181 -0.000774930556868 0.000902714394547
Te 2.10710891 3.6496197 0.008489129 -0 -2.57110337382e-07 0.000695483462617
Te 4.2207778939 0.003787457 -0.0009643872 -0.00134263018181 -0.000774930556868 0.000902714394547
Te -2.10710891 3.642044776 -0.0009643872 0 0.00155011822407 0.000902714394547
Te -0.0806557932 2.3865133795 13.9377197699 0.0168314711264 0.00971774231168 -0.0278764169996
Te 2.1071087 6.1758327011 13.9377197699 0 -0.0194354846234 -0.0278764169996
Te 4.2948736232 2.3865131295 13.9377201599 -0.0168314711264 0.00971799942201 -0.0278764169996
Te -2.1071087 6.08269937 13.7985297763 -0 -2.57110337382e-07 0.00514452074067
Te 2.10710913 1.2490285716 17.2373990846 -0 -0.0294432473956 0.0251189086312
Te 4.1860819388 4.8499150692 17.2373990846 0.0254989177098 0.0147216236978 0.0251189086312
Te 6.32132652 1.21654002 17.2651553915 0 2.57110337382e-07 0.00591867996653
Te 0.0281358912 4.8499153192 17.2373987046 -0.0254989177098 0.0147216236978 0.0251191657415
Te 2.10710868 1.100014429 10.290514682 0 0.0448426139427 0.0474355716952
Te 4.3151316683 4.9244225305 10.290514682 -0.0388347166891 -0.0224215640817 0.0474358288056
Te 6.32132698 1.21653976 10.3909677009 -0 2.57110337382e-07 0.0264412270963
Te -0.1009138383 4.9244222605 10.290515102 0.0388347166891 -0.0224213069714 0.0474358288056
Te 0.0119865228 -0.0069204258 24.1010481305 -0.00388699408054 0.002244316135 0.00530392914985
Te 2.10710934 3.64961945 24.095621443 -2.57110337382e-07 -2.57110337382e-07 0.00320745145884
Te 4.2022312972 -0.0069199258 24.1010483205 0.00388699408054 0.00224405902467 0.00530367203951
Te -2.10710934 3.6634603016 24.1010483205 2.57110337382e-07 -0.00448837515967 0.00530367203951
Te 0.0059242332 2.4365009493 27.6138135092 -0.00177123311422 -0.00102252781177 -0.00683630676064
Te 2.10710823 6.0758583814 27.6138135092 2.57110337382e-07 0.00204505562353 -0.0068360496503
Te 4.2082935968 2.4365001593 27.6138134992 0.00177123311422 -0.00102227070143 -0.0068360496503
Te -2.10710823 6.0826991 27.6322827737 -2.57110337382e-07 -0 -0.00714329650347
Te -0.0070143561 2.4290297802 20.6671085297 0.00274079619649 0.00158277123692 -0.00237647084842
Te 2.10710915 6.0907991195 20.6671085297 -0 -0.00316528536351 -0.00237647084842
Te 4.2212321861 2.4290300502 20.6671080997 -0.00274079619649 0.00158277123692 -0.00237647084842
Te -2.10710915 6.08269963 20.6735437949 0 -2.57110337382e-07 -0.00796964912782
Sb -0.017814707 2.4227927865 8.5214435789 -0.00244460508782 -0.00141102153155 -0.0229481260527
Sb 2.10711038 6.1032709769 8.5214435789 -2.57110337382e-07 0.00282281439411 -0.0229481260527
Sb 4.232032537 2.4227944765 8.5214439689 0.00244460508782 -0.00141127864189 -0.0229481260527
Sb -2.10711038 6.08270034 8.2606108171 2.57110337382e-07 -0 -0.0152286452831
Sb -0.0052245163 2.4300608483 1.833846478 -0.00015812285749 -9.10170594331e-05 0.0160614256659
Sb 2.10711114 6.0887335334 1.833846478 -2.57110337382e-07 0.000182548339541 0.0160614256659
Sb 4.2194423463 2.4300634183 1.833846768 0.00015812285749 -9.12741697705e-05 0.0160611685556
Sb -2.10711114 6.08270078 1.8202417819 2.57110337382e-07 -2.57110337382e-07 0.0159333847179
Sb -0.0017789891 0.0010271063 18.8672743087 -0.000805012466342 0.000464855489986 -0.0228342261732
Sb 2.10710819 3.64962011 18.8724918158 0 -2.57110337382e-07 -0.0287693612013
Sb 4.2159968191 0.0010262663 18.8672745587 0.000805012466342 0.000464855489986 -0.0228342261732
Sb 6.32132747 3.6475659074 18.8672745587 -0 -0.000929710979972 -0.0228339690629
Sb 0.013770687 -0.0079505179 12.1425116364 0.00352164029112 -0.00203322854801 0.0219914184873
Sb 2.10710964 3.64961928 11.8904360936 -0 -0 0.00401760613193
Sb 4.200447143 -0.0079496779 12.1425113964 -0.00352164029112 -0.00203348565835 0.0219914184873
Sb -2.10710964 3.6655203057 12.1425113964 0 0.00406645709603 0.0219914184873
Sb 2.10710669 1.2217513177 29.1980573828 2.57110337382e-07 -0.00030441863946 -0.0170320171895
Sb 4.2097034952 4.8635558161 29.1980573828 0.000263795206154 0.000151952209393 -0.0170320171895
Sb 6.32132897 1.21653861 29.1878512273 -2.57110337382e-07 2.57110337382e-07 -0.016598786271
Sb 0.0045143248 4.8635532461 29.1980570928 -0.000263795206154 0.00015220931973 -0.0170317600792
Sb 2.10710745 1.2141639776 22.5366828016 2.57110337382e-07 0.000163779284912 0.0182106109761
Sb 4.2162747033 4.8673488262 22.5366828016 -0.000141667795897 -8.20181976247e-05 0.0182108680864
Sb 6.32132821 1.21653905 22.5446694633 -2.57110337382e-07 2.57110337382e-07 0.0178758533168
Sb -0.0020568733 4.8673471262 22.5366824216 0.000141667795897 -8.17610872874e-05 0.0182108680864
Cr 2.10710877 3.64961978 14.2282666258 0 0 -0.107124507849
61
Lattice="8.42843558953 0 0 -4.21421779477 7.29923593142 0 0 0 31.0334408416" Properties=species:S:1:pos:R:3:forces:R:3 energy=-133598.271556 ionic_step=11 pbc="T T T"
Te 2.1071096 1.2036312855 3.4222217894 -2.57110337382e-07 0.00359414540626 0.0150918625836
Te 4.2253973548 4.8726133073 3.4222217894 -0.00311257774434 -0.00179694414796 0.0150918625836
Te 6.32132606 1.21654029 3.4171461009 2.57110337382e-07 0 -0.0031164343994
Te -0.0111795248 4.8726140973 3.4222217994 0.00311257774434 -0.00179745836863 0.0150918625836
Te -0.1161743036 0.067073298 6.9465941393 0.0309560846207 -0.0178722537721 -0.0108366865
Te 2.10710848 3.64961994 6.997852587 2.57110337382e-07 -5.14220674763e-07 -0.0113722473327
Te 4.3303921336 0.067072808 6.9465939493 -0.0309560846207 -0.0178719966617 -0.0108366865
Te -2.10710848 3.5154733439 6.9465939493 -0 0.0357447646545 -0.0108366865
Te -0.0068565371 0.0039586202 -0.0015387432 0.0014904686258 -0.000860291188879 0.000776216108555
Te 2.10710891 3.6496197 0.0092816144 -0 -2.57110337382e-07 0.00051550622645
Te 4.2210743571 0.0039586202 -0.0015387432 -0.0014904686258 -0.000860291188879 0.000776216108555
Te -2.10710891 3.6417024496 -0.0015387432 0 0.0017208394881 0.000776216108555
Te -0.0800388206 2.3868695889 13.9361102166 0.0167291412121 0.00965860693408 -0.0269767879291
Te 2.1071087 6.1751202821 13.9361102166 0 -0.0193172138682 -0.0269767879291
Te 4.2942566506 2.3868693389 13.9361106066 -0.0167291412121 0.00965886404442 -0.0269770450394
Te -2.1071087 6.08269937 13.7943009163 -0 -2.57110337382e-07 0.00505273235022
Te 2.10710913 1.2476234223 17.242354778 -0 -0.0279625489626 0.0235078552571
Te 4.1872988332 4.8506176438 17.242354778 0.024216451347 0.0139814030365 0.0235078552571
Te 6.32132652 1.21654002 17.2657450556 0 2.57110337382e-07 0.00612668222947
Te 0.0269189968 4.8506178938 17.242354398 -0.0242167084573 0.0139811459261 0.0235078552571
Te 2.10710868 1.1065489814 10.2889849068 0 0.0436143978611 0.0467889391967
Te 4.3094725826 4.9211552543 10.2889849068 -0.0377710512234 -0.0218073274857 0.046789196307
Te 6.32132698 1.21653976 10.3977364189 -0 2.57110337382e-07 0.0255693659423
Te -0.0952547526 4.9211549843 10.2889853268 0.0377710512234 -0.0218073274857 0.046789196307
Te 0.0135109015 -0.0078005267 24.0987794871 -0.00429014308955 0.00247725810067 0.00631977209284
Te 2.10710934 3.64961945 24.0922703259 -2.57110337382e-07 -2.57110337382e-07 0.00425569030434
Te 4.2007069185 -0.0078000267 24.0987796771 0.00429014308955 0.00247700099033 0.00631977209284
Te -2.10710934 3.6652205034 24.0987796771 2.57110337382e-07 -0.00495425909101 0.00631977209284
Te 0.0062563439 2.4366926936 27.6162749908 -0.00183962446397 -0.00106212280372 -0.00751713493403
Te 2.10710823 6.0754748928 27.6162749908 2.57110337382e-07 0.00212424560745 -0.00751713493403
Te 4.2079614861 2.4366919036 27.6162749808 0.00183962446397 -0.00106186569339 -0.00751713493403
Te -2.10710823 6.0826991 27.6348634764 -2.57110337382e-07 -0 -0.00757035677386
Te -0.0085868701 2.4281218884 20.6705742007 0.00310974953063 0.00179591570661 -0.00260221372464
Te 2.10710915 6.0926149032 20.6705742007 -0 -0.00359106008221 -0.00260221372464
Te 4.2228047001 2.4281221584 20.6705737707 -0.00310974953063 0.00179565859627 -0.00260221372464
Te -2.10710915 6.08269963 20.6730497729 0 -2.57110337382e-07 -0.00745440001171
Sb -0.0193054165 2.4219321246 8.544756225 -0.0025551625329 -0.00147478489522 -0.0227354958036
Sb 2.10711038 6.1049923008 8.544756225 -2.57110337382e-07 0.00295034112145 -0.022735752914
Sb 4.2335232465 2.4219338146 8.544756615 0.0025551625329 -0.00147504200556 -0.0227354958036
Sb -2.10711038 6.08270034 8.2609730071 2.57110337382e-07 -0 -0.0147409069731
Sb -0.0048010673 2.4303053268 1.8299388389 -0.000299790653387 -0.000172521036383 0.0165985291607
Sb 2.10711114 6.0882445764 1.8299388389 -2.57110337382e-07 0.000345813403778 0.0165985291607
Sb 4.2190188973 2.4303078968 1.8299391289 0.000299790653387 -0.00017277814672 0.0165982720503
Sb -2.10711114 6.08270078 1.8170731934 2.57110337382e-07 -2.57110337382e-07 0.0164357783171
Sb 0.0003627968 -0.0002094549 18.8646066523 -0.00104669618348 0.000604209292847 -0.0234569474103
Sb 2.10710819 3.64962011 18.8747866401 0 -2.57110337382e-07 -0.0296898162091
Sb 4.2138550332 -0.0002102949 18.8646069023 0.00104669618348 0.000604466403184 -0.0234566903
Sb 6.32132747 3.6500390299 18.8646069023 -0 -0.00120867569603 -0.0234566903
Sb 0.0124092625 -0.0071644987 12.1475169388 0.00398186779503 -0.00229882352653 0.023602214751
Sb 2.10710964 3.64961928 11.8556235761 -0 -0 0.00186764949074
Sb 4.2018085675 -0.0071636587 12.1475166988 -0.00398186779503 -0.00229908063687 0.0236019576406
Sb -2.10710964 3.6639482674 12.1475166988 0 0.00459764705306 0.0236019576406
Sb 2.10710669 1.2218070684 29.20440131 2.57110337382e-07 -0.000338100093657 -0.0173690888418
Sb 4.2096552137 4.8635279408 29.20440131 0.000293105784615 0.00016892149166 -0.0173690888418
Sb 6.32132897 1.21653861 29.1924893811 -2.57110337382e-07 2.57110337382e-07 -0.0168862356282
Sb 0.0045626063 4.8635253708 29.20440102 -0.000293105784615 0.000169178601997 -0.0173688317315
Sb 2.10710745 1.2153376678 22.5280264419 2.57110337382e-07 -7.07053427799e-05 0.0181933845835
Sb 4.2152582583 4.8667619811 22.5280264419 6.11922602968e-05 3.49670058839e-05 0.0181933845835
Sb 6.32132821 1.21653905 22.538372461 -2.57110337382e-07 2.57110337382e-07 0.0173541764422
Sb -0.0010404283 4.8667602811 22.5280260619 -6.11922602968e-05 3.52241162213e-05 0.0181933845835
Cr 2.10710877 3.64961978 14.214642716 0 -0 -0.104499668415
61
Lattice="8.42843558953 0 0 -4.21421779477 7.29923593142 0 0 0 31.0334408416" Properties=species:S:1:pos:R:3:forces:R:3 energy=-133598.308483 ionic_step=12 pbc="T T T"
Te 2.1071096 1.2034643257 3.4130797281 -2.57110337382e-07 0.00361034335751 0.0181597031293
Te 4.2255419462 4.8726967871 3.4130797281 -0.0031267188129 -0.00180517167876 0.0181597031293
Te 6.32132606 1.21654029 3.4035187486 2.57110337382e-07 0 -0.0031948530523
Te -0.0113241162 4.8726975771 3.4130797381 0.0031267188129 -0.00180542878909 0.0181597031293
Te -0.1389005887 0.080194331 6.9510458126 0.0349266395609 -0.0201643924298 -0.0125752666013
Te 2.10710848 3.64961994 7.0125664576 2.57110337382e-07 -5.14220674763e-07 -0.015030413213
Te 4.3531184187 0.080193841 6.9510456226 -0.0349266395609 -0.0201643924298 -0.012575009491
Te -2.10710848 3.489231278 6.9510456226 -0 0.0403292990803 -0.012575009491
Te -0.0073822259 0.0042621269 -0.0022729353 0.00172752435687 -0.000997073888366 0.000591610886315
Te 2.10710891 3.6496197 0.0101988126 -0 -2.57110337382e-07 0.000362268465371
Te 4.2216000459 0.0042621269 -0.0022729353 -0.00172752435687 -0.000997073888366 0.000591610886315
Te -2.10710891 3.6410954362 -0.0022729353 0 0.00199466199741 0.000591610886315
Te -0.0791716118 2.3873702724 13.9314081223 0.0166293824012 0.0096010142185 -0.0252688039579
Te 2.1071087 6.1741189152 13.9314081223 0 -0.019202028437 -0.0252688039579
Te 4.2933894418 2.3873700224 13.9314085123 -0.0166293824012 0.00960127132884 -0.0252688039579
Te -2.1071087 6.08269937 13.7819514806 -0 -2.57110337382e-07 0.00758552628377
Te 2.10710913 1.2468007808 17.2530345455 -0 -0.0263054728382 0.0199476484154
Te 4.1880112613 4.8510289646 17.2530345455 0.022781518554 0.0131527364191 0.0199476484154
Te 6.32132652 1.21654002 17.2724590554 0 2.57110337382e-07 0.00555126929441
Te 0.0262065687 4.8510292146 17.2530341655 -0.022781518554 0.0131527364191 0.0199476484154
Te 2.10710868 1.1058622319 10.2872614199 0 0.0438249712274 0.0462186684684
Te 4.3100673247 4.921498629 10.2872614199 -0.0379533424526 -0.021912742724 0.0462189255787
Te 6.32132698 1.21653976 10.4060841517 -0 2.57110337382e-07 0.02549146151
Te -0.0958494947 4.921498359 10.2872618399 0.0379533424526 -0.0219124856137 0.0462189255787
Te 0.0154574105 -0.0089243447 24.0902934775 -0.0048290463567 0.0027883616089 0.00919118034072
Te 2.10710934 3.64961945 24.0825850954 -2.57110337382e-07 -2.57110337382e-07 0.00703736704447
Te 4.1987604095 -0.0089238447 24.0902936675 0.0048290463567 0.00278810449857 0.00919092323038
Te -2.10710934 3.6674681394 24.0902936675 2.57110337382e-07 -0.00557620899713 0.00919092323038
Te 0.0069804951 2.4371107827 27.6248326221 -0.00203991341679 -0.00117782245555 -0.0100149618617
Te 2.10710823 6.0746387146 27.6248326221 2.57110337382e-07 0.00235513069042 -0.0100149618617
Te 4.2072373349 2.4371099927 27.6248326121 0.00203991341679 -0.00117730823487 -0.0100149618617
Te -2.10710823 6.0826991 27.6437375187 -2.57110337382e-07 -0 -0.00974319623508
Te -0.010822189 2.4268313258 20.6740339479 0.00367204983848 0.00212038895239 -0.0028240999458
Te 2.10710915 6.0951960283 20.6740339479 -0 -0.00424052079444 -0.0028240999458
Te 4.225040019 2.4268315958 20.6740335179 -0.00367204983848 0.00212038895239 -0.0028240999458
Te -2.10710915 6.08269963 20.6720732536 0 -2.57110337382e-07 -0.00692963781311
Sb -0.021196937 2.4208400542 8.5710653156 -0.0026508075784 -0.00153006361776 -0.021998874687
Sb 2.10711038 6.1071764416 8.5710653156 -2.57110337382e-07 0.00306089856653 -0.021998874687
Sb 4.235414767 2.4208417442 8.5710657056 0.0026508075784 -0.0015303207281 -0.021998874687
Sb -2.10711038 6.08270034 8.2521481415 2.57110337382e-07 -0 -0.0139816601468
Sb -0.0045238834 2.4304653591 1.8263592711 -0.000471026138083 -0.000271508516275 0.0169463994472
Sb 2.10711114 6.0879245118 1.8263592711 -2.57110337382e-07 0.000543531253225 0.0169463994472
Sb 4.2187417134 2.4304679291 1.8263595611 0.000471026138083 -0.000271765626612 0.0169461423368
Sb -2.10711114 6.08270078 1.8146788746 2.57110337382e-07 -2.57110337382e-07 0.0167003448543
Sb 0.0019321037 -0.0011154951 18.8609327761 -0.00127989525949 0.000738935109635 -0.0239742534092
Sb 2.10710819 3.64962011 18.8776603917 0 -2.57110337382e-07 -0.0305817319695
Sb 4.2122857263 -0.0011163351 18.8609330261 0.00127989525949 0.000739192219972 -0.0239742534092
Sb 6.32132747 3.6518511102 18.8609330261 -0 -0.00147812732961 -0.0239739962988
Sb 0.0134948692 -0.0077912743 12.1537817892 0.00438938767978 -0.00253407948523 0.0248301737223
Sb 2.10710964 3.64961928 11.8084033874 -0 -0 -0.00222323308734
Sb 4.2007229608 -0.0077904343 12.1537815492 -0.00438938767978 -0.00253433659557 0.0248301737223
Sb -2.10710964 3.6652018187 12.1537815492 0 0.0050684160808 0.024829916612
Sb 2.10710669 1.2220366232 29.2110053207 2.57110337382e-07 -0.000398521022942 -0.017483502942
Sb 4.2094564135 4.8634131634 29.2110053207 0.000345299183104 0.000199003401133 -0.0174832458316
Sb 6.32132897 1.21653861 29.1968893542 -2.57110337382e-07 2.57110337382e-07 -0.0169669682742
Sb 0.0047614065 4.8634105934 29.2110050307 -0.000345299183104 0.000199260511471 -0.0174829887213
Sb 2.10710745 1.2167906458 22.5177833089 2.57110337382e-07 -0.000378466416626 0.0179892389756
Sb 4.213999943 4.8660354921 22.5177833089 0.000327815680162 0.000188976097975 0.0179894960859
Sb 6.32132821 1.21653905 22.5327280651 -2.57110337382e-07 2.57110337382e-07 0.016639923925
Sb 0.000217887 4.8660337921 22.5177829289 -0.000327815680162 0.000189233208313 0.0179894960859
Cr 2.10710877 3.64961978 14.1963974047 0 -0 -0.099922590189
61
Lattice="8.42843558953 0 0 -4.21421779477 7.29923593142 0 0 0 31.0334408416" Properties=species:S:1:pos:R:3:forces:R:3 energy=-133598.342569 ionic_step=13 pbc="T T T"
Te 2.1071096 1.2032056606 3.4013067348 -2.57110337382e-07 0.00366125120431 0.0227331818106
Te 4.2257659566 4.8728261197 3.4013067348 -0.00317068468059 -0.00183062560216 0.0227331818106
Te 6.32132606 1.21654029 3.3859604922 2.57110337382e-07 0 -0.00236978597965
Te -0.0115481266 4.8728269097 3.4013067448 0.00317068468059 -0.00183088271249 0.0227331818106
Te -0.1668664433 0.0963404322 6.9619586419 0.0383204960144 -0.0221240874214 -0.015752893261
Te 2.10710848 3.64961994 7.0355460041 2.57110337382e-07 -5.14220674763e-07 -0.019794924875
Te 4.3810842733 0.0963399422 6.9619584519 -0.0383204960144 -0.022123830311 -0.0157526361507
Te -2.10710848 3.4569390757 6.9619584519 -0 0.0442481748427 -0.0157526361507
Te -0.0080569641 0.0046516874 -0.0030633259 0.00202705789992 -0.00117010914542 0.000346841845128
Te 2.10710891 3.6496197 0.0109273061 -0 -2.57110337382e-07 0.000270222964588
Te 4.2222747841 0.0046516874 -0.0030633259 -0.00202705789992 -0.00117010914542 0.000346841845128
Te -2.10710891 3.6403163153 -0.0030633259 0 0.00234021829085 0.000346841845128
Te -0.0766633768 2.3888184032 13.9245689976 0.0162303471576 0.00937064335621 -0.023160242081
Te 2.1071087 6.1712226536 13.9245689976 0 -0.0187412867124 -0.023160242081
Te 4.2908812068 2.3888181532 13.9245693876 -0.0162300900472 0.00937064335621 -0.0231604991913
Te -2.1071087 6.08269937 13.7664509327 -0 -2.57110337382e-07 0.0118419879191
Te 2.10710913 1.2465292627 17.2660129384 -0 -0.0243141532752 0.0149509661187
Te 4.1882464027 4.8511647236 17.2660129384 0.0210570795212 0.0121572051928 0.0149509661187
Te 6.32132652 1.21654002 17.2821241496 0 2.57110337382e-07 0.00427728757268
Te 0.0259714273 4.8511649736 17.2660125584 -0.0210570795212 0.0121569480824 0.0149509661187
Te 2.10710868 1.095785262 10.2861171215 0 0.0458165479007 0.0456995626972
Te 4.3187942326 4.926537114 10.2861171215 -0.0396780385957 -0.0229085310607 0.0456998198076
Te 6.32132698 1.21653976 10.4161338522 -0 2.57110337382e-07 0.0260313932185
Te -0.1045764026 4.926536844 10.2861175415 0.0396782957061 -0.0229082739504 0.0456998198076
Te 0.0174726558 -0.0100878477 24.078830829 -0.00541217260188 0.00312491904054 0.0128652870619
Te 2.10710934 3.64961945 24.0701713197 -2.57110337382e-07 -2.57110337382e-07 0.0105019288407
Te 4.1967451642 -0.0100873477 24.078831019 0.00541217260188 0.0031246619302 0.0128650299516
Te -2.10710934 3.6697951453 24.078831019 2.57110337382e-07 -0.00624958097074 0.0128650299516
Te 0.0080419541 2.4377236166 27.636147733 -0.00236927175897 -0.00136782699487 -0.0133692233232
Te 2.10710823 6.0734130469 27.636147733 2.57110337382e-07 0.00273565398974 -0.0133692233232
Te 4.2061758759 2.4377228266 27.636147723 0.00236927175897 -0.00136756988453 -0.0133692233232
Te -2.10710823 6.0826991 27.6553116242 -2.57110337382e-07 -0 -0.0127408456586
Te -0.0133580829 2.4253672261 20.6767497263 0.00433359473657 0.00250245491374 -0.00293671427357
Te 2.10710915 6.0981242277 20.6767497263 -0 -0.00500413849646 -0.00293671427357
Te 4.2275759129 2.4253674961 20.6767492963 -0.00433359473657 0.0025021978034 -0.00293671427357
Te -2.10710915 6.08269963 20.6705863949 0 -2.57110337382e-07 -0.00641156048329
Sb -0.0232590552 2.4196494892 8.5962074259 -0.00263203852378 -0.00151926498359 -0.0207207791999
Sb 2.10711038 6.1095575716 8.5962074259 -2.57110337382e-07 0.00303930129819 -0.0207207791999
Sb 4.2374768852 2.4196511792 8.5962078159 0.00263203852378 -0.00151952209393 -0.0207207791999
Sb -2.10711038 6.08270034 8.2331941298 2.57110337382e-07 -0 -0.0130113257335
Sb -0.0043739066 2.4305519483 1.8245877799 -0.000652803146612 -0.000376409533927 0.0170124768039
Sb 2.10711114 6.0877513335 1.8245877799 -2.57110337382e-07 0.000753590398866 0.0170124768039
Sb 4.2185917366 2.4305545183 1.8245880699 0.000652803146612 -0.000376923754601 0.0170122196935
Sb -2.10711114 6.08270078 1.8142886764 2.57110337382e-07 -2.57110337382e-07 0.0166563789866
Sb 0.0026087211 -0.0015061406 18.8563926572 -0.00145987249565 0.000843064796274 -0.0242609314353
Sb 2.10710819 3.64962011 18.8803149846 0 -2.57110337382e-07 -0.0312779867631
Sb 4.2116091089 -0.0015069806 18.8563929072 0.00145987249565 0.000843064796274 -0.0242609314353
Sb 6.32132747 3.6526324011 18.8563929072 -0 -0.00168587248221 -0.0242609314353
Sb 0.0167846267 -0.0096906176 12.1614993859 0.00471591780825 -0.00272279847287 0.0253644490034
Sb 2.10710964 3.64961928 11.7602067237 -0 -0 -0.0070052282523
Sb 4.1974332033 -0.0096897776 12.1614991459 -0.00471591780825 -0.00272279847287 0.025364191893
Sb -2.10710964 3.6690005051 12.1614991459 0 0.00544533983541 0.025364191893
Sb 2.10710669 1.2223666126 29.2161717642 2.57110337382e-07 -0.000467169483022 -0.0173058396988
Sb 4.2091706344 4.8632481687 29.2161717642 0.000404948781376 0.000233456186343 -0.0173058396988
Sb 6.32132897 1.21653861 29.1996146341 -2.57110337382e-07 2.57110337382e-07 -0.0167653937696
Sb 0.0050471856 4.8632455987 29.2161714742 -0.000404948781376 0.00023371329668 -0.0173055825885
Sb 2.10710745 1.2182095983 22.5078876467 2.57110337382e-07 -0.000708596089824 0.0176308271653
Sb 4.2127710946 4.8653260158 22.5078876467 0.00061372237533 0.000354040934575 0.0176310842756
Sb 6.32132821 1.21653905 22.5295264805 -2.57110337382e-07 2.57110337382e-07 0.015857280058
Sb 0.0014467354 4.8653243158 22.5078872667 -0.00061372237533 0.000354298044912 0.0176310842756
Cr 2.10710877 3.64961978 14.1705278861 0 -0 -0.0933505928552
61
Lattice="8.42843558953 0 0 -4.21421779477 7.29923593142 0 0 0 31.0334408416" Properties=species:S:1:pos:R:3:forces:R:3 energy=-133598.375679 ionic_step=14 pbc="T T T"
Te 2.1071096 1.2030096796 3.3940505056 -2.57110337382e-07 0.00366896451444 0.0262774478114
Te 4.2259356811 4.8729241102 3.3940505056 -0.00317736954936 -0.00183448225722 0.0262774478114
Te 6.32132606 1.21654029 3.3728088519 2.57110337382e-07 0 -0.00195943788119
Te -0.0117178511 4.8729249002 3.3940505156 0.00317736954936 -0.00183473936756 0.0262774478114
Te -0.1922746924 0.1110098985 6.9716220802 0.0399477473397 -0.0230635685941 -0.0182460922026
Te 2.10710848 3.64961994 7.0552295912 2.57110337382e-07 -5.14220674763e-07 -0.0231144764409
Te 4.4064925224 0.1110094085 6.9716218902 -0.0399477473397 -0.0230635685941 -0.0182460922026
Te -2.10710848 3.4276001431 6.9716218902 -0 0.0461273942986 -0.0182460922026
Te -0.0086691625 0.0050051405 -0.0037629625 0.00232170634656 -0.00134031618877 7.53333288528e-05
Te 2.10710891 3.6496197 0.0110792525 -0 -2.57110337382e-07 0.000255567675357
Te 4.2228869825 0.0050051405 -0.0037629625 -0.00232170634656 -0.00134031618877 7.53333288528e-05
Te -2.10710891 3.6396094091 -0.0037629625 0 0.00268063237754 7.53333288528e-05
Te -0.0718976869 2.3915698768 13.9185120608 0.0153212050046 0.00884588115761 -0.0214990521912
Te 2.1071087 6.1657197063 13.9185120608 0 -0.0176915052049 -0.0214990521912
Te 4.2861155169 2.3915696268 13.9185124508 -0.0153212050046 0.00884588115761 -0.0214990521912
Te -2.1071087 6.08269937 13.7575368454 -0 -2.57110337382e-07 0.0152684973854
Te 2.10710913 1.2460973018 17.2748158625 -0 -0.0219230271375 0.0103679743549
Te 4.1886204917 4.8513807041 17.2748158625 0.0189860557536 0.0109616421239 0.0103679743549
Te 6.32132652 1.21654002 17.2880097122 0 2.57110337382e-07 0.00300536273365
Te 0.0255973383 4.8513809541 17.2748154825 -0.0189860557536 0.0109613850136 0.0103682314653
Te 2.10710868 1.078302106 10.2864686749 0 0.0487702314566 0.0451182362244
Te 4.3339350828 4.935278692 10.2864686749 -0.0422362864527 -0.0243853728386 0.0451184933347
Te 6.32132698 1.21653976 10.4279850538 -0 2.57110337382e-07 0.0263602373401
Te -0.1197172528 4.935278422 10.2864690949 0.0422362864527 -0.0243853728386 0.0451184933347
Te 0.0190015645 -0.0109705639 24.0715028801 -0.00587471409883 0.00339205668108 0.0152263312901
Te 2.10710934 3.64961945 24.0625368872 -2.57110337382e-07 -2.57110337382e-07 0.0125935214353
Te 4.1952162555 -0.0109700639 24.0715030701 0.00587471409883 0.00339179957074 0.0152260741797
Te -2.10710934 3.6715605778 24.0715030701 2.57110337382e-07 -0.00678359914148 0.0152260741797
Te 0.0091980205 2.4383910721 27.6429925946 -0.0027629076855 -0.00159511253312 -0.0155281788262
Te 2.10710823 6.0720781357 27.6429925946 2.57110337382e-07 0.00319022506623 -0.0155281788262
Te 4.2050198095 2.4383902821 27.6429925846 0.0027629076855 -0.00159485542278 -0.0155281788262
Te -2.10710823 6.0826991 27.6619548324 -2.57110337382e-07 -0 -0.0145804701226
Te -0.0155838549 2.4240821755 20.678437118 0.00492674828491 0.00284492588313 -0.00288606353711
Te 2.10710915 6.100694329 20.678437118 -0 -0.00568908043524 -0.00288606353711
Te 4.2298016849 2.4240824455 20.678436688 -0.00492674828491 0.00284466877279 -0.00288606353711
Te -2.10710915 6.08269963 20.6689966585 0 -2.57110337382e-07 -0.00584977439611
Sb -0.0249470294 2.4186749363 8.6142785311 -0.00261455502083 -0.00150923768043 -0.0192804470899
Sb 2.10711038 6.1115066773 8.6142785311 -2.57110337382e-07 0.00301898958154 -0.0192807042002
Sb 4.2391648594 2.4186766263 8.6142789211 0.00261455502083 -0.00150949479077 -0.0192804470899
Sb -2.10711038 6.08270034 8.2089451691 2.57110337382e-07 -2.57110337382e-07 -0.0119785135083
Sb -0.0041109229 2.430703782 1.8272600278 -0.000834580155141 -0.000481567661916 0.0167116577091
Sb 2.10711114 6.0874476659 1.8272600278 -2.57110337382e-07 0.000963649544506 0.0167119148195
Sb 4.2183287529 2.430706352 1.8272603178 0.000834580155141 -0.000481824772253 0.0167114005988
Sb -2.10711114 6.08270078 1.818102389 2.57110337382e-07 -2.57110337382e-07 0.0162727703632
Sb 0.0023499464 -0.0013567369 18.8499799337 -0.00155243221711 0.000896286636112 -0.0241773705757
Sb 2.10710819 3.64962011 18.8802236196 0 -2.57110337382e-07 -0.0315698069961
Sb 4.2118678836 -0.0013575769 18.8499801837 0.00155243221711 0.00089654374645 -0.0241771134653
Sb 6.32132747 3.6523335937 18.8499801837 -0 -0.00179283038256 -0.0241771134653
Sb 0.0210826375 -0.0121720764 12.1723252129 0.00489563793408 -0.00282641393884 0.0252245809798
Sb 2.10710964 3.64961928 11.7217241463 -0 -0 -0.0107207297378
Sb 4.1931351925 -0.0121712364 12.1723249729 -0.00489563793408 -0.00282667104917 0.0252243238695
Sb -2.10710964 3.6739634228 12.1723249729 0 0.00565308498801 0.0252243238695
Sb 2.10710669 1.2226231729 29.2170294924 2.57110337382e-07 -0.000516791778137 -0.0167723357488
Sb 4.2089484467 4.8631198885 29.2170294924 0.000447886207719 0.000258138778731 -0.0167723357488
Sb 6.32132897 1.21653861 29.1982118815 -2.57110337382e-07 2.57110337382e-07 -0.0161874097312
Sb 0.0052693733 4.8631173185 29.2170292024 -0.000447886207719 0.000258652999406 -0.0167720786384
Sb 2.10710745 1.2192810831 22.5018928653 2.57110337382e-07 -0.000991417460944 0.0171029796426
Sb 4.211843162 4.8647902734 22.5018928653 0.000858491416517 0.000495451620134 0.0171029796426
Sb 6.32132821 1.21653905 22.5312772923 -2.57110337382e-07 2.57110337382e-07 0.0150574097984
Sb 0.002374668 4.8647885734 22.5018924853 -0.000858491416517 0.000495708730472 0.017103236753
Cr 2.10710877 3.64961978 14.1381769454 -0 -0 -0.0859992940888
61
Lattice="8.42843558953 0 0 -4.21421779477 7.29923593142 0 0 0 31.0334408416" Properties=species:S:1:pos:R:3:forces:R:3 energy=-133598.419004 ionic_step=15 pbc="T T T"
Te 2.1071096 1.202825565 3.3915157787 -2.57110337382e-07 0.00367513516253 0.0287151109201
Te 4.2260951289 4.8730161675 3.3915157787 -0.00318276886645 -0.00183756758127 0.0287151109201
Te 6.32132606 1.21654029 3.3640793863 2.57110337382e-07 0 -0.0022463730177
Te -0.0118772989 4.8730169575 3.3915157887 0.00318276886645 -0.0018378246916 0.0287151109201
Te -0.2157168702 0.1245442525 6.9788167162 0.040267335489 -0.023247916706 -0.0198612593421
Te 2.10710848 3.64961994 7.0721608571 2.57110337382e-07 -5.14220674763e-07 -0.0251384490168
Te 4.4299347002 0.1245437625 6.9788165262 -0.040267335489 -0.023247916706 -0.0198612593421
Te -2.10710848 3.4005314351 6.9788165262 -0 0.0464963476328 -0.0198612593421
Te -0.0092361635 0.0053324988 -0.004393363 0.0026274105377 -0.00151669388021 -0.000236541510391
Te 2.10710891 3.6496197 0.0107493336 -0 -2.57110337382e-07 0.000296448219001
Te 4.2234539835 0.0053324988 -0.004393363 -0.0026274105377 -0.00151669388021 -0.000236541510391
Te -2.10710891 3.6389546924 -0.004393363 0 0.00303364487077 -0.000236541510391
Te -0.0647115563 2.3957187932 13.9131602726 0.0138726453638 0.00800950123011 -0.0204065903676
Te 2.1071087 6.1574218736 13.9131602726 0 -0.0160190024602 -0.0204065903676
Te 4.2789293863 2.3957185432 13.9131606626 -0.0138726453638 0.00800950123011 -0.020406847478
Te -2.1071087 6.08269937 13.7567042025 -0 -2.57110337382e-07 0.0173279511878
Te 2.10710913 1.2453213488 17.2795330097 -0 -0.0188523583782 0.00613079599486
Te 4.1892924864 4.8517686806 17.2795330097 0.0163270206444 0.00942617918909 0.00613079599486
Te 6.32132652 1.21654002 17.289316317 0 2.57110337382e-07 0.00187716257322
Te 0.0249253436 4.8517689306 17.2795326297 -0.0163270206444 0.00942617918909 0.0061310531052
Te 2.10710868 1.0538547273 10.2873740902 0 0.051929346172 0.0445842180537
Te 4.3551071239 4.9475023813 10.2873740902 -0.0449719404424 -0.0259648016412 0.044584475164
Te 6.32132698 1.21653976 10.4432625023 -0 2.57110337382e-07 0.026252765219
Te -0.1408892939 4.9475021113 10.2873745102 0.0449719404424 -0.0259648016412 0.044584475164
Te 0.0203700402 -0.0117606541 24.0684217469 -0.00631128745171 0.00364402481171 0.0162293187162
Te 2.10710934 3.64961945 24.0595466775 -2.57110337382e-07 -2.57110337382e-07 0.013292861553
Te 4.1938477798 -0.0117601541 24.0684219369 0.00631128745171 0.00364402481171 0.0162293187162
Te -2.10710934 3.6731407582 24.0684219369 2.57110337382e-07 -0.00728779251308 0.0162293187162
Te 0.0104733789 2.439127401 27.6450937094 -0.00322287807908 -0.00186070751163 -0.0164278078967
Te 2.10710823 6.070605478 27.6450937094 2.57110337382e-07 0.00372141502326 -0.0164278078967
Te 4.2037444511 2.439126611 27.6450936994 0.00322287807908 -0.00186045040129 -0.0164278078967
Te -2.10710823 6.0826991 27.6634478319 -2.57110337382e-07 -0 -0.0151499695199
Te -0.0176727551 2.4228761478 20.6793291159 0.00548467771702 0.00316682802553 -0.00271071428701
Te 2.10710915 6.1031063843 20.6793291159 -0 -0.00633339894072 -0.00271071428701
Te 4.2318905851 2.4228764178 20.6793286859 -0.00548467771702 0.00316682802553 -0.00271071428701
Te -2.10710915 6.08269963 20.6670330512 0 -2.57110337382e-07 -0.00518951504971
Sb -0.0258378502 2.4181606205 8.6301673687 -0.00260272794531 -0.00150229570132 -0.0177364995139
Sb 2.10711038 6.112535309 8.6301673687 -2.57110337382e-07 0.00300510562332 -0.0177367566243
Sb 4.2400556802 2.4181623105 8.6301677587 0.00260272794531 -0.00150255281166 -0.0177364995139
Sb -2.10711038 6.08270034 8.1789470829 2.57110337382e-07 -2.57110337382e-07 -0.0110642291485
Sb -0.003548552 2.4310284672 1.8328456778 -0.00104489641112 -0.000602666630823 0.0162234051784
Sb 2.10711114 6.0867982956 1.8328456778 -2.57110337382e-07 0.00120636170299 0.0162236622888
Sb 4.217766382 2.4310310372 1.8328459678 0.00104489641112 -0.000603180851497 0.0162231480681
Sb -2.10711114 6.08270078 1.8246247321 2.57110337382e-07 -2.57110337382e-07 0.0157451799509
Sb 0.0016245737 -0.0009379425 18.8426209511 -0.0016025687329 0.000925340104236 -0.0238899212185
Sb 2.10710819 3.64962011 18.8787516932 0 -2.57110337382e-07 -0.0316240572773
Sb 4.2125932563 -0.0009387825 18.8426212011 0.0016025687329 0.000925340104236 -0.0238896641082
Sb 6.32132747 3.651496005 18.8426212011 -0 -0.00185068020847 -0.0238896641082
Sb 0.0253675832 -0.0146459921 12.1855820662 0.00509258445252 -0.00294005670796 0.0247265582563
Sb 2.10710964 3.64961928 11.6896524319 -0 -0 -0.0134098467565
Sb 4.1888502468 -0.0146451521 12.1855818262 -0.00509258445252 -0.0029403138183 0.0247265582563
Sb -2.10710964 3.6789112543 12.1855818262 0 0.00588011341592 0.0247265582563
Sb 2.10710669 1.2227322872 29.2153853875 2.57110337382e-07 -0.000544559694574 -0.0160627112176
Sb 4.208853951 4.8630653314 29.2153853875 0.000471797469095 0.00027202273695 -0.0160627112176
Sb 6.32132897 1.21653861 29.1942347843 -2.57110337382e-07 2.57110337382e-07 -0.0153857396993
Sb 0.005363869 4.8630627614 29.2153850975 -0.000471797469095 0.000272279847287 -0.0160624541072
Sb 2.10710745 1.2200482095 22.497996483 2.57110337382e-07 -0.00124030026753 0.0165609910514
Sb 4.2111788114 4.8644067103 22.497996483 0.00107420698958 0.000619893023427 0.0165609910514
Sb 6.32132821 1.21653905 22.5363097331 -2.57110337382e-07 2.57110337382e-07 0.0142997056342
Sb 0.0030390186 4.8644050103 22.497996103 -0.00107420698958 0.000620150133764 0.0165612481618
Cr 2.10710877 3.64961978 14.0958461102 -0 -0 -0.0774004959654
61
Lattice="8.42843558953 0 0 -4.21421779477 7.29923593142 0 0 0 31.0334408416" Properties=species:S:1:pos:R:3:forces:R:3 energy=-133598.47689 ionic_step=16 pbc="T T T"
Te 2.1071096 1.2025045711 3.3905067683 -2.57110337382e-07 0.00374069829857 0.0313270948376
Te 4.2263731176 4.8731766644 3.3905067683 -0.00323933314067 -0.00187022059411 0.0313270948376
Te 6.32132606 1.21654029 3.3546148505 2.57110337382e-07 0 -0.00317377000464
Te -0.0121552876 4.8731774544 3.3905067783 0.00323933314067 -0.00187073481479 0.0313270948376
Te -0.246331823 0.1422198119 6.9865020713 0.0393075425996 -0.022693843929 -0.0213982649389
Te 2.10710848 3.64961994 7.0944582532 2.57110337382e-07 -5.14220674763e-07 -0.0279062417987
Te 4.460549653 0.1422193219 6.9865018813 -0.0393075425996 -0.022693843929 -0.0213982649389
Te -2.10710848 3.3651803161 6.9865018813 -0 0.0453882020787 -0.0213982649389
Te -0.0099709671 0.005756738 -0.0051445044 0.00303827285684 -0.00175400672162 -0.000669515318542
Te 2.10710891 3.6496197 0.0101855613 -0 -2.57110337382e-07 0.000373581320216
Te 4.2241887871 0.005756738 -0.0051445044 -0.00303827285684 -0.00175400672162 -0.000669515318542
Te -2.10710891 3.638106214 -0.0051445044 0 0.00350801344323 -0.000669515318542
Te -0.0541177011 2.4018351612 13.9063851685 0.0116576398072 0.00673063441198 -0.0194298281959
Te 2.1071087 6.1451891376 13.9063851685 0 -0.013461268824 -0.0194298281959
Te 4.2683355311 2.4018349112 13.9063855585 -0.0116576398072 0.00673089152231 -0.0194298281959
Te -2.1071087 6.08269937 13.7614720633 -0 -2.57110337382e-07 0.0187513140156
Te 2.10710913 1.2441637383 17.2839508687 -0 -0.0144290321339 0.000735078454574
Te 4.190295006 4.8523474858 17.2839508687 0.0124960766174 0.00721451606693 0.000735078454574
Te 6.32132652 1.21654002 17.2881515669 0 2.57110337382e-07 0.000551758784021
Te 0.023922824 4.8523477358 17.2839504887 -0.0124960766174 0.00721451606693 0.000735335564911
Te 2.10710868 1.0185880051 10.2873236753 0 0.0545194757108 0.0441108779225
Te 4.385648987 4.9651357424 10.2873236753 -0.0472152281361 -0.0272598664105 0.0441108779225
Te 6.32132698 1.21653976 10.466469938 -0 2.57110337382e-07 0.0257470291854
Te -0.171431157 4.9651354724 10.2873240953 0.0472152281361 -0.0272598664105 0.0441108779225
Te 0.0224914155 -0.0129854313 24.0662295318 -0.00698645919767 0.00403380408318 0.0168589819325
Te 2.10710934 3.64961945 24.0573008182 -2.57110337382e-07 -2.57110337382e-07 0.0135432870216
Te 4.1917264045 -0.0129849313 24.0662297218 0.00698645919767 0.00403354697284 0.0168589819325
Te -2.10710934 3.6755903125 24.0662297218 2.57110337382e-07 -0.00806735105602 0.0168589819325
Te 0.0121921188 2.4401197164 27.6455305095 -0.00384791330925 -0.00222169042531 -0.0169834233357
Te 2.10710823 6.0686208472 27.6455305095 2.57110337382e-07 0.00444312374029 -0.0169834233357
Te 4.2020257112 2.4401189264 27.6455304995 0.00384791330925 -0.00222143331498 -0.0169834233357
Te -2.10710823 6.0826991 27.6630280746 -2.57110337382e-07 -0 -0.0152106475595
Te -0.0204640171 2.4212646112 20.6801106331 0.00620098711697 0.00358051855838 -0.00244126265344
Te 2.10710915 6.1063294576 20.6801106331 -0 -0.00716078000642 -0.00244126265344
Te 4.2346818471 2.4212648812 20.6801102031 -0.00620098711697 0.00358051855838 -0.00244126265344
Te -2.10710915 6.08269963 20.6638920251 0 -2.57110337382e-07 -0.0042808871174
Sb -0.0259225624 2.4181117119 8.6558247016 -0.00237492818639 -0.00137091231892 -0.0154885838342
Sb 2.10711038 6.1126331262 8.6558247016 -2.57110337382e-07 0.00274233885851 -0.0154885838342
Sb 4.2401403924 2.4181134019 8.6558250916 0.00237492818639 -0.00137116942926 -0.0154885838342
Sb -2.10711038 6.08270034 8.1359049165 2.57110337382e-07 -2.57110337382e-07 -0.0105062997164
Sb -0.0024930948 2.431637836 1.8389650515 -0.00136165634677 -0.000785729191038 0.0157590639091
Sb 2.10711114 6.085579558 1.8389650515 -2.57110337382e-07 0.00157222971309 0.0157590639091
Sb 4.2167109248 2.431640406 1.8389653415 0.00136165634677 -0.000785986301376 0.0157588067988
Sb -2.10711114 6.08270078 1.8318523422 2.57110337382e-07 -2.57110337382e-07 0.0152571845306
Sb 0.0010128812 -0.0005847815 18.8347021702 -0.00169718533706 0.000979847495761 -0.0236477232807
Sb 2.10710819 3.64962011 18.8785467468 0 -2.57110337382e-07 -0.0316795931101
Sb 4.2132049488 -0.0005856215 18.8347024202 0.00169718533706 0.000980104606099 -0.0236477232807
Sb 6.32132747 3.650789683 18.8347024202 -0 -0.00195995210186 -0.0236474661703
Sb 0.0295740252 -0.0170745837 12.2017867601 0.0055209302746 -0.00318739685252 0.0242383057256
Sb 2.10710964 3.64961928 11.6476544662 -0 -0 -0.0165411935554
Sb 4.1846438048 -0.0170737437 12.2017865201 -0.0055209302746 -0.00318765396286 0.0242380486153
Sb -2.10710964 3.6837684374 12.2017865201 2.57110337382e-07 0.00637505081538 0.0242380486153
Sb 2.10710669 1.2226847911 29.214720286 2.57110337382e-07 -0.000560757645829 -0.0153258329906
Sb 4.2088950839 4.8630890794 29.214720286 0.000485938537651 0.000280250267746 -0.0153255758803
Sb 6.32132897 1.21653861 29.1902550306 -2.57110337382e-07 2.57110337382e-07 -0.0144876532908
Sb 0.0053227361 4.8630865094 29.214719996 -0.000485938537651 0.000280507378083 -0.01532531877
Sb 2.10710745 1.2208552368 22.4915692331 2.57110337382e-07 -0.00154523312766 0.0161007635475
Sb 4.2104799056 4.8640031966 22.4915692331 0.00133825930607 0.000772359453494 0.0161010206578
Sb 6.32132821 1.21653905 22.5419884745 -2.57110337382e-07 2.57110337382e-07 0.0135165475465
Sb 0.0037379244 4.8640014966 22.4915688531 -0.00133825930607 0.000772616563832 0.0161010206578
Cr 2.10710877 3.64961978 14.0323498575 -0 -0 -0.0651926400361
61
Lattice="8.42843558953 0 0 -4.21421779477 7.29923593142 0 0 0 31.0334408416" Properties=species:S:1:pos:R:3:forces:R:3 energy=-133598.547463 ionic_step=17 pbc="T T T"
Te 2.1071096 1.201965126 3.3921572128 -2.57110337382e-07 0.00387516700502 0.0342486396013
Te 4.2268402906 4.873446387 3.3921572128 -0.00335580412351 -0.00193758350251 0.0342486396013
Te 6.32132606 1.21654029 3.3441226506 2.57110337382e-07 0 -0.0051928574841
Te -0.0126224606 4.873447177 3.3921572228 0.00335580412351 -0.00193784061285 0.0342486396013
Te -0.2892987425 0.167026786 6.9950511493 0.035987476813 -0.0207770863638 -0.022736524245
Te 2.10710848 3.64961994 7.1255659199 2.57110337382e-07 -5.14220674763e-07 -0.0327797682438
Te 4.5035165725 0.167026296 6.9950509593 -0.035987476813 -0.0207770863638 -0.0227362671347
Te -2.10710848 3.3155663679 6.9950509593 -0 0.0415546869483 -0.0227362671347
Te -0.0109772592 0.0063377213 -0.0060677592 0.00362756975012 -0.00209416369797 -0.00129429343838
Te 2.10710891 3.6496197 0.0092182595 -0 -2.57110337382e-07 0.00050573603363
Te 4.2251950792 0.0063377213 -0.0060677592 -0.00362756975012 -0.00209416369797 -0.00129429343838
Te -2.10710891 3.6369442473 -0.0060677592 0 0.00418858450628 -0.00129429343838
Te -0.0387579082 2.4107031459 13.8976123981 0.00822778790655 0.00475037059346 -0.0186456416669
Te 2.1071087 6.1274531682 13.8976123981 0 -0.00950074118693 -0.0186456416669
Te 4.2529757382 2.4107028959 13.8976127881 -0.00822778790655 0.0047506277038 -0.0186458987773
Te -2.1071087 6.08269937 13.7754071649 -0 -2.57110337382e-07 0.0190621604135
Te 2.10710913 1.2423681064 17.2880877129 -0 -0.00853580609073 -0.00570142173144
Te 4.1918500682 4.8532453018 17.2880877129 0.0073924364204 0.00426803160054 -0.00570142173144
Te 6.32132652 1.21654002 17.2832019572 0 2.57110337382e-07 -0.000990903240269
Te 0.0223677618 4.8532455518 17.2880873329 -0.0073924364204 0.0042677744902 -0.0057011646211
Te 2.10710868 0.9666826745 10.2853752635 0 0.0544737100707 0.0437087573549
Te 4.430600301 4.9910884078 10.2853752635 -0.0471756331441 -0.0272369835905 0.0437090144652
Te 6.32132698 1.21653976 10.5026671986 -0 2.57110337382e-07 0.0246399120726
Te -0.216382471 4.9910881378 10.2853756835 0.0471756331441 -0.0272369835905 0.0437087573549
Te 0.025888101 -0.0149465095 24.065566889 -0.00806889371805 0.00465883931336 0.0168916349453
Te 2.10710934 3.64961945 24.0561901863 -2.57110337382e-07 -2.57110337382e-07 0.0131131414271
Te 4.188329719 -0.0149460095 24.065567079 0.00806889371805 0.00465858220302 0.016891377835
Te -2.10710934 3.6795124689 24.065567079 2.57110337382e-07 -0.00931716440604 0.016891377835
Te 0.0146182537 2.4415204467 27.643157393 -0.00473571530423 -0.00273436843805 -0.0169787953497
Te 2.10710823 6.0658193866 27.643157393 2.57110337382e-07 0.00546847976577 -0.0169787953497
Te 4.1995995763 2.4415196567 27.643157383 0.00473571530423 -0.00273385421738 -0.0169787953497
Te -2.10710823 6.0826991 27.659331748 -2.57110337382e-07 -0 -0.0144092346379
Te -0.0244385918 2.4189698884 20.6808913575 0.00718391993678 0.00414796107298 -0.00203374276869
Te 2.10710915 6.1109189033 20.6808913575 -0 -0.00829566503562 -0.00203374276869
Te 4.2386564218 2.4189701584 20.6808909275 -0.00718391993678 0.00414796107298 -0.00203374276869
Te -2.10710915 6.08269963 20.6589675038 0 -2.57110337382e-07 -0.00296885306575
Sb -0.0244958442 2.4189354284 8.6973585145 -0.00174320808745 -0.00100607275017 -0.0119420038404
Sb 2.10711038 6.1109856932 8.6973585145 -2.57110337382e-07 0.00201291683136 -0.0119422609507
Sb 4.2387136742 2.4189371184 8.6973589045 0.00174320808745 -0.00100632986051 -0.0119420038404
Sb -2.10711038 6.08270034 8.0724159691 2.57110337382e-07 -2.57110337382e-07 -0.0110914828443
Sb -0.0005655399 2.4327507108 1.8464816909 -0.0018653354977 -0.00107652098262 0.0152723540405
Sb 2.10711114 6.0833538084 1.8464816909 -2.57110337382e-07 0.00215381329625 0.0152723540405
Sb 4.2147833699 2.4327532808 1.8464819809 0.00186559260804 -0.00107677809295 0.0152720969301
Sb -2.10711114 6.08270078 1.8407575147 2.57110337382e-07 -2.57110337382e-07 0.0147740742066
Sb 0.000521356 -0.0003009992 18.8249689038 -0.00186019329096 0.00107394987924 -0.023436121473
Sb 2.10710819 3.64962011 18.8795188362 0 -2.57110337382e-07 -0.0316996477165
Sb 4.213696474 -0.0003018392 18.8249691538 0.00186019329096 0.00107420698958 -0.0234358643627
Sb 6.32132747 3.6502221184 18.8249691538 -0 -0.00214815686882 -0.0234358643627
Sb 0.0341318726 -0.0197060594 12.2236047944 0.0061158835953 -0.00353089626326 0.023924631114
Sb 2.10710964 3.64961928 11.582905753 -0 -0 -0.0206055937688
Sb 4.1800859574 -0.0197052194 12.2236045544 -0.0061158835953 -0.0035311533736 0.0239243740037
Sb -2.10710964 3.6890313887 12.2236045544 2.57110337382e-07 0.00706204963686 0.0239243740037
Sb 2.10710669 1.2223447751 29.2150577939 2.57110337382e-07 -0.00055484410807 -0.0144922812769
Sb 4.2091895463 4.8632590875 29.2150577939 0.000480796330904 0.000277164943697 -0.0144922812769
Sb 6.32132897 1.21653861 29.1856591574 -2.57110337382e-07 2.57110337382e-07 -0.0133802790677
Sb 0.0050282737 4.8632565175 29.2150575039 -0.000480796330904 0.000277422054035 -0.0144920241665
Sb 2.10710745 1.2217821422 22.4815959481 2.57110337382e-07 -0.00194375415061 0.0156680468497
Sb 4.2096771823 4.8635397439 22.4815959481 0.00168330137884 0.000971619964965 0.01566830396
Sb 6.32132821 1.21653905 22.5492806748 -2.57110337382e-07 2.57110337382e-07 0.0125989207524
Sb 0.0045406477 4.8635380439 22.4815955681 -0.00168330137884 0.000971877075303 0.01566830396
Cr 2.10710877 3.64961978 13.9371054783 -0 -0 -0.0489350391828
61
Lattice="8.42843558953 0 0 -4.21421779477 7.29923593142 0 0 0 31.0334408416" Properties=species:S:1:pos:R:3:forces:R:3 energy=-133598.646759 ionic_step=18 pbc="T T T"
Te 2.1071096 1.201032317 3.4006968857 -2.57110337382e-07 0.00409525345381 0.0373887281517
Te 4.2276481265 4.8739127915 3.4006968857 -0.00354657999384 -0.00204762672691 0.0373887281517
Te 6.32132606 1.21654029 3.3353326599 2.57110337382e-07 0 -0.00862142383308
Te -0.0134302965 4.8739135815 3.4006968957 0.00354657999384 -0.00204788383724 0.0373887281517
Te -0.3474566337 0.2006042759 7.0063739619 0.02906555231 -0.0167808203899 -0.0236577505838
Te 2.10710848 3.64961994 7.1713383833 2.57110337382e-07 -5.14220674763e-07 -0.0418444502985
Te 4.5616744637 0.2006037859 7.0063737719 -0.0290658094203 -0.0167808203899 -0.0236577505838
Te -2.10710848 3.2484113882 7.0063737719 -0 0.0335621550004 -0.0236577505838
Te -0.012328582 0.0071179083 -0.0069622839 0.00448194740124 -0.00258730132507 -0.00224200214197
Te 2.10710891 3.6496197 0.007223288 -0 -2.57110337382e-07 0.000851292327071
Te 4.226546402 0.0071179083 -0.0069622839 -0.00448194740124 -0.00258755843541 -0.00224200214197
Te -2.10710891 3.6353838735 -0.0069622839 0 0.00517511687082 -0.00224200214197
Te -0.0164240381 2.4235976179 13.8868359283 0.00286266649641 0.00165296235903 -0.0188086496208
Te 2.1071087 6.1016642243 13.8868359283 0 -0.00330566760772 -0.0188086496208
Te 4.2306418681 2.4235973679 13.8868363183 -0.00286266649641 0.00165296235903 -0.0188086496208
Te -2.1071087 6.08269937 13.8089587217 -0 -2.57110337382e-07 0.0169703107085
Te 2.10710913 1.2399963995 17.2895645093 -0 -0.00209544924966 -0.0110655147002
Te 4.1939040256 4.8544311552 17.2895645093 0.00181494187158 0.00104772462483 -0.0110655147002
Te 6.32132652 1.21654002 17.2706988255 0 2.57110337382e-07 -0.00262303966197
Te 0.0203138044 4.8544314052 17.2895641293 -0.00181494187158 0.00104772462483 -0.0110655147002
Te 2.10710868 0.8832537661 10.2793932972 0 0.0471177833182 0.043865851771
Te 4.5028518214 5.032802862 10.2793932972 -0.0408052103148 -0.0235590202143 0.043865851771
Te 6.32132698 1.21653976 10.560449289 -0 2.57110337382e-07 0.0225220942236
Te -0.2886339914 5.032802592 10.2793937172 0.0408052103148 -0.0235590202143 0.043865851771
Te 0.0312024861 -0.0180147726 24.0691244217 -0.00978767632344 0.00565128521565 0.015304749943
Te 2.10710934 3.64961945 24.0585756827 -2.57110337382e-07 -2.57110337382e-07 0.0109539288138
Te 4.1830153339 -0.0180142726 24.0691246117 0.00978767632344 0.00565102810531 0.015304749943
Te -2.10710934 3.6856489952 24.0691246117 2.57110337382e-07 -0.0113020562106 0.015304749943
Te 0.0181250367 2.4435450898 27.6339904724 -0.00604235003881 -0.00348847305759 -0.015519694185
Te 2.10710823 6.0617701004 27.6339904724 2.57110337382e-07 0.00697694611519 -0.015519694185
Te 4.1960927933 2.4435442998 27.6339904624 0.00604235003881 -0.00348821594726 -0.015519694185
Te -2.10710823 6.0826991 27.6479082949 -2.57110337382e-07 -0 -0.0116270436771
Te -0.0300156001 2.4157499996 20.6805546304 0.00851523726374 0.00491672098175 -0.00133723086472
Te 2.10710915 6.1173586808 20.6805546304 -0 -0.00983292774282 -0.00133723086472
Te 4.2442334301 2.4157502696 20.6805542004 -0.00851523726374 0.00491672098175 -0.00133723086472
Te -2.10710915 6.08269963 20.6510425949 0 -2.57110337382e-07 -0.00109451870623
Sb -0.01898964 2.4221144383 8.7605280154 -0.00056564274224 -0.0003260159078 -0.00657713954056
Sb 2.10711038 6.1046276733 8.7605280154 -2.57110337382e-07 0.000652803146612 -0.00657713954056
Sb 4.23320747 2.4221161283 8.7605284054 0.000565385631902 -0.000326273018137 -0.00657713954056
Sb -2.10711038 6.08270034 7.9719618416 2.57110337382e-07 -2.57110337382e-07 -0.0151119171899
Sb 0.0029871332 2.4348018486 1.8579505657 -0.00266777686067 -0.00153983381058 0.0145303336068
Sb 2.10711114 6.0792515328 1.8579505657 -2.57110337382e-07 0.00308018184183 0.0145305907171
Sb 4.2112306968 2.4348044186 1.8579508557 0.00266777686067 -0.00154009092092 0.0145300764964
Sb -2.10711114 6.08270078 1.8537824681 2.57110337382e-07 -2.57110337382e-07 0.0141089297638
Sb -0.0004777369 0.0002758276 18.8122619971 -0.00205816825074 0.00118836397938 -0.0230553410633
Sb 2.10710819 3.64962011 18.880970241 0 -2.57110337382e-07 -0.0316451403249
Sb 4.2146955669 0.0002749876 18.8122622471 0.00205816825074 0.00118836397938 -0.023055083953
Sb 6.32132747 3.6490684647 18.8122622471 -0 -0.00237672795876 -0.023055083953
Sb 0.0399272664 -0.0230520331 12.2539112114 0.00658048197495 -0.00379906234515 0.0238372135993
Sb 2.10710964 3.64961928 11.4790363938 -0 -0 -0.0246458256104
Sb 4.1742905636 -0.0230511931 12.2539109714 -0.00658022486461 -0.00379931945549 0.0238372135993
Sb -2.10710964 3.6957233361 12.2539109714 2.57110337382e-07 0.0075981246903 0.023836956489
Sb 2.10710669 1.2213204235 29.2146884936 2.57110337382e-07 -0.000485424316977 -0.0133949343569
Sb 4.2100766603 4.8637712632 29.2146884936 0.000420632511956 0.000242455048151 -0.0133949343569
Sb 6.32132897 1.21653861 29.1780611808 -2.57110337382e-07 2.57110337382e-07 -0.0117892803
Sb 0.0041411597 4.8637686932 29.2146882036 -0.000420632511956 0.000242712158488 -0.0133946772466
Sb 2.10710745 1.2224999335 22.4689300949 2.57110337382e-07 -0.00242403626083 0.0152484427791
Sb 4.2090555571 4.8631808483 22.4689300949 0.00209956301506 0.00121176102008 0.0152486998894
Sb 6.32132821 1.21653905 22.5619083822 -2.57110337382e-07 2.57110337382e-07 0.0115455397001
Sb 0.0051622729 4.8631791483 22.4689297149 -0.00209956301506 0.00121201813042 0.0152486998894
Cr 2.10710877 3.64961978 13.7942389096 -0 -0 -0.0315021869773
61
Lattice="8.42843558953 0 0 -4.21421779477 7.29923593142 0 0 0 31.0334408416" Properties=species:S:1:pos:R:3:forces:R:3 energy=-133598.750609 ionic_step=19 pbc="T T T"
Te 2.1071096 1.1994898167 3.4194640956 -2.57110337382e-07 0.00435107823951 0.0407234492275
Te 4.2289839704 4.8746840417 3.4194640956 -0.00376795199433 -0.00217541056459 0.0407237063379
Te 6.32132606 1.21654029 3.3317168637 2.57110337382e-07 0 -0.0128606590758
Te -0.0147661404 4.8746848317 3.4194641056 0.00376795199433 -0.00217592478526 0.0407234492275
Te -0.4176352411 0.2411219326 7.0249885571 0.0190428771382 -0.0109940380264 -0.0241765992447
Te 2.10710848 3.64961994 7.2368473245 2.57110337382e-07 -5.14220674763e-07 -0.0542842197521
Te 4.6318530711 0.2411214426 7.0249883671 -0.0190428771382 -0.0109940380264 -0.0241763421343
Te -2.10710848 3.1673760748 7.0249883671 -0 0.0219885902736 -0.0241763421343
Te -0.0139821876 0.0080726184 -0.0073388941 0.00563945814013 -0.00325553109193 -0.00355994973139
Te 2.10710891 3.6496197 0.0036808595 -0 -2.57110337382e-07 0.00165656190375
Te 4.2282000076 0.0080726184 -0.0073388941 -0.00563920102979 -0.00325553109193 -0.00355994973139
Te -2.10710891 3.6334744533 -0.0073388941 0 0.00651131929419 -0.00355994973139
Te 0.0119930828 2.4400042579 13.8762032537 -0.00441972669959 -0.00255156298818 -0.0208285084313
Te 2.1071087 6.0688509443 13.8762032537 0 0.00510312597635 -0.0208285084313
Te 4.2022247472 2.4400040079 13.8762036437 0.00441972669959 -0.00255130587784 -0.0208287655416
Te -2.1071087 6.08269937 13.8706243137 -0 -2.57110337382e-07 0.0116249867944
Te 2.10710913 1.2380459672 17.2866700206 -0 0.00222683263206 -0.0113586204848
Te 4.1955931487 4.8554063714 17.2866700206 -0.00192832753036 -0.00111328776086 -0.0113586204848
Te 6.32132652 1.21654002 17.2486147615 0 2.57110337382e-07 -0.00385871194342
Te 0.0186246813 4.8554066214 17.2866696406 0.00192832753036 -0.0011135448712 -0.0113586204848
Te 2.10710868 0.7580210656 10.2660123837 0 0.0284446308452 0.0454879608896
Te 4.6113064708 5.0954192122 10.2660123837 -0.0246337414245 -0.0142225725329 0.0454879608896
Te 6.32132698 1.21653976 10.6436802309 -0 2.57110337382e-07 0.0193457531156
Te -0.3970886408 5.0954189422 10.2660128037 0.0246337414245 -0.0142225725329 0.0454879608896
Te 0.0390045107 -0.0225192757 24.0783097056 -0.0123284406774 0.00711809969041 0.0113853599599
Te 2.10710934 3.64961945 24.0649935447 -2.57110337382e-07 -2.57110337382e-07 0.00646812475751
Te 4.1752133093 -0.0225187757 24.0783098956 0.0123284406774 0.00711784258007 0.0113851028496
Te -2.10710934 3.6946580013 24.0783098956 2.57110337382e-07 -0.0142359422705 0.0113851028496
Te 0.0227587679 2.446220377 27.6155804744 -0.00779918497413 -0.00450277333856 -0.0120479332994
Te 2.10710823 6.0564195261 27.6155804744 2.57110337382e-07 0.00900554667713 -0.012047676189
Te 4.1914590621 2.446219587 27.6155804644 0.00779918497413 -0.00450251622823 -0.012047676189
Te -2.10710823 6.0826991 27.6261861369 -2.57110337382e-07 -0 -0.0061097129472
Te -0.0371705838 2.4116190659 20.6776049355 0.0101347752789 0.00585183127881 -0.000239369724102
Te 2.10710915 6.1256205482 20.6776049355 -0 -0.0117028912266 -0.000239369724102
Te 4.2513884138 2.4116193359 20.6776045055 -0.0101347752789 0.00585157416847 -0.000239369724102
Te -2.10710915 6.08269963 20.6393388139 0 -2.57110337382e-07 0.00127680993544
Sb -0.005232874 2.4300569146 8.8471800668 0.00100530141916 0.000580812252145 9.95017005667e-05
Sb 2.10711038 6.0887427208 8.8471800668 -2.57110337382e-07 -0.00116111028362 9.95017005667e-05
Sb 4.219450704 2.4300586046 8.8471804568 -0.00100530141916 0.000580555141808 9.95017005667e-05
Sb -2.10711038 6.08270034 7.8236915815 2.57110337382e-07 -2.57110337382e-07 -0.0252441213655
Sb 0.0087724915 2.4381420283 1.8738960721 -0.00382631604091 -0.00220857779811 0.0133751368609
Sb 2.10711114 6.0725711733 1.8738960721 -2.57110337382e-07 0.00441818403757 0.0133751368609
Sb 4.2054453385 2.4381445983 1.8738963621 0.00382631604091 -0.00220909201878 0.0133748797506
Sb -2.10711114 6.08270078 1.871091776 2.57110337382e-07 -2.57110337382e-07 0.0131162267512
Sb -0.0026862047 0.0015508877 18.7976110118 -0.00221449133587 0.0012786097078 -0.0223719417866
Sb 2.10710819 3.64962011 18.8830014175 0 -2.57110337382e-07 -0.0317420709221
Sb 4.2169040347 0.0015500477 18.7976112618 0.00221449133587 0.0012786097078 -0.0223719417866
Sb 6.32132747 3.6465183446 18.7976112618 -0 -0.0025572194156 -0.0223716846763
Sb 0.0475403287 -0.0274474387 12.2911581606 0.00617887562796 -0.00356714882083 0.0242539894562
Sb 2.10710964 3.64961928 11.3158282599 -0 -2.57110337382e-07 -0.0292784396693
Sb 4.1666775013 -0.0274465987 12.2911579206 -0.00617887562796 -0.00356740593117 0.0242539894562
Sb -2.10710964 3.7045141474 12.2911579206 2.57110337382e-07 0.007134554752 0.0242539894562
Sb 2.10710669 1.2191093839 29.2125262458 2.57110337382e-07 -0.000292848674278 -0.0120448479753
Sb 4.2119914759 4.864876783 29.2125262458 0.000254025013333 0.00014629578197 -0.0120448479753
Sb 6.32132897 1.21653861 29.1663501032 -2.57110337382e-07 2.57110337382e-07 -0.00967737598871
Sb 0.0022263441 4.864874213 29.2125259558 -0.000254025013333 0.000146552892308 -0.012044590865
Sb 2.10710745 1.2224381368 22.455608924 2.57110337382e-07 -0.00290766080545 0.0149321970641
Sb 4.2091090746 4.8632117466 22.455608924 0.00251813864432 0.00145344473722 0.0149321970641
Sb 6.32132821 1.21653905 22.5822349277 -2.57110337382e-07 2.57110337382e-07 0.0105556649012
Sb 0.0051087554 4.8632100466 22.455608544 -0.00251813864432 0.00145370184756 0.0149321970641
Cr 2.10710877 3.64961978 13.6007078052 -0 -2.57110337382e-07 -0.0218793183802
61
Lattice="8.42843558953 0 0 -4.21421779477 7.29923593142 0 0 0 31.0334408416" Properties=species:S:1:pos:R:3:forces:R:3 energy=-133598.870177 ionic_step=20 pbc="T T T"
Te 2.1071096 1.1987270368 3.4371584024 -2.57110337382e-07 0.00456396559886 0.0394245278031
Te 4.2296445568 4.8750654316 3.4371584024 -0.00395255721657 -0.0022821113546 0.0394245278031
Te 6.32132606 1.21654029 3.3467895855 2.57110337382e-07 0 -0.0138795873429
Te -0.0154267268 4.8750662216 3.4371584124 0.00395255721657 -0.00228236846494 0.0394245278031
Te -0.4144459907 0.2392806172 7.031196521 0.0180923402209 -0.0104453645665 -0.0234404923487
Te 2.10710848 3.64961994 7.2494611612 2.57110337382e-07 -5.14220674763e-07 -0.0546464882174
Te 4.6286638207 0.2392801272 7.031196331 -0.0180923402209 -0.0104453645665 -0.0234402352384
Te -2.10710848 3.1710587056 7.031196331 -0 0.0208912433536 -0.0234402352384
Te -0.013970332 0.0080657735 -0.0061070415 0.00586057303028 -0.0033833149296 -0.00390422047314
Te 2.10710891 3.6496197 0.0015003313 -0 -2.57110337382e-07 0.00234896004232
Te 4.228188152 0.0080657735 -0.0061070415 -0.00586031591994 -0.0033833149296 -0.00390422047314
Te -2.10710891 3.633488143 -0.0061070415 0 0.00676662985921 -0.00390422047314
Te 0.0162725548 2.4424750133 13.8818886821 -0.00539391776793 -0.00311386329603 -0.0233610452545
Te 2.1071087 6.0639094333 13.8818886821 0 0.0062279837024 -0.0233610452545
Te 4.1979452752 2.4424747633 13.8818890721 0.00539391776793 -0.00311386329603 -0.0233610452545
Te -2.1071087 6.08269937 13.9121023173 -0 -2.57110337382e-07 0.00579886654931
Te 2.10710913 1.2395541618 17.275885565 -0 0.00258524444237 -0.00832009051767
Te 4.1942870145 4.8546522741 17.275885565 -0.00223865970758 -0.00129249366602 -0.00832009051767
Te 6.32132652 1.21654002 17.2332603816 0 2.57110337382e-07 -0.00214301466208
Te 0.0199308155 4.8546525241 17.275885185 0.00223865970758 -0.00129275077635 -0.00831983340733
Te 2.10710868 0.71861406 10.2559445977 0 0.0225382921749 0.0490026592016
Te 4.6454339229 5.115122715 10.2559445977 -0.0195187883727 -0.0112694031978 0.0490029163119
Te 6.32132698 1.21653976 10.6680395273 -0 2.57110337382e-07 0.0173066110298
Te -0.4312160929 5.115122445 10.2559450177 0.0195187883727 -0.0112694031978 0.0490029163119
Te 0.0413923408 -0.0238978907 24.0896191992 -0.0131784474528 0.00760892332447 0.00709881641511
Te 2.10710934 3.64961945 24.0739711021 -2.57110337382e-07 -2.57110337382e-07 0.00242249359881
Te 4.1728254792 -0.0238973907 24.0896193892 0.0131784474528 0.00760866621413 0.00709881641511
Te -2.10710934 3.6974152313 24.0896193892 2.57110337382e-07 -0.0152173324283 0.00709881641511
Te 0.023473573 2.4466330701 27.5999536821 -0.00813239997138 -0.00469534898126 -0.00830080724237
Te 2.10710823 6.0555941398 27.5999536821 2.57110337382e-07 0.00939044085219 -0.00830055013203
Te 4.190744257 2.4466322801 27.5999536721 0.00813239997138 -0.00469509187093 -0.00830055013203
Te -2.10710823 6.0826991 27.6093524132 -2.57110337382e-07 -0 -0.00162750843563
Te -0.0377467516 2.4112864152 20.6731307418 0.0101149777829 0.00584026131362 0.000334757659271
Te 2.10710915 6.1262858497 20.6731307418 -0 -0.0116800084066 0.000334757659271
Te 4.2519645816 2.4112866852 20.6731303118 -0.0101149777829 0.00584026131362 0.000334757659271
Te -2.10710915 6.08269963 20.6356674112 0 -2.57110337382e-07 0.00161645269112
Sb 0.0082803491 2.4378587813 8.8648522988 0.000471283248421 0.000272536957625 0.00091711257344
Sb 2.10711038 6.0731389875 8.8648522988 -2.57110337382e-07 -0.000544302584237 0.00091711257344
Sb 4.2059374809 2.4378604713 8.8648526888 -0.000471283248421 0.000272279847287 0.00091711257344
Sb -2.10711038 6.08270034 7.7751402334 2.57110337382e-07 -2.57110337382e-07 -0.0294301347684
Sb 0.0114007021 2.4396594271 1.8788056226 -0.00414050487319 -0.0023900976963 0.0128370049248
Sb 2.10711114 6.0695363758 1.8788056226 -2.57110337382e-07 0.00478070961327 0.0128370049248
Sb 4.2028171279 2.4396619971 1.8788059126 0.00414050487319 -0.00239035480664 0.0128367478145
Sb -2.10711114 6.08270078 1.8749998808 2.57110337382e-07 -2.57110337382e-07 0.0128488320003
Sb -0.0045097048 0.0026036865 18.7981017736 -0.00206665289187 0.00119324907579 -0.0218338098504
Sb 2.10710819 3.64962011 18.8827924202 0 -2.57110337382e-07 -0.0312854429629
Sb 4.2187275348 0.0026028465 18.7981020236 0.00206665289187 0.00119324907579 -0.0218335527401
Sb 6.32132747 3.644412747 18.7981020236 -0 -0.00238649815158 -0.0218335527401
Sb 0.0474797098 -0.0274124403 12.2930917262 0.00600224082617 -0.00346533312723 0.0240017642152
Sb 2.10710964 3.64961928 11.2584887923 -0 -2.57110337382e-07 -0.0328417318351
Sb 4.1667381202 -0.0274116003 12.2930914862 -0.00600224082617 -0.00346533312723 0.0240015071049
Sb -2.10710964 3.7044441507 12.2930914862 2.57110337382e-07 0.00693066625446 0.0240015071049
Sb 2.10710669 1.2173240475 29.2084317138 2.57110337382e-07 -9.12741697705e-05 -0.0119574304606
Sb 4.2135376218 4.8657694512 29.2084317138 7.91899839135e-05 4.52514193792e-05 -0.0119571733503
Sb 6.32132897 1.21653861 29.160820711 -2.57110337382e-07 2.57110337382e-07 -0.00929531002736
Sb 0.0006801982 4.8657668812 29.2084314238 -7.91899839135e-05 4.57656400539e-05 -0.0119569162399
Sb 2.10710745 1.2206517613 22.4600539717 2.57110337382e-07 -0.00274131041716 0.0153034643913
Sb 4.2106561204 4.8641049343 22.4600539717 0.00237415685538 0.00137039809824 0.0153037215016
Sb 6.32132821 1.21653905 22.592053385 -2.57110337382e-07 2.57110337382e-07 0.0110583156108
Sb 0.0035617096 4.8641032343 22.4600535917 -0.00237415685538 0.00137065520858 0.0153037215016
Cr 2.10710877 3.64961978 13.5545517374 -0 -2.57110337382e-07 -0.0216607745934
61
Lattice="8.42843558953 0 0 -4.21421779477 7.29923593142 0 0 0 31.0334408416" Properties=species:S:1:pos:R:3:forces:R:3 energy=-133598.97909 ionic_step=21 pbc="T T T"
Te 2.1071096 1.1978054521 3.4465616298 -2.57110337382e-07 0.0048861248516 0.0396572126584
Te 4.2304426722 4.875526224 3.4465616298 -0.00423126482229 -0.0024430624258 0.0396572126584
Te 6.32132606 1.21654029 3.3542228243 2.57110337382e-07 0 -0.0132864337945
Te -0.0162248422 4.875527014 3.4465616398 0.00423126482229 -0.00244331953614 0.0396572126584
Te -0.4127509501 0.2383019846 7.0447484204 0.01716957122 -0.00991263194741 -0.0243228950266
Te 2.10710848 3.64961994 7.2688840055 2.57110337382e-07 -5.14220674763e-07 -0.0567604494114
Te 4.6269687801 0.2383014946 7.0447482304 -0.01716957122 -0.00991263194741 -0.0243226379163
Te -2.10710848 3.1730159709 7.0447482304 -0 0.0198255210052 -0.0243226379163
Te -0.0140106484 0.0080890502 -0.0048374196 0.00601123968798 -0.00347021822364 -0.00403688940723
Te 2.10710891 3.6496197 -8.41322e-05 -0 -2.57110337382e-07 0.00302644578132
Te 4.2282284684 0.0080890502 -0.0048374196 -0.00601123968798 -0.00347021822364 -0.00403688940723
Te -2.10710891 3.6334415896 -0.0048374196 0 0.00694095066795 -0.00403688940723
Te 0.017238741 2.4430328415 13.8874842275 -0.00552555826067 -0.00318996795589 -0.0249767266146
Te 2.1071087 6.0627937771 13.8874842275 0 0.00638019302213 -0.0249767266146
Te 4.196979089 2.4430325915 13.8874846175 0.00552555826067 -0.00318996795589 -0.0249767266146
Te -2.1071087 6.08269937 13.9409682575 -0 -2.57110337382e-07 0.001418220621
Te 2.10710913 1.2424229504 17.2723128858 -0 0.00206433889884 -0.00654937162412
Te 4.1918025719 4.8532178798 17.2723128858 -0.00178743106548 -0.00103204089425 -0.00654937162412
Te 6.32132652 1.21654002 17.225491916 0 2.57110337382e-07 -0.000909656373656
Te 0.0224152581 4.8532181298 17.2723125058 0.00178743106548 -0.00103229800459 -0.00654911451378
Te 2.10710868 0.6915256582 10.2430476272 0 0.0183900739916 0.0530536896773
Te 4.668893156 5.1286669159 10.2430476272 -0.0159264427388 -0.00919529410612 0.0530536896773
Te 6.32132698 1.21653976 10.6858587576 -0 2.57110337382e-07 0.0164514620477
Te -0.454675326 5.1286666459 10.2430480472 0.0159264427388 -0.00919529410612 0.0530536896773
Te 0.0445662301 -0.0257303374 24.0927839065 -0.0142171732159 0.00820850463125 0.00525533529608
Te 2.10710934 3.64961945 24.0733403053 -2.57110337382e-07 -2.57110337382e-07 0.00103024112189
Te 4.1696515899 -0.0257298374 24.0927840965 0.0142171732159 0.00820824752091 0.00525533529608
Te -2.10710934 3.7010801248 24.0927840965 2.57110337382e-07 -0.0164167521522 0.00525533529608
Te 0.0238896025 2.4468732649 27.5932904831 -0.00830646366979 -0.00479562201284 -0.00700188581791
Te 2.10710823 6.0551137502 27.5932904831 2.57110337382e-07 0.00959124402568 -0.00700188581791
Te 4.1903282275 2.4468724749 27.5932904731 0.00830646366979 -0.0047953649025 -0.00700188581791
Te -2.10710823 6.0826991 27.6022740838 -2.57110337382e-07 -0 0.000465369710661
Te -0.0384502312 2.4108802608 20.6694713108 0.0100404157851 0.00579732388728 0.000687770152496
Te 2.10710915 6.1270981584 20.6694713108 -0 -0.0115938764435 0.000687770152496
Te 4.2526680612 2.4108805308 20.6694708808 -0.0100404157851 0.00579706677694 0.000687770152496
Te -2.10710915 6.08269963 20.6320307433 0 -2.57110337382e-07 0.00150949479077
Sb 0.0222353539 2.4459157108 8.8899935006 0.000153751981754 8.92172870714e-05 0.00201034572799
Sb 2.10711038 6.0570251284 8.8899935006 -2.57110337382e-07 -0.000177663243131 0.00201034572799
Sb 4.1919824761 2.4459174008 8.8899938906 -0.000153751981754 8.8960176734e-05 0.00201034572799
Sb -2.10711038 6.08270034 7.7318270737 2.57110337382e-07 -2.57110337382e-07 -0.032433183509
Sb 0.013314668 2.4407644563 1.8766214846 -0.00437138995616 -0.00252328085106 0.0128226067459
Sb 2.10711114 6.0673263173 1.8766214846 -2.57110337382e-07 0.00504733303314 0.0128228638562
Sb 4.200903162 2.4407670264 1.8766217746 0.00437138995616 -0.0025235379614 0.0128226067459
Sb -2.10711114 6.08270078 1.8719180346 2.57110337382e-07 -2.57110337382e-07 0.0130756033179
Sb -0.0052319404 0.0030206696 18.8032271215 -0.00202114436216 0.00116702382138 -0.021765675611
Sb 2.10710819 3.64962011 18.8879574603 0 -2.57110337382e-07 -0.0310771835897
Sb 4.2194497704 0.0030198296 18.8032273715 0.00202114436216 0.00116702382138 -0.0217654185007
Sb 6.32132747 3.6435787808 18.8032273715 -0 -0.00233404764275 -0.0217654185007
Sb 0.0463384643 -0.0267535416 12.2871439561 0.00609660031999 -0.00351958340842 0.0236119849438
Sb 2.10710964 3.64961928 11.1954153779 -0 -2.57110337382e-07 -0.0380939818071
Sb 4.1678793657 -0.0267527016 12.2871437161 -0.00609660031999 -0.00351984051875 0.0236119849438
Sb -2.10710964 3.7031263532 12.2871437161 2.57110337382e-07 0.00703942392717 0.0236119849438
Sb 2.10710669 1.2156391846 29.2104715536 2.57110337382e-07 8.79317353845e-05 -0.0124616238322
Sb 4.2149967552 4.8666118827 29.2104715536 -7.6104659865e-05 -4.42229780296e-05 -0.0124613667219
Sb 6.32132897 1.21653861 29.1615440297 -2.57110337382e-07 2.57110337382e-07 -0.00956193344722
Sb -0.0007789352 4.8666093127 29.2104712636 7.6104659865e-05 -4.39658676923e-05 -0.0124613667219
Sb 2.10710745 1.2190568071 22.4597601085 2.57110337382e-07 -0.00257675980124 0.0159871207784
Sb 4.2120373906 4.8649024114 22.4597601085 0.00223171772847 0.00128812279028 0.0159873778887
Sb 6.32132821 1.21653905 22.5942845222 -2.57110337382e-07 2.57110337382e-07 0.0117748821211
Sb 0.0021804394 4.8649007114 22.4597597286 -0.00223171772847 0.00128837990062 0.0159873778887
Cr 2.10710877 3.64961978 13.5128381111 -0 -2.57110337382e-07 -0.022544462823
61
Lattice="8.42843558953 0 0 -4.21421779477 7.29923593142 0 0 0 31.0334408416" Properties=species:S:1:pos:R:3:forces:R:3 energy=-133599.092301 ionic_step=22 pbc="T T T"
Te 2.1071096 1.1964240311 3.4550581481 -2.57110337382e-07 0.00533195417662 0.0408574037133
Te 4.2316390173 4.8762169345 3.4550581481 -0.00461770165937 -0.00266597708831 0.0408574037133
Te 6.32132606 1.21654029 3.3610288805 2.57110337382e-07 0 -0.0111925272069
Te -0.0174211873 4.8762177245 3.4550581581 0.00461770165937 -0.00266649130898 0.0408574037133
Te -0.4113930672 0.2375180102 7.0700791761 0.0160609114452 -0.00927242720733 -0.0265985786228
Te 2.10710848 3.64961994 7.296459255 2.57110337382e-07 -5.14220674763e-07 -0.0585347678497
Te 4.6256108972 0.2375175202 7.0700789861 -0.0160609114452 -0.00927242720733 -0.0265985786228
Te -2.10710848 3.1745839197 7.0700789861 -0 0.0185453686353 -0.0265985786228
Te -0.0140532862 0.0081136671 -0.0029247179 0.00616087790434 -0.003556607297 -0.0040518018068
Te 2.10710891 3.6496197 -0.002185625 -0 -2.57110337382e-07 0.00404126028296
Te 4.2282711062 0.0081136671 -0.0029247179 -0.00616087790434 -0.003556607297 -0.0040518018068
Te -2.10710891 3.6333923557 -0.0029247179 0 0.00711347170434 -0.0040518018068
Te 0.0162123639 2.4424402621 13.8970235218 -0.00509695532825 -0.002942370701 -0.0266340598494
Te 2.1071087 6.0639789358 13.8970235218 0 0.00588525562267 -0.0266340598494
Te 4.1980054661 2.4424400121 13.8970239118 0.00509695532825 -0.002942370701 -0.0266340598494
Te -2.1071087 6.08269937 13.9728745374 -0 -2.57110337382e-07 -0.00424154923578
Te 2.10710913 1.2475627324 17.271629434 -0 0.000578498259109 -0.00461410211465
Te 4.1873513921 4.8506479888 17.271629434 -0.000500850937219 -0.000289249129554 -0.00461410211465
Te 6.32132652 1.21654002 17.2196973746 0 2.57110337382e-07 0.000670543759891
Te 0.0268664379 4.8506482388 17.271629054 0.000500850937219 -0.000289506239892 -0.00461384500431
Te 2.10710868 0.6634023402 10.2226091314 0 0.0139960583257 0.058769766698
Te 4.6932486525 5.1427285749 10.2226091314 -0.0121209526352 -0.00699828627319 0.058769766698
Te 6.32132698 1.21653976 10.704099518 -0 2.57110337382e-07 0.016530909142
Te -0.4790308225 5.1427283049 10.2226095514 0.0121209526352 -0.00699802916285 0.058769766698
Te 0.0496073321 -0.0286408203 24.09277395 -0.0158117715283 0.00912921674941 0.00417984275481
Te 2.10710934 3.64961945 24.0666372128 -2.57110337382e-07 -2.57110337382e-07 0.000810411783427
Te 4.1646104879 -0.0286403203 24.09277414 0.0158117715283 0.00912895963907 0.00417958564448
Te -2.10710934 3.7069010907 24.09277414 2.57110337382e-07 -0.0182579192781 0.00417958564448
Te 0.0241519084 2.4470247074 27.5895011522 -0.00840210871529 -0.00485115784572 -0.0067128937987
Te 2.10710823 6.0548108653 27.5895011522 2.57110337382e-07 0.00970180147076 -0.0067128937987
Te 4.1900659216 2.4470239174 27.5895011422 0.00840210871529 -0.00485064362504 -0.0067128937987
Te -2.10710823 6.0826991 27.5981321835 -2.57110337382e-07 -0 0.00200648907293
Te -0.0395301064 2.4102567943 20.6653383607 0.00990260464425 0.00571761968269 0.00101404317063
Te 2.10710915 6.1283450914 20.6653383607 -0 -0.0114347251447 0.00101404317063
Te 4.2537479364 2.4102570643 20.6653379307 -0.00990260464425 0.00571761968269 0.00101404317063
Te -2.10710915 6.08269963 20.6273695409 0 -2.57110337382e-07 0.00103538332864
Sb 0.0423012492 2.4575007662 8.926899564 -0.000329101231848 -0.00018949031865 0.00370958794774
Sb 2.10711038 6.0338550176 8.926899564 -2.57110337382e-07 0.000379751968313 0.0037093308374
Sb 4.1719165808 2.4575024562 8.926899954 0.000329101231848 -0.000189747428988 0.00370958794774
Sb -2.10711038 6.08270034 7.675298627 2.57110337382e-07 -2.57110337382e-07 -0.0354650286074
Sb 0.0153821657 2.4419581273 1.8717061504 -0.00460664591487 -0.00265929221954 0.012808979898
Sb 2.10711114 6.0649389755 1.8717061504 -2.57110337382e-07 0.00531909865975 0.012808979898
Sb 4.1988356643 2.4419606973 1.8717064404 0.00460664591487 -0.00265954932988 0.0128087227877
Sb -2.10711114 6.08270078 1.8656949285 2.57110337382e-07 -2.57110337382e-07 0.013358424689
Sb -0.0058374066 0.0033702358 18.8107890213 -0.00197640716345 0.0011410556773 -0.0217386790256
Sb 2.10710819 3.64962011 18.8961065518 0 -2.57110337382e-07 -0.0307478252475
Sb 4.2200552366 0.0033693958 18.8107892713 0.00197640716345 0.00114131278764 -0.0217386790256
Sb 6.32132747 3.6428796484 18.8107892713 -0 -0.00228236846494 -0.0217386790256
Sb 0.0451426926 -0.0260631622 12.2763752169 0.00615727835962 -0.00355480752464 0.0226141397244
Sb 2.10710964 3.64961928 11.1008052563 -0 -2.57110337382e-07 -0.0475594988778
Sb 4.1690751374 -0.0260623222 12.2763749769 -0.00615727835962 -0.00355480752464 0.0226138826141
Sb -2.10710964 3.7017455944 12.2763749769 2.57110337382e-07 0.00710961504928 0.0226138826141
Sb 2.10710669 1.2133205566 29.2143299691 2.57110337382e-07 0.000332700776572 -0.0132504383473
Sb 4.217004745 4.8677711967 29.2143299691 -0.000287963577867 -0.000166607498623 -0.013250181237
Sb 6.32132897 1.21653861 29.1639539109 -2.57110337382e-07 2.57110337382e-07 -0.0100828389908
Sb -0.002786925 4.8677686267 29.2143296791 0.000287963577867 -0.000166350388286 -0.0132499241266
Sb 2.10710745 1.2169037059 22.4589391916 2.57110337382e-07 -0.00235770179379 0.0168744085527
Sb 4.2139020301 4.8659789621 22.4589391916 0.00204197029948 0.00117859378656 0.0168744085527
Sb 6.32132821 1.21653905 22.5946332089 -2.57110337382e-07 2.57110337382e-07 0.0126341448686
Sb 0.0003157999 4.8659772621 22.4589388116 -0.00204197029948 0.00117885089689 0.016874665663
Cr 2.10710877 3.64961978 13.4540265901 -0 -2.57110337382e-07 -0.0249463875948
61
Lattice="8.42843558953 0 0 -4.21421779477 7.29923593142 0 0 0 31.0334408416" Properties=species:S:1:pos:R:3:forces:R:3 energy=-133599.154559 ionic_step=23 pbc="T T T"
Te 2.1071096 1.1951130208 3.4608973629 -2.57110337382e-07 0.00563457304372 0.0421689235443
Te 4.232774385 4.8768724396 3.4608973629 -0.00487969709317 -0.00281741507703 0.0421689235443
Te 6.32132606 1.21654029 3.3679433091 2.57110337382e-07 0 -0.00798610418941
Te -0.018556555 4.8768732296 3.4608973729 0.00487969709317 -0.00281767218737 0.0421689235443
Te -0.4076226973 0.2353411851 7.0997673146 0.015732324434 -0.00908293688868 -0.0293272906334
Te 2.10710848 3.64961994 7.3124768279 2.57110337382e-07 -5.14220674763e-07 -0.0586036734201
Te 4.6218405273 0.2353406951 7.0997671246 -0.015732324434 -0.00908293688868 -0.0293270335231
Te -2.10710848 3.1789375698 7.0997671246 -0 0.0181661308877 -0.0293270335231
Te -0.0139440099 0.0080505764 -0.0007986066 0.00618427494504 -0.00357023414488 -0.0038358291234
Te 2.10710891 3.6496197 -0.0043733511 -0 -2.57110337382e-07 0.00514580629236
Te 4.2281618299 0.0080505764 -0.0007986066 -0.00618427494504 -0.00357023414488 -0.0038358291234
Te -2.10710891 3.6335185372 -0.0007986066 0 0.0071407254001 -0.0038358291234
Te 0.0126325844 2.4403734745 13.9104303304 -0.00393687348599 -0.00227285538245 -0.0280754204007
Te 2.1071087 6.068112511 13.9104303304 0 0.00454571076491 -0.0280754204007
Te 4.2015852456 2.4403732245 13.9104307204 0.00393687348599 -0.00227259827212 -0.0280756775111
Te -2.1071087 6.08269937 13.9947929225 -0 -2.57110337382e-07 -0.0096010142185
Te 2.10710913 1.2537562612 17.2728447282 -0 -0.00161568136011 -0.00288709197846
Te 4.1819876413 4.8475512244 17.2728447282 0.00139945156637 0.000807840680053 -0.00288709197846
Te 6.32132652 1.21654002 17.217945451 0 2.57110337382e-07 0.00243612044669
Te 0.0322301887 4.8475514744 17.2728443482 -0.00139945156637 0.000807840680053 -0.00288709197846
Te 2.10710868 0.6488061841 10.20090413 0 0.0115907911195 0.0637844467183
Te 4.7058892886 5.1500266529 10.20090413 -0.0100378446817 -0.00579552411492 0.0637847038286
Te 6.32132698 1.21653976 10.7095255871 -0 2.57110337382e-07 0.0182144676311
Te -0.4916714586 5.1500263829 10.20090455 0.0100378446817 -0.00579552411492 0.0637847038286
Te 0.0546163774 -0.0315327953 24.0911823361 -0.0173562333249 0.0100208753994 0.00404640248971
Te 2.10710934 3.64961945 24.0572482729 -2.57110337382e-07 -2.57110337382e-07 0.0018185414163
Te 4.1596014426 -0.0315322953 24.0911825261 0.0173562333249 0.0100206182891 0.00404640248971
Te -2.10710934 3.7126850406 24.0911825261 2.57110337382e-07 -0.0200414936886 0.00404640248971
Te 0.0238120394 2.4468284838 27.5895122732 -0.00825864114704 -0.00476811120674 -0.00736903937969
Te 2.10710823 6.0552033124 27.5895122732 2.57110337382e-07 0.00953622241348 -0.00736903937969
Te 4.1904057906 2.4468276938 27.5895122632 0.00825864114704 -0.0047678540964 -0.00736903937969
Te -2.10710823 6.0826991 27.5977040933 -2.57110337382e-07 -0 0.00268268926024
Te -0.0403174119 2.409802243 20.6628037978 0.00967274800263 0.0055849507486 0.0011472263254
Te 2.10710915 6.129254194 20.6628037978 -0 -0.0111693872765 0.0011472263254
Te 4.2545352419 2.409802513 20.6628033678 -0.00967274800263 0.0055849507486 0.0011472263254
Te -2.10710915 6.08269963 20.624296962 0 -2.57110337382e-07 0.000194632525398
Sb 0.0609974043 2.4682950015 8.9551844424 -0.0010096722949 -0.000582354914169 0.00509078468016
Sb 2.10711038 6.0122665471 8.9551844424 -2.57110337382e-07 0.00116573826969 0.00509078468016
Sb 4.1532204257 2.4682966915 8.9551848324 0.0010096722949 -0.000582612024507 0.00509078468016
Sb -2.10711038 6.08270034 7.6320456595 2.57110337382e-07 -2.57110337382e-07 -0.0370418863066
Sb 0.0164604715 2.4425806877 1.8688518346 -0.0046680952855 -0.00269451633576 0.0124014600133
Sb 2.10711114 6.0636938546 1.8688518346 -2.57110337382e-07 0.00539006111287 0.0124014600133
Sb 4.1977573585 2.4425832577 1.8688521246 0.0046680952855 -0.00269503055643 0.0124012029029
Sb -2.10711114 6.08270078 1.8612782304 2.57110337382e-07 -2.57110337382e-07 0.013190017418
Sb -0.0064456381 0.0037213986 18.8155936681 -0.00188513299368 0.00108834805814 -0.0214769407022
Sb 2.10710819 3.64962011 18.9010983538 0 -2.57110337382e-07 -0.0301395021892
Sb 4.2206634681 0.0037205586 18.8155939181 0.00188513299368 0.00108860516847 -0.0214766835918
Sb 6.32132747 3.6421773228 18.8155939181 -0 -0.00217695322661 -0.0214766835918
Sb 0.0451372696 -0.0260600312 12.2665099799 0.00605392000399 -0.00349515792637 0.0211732933937
Sb 2.10710964 3.64961928 11.0116267786 -0 -2.57110337382e-07 -0.0564799420333
Sb 4.1690805604 -0.0260591912 12.2665097399 -0.00605392000399 -0.00349515792637 0.0211732933937
Sb -2.10710964 3.7017393325 12.2665097399 2.57110337382e-07 0.00699031585273 0.0211732933937
Sb 2.10710669 1.211163949 29.2147362204 2.57110337382e-07 0.000569756507638 -0.0137348342229
Sb 4.2188724212 4.8688495005 29.2147362204 -0.000493137627098 -0.000285135364156 -0.0137348342229
Sb 6.32132897 1.21653861 29.1641624861 -2.57110337382e-07 2.57110337382e-07 -0.0104201677534
Sb -0.0046546012 4.8688469305 29.2147359304 0.000493137627098 -0.000284878253819 -0.0137345771126
Sb 2.10710745 1.2147480032 22.4620004597 2.57110337382e-07 -0.00212964492453 0.0173752594899
Sb 4.2157689225 4.8670568134 22.4620004597 0.00184450956038 0.0010646939071 0.0173755166003
Sb 6.32132821 1.21653905 22.5951079721 -2.57110337382e-07 2.57110337382e-07 0.0130542631599
Sb -0.0015510925 4.8670551134 22.4620000797 -0.00184450956038 0.0010646939071 0.0173755166003
Cr 2.10710877 3.64961978 13.40087339 -0 -2.57110337382e-07 -0.0279103555641
61
Lattice="8.42843558953 0 0 -4.21421779477 7.29923593142 0 0 0 31.0334408416" Properties=species:S:1:pos:R:3:forces:R:3 energy=-133599.188229 ionic_step=24 pbc="T T T"
Te 2.1071096 1.194766755 3.4620309062 -2.57110337382e-07 0.00548236372399 0.0425180793825
Te 4.2330742599 4.8770455725 3.4620309062 -0.00474779949009 -0.00274131041716 0.0425180793825
Te 6.32132606 1.21654029 3.3727068447 2.57110337382e-07 0 -0.00618633182774
Te -0.0188564299 4.8770463625 3.4620309162 0.00474779949009 -0.0027415675275 0.0425180793825
Te -0.4029289607 0.2326312537 7.1131284489 0.0163573596642 -0.00944366269203 -0.030672749029
Te 2.10710848 3.64961994 7.3021174465 2.57110337382e-07 -5.14220674763e-07 -0.0588157894484
Te 4.6171467907 0.2326307637 7.1131282589 -0.0163573596642 -0.00944366269203 -0.0306724919186
Te -2.10710848 3.1843574326 7.1131282589 -0 0.0188875824944 -0.0306724919186
Te -0.0136879925 0.0079027647 0.0001969924 0.00604774935589 -0.00349130127131 -0.00353912379406
Te 2.10710891 3.6496197 -0.0052963206 -0 -2.57110337382e-07 0.00561811798213
Te 4.2279058125 0.0079027647 0.0001969924 -0.00604774935589 -0.00349130127131 -0.00353912379406
Te -2.10710891 3.6338141607 0.0001969924 0 0.00698285965295 -0.00353912379406
Te 0.0095644855 2.4386021059 13.9194244427 -0.00322519207212 -0.00186199306332 -0.028601468151
Te 2.1071087 6.0716552481 13.9194244427 0 0.00372398612664 -0.028601468151
Te 4.2046533445 2.4386018559 13.9194248327 0.00322519207212 -0.00186173595298 -0.028601468151
Te -2.1071087 6.08269937 13.9938418769 -0 -2.57110337382e-07 -0.0111007388165
Te 2.10710913 1.2568852129 17.2735136112 -0 -0.00292437297738 -0.00235410224907
Te 4.179277891 4.8459867485 17.2735136112 0.00253279393355 0.00146218648869 -0.00235410224907
Te 6.32132652 1.21654002 17.2199473712 0 2.57110337382e-07 0.00340079843255
Te 0.034939939 4.8459869985 17.2735132312 -0.00253279393355 0.00146218648869 -0.00235384513873
Te 2.10710868 0.6553697911 10.1926253478 0 0.0126454577234 0.0650936525563
Te 4.7002050409 5.1467448495 10.1926253478 -0.0109511006001 -0.00632285741689 0.0650939096666
Te 6.32132698 1.21653976 10.6976323206 -0 2.57110337382e-07 0.0204577553248
Te -0.4859872109 5.1467445795 10.1926257678 0.0109511006001 -0.00632285741689 0.0650939096666
Te 0.0560416528 -0.0323556788 24.0909938453 -0.0177884358021 0.010270529537 0.0044266686787
Te 2.10710934 3.64961945 24.053462011 -2.57110337382e-07 -2.57110337382e-07 0.00287192246855
Te 4.1581761672 -0.0323551788 24.0909940353 0.0177884358021 0.0102702724267 0.0044266686787
Te -2.10710934 3.7143308077 24.0909940353 2.57110337382e-07 -0.0205405448534 0.0044266686787
Te 0.0230373251 2.4463812021 27.5916267316 -0.0079578220523 -0.00459430461867 -0.00802441362968
Te 2.10710823 6.0560978758 27.5916267316 2.57110337382e-07 0.00918860923734 -0.00802441362968
Te 4.1911805049 2.4463804121 27.5916267216 0.0079578220523 -0.00459404750833 -0.00802441362968
Te -2.10710823 6.0826991 27.5993942738 -2.57110337382e-07 -0 0.00253150838186
Te -0.0401586052 2.4098939302 20.663492687 0.00948094369095 0.00547413619319 0.00104026842505
Te 2.10710915 6.1290708197 20.663492687 -0 -0.0109477581657 0.00104026842505
Te 4.2543764352 2.4098942002 20.663492257 -0.00948094369095 0.00547413619319 0.00104052553538
Te -2.10710915 6.08269963 20.6250890627 0 -2.57110337382e-07 -0.000412919201835
Sb 0.0651745966 2.4707067056 8.9521610468 -0.00146732869544 -0.000846664340998 0.00501416579962
Sb 2.10711038 6.0074431387 8.9521610468 -2.57110337382e-07 0.00169410001301 0.00501390868928
Sb 4.1490432334 2.4707083956 8.9521614368 0.0014670715851 -0.000846921451335 0.00501416579962
Sb -2.10711038 6.08270034 7.6314803562 2.57110337382e-07 -2.57110337382e-07 -0.037071196885
Sb 0.0158351431 2.442219654 1.8713137772 -0.00450662999363 -0.00260144239363 0.0117759105624
Sb 2.10711114 6.064415922 1.8713137772 -2.57110337382e-07 0.00520339900793 0.0117759105624
Sb 4.1983826869 2.442222224 1.8713140672 0.00450662999363 -0.00260169950396 0.0117756534521
Sb -2.10711114 6.08270078 1.8628335392 2.57110337382e-07 -2.57110337382e-07 0.0125834941321
Sb -0.0068258293 0.0039409022 18.8139324583 -0.00179180194121 0.00103461199762 -0.0210563081902
Sb 2.10710819 3.64962011 18.8987284306 0 -2.57110337382e-07 -0.0295728310056
Sb 4.2210436593 0.0039400622 18.8139327083 0.00179180194121 0.00103461199762 -0.0210560510799
Sb 6.32132747 3.6417383156 18.8139327083 -0 -0.00206922399525 -0.0210560510799
Sb 0.0463171199 -0.0267412184 12.2653712536 0.0059294786007 -0.0034231670319 0.0206595869396
Sb 2.10710964 3.64961928 10.9911569118 -0 -2.57110337382e-07 -0.0582028384041
Sb 4.1679007101 -0.0267403784 12.2653710136 -0.0059294786007 -0.00342342414224 0.0206595869396
Sb -2.10710964 3.7031017069 12.2653710136 2.57110337382e-07 0.00684659117414 0.0206595869396
Sb 2.10710669 1.2106028209 29.2101192973 2.57110337382e-07 0.000649460712226 -0.0134957216092
Sb 4.2193583721 4.8691300645 29.2101192973 -0.000562300307854 -0.00032498746645 -0.0134957216092
Sb 6.32132897 1.21653861 29.1609698297 -2.57110337382e-07 2.57110337382e-07 -0.0102535602548
Sb -0.0051405521 4.8691274945 29.2101190073 0.000562300307854 -0.000324730356113 -0.0134954644988
Sb 2.10710745 1.213864936 22.4681822027 2.57110337382e-07 -0.00202474390688 0.0171209773662
Sb 4.2165336808 4.867498347 22.4681822027 0.00175374961128 0.00101224339827 0.0171212344766
Sb 6.32132821 1.21653905 22.5967376947 -2.57110337382e-07 2.57110337382e-07 0.0127393029966
Sb -0.0023158508 4.867496647 22.4681818227 -0.00175374961128 0.00101250050861 0.0171212344766
Cr 2.10710877 3.64961978 13.3898729641 -0 -2.57110337382e-07 -0.028304248601
61
Lattice="8.42843558953 0 0 -4.21421779477 7.29923593142 0 0 0 31.0334408416" Properties=species:S:1:pos:R:3:forces:R:3 energy=-133599.206806 ionic_step=25 pbc="T T T"
Te 2.1071096 1.1944830289 3.4628478725 -2.57110337382e-07 0.00541808613964 0.043038213595
Te 4.2333199738 4.8771874356 3.4628478725 -0.00469200654688 -0.00270891451465 0.043038213595
Te 6.32132606 1.21654029 3.3736558695 2.57110337382e-07 0 -0.00546950820712
Te -0.0191021438 4.8771882256 3.4628478825 0.00469200654688 -0.00270942873533 0.043038213595
Te -0.4079370056 0.2355226511 7.1222104692 0.015664447305 -0.00904359900706 -0.0314656773094
Te 2.10710848 3.64961994 7.3012932868 2.57110337382e-07 -5.14220674763e-07 -0.0582540033612
Te 4.6221548356 0.2355221611 7.1222102792 -0.015664447305 -0.00904359900706 -0.0314656773094
Te -2.10710848 3.1785746378 7.1222102792 -0 0.0180877122348 -0.0314656773094
Te -0.0137056124 0.0079129375 0.0006064426 0.00606960373457 -0.00350415678817 -0.00347330354769
Te 2.10710891 3.6496197 -0.0059160514 -0 -2.57110337382e-07 0.00590505311864
Te 4.2279234324 0.0079129375 0.0006064426 -0.00606960373457 -0.00350415678817 -0.00347330354769
Te -2.10710891 3.633793815 0.0006064426 0 0.00700831357635 -0.00347330354769
Te 0.0106463445 2.4392267178 13.9228918071 -0.00356020684172 -0.00205534003703 -0.0289629652854
Te 2.1071087 6.0704060244 13.9228918071 0 0.00411068007406 -0.0289629652854
Te 4.2035714855 2.4392264678 13.9228921971 0.00356020684172 -0.00205508292669 -0.0289632223957
Te -2.1071087 6.08269937 13.9950467908 -0 -2.57110337382e-07 -0.0116681813311
Te 2.10710913 1.2583934955 17.2746643962 -0 -0.00365739454925 -0.00190904425506
Te 4.1779716806 4.8452326073 17.2746643962 0.00316759935654 0.0018288258298 -0.00190904425506
Te 6.32132652 1.21654002 17.2202994035 0 2.57110337382e-07 0.00368053447962
Te 0.0362461495 4.8452328573 17.2746640162 -0.00316759935654 0.00182856871946 -0.00190878714472
Te 2.10710868 0.6495404249 10.1876706697 0 0.0119057512828 0.0654338095326
Te 4.7052534177 5.1496595326 10.1876706697 -0.0103106387497 -0.00595313275173 0.0654340666429
Te 6.32132698 1.21653976 10.6967975798 -0 2.57110337382e-07 0.0215769566234
Te -0.4910355877 5.1496592626 10.1876710897 0.0103106387497 -0.00595313275173 0.0654340666429
Te 0.057409234 -0.0331452526 24.0907839305 -0.0181918419214 0.0105032143924 0.00465626820998
Te 2.10710934 3.64961945 24.0511606021 -2.57110337382e-07 -2.57110337382e-07 0.0033956562258
Te 4.156808586 -0.0331447526 24.0907841205 0.0181918419214 0.0105032143924 0.00465601109964
Te -2.10710934 3.7159099552 24.0907841205 2.57110337382e-07 -0.0210064287848 0.00465601109964
Te 0.0229992171 2.4463592004 27.5925058082 -0.00793262523924 -0.00457990643978 -0.00839413829484
Te 2.10710823 6.0561418791 27.5925058082 2.57110337382e-07 0.00915981287956 -0.00839413829484
Te 4.1912186129 2.4463584104 27.5925057982 0.00793262523924 -0.00457964932944 -0.0083938811845
Te -2.10710823 6.0826991 27.5998038583 -2.57110337382e-07 -0 0.00257573135989
Te -0.0407848862 2.4095323465 20.6640718787 0.00955036348204 0.00551424540582 0.00103178378391
Te 2.10710915 6.129793987 20.6640718787 -0 -0.0110282337013 0.00103178378391
Te 4.2550027162 2.4095326165 20.6640714487 -0.00955036348204 0.00551424540582 0.00103178378391
Te -2.10710915 6.08269963 20.6247392513 0 -2.57110337382e-07 -0.000541731480863
Sb 0.0676031467 2.4721088304 8.9573713966 -0.00154600445868 -0.000892172870714 0.00539108955422
Sb 2.10711038 6.0046388892 8.9573713966 -2.57110337382e-07 0.00178511707244 0.00539108955422
Sb 4.1466146833 2.4721105204 8.9573717866 0.00154600445868 -0.000892429981052 0.00539108955422
Sb -2.10711038 6.08270034 7.6209931526 2.57110337382e-07 -2.57110337382e-07 -0.0374321797987
Sb 0.0158100705 2.4422051783 1.8737418537 -0.00449994512485 -0.00259758573857 0.011386902622
Sb 2.10711114 6.0644448734 1.8737418537 -2.57110337382e-07 0.00519568569781 0.0113871597323
Sb 4.1984077595 2.4422077483 1.8737421437 0.00449994512485 -0.0025978428489 0.0113866455116
Sb -2.10711114 6.08270078 1.8649610245 2.57110337382e-07 -2.57110337382e-07 0.0121775169094
Sb -0.0070729908 0.0040836011 18.8116001196 -0.00177303288658 0.00102381336345 -0.0208382786241
Sb 2.10710819 3.64962011 18.8978866965 0 -2.57110337382e-07 -0.0293681711771
Sb 4.2212908208 0.0040827611 18.8116003696 0.00177303288658 0.00102381336345 -0.0208380215138
Sb 6.32132747 3.6414529179 18.8116003696 -0 -0.00204762672691 -0.0208380215138
Sb 0.0476086404 -0.0274868785 12.2683464055 0.0057032215038 -0.00329255498051 0.020428187636
Sb 2.10710964 3.64961928 10.9686400584 -0 -2.57110337382e-07 -0.0596930499196
Sb 4.1666091896 -0.0274860385 12.2683461655 -0.00570296439346 -0.00329255498051 0.020428187636
Sb -2.10710964 3.704593027 12.2683461655 2.57110337382e-07 0.00658510996102 0.020428187636
Sb 2.10710669 1.2102546277 29.2078862743 2.57110337382e-07 0.000692141028231 -0.0132422108165
Sb 4.2196599161 4.8693041611 29.2078862743 -0.000599324196437 -0.000346327624453 -0.0132419537062
Sb 6.32132897 1.21653861 29.1587345473 -2.57110337382e-07 2.57110337382e-07 -0.00999902102077
Sb -0.0054420961 4.8693015911 29.2078859843 0.000599324196437 -0.000346070514116 -0.0132416965958
Sb 2.10710745 1.2134976548 22.4696291814 2.57110337382e-07 -0.00202757212059 0.0169194028617
Sb 4.2168517555 4.8676819876 22.4696291814 0.00175606360432 0.00101352894996 0.0169194028617
Sb 6.32132821 1.21653905 22.5986581523 -2.57110337382e-07 2.57110337382e-07 0.0124253712746
Sb -0.0026339255 4.8676802876 22.4696288014 -0.00175606360432 0.0010137860603 0.0169194028617
Cr 2.10710877 3.64961978 13.3677740209 -0 -2.57110337382e-07 -0.0293123782339
61
Lattice="8.42843558953 0 0 -4.21421779477 7.29923593142 0 0 0 31.0334408416" Properties=species:S:1:pos:R:3:forces:R:3 energy=-133599.259313 ionic_step=26 pbc="T T T"
Te 2.1071096 1.1940323017 3.4650104964 -2.57110337382e-07 0.00487686887945 0.0433894263158
Te 4.2337103147 4.8774127991 3.4650104964 -0.00422329440183 -0.00243843443973 0.0433894263158
Te 6.32132606 1.21654029 3.3812472785 2.57110337382e-07 0 -0.00354143778709
Te -0.0194924847 4.8774135891 3.4650105064 0.00422329440183 -0.00243869155006 0.0433894263158
Te -0.4106382157 0.2370821962 7.142757391 0.0155117237646 -0.00895541016134 -0.0330970424001
Te 2.10710848 3.64961994 7.2742622923 2.57110337382e-07 -5.14220674763e-07 -0.0574014254825
Te 4.6248560457 0.2370817062 7.142757201 -0.0155117237646 -0.00895541016134 -0.0330967852898
Te -2.10710848 3.1754555476 7.142757201 -0 0.0179113345434 -0.0330967852898
Te -0.0133487097 0.0077068795 0.0018661951 0.00587857075389 -0.00339385645344 -0.00302310334693
Te 2.10710891 3.6496197 -0.007164472 -0 -2.57110337382e-07 0.00657791087157
Te 4.2275665297 0.0077068795 0.0018661951 -0.00587857075389 -0.00339385645344 -0.00302310334693
Te -2.10710891 3.6342059309 0.0018661951 0 0.00678771290688 -0.00302310334693
Te 0.0115273294 2.4397353549 13.9364346637 -0.00434182226736 -0.00250656867913 -0.0299646671598
Te 2.1071087 6.0693887502 13.9364346637 0 0.0050133944686 -0.0299646671598
Te 4.2026905006 2.4397351049 13.9364350537 0.00434182226736 -0.00250656867913 -0.0299646671598
Te -2.1071087 6.08269937 13.9867795023 -0 -2.57110337382e-07 -0.0125636966362
Te 2.10710913 1.2629363948 17.2756459276 -0 -0.00591610886315 -0.000866204726639
Te 4.1740374162 4.8429611576 17.2756459276 0.00512369480334 0.00295805443158 -0.000866204726639
Te 6.32132652 1.21654002 17.2226114939 0 2.57110337382e-07 0.00489126705835
Te 0.0401804138 4.8429614076 17.2756455476 -0.00512369480334 0.00295805443158 -0.000865947616301
Te 2.10710868 0.6550204562 10.1766540731 0 0.0132100720243 0.0655608220393
Te 4.7005075736 5.1469195169 10.1766540731 -0.0114403815721 -0.00660516456733 0.0655608220393
Te 6.32132698 1.21653976 10.6756616733 -0 2.57110337382e-07 0.0257943374875
Te -0.4862897436 5.1469192469 10.1766544931 0.0114403815721 -0.00660516456733 0.0655608220393
Te 0.0595935778 -0.0344063846 24.0927134303 -0.0188235620204 0.0108680539611 0.00513115100313
Te 2.10710934 3.64961945 24.047712576 -2.57110337382e-07 -2.57110337382e-07 0.00485527161111
Te 4.1546242422 -0.0344058846 24.0927136203 0.0188235620204 0.0108677968508 0.00513089389279
Te -2.10710934 3.7184322193 24.0927136203 2.57110337382e-07 -0.0217358508119 0.00513089389279
Te 0.0218958889 2.4457221933 27.5955122974 -0.00749502344501 -0.00432716697813 -0.00916341242428
Te 2.10710823 6.0574158934 27.5955122974 2.57110337382e-07 0.00865433395627 -0.00916341242428
Te 4.1923219411 2.4457214033 27.5955122874 0.00749502344501 -0.0043269098678 -0.00916341242428
Te -2.10710823 6.0826991 27.6014846473 -2.57110337382e-07 -0 0.00264977913706
Te -0.0413727525 2.4091929416 20.6673303707 0.00951282537278 0.00549264813748 0.00083072350008
Te 2.10710915 6.1304727968 20.6673303707 -0 -0.0109847820543 0.00083072350008
Te 4.2555905825 2.4091932116 20.6673299407 -0.00951282537278 0.00549264813748 0.00083072350008
Te -2.10710915 6.08269963 20.6267380755 0 -2.57110337382e-07 -0.00121716033716
Sb 0.0701964412 2.4736060704 8.9491478592 -0.00208079396043 -0.00120096238591 0.00538980400253
Sb 2.10711038 6.0016444093 8.9491478592 -2.57110337382e-07 0.00240269610283 0.00538980400253
Sb 4.1440213888 2.4736077604 8.9491482492 0.00208079396043 -0.00120121949625 0.00538980400253
Sb -2.10711038 6.08270034 7.6225452549 2.57110337382e-07 -2.57110337382e-07 -0.0375440227955
Sb 0.0144103354 2.4413970405 1.881950526 -0.00421378131935 -0.00243226379163 0.0101671711814
Sb 2.10711114 6.066061149 1.881950526 -2.57110337382e-07 0.00486529891427 0.0101671711814
Sb 4.1998074946 2.4413996105 1.881950816 0.00421378131935 -0.0024327780123 0.0101669140711
Sb -2.10711114 6.08270078 1.8718367339 2.57110337382e-07 -2.57110337382e-07 0.0108508275685
Sb -0.0075467872 0.0043571476 18.8042069005 -0.00167404540669 0.000966477758218 -0.0201098850383
Sb 2.10710819 3.64962011 18.8923125354 0 -2.57110337382e-07 -0.0285593020557
Sb 4.2217646172 0.0043563076 18.8042071505 0.00167404540669 0.000966734868555 -0.020109627928
Sb 6.32132747 3.6409058247 18.8042071505 -0 -0.00193321262677 -0.020109627928
Sb 0.0499134873 -0.0288175831 12.27647069 0.0053435241418 -0.0030848098279 0.0200124402204
Sb 2.10710964 3.64961928 10.942230465 -0 -2.57110337382e-07 -0.060671097643
Sb 4.1643043427 -0.0288167431 12.27647045 -0.0053435241418 -0.00308506693824 0.0200124402204
Sb -2.10710964 3.7072544361 12.27647045 2.57110337382e-07 0.00617013387648 0.0200124402204
Sb 2.10710669 1.2098217271 29.1984264351 2.57110337382e-07 0.000775187667206 -0.0123847478413
Sb 4.2200348189 4.8695206115 29.1984264351 -0.000671057980566 -0.000387979499109 -0.0123847478413
Sb 6.32132897 1.21653861 29.1515252795 -2.57110337382e-07 2.57110337382e-07 -0.00931973550941
Sb -0.0058169989 4.8695180415 29.1984261451 0.000671057980566 -0.000387465278434 -0.012384490731
Sb 2.10710745 1.2123172317 22.4785060048 2.57110337382e-07 -0.00195301012275 0.0161179899401
Sb 4.2178740315 4.8682721992 22.4785060048 0.00169152890963 0.000976247951038 0.0161179899401
Sb 6.32132821 1.21653905 22.6033319013 -2.57110337382e-07 2.57110337382e-07 0.0113946159321
Sb -0.0036562015 4.8682704992 22.4785056248 -0.00169152890963 0.000976505061375 0.0161179899401
Cr 2.10710877 3.64961978 13.3339987407 -0 -2.57110337382e-07 -0.0301677843263
61
Lattice="8.42843558953 0 0 -4.21421779477 7.29923593142 0 0 0 31.0334408416" Properties=species:S:1:pos:R:3:forces:R:3 energy=-133599.287771 ionic_step=27 pbc="T T T"
Te 2.1071096 1.193460911 3.4685814648 -2.57110337382e-07 0.00449480291811 0.0436719905766
Te 4.2342051534 4.8776984945 3.4685814648 -0.00389265050796 -0.00224740145905 0.0436719905766
Te 6.32132606 1.21654029 3.3869487089 2.57110337382e-07 0 -0.00266186332291
Te -0.0199873234 4.8776992845 3.4685814748 0.00389265050796 -0.00224765856939 0.0436719905766
Te -0.4215541921 0.2433845411 7.1608428348 0.0140870753851 -0.00813291419206 -0.034023668056
Te 2.10710848 3.64961994 7.2577290846 2.57110337382e-07 -5.14220674763e-07 -0.0553278306115
Te 4.6357720221 0.2433840511 7.1608426448 -0.0140870753851 -0.00813291419206 -0.034023668056
Te -2.10710848 3.1628508579 7.1608426448 -0 0.0162663426048 -0.034023668056
Te -0.0132224813 0.0076340015 0.002811541 0.00584463218936 -0.00337405895746 -0.0027904184916
Te 2.10710891 3.6496197 -0.0081824065 -0 -2.57110337382e-07 0.00717672084733
Te 4.2274403013 0.0076340015 0.002811541 -0.00584463218936 -0.00337405895746 -0.0027904184916
Te -2.10710891 3.634351687 0.002811541 0 0.00674863213559 -0.0027904184916
Te 0.0172656261 2.4430483636 13.946041379 -0.00627940576987 -0.00362525575708 -0.0311499458151
Te 2.1071087 6.0627627328 13.946041379 0 0.0072507686245 -0.0311499458151
Te 4.1969522039 2.4430481136 13.946041769 0.00627940576987 -0.00362525575708 -0.0311499458151
Te -2.1071087 6.08269937 13.9842338414 -0 -2.57110337382e-07 -0.0133154872627
Te 2.10710913 1.2665728656 17.2763996515 -0 -0.00784186529014 0.000474368572469
Te 4.1708881416 4.8411429222 17.2763996515 0.00679156956194 0.00392093264507 0.000474368572469
Te 6.32132652 1.21654002 17.221772033 0 2.57110337382e-07 0.00564871411227
Te 0.0433296884 4.8411431722 17.2763992715 -0.00679156956194 0.00392093264507 0.000474625682806
Te 2.10710868 0.6461174219 10.1665558925 0 0.0122631346518 0.0650304034133
Te 4.7082178239 5.1513710341 10.1665558925 -0.0106201995959 -0.00613156732588 0.0650304034133
Te 6.32132698 1.21653976 10.6670201233 -0 2.57110337382e-07 0.0286642030733
Te -0.4939999939 5.1513707641 10.1665563125 0.0106201995959 -0.00613156732588 0.0650304034133
Te 0.0622549735 -0.0359429429 24.0954747986 -0.0195776666399 0.0113033417623 0.00509772665927
Te 2.10710934 3.64961945 24.045852663 -2.57110337382e-07 -2.57110337382e-07 0.00552710092269
Te 4.1519628465 -0.0359424429 24.0954749886 0.0195776666399 0.011303084652 0.00509746954893
Te -2.10710934 3.7215053358 24.0954749886 2.57110337382e-07 -0.0226064264143 0.00509746954893
Te 0.0214802704 2.4454822357 27.5961987738 -0.00731710309154 -0.00422457995352 -0.00937244312857
Te 2.10710823 6.0578958085 27.5961987738 2.57110337382e-07 0.0084489027967 -0.00937244312857
Te 4.1927375596 2.4454814457 27.5961987638 0.00731710309154 -0.00422432284318 -0.00937218601824
Te -2.10710823 6.0826991 27.6007655549 -2.57110337382e-07 -0 0.0033131238075
Te -0.0429008026 2.408310721 20.67013038 0.00972828383551 0.00561683243044 0.000760789488312
Te 2.10710915 6.132237238 20.67013038 -0 -0.0112334077505 0.000760789488312
Te 4.2571186326 2.408310991 20.67012995 -0.00972828383551 0.00561683243044 0.000760789488312
Te -2.10710915 6.08269963 20.6271901468 0 -2.57110337382e-07 -0.00145961538532
Sb 0.0745036905 2.476092863 8.9528537559 -0.00237209997268 -0.00136911254656 0.00603772205273
Sb 2.10711038 5.9966708239 8.9528537559 -2.57110337382e-07 0.00273899642413 0.00603772205273
Sb 4.1397141395 2.476094553 8.9528541459 0.00237209997268 -0.00136936965689 0.00603772205273
Sb -2.10711038 6.08270034 7.6097253474 2.57110337382e-07 -2.57110337382e-07 -0.0380456450637
Sb 0.0137989923 2.4410440813 1.888973546 -0.0040965390055 -0.0023646437729 0.00929736691006
Sb 2.10711114 6.0667670675 1.888973546 -2.57110337382e-07 0.00473005887681 0.00929736691006
Sb 4.2004188377 2.4410466513 1.888973836 0.0040965390055 -0.00236490088324 0.00929710979972
Sb -2.10711114 6.08270078 1.8778590059 2.57110337382e-07 -2.57110337382e-07 0.00986995163141
Sb -0.0078197742 0.0045147568 18.7975923385 -0.00165887589679 0.000957736006747 -0.0196784538922
Sb 2.10710819 3.64962011 18.8900313558 0 -2.57110337382e-07 -0.0281515250606
Sb 4.2220376042 0.0045139168 18.7975925885 0.00165887589679 0.000957993117084 -0.0196781967818
Sb 6.32132747 3.6405906063 18.7975925885 -0 -0.00191572912383 -0.0196781967818
Sb 0.0510860452 -0.02949456 12.2874836079 0.00499256853128 -0.00288220688205 0.0197203628772
Sb 2.10710964 3.64961928 10.9029418321 -0 -2.57110337382e-07 -0.0617442761912
Sb 4.1631317848 -0.02949372 12.2874833679 -0.00499256853128 -0.00288246399239 0.0197201057668
Sb -2.10710964 3.70860839 12.2874833679 2.57110337382e-07 0.00576467087443 0.0197201057668
Sb 2.10710669 1.2093671273 29.1925303932 2.57110337382e-07 0.000848464113359 -0.0116998059026
Sb 4.2204285137 4.8697479114 29.1925303932 -0.000734564233899 -0.000424489167017 -0.0116995487922
Sb 6.32132897 1.21653861 29.1464230571 -2.57110337382e-07 2.57110337382e-07 -0.0087198970923
Sb -0.0062106937 4.8697453414 29.1925301032 0.000734564233899 -0.00042423205668 -0.0116992916819
Sb 2.10710745 1.211290604 22.4820457971 2.57110337382e-07 -0.00195223879174 0.0155554325219
Sb 4.2187631167 4.868785513 22.4820457971 0.00169075757862 0.000975990840701 0.0155554325219
Sb 6.32132821 1.21653905 22.6078191281 -2.57110337382e-07 2.57110337382e-07 0.0105327820812
Sb -0.0045452867 4.868783813 22.4820454171 -0.00169075757862 0.000975990840701 0.0155556896323
Cr 2.10710877 3.64961978 13.2833358204 -0 -2.57110337382e-07 -0.0321017682841
61
Lattice="8.42843558953 0 0 -4.21421779477 7.29923593142 0 0 0 31.0334408416" Properties=species:S:1:pos:R:3:forces:R:3 energy=-133599.311914 ionic_step=28 pbc="T T T"
Te 2.1071096 1.1930328577 3.4738759741 -2.57110337382e-07 0.00349361526434 0.0425864707322
Te 4.2345758583 4.8779125212 3.4738759741 -0.00302541733997 -0.00174680763217 0.0425864707322
Te 6.32132606 1.21654029 3.3994077146 2.57110337382e-07 0 -0.00244846174289
Te -0.0203580283 4.8779133112 3.4738759841 0.00302541733997 -0.00174706474251 0.0425864707322
Te -0.4251794614 0.2454775923 7.1756502269 0.0138734166948 -0.00800975834045 -0.0343175451717
Te 2.10710848 3.64961994 7.2127856721 2.57110337382e-07 -5.14220674763e-07 -0.0521334917799
Te 4.6393972914 0.2454771023 7.1756500369 -0.0138734166948 -0.00800950123011 -0.0343172880613
Te -2.10710848 3.1586647554 7.1756500369 -0 0.0160195166809 -0.0343172880613
Te -0.0126672425 0.0073134341 0.0040294218 0.00556052526655 -0.00321027967255 -0.00228262557527
Te 2.10710891 3.6496197 -0.0085091356 -0 -2.57110337382e-07 0.00770482548032
Te 4.2268850625 0.0073134341 0.0040294218 -0.00556052526655 -0.00321027967255 -0.00228262557527
Te -2.10710891 3.6349928218 0.0040294218 0 0.00642055934509 -0.00228262557527
Te 0.0254943288 2.4477992095 13.9600002448 -0.00967223378196 -0.00558417941759 -0.0326211311656
Te 2.1071087 6.0532610409 13.9600002448 0 0.0111683588352 -0.0326211311656
Te 4.1887235012 2.4477989595 13.9600006347 0.00967223378196 -0.00558392230725 -0.0326211311656
Te -2.1071087 6.08269937 13.969677029 -0 -2.57110337382e-07 -0.0130444929671
Te 2.10710913 1.2712666516 17.2745980255 -0 -0.0103471484176 0.00188461877301
Te 4.1668232055 4.8387960292 17.2745980255 0.00896106658876 0.00517357420879 0.00188461877301
Te 6.32132652 1.21654002 17.220393133 0 2.57110337382e-07 0.00674194726682
Te 0.0473946245 4.8387962792 17.2745976455 -0.00896106658876 0.00517357420879 0.00188487588334
Te 2.10710868 0.6525071748 10.1579452865 0 0.0140415668554 0.0632095480039
Te 4.7026841381 5.1481761576 10.1579452865 -0.0121602905168 -0.00702091198288 0.0632095480039
Te 6.32132698 1.21653976 10.6402496479 -0 2.57110337382e-07 0.0332834473947
Te -0.4884663081 5.1481758876 10.1579457065 0.0121602905168 -0.00702091198288 0.0632095480039
Te 0.0638544897 -0.0368664245 24.1025357512 -0.0199921285038 0.0115427114864 0.00450945820734
Te 2.10710934 3.64961945 24.0481598804 -2.57110337382e-07 -2.57110337382e-07 0.00584411796868
Te 4.1503633303 -0.0368659245 24.1025359412 0.0199918713934 0.0115424543761 0.004509201097
Te -2.10710934 3.7233522989 24.1025359412 2.57110337382e-07 -0.0230849087521 0.004509201097
Te 0.0200750538 2.4446709332 27.5963245101 -0.00677202917629 -0.00390987690056 -0.0089399835411
Te 2.10710823 6.0595184136 27.5963245101 2.57110337382e-07 0.00781975380112 -0.0089399835411
Te 4.1941427762 2.4446701432 27.5963245001 0.00677202917629 -0.00390961979023 -0.0089399835411
Te -2.10710823 6.0826991 27.5991773128 -2.57110337382e-07 -0 0.00442204069263
Te -0.0440343956 2.4076562405 20.6753104749 0.00988563536199 0.00570784948987 0.000540703039514
Te 2.10710915 6.133546199 20.6753104749 -0 -0.0114151847591 0.000540703039514
Te 4.2582522256 2.4076565105 20.6753100449 -0.00988563536199 0.00570784948987 0.000540703039514
Te -2.10710915 6.08269963 20.6304181728 0 -2.57110337382e-07 -0.00190287360696
Sb 0.0776507782 2.4779098358 8.9362597823 -0.00317402711498 -0.00183191115384 0.00612616800879
Sb 2.10711038 5.9930368783 8.9362597823 -2.57110337382e-07 0.0036645936387 0.00612591089845
Sb 4.1365670518 2.4779115258 8.9362601723 0.00317377000464 -0.00183216826418 0.00612616800879
Sb -2.10711038 6.08270034 7.6240598244 2.57110337382e-07 -2.57110337382e-07 -0.0378587258484
Sb 0.011803617 2.4398920502 1.8980074002 -0.00371395882348 -0.00214378599309 0.00836945570245
Sb 2.10711114 6.0690711296 1.8980074002 -2.57110337382e-07 0.00428808620685 0.00836945570245
Sb 4.202414213 2.4398946202 1.8980076902 0.00371395882348 -0.00214404310343 0.00836919859211
Sb -2.10711114 6.08270078 1.8850830274 2.57110337382e-07 -2.57110337382e-07 0.00874303702266
Sb -0.007711851 0.0044524473 18.7896123873 -0.00165090547633 0.000953108020674 -0.0192290250224
Sb 2.10710819 3.64962011 18.8865427274 0 -2.57110337382e-07 -0.0276416752616
Sb 4.221929681 0.0044516073 18.7896126373 0.00165090547633 0.000953365131011 -0.0192290250224
Sb 6.32132747 3.6407152254 18.7896126373 -0 -0.00190647315168 -0.0192290250224
Sb 0.0491401683 -0.0283711069 12.3023406056 0.00493163338132 -0.00284698276583 0.0196056916667
Sb 2.10710964 3.64961928 10.8873426162 -0 -2.57110337382e-07 -0.0609166380152
Sb 4.1650776617 -0.0283702669 12.3023403656 -0.00493163338132 -0.00284723987616 0.0196054345564
Sb -2.10710964 3.7063614838 12.3023403656 2.57110337382e-07 0.00569447975233 0.0196054345564
Sb 2.10710669 1.2094866091 29.1842657635 2.57110337382e-07 0.00087880313317 -0.010879366816
Sb 4.2203250395 4.8696881705 29.1842657635 -0.000760789488312 -0.000439658676923 -0.0108791097056
Sb 6.32132897 1.21653861 29.1411858827 -2.57110337382e-07 2.57110337382e-07 -0.00816505298423
Sb -0.0061072195 4.8696856005 29.1842654735 0.000760789488312 -0.000439401566585 -0.0108791097056
Sb 2.10710745 1.2097912254 22.4887266598 2.57110337382e-07 -0.00188744698672 0.0148013279024
Sb 4.220061616 4.8695352023 22.4887266598 0.00163470752507 0.000943594938191 0.0148015850127
Sb 6.32132821 1.21653905 22.6122260758 -2.57110337382e-07 2.57110337382e-07 0.00945677531923
Sb -0.005843786 4.8695335023 22.4887262798 -0.00163470752507 0.000943852048528 0.0148015850127
Cr 2.10710877 3.64961978 13.2483666361 -0 -2.57110337382e-07 -0.0321753018406
61
Lattice="8.42843558953 0 0 -4.21421779477 7.29923593142 0 0 0 31.0334408416" Properties=species:S:1:pos:R:3:forces:R:3 energy=-133599.328625 ionic_step=29 pbc="T T T"
Te 2.1071096 1.1925557231 3.4791880336 -2.57110337382e-07 0.00304110107055 0.0417074104887
Te 4.2349890687 4.8781510884 3.4791880336 -0.0026335811858 -0.00152055053527 0.0417074104887
Te 6.32132606 1.21654029 3.4066144161 2.57110337382e-07 0 -0.00338717158467
Te -0.0207712387 4.8781518784 3.4791880436 0.0026335811858 -0.00152080764561 0.0417074104887
Te -0.4322592081 0.2495650878 7.1817558812 0.012954504349 -0.00747908260409 -0.0340876885301
Te 2.10710848 3.64961994 7.1933876157 2.57110337382e-07 -5.14220674763e-07 -0.0487476057469
Te 4.6464770381 0.2495645978 7.1817556912 -0.012954504349 -0.00747908260409 -0.0340876885301
Te -2.10710848 3.1504897644 7.1817556912 -0 0.0149584223185 -0.0340876885301
Te -0.0124825935 0.0072068269 0.0047139329 0.00549933300626 -0.00317479844599 -0.00214687131714
Te 2.10710891 3.6496197 -0.0082215157 -0 -2.57110337382e-07 0.00796630669343
Te 4.2267004135 0.0072068269 0.0047139329 -0.00549933300626 -0.00317479844599 -0.00214687131714
Te -2.10710891 3.6352060362 0.0047139329 0 0.00634959689198 -0.00214687131714
Te 0.0354435615 2.4535434044 13.9653113909 -0.0128161789875 -0.00739937839951 -0.0337246487337
Te 2.1071087 6.0417726512 13.9653113909 0 0.014798756799 -0.0337246487337
Te 4.1787742685 2.4535431544 13.9653117809 0.0128161789875 -0.00739912128917 -0.0337246487337
Te -2.1071087 6.08269937 13.9670676556 -0 -2.57110337382e-07 -0.0129976988857
Te 2.10710913 1.2737672177 17.2731238724 -0 -0.011665096007 0.00307838206947
Te 4.1646576528 4.8375457461 17.2731238724 0.0101026364867 0.0058325480035 0.00307838206947
Te 6.32132652 1.21654002 17.2162103214 0 2.57110337382e-07 0.00704122369953
Te 0.0495601772 4.8375459961 17.2731234924 -0.0101026364867 0.0058325480035 0.00307838206947
Te 2.10710868 0.6438371044 10.1530730713 0 0.0132558376644 0.0618067540032
Te 4.7101926358 5.1525111928 10.1530730713 -0.0114799765641 -0.00662804738736 0.0618070111135
Te 6.32132698 1.21653976 10.634579143 -0 2.57110337382e-07 0.0352385144002
Te -0.4959748058 5.1525109228 10.1530734913 0.0114799765641 -0.00662804738736 0.0618070111135
Te 0.0653892992 -0.0377525475 24.1080743626 -0.0203837075476 0.011768711473 0.00352421139449
Te 2.10710934 3.64961945 24.0512618044 -2.57110337382e-07 -2.57110337382e-07 0.00518205884993
Te 4.1488285208 -0.0377520475 24.1080745526 0.0203834504373 0.0117684543626 0.00352395428415
Te -2.10710934 3.725124545 24.1080745526 2.57110337382e-07 -0.0235371658356 0.00352395428415
Te 0.0197172264 2.4444643413 27.5938847027 -0.00663164693208 -0.00382888714429 -0.00801670031956
Te 2.10710823 6.0599315974 27.5938847027 2.57110337382e-07 0.00765751717824 -0.00801670031956
Te 4.1945006036 2.4444635513 27.5938846927 0.00663164693208 -0.00382863003395 -0.00801670031956
Te -2.10710823 6.0826991 27.595777282 -2.57110337382e-07 -0 0.00576158555038
Te -0.0456596197 2.4067179165 20.6779562236 0.0102134510421 0.00589708269819 0.000540445929176
Te 2.10710915 6.1354228471 20.6779562236 -0 -0.0117936511757 0.000540445929176
Te 4.2598774497 2.4067181865 20.6779557936 -0.0102134510421 0.00589682558785 0.000540445929176
Te -2.10710915 6.08269963 20.6309475702 0 -2.57110337382e-07 -0.00180028658235
Sb 0.0840140011 2.481583646 8.9370324235 -0.00364839568745 -0.00210599077349 0.00674323281851
Sb 2.10711038 5.985689258 8.9370324235 -2.57110337382e-07 0.00421249576766 0.00674323281851
Sb 4.1302038289 2.481585336 8.9370328135 0.00364839568745 -0.00210624788383 0.00674323281851
Sb -2.10711038 6.08270034 7.620529925 2.57110337382e-07 -2.57110337382e-07 -0.0380549010359
Sb 0.0112738094 2.4395861655 1.9016335879 -0.0036136857919 -0.00208593616718 0.00824835673354
Sb 2.10711114 6.0696828989 1.9016335879 -2.57110337382e-07 0.00417264366537 0.00824861384388
Sb 4.2029440206 2.4395887355 1.9016338779 0.0036136857919 -0.00208619327751 0.00824835673354
Sb -2.10711114 6.08270078 1.8876540728 2.57110337382e-07 -2.57110337382e-07 0.00852603589791
Sb -0.0074391885 0.0042950255 18.7864949693 -0.00173215234294 0.00100015921241 -0.019288931731
Sb 2.10710819 3.64962011 18.8889075499 0 -2.57110337382e-07 -0.0277674022165
Sb 4.2216570185 0.0042941855 18.7864952193 0.00173215234294 0.00100015921241 -0.0192886746207
Sb 6.32132747 3.641030069 18.7864952193 -0 -0.00200031842483 -0.0192886746207
Sb 0.0453006776 -0.0261543749 12.3130493353 0.00507998604599 -0.00293260050817 0.0195905221568
Sb 2.10710964 3.64961928 10.8601499114 -0 -2.57110337382e-07 -0.0608482466654
Sb 4.1689171524 -0.0261535349 12.3130490953 -0.00507998604599 -0.00293285761851 0.0195905221568
Sb -2.10710964 3.7019280199 12.3130490953 2.57110337382e-07 0.00586571523702 0.0195902650465
Sb 2.10710669 1.2095104182 29.183428245 2.57110337382e-07 0.000893715532739 -0.0106870482836
Sb 4.2203044201 4.8696762659 29.183428245 -0.000773902115519 -0.000447114876707 -0.0106870482836
Sb 6.32132897 1.21653861 29.1411238324 -2.57110337382e-07 2.57110337382e-07 -0.0080259562917
Sb -0.0060866001 4.8696736959 29.183427955 0.000773902115519 -0.000446857766369 -0.0106867911733
Sb 2.10710745 1.2088323972 22.4877924852 2.57110337382e-07 -0.00190801581371 0.0147005406501
Sb 4.2208919852 4.8700146164 22.4877924852 0.00165244813835 0.000953879351686 0.0147005406501
Sb 6.32132821 1.21653905 22.6145521174 -2.57110337382e-07 2.57110337382e-07 0.00905105520685
Sb -0.0066741552 4.8700129164 22.4877921052 -0.00165244813835 0.000953879351686 0.0147007977605
Cr 2.10710877 3.64961978 13.2149345059 -0 -2.57110337382e-07 -0.0331019274965
61
Lattice="8.42843558953 0 0 -4.21421779477 7.29923593142 0 0 0 31.0334408416" Properties=species:S:1:pos:R:3:forces:R:3 energy=-133599.356452 ionic_step=30 pbc="T T T"
Te 2.1071096 1.1920203959 3.4858071725 -2.57110337382e-07 0.00215021375152 0.0397739407516
Te 4.2354526754 4.878418752 3.4858071725 -0.00186225017366 -0.00107523543093 0.0397739407516
Te 6.32132606 1.21654029 3.4180251735 2.57110337382e-07 0 -0.00532758330088
Te -0.0212348454 4.878419542 3.4858071825 0.00186225017366 -0.00107549254127 0.0397739407516
Te -0.4353501108 0.2513496222 7.1830774514 0.0127066499837 -0.00733612925651 -0.0334240867493
Te 2.10710848 3.64961994 7.1566122725 2.57110337382e-07 -5.14220674763e-07 -0.0432914672773
Te 4.6495679408 0.2513491322 7.1830772614 -0.0127066499837 -0.00733612925651 -0.0334240867493
Te -2.10710848 3.1469206956 7.1830772614 -0 0.014672258513 -0.0334240867493
Te -0.0120373609 0.0069497716 0.0057183837 0.00527307590936 -0.0030441863946 -0.00187124903546
Te 2.10710891 3.6496197 -0.0065404067 -0 -2.57110337382e-07 0.00802929872609
Te 4.2262551809 0.0069497716 0.0057183837 -0.00527307590936 -0.0030441863946 -0.00187124903546
Te -2.10710891 3.6357201468 0.0057183837 0 0.0060883727892 -0.00187124903546
Te 0.0510178415 2.4625352233 13.971297742 -0.017910306102 -0.0103404635488 -0.0350359114543
Te 2.1071087 6.0237890134 13.971297742 0 0.0206809270976 -0.0350359114543
Te 4.1631999885 2.4625349733 13.971298132 0.0179105632123 -0.0103402064385 -0.0350359114543
Te -2.1071087 6.08269937 13.956155538 -0 -2.57110337382e-07 -0.0114871756535
Te 2.10710913 1.2773341549 17.2707411413 -0 -0.0134782381062 0.00424154923578
Te 4.161568596 4.8357622775 17.2707411413 0.0116728093171 0.00673911905311 0.00424154923578
Te 6.32132652 1.21654002 17.2109179189 0 2.57110337382e-07 0.00711501436636
Te 0.052649234 4.8357625275 17.2707407613 -0.0116728093171 0.00673911905311 0.00424154923578
Te 2.10710868 0.6401356344 10.1504334351 0 0.0138543905298 0.0593078986342
Te 4.7133982014 5.1543619278 10.1504334351 -0.0119980538939 -0.00692732382007 0.0593078986342
Te 6.32132698 1.21653976 10.6194933513 -0 2.57110337382e-07 0.0386321137433
Te -0.4991803714 5.1543616578 10.1504338551 0.0119980538939 -0.00692706670974 0.0593078986342
Te 0.0664181432 -0.0383465512 24.1165202365 -0.0205881102658 0.0118867251178 0.00207539464334
Te 2.10710934 3.64961945 24.0575972716 -2.57110337382e-07 -2.57110337382e-07 0.00401477791821
Te 4.1477996768 -0.0383460512 24.1165204265 0.0205881102658 0.0118867251178 0.00207539464334
Te -2.10710934 3.7263125523 24.1165204265 2.57110337382e-07 -0.0237731931253 0.00207539464334
Te 0.0187874276 2.4439275215 27.5909076446 -0.00627323512177 -0.0036219133227 -0.00653857298995
Te 2.10710823 6.061005237 27.5909076446 2.57110337382e-07 0.00724356953505 -0.00653857298995
Te 4.1954304024 2.4439267315 27.5909076346 0.00627323512177 -0.00362165621236 -0.00653857298995
Te -2.10710823 6.0826991 27.592015133 -2.57110337382e-07 -0 0.00742097566785
Te -0.0477022288 2.405538615 20.6821028234 0.0106806205252 0.0061667914421 0.000503936261268
Te 2.10710915 6.13778145 20.6821028234 -0 -0.0123333257739 0.000503936261268
Te 4.2619200588 2.405538885 20.6821023934 -0.0106806205252 0.0061667914421 0.000503936261268
Te -2.10710915 6.08269963 20.6327863396 0 -2.57110337382e-07 -0.00167738784108
Sb 0.0936289657 2.487134851 8.9270782274 -0.00464649801716 -0.00268217503957 0.00726670946542
Sb 2.10711038 5.974586848 8.9270782274 -2.57110337382e-07 0.00536512141014 0.00726670946542
Sb 4.1205888643 2.487136541 8.9270786174 0.00464649801716 -0.0026824321499 0.00726670946542
Sb -2.10711038 6.08270034 7.6332189823 2.57110337382e-07 -2.57110337382e-07 -0.0377587099272
Sb 0.0098897616 2.4387870848 1.9043938247 -0.00335734678553 -0.00193784061285 0.0085355489804
Sb 2.10711114 6.0712810604 1.9043938247 -2.57110337382e-07 0.0038764525567 0.00853580609073
Sb 4.2043280684 2.4387896548 1.9043941147 0.00335734678553 -0.00193809772318 0.00853529187006
Sb -2.10711114 6.08270078 1.8886255033 2.57110337382e-07 -2.57110337382e-07 0.00866436125942
Sb -0.0067644561 0.0039054683 18.7848262442 -0.00188924675908 0.00109066205117 -0.0196180329629
Sb 2.10710819 3.64962011 18.8952903112 0 -2.57110337382e-07 -0.028154096164
Sb 4.2209822861 0.0039046283 18.7848264942 0.00188924675908 0.00109091916151 -0.0196180329629
Sb 6.32132747 3.6418091833 18.7848264942 -0 -0.00218158121268 -0.0196177758526
Sb 0.0357500708 -0.0206403269 12.3261873145 0.00573870273036 -0.00331286669716 0.0195804948536
Sb 2.10710964 3.64961928 10.8401377595 -0 -2.57110337382e-07 -0.0602918598953
Sb 4.1784677592 -0.0206394869 12.3261870745 -0.00573844562002 -0.0033131238075 0.0195804948536
Sb -2.10710964 3.6908999239 12.3261870745 2.57110337382e-07 0.006626247615 0.0195804948536
Sb 2.10710669 1.2101079226 29.184930272 2.57110337382e-07 0.000857720085505 -0.0107245863929
Sb 4.2197869664 4.8693775137 29.184930272 -0.000742534654358 -0.00042911715309 -0.0107243292825
Sb 6.32132897 1.21653861 29.1448003848 -2.57110337382e-07 2.57110337382e-07 -0.00818176515616
Sb -0.0055691464 4.8693749437 29.184929982 0.000742534654358 -0.000428860042753 -0.0107240721722
Sb 2.10710745 1.2074359256 22.4853933489 2.57110337382e-07 -0.00192575642699 0.014797214137
Sb 4.2221013645 4.8707128522 22.4853933489 0.00166787475859 0.000962621103157 0.014797214137
Sb 6.32132821 1.21653905 22.6159417194 -2.57110337382e-07 2.57110337382e-07 0.00872632485073
Sb -0.0078835345 4.8707111522 22.4853929689 -0.00166787475859 0.000962878213494 0.0147974712473
Cr 2.10710877 3.64961978 13.1916907213 -0 -2.57110337382e-07 -0.0330456203326
61
Lattice="8.42843558953 0 0 -4.21421779477 7.29923593142 0 0 0 31.0334408416" Properties=species:S:1:pos:R:3:forces:R:3 energy=-133599.386755 ionic_step=31 pbc="T T T"
Te 2.1071096 1.1911194448 3.4924698809 -2.57110337382e-07 0.000857720085505 0.0370999932428
Te 4.2362329216 4.8788692276 3.4924698809 -0.000742791764696 -0.000428860042753 0.0370999932428
Te 6.32132606 1.21654029 3.4328173402 2.57110337382e-07 0 -0.00799844548561
Te -0.0220150916 4.8788700176 3.4924698909 0.000742534654358 -0.00042911715309 0.0370999932428
Te -0.43618381 0.2518309588 7.1819144315 0.0128274918423 -0.00740580615794 -0.0324128717924
Te 2.10710848 3.64961994 7.1042813383 2.57110337382e-07 -5.14220674763e-07 -0.0343820798664
Te 4.6504016399 0.2518304688 7.1819142415 -0.0128274918423 -0.00740580615794 -0.0324128717924
Te -2.10710848 3.1459580223 7.1819142415 -0 0.0148118694262 -0.0324128717924
Te -0.0113658512 0.0065620751 0.0076221409 0.00485141495605 -0.0028007029051 -0.00143159035854
Te 2.10710891 3.6496197 -0.002238165 -0 -2.57110337382e-07 0.00776550351994
Te 4.2255836712 0.0065620751 0.0076221409 -0.00485141495605 -0.0028007029051 -0.00143159035854
Te -2.10710891 3.6364955398 0.0076221409 0 0.0056014058102 -0.00143159035854
Te 0.0762089011 2.4770792951 13.9781531168 -0.0255894205486 -0.0147738170963 -0.0368426257951
Te 2.1071087 5.9947008697 13.9781531168 0 0.0295478913029 -0.0368426257951
Te 4.1380089289 2.4770790451 13.9781535068 0.0255894205486 -0.0147738170963 -0.0368426257951
Te -2.1071087 6.08269937 13.9345869704 -0 -2.57110337382e-07 -0.00719034769521
Te 2.10710913 1.2837514096 17.2704854392 -0 -0.0165373369004 0.00522371072458
Te 4.156011093 4.8325536502 17.2704854392 0.0143220742335 0.00826866845019 0.00522371072458
Te 6.32132652 1.21654002 17.2057359599 0 2.57110337382e-07 0.00643701440669
Te 0.058206737 4.8325539002 17.2704850592 -0.0143220742335 0.00826866845019 0.00522396783492
Te 2.10710868 0.6337715153 10.1497212 0 0.0149903040004 0.0552368135521
Te 4.7189096877 5.1575439874 10.1497212 -0.0129820151551 -0.00749528055535 0.0552370706624
Te 6.32132698 1.21653976 10.595213565 -0 2.57110337382e-07 0.0441676993071
Te -0.5046918577 5.1575437174 10.1497216201 0.0129820151551 -0.00749528055535 0.0552370706624
Te 0.0679373283 -0.0392236535 24.1260111949 -0.0208686176439 0.0120487046304 0.000651260484588
Te 2.10710934 3.64961945 24.0647640577 -2.57110337382e-07 -2.57110337382e-07 0.00275622281673
Te 4.1462804917 -0.0392231535 24.1260113848 0.0208686176439 0.01204844752 0.00065100337425
Te -2.10710934 3.728066757 24.1260113849 2.57110337382e-07 -0.0240971521504 0.00065100337425
Te 0.0172581943 2.4430446178 27.5896035157 -0.00566465495319 -0.00327044349149 -0.00507124429452
Te 2.10710823 6.0627710443 27.5896035157 2.57110337382e-07 0.00654088698299 -0.00507124429452
Te 4.1969596357 2.4430438278 27.5896035057 0.00566465495319 -0.00327018638116 -0.00507124429452
Te -2.10710823 6.0826991 27.5907054095 -2.57110337382e-07 -0 0.00892095737613
Te -0.0513346223 2.4034414507 20.6876045694 0.0115360266176 0.00666070040021 0.000520134212523
Te 2.10710915 6.1419757786 20.6876045694 -0 -0.0133206294694 0.000520134212523
Te 4.2655524523 2.4034417207 20.6876041394 -0.0115360266176 0.00666044328987 0.000520134212523
Te -2.10710915 6.08269963 20.6351057683 0 -2.57110337382e-07 -0.00155243221711
Sb 0.1126414682 2.4981117295 8.9091442065 -0.00636090974682 -0.00367204983848 0.00802518496069
Sb 2.10711038 5.9526330909 8.9091442065 -2.57110337382e-07 0.00734461389764 0.00802492785036
Sb 4.1015763618 2.4981134195 8.9091445965 0.00636090974682 -0.00367230694882 0.00802518496069
Sb -2.10711038 6.08270034 7.6559671414 2.57110337382e-07 -2.57110337382e-07 -0.0370166894935
Sb 0.0075553255 2.4374392969 1.90431968 -0.00292540141873 -0.00168844358559 0.00960229977019
Sb 2.10711114 6.0739766362 1.90431968 -2.57110337382e-07 0.00337791561252 0.00960229977019
Sb 4.2066625045 2.4374418669 1.90431997 0.00292540141873 -0.00168895780626 0.00960204265985
Sb -2.10711114 6.08270078 1.8855580024 2.57110337382e-07 -2.57110337382e-07 0.00950614050401
Sb -0.0059300872 0.003423745 18.7871470468 -0.00217489634391 0.00125572688777 -0.0203888497544
Sb 2.10710819 3.64962011 18.9120843803 0 -2.57110337382e-07 -0.0289467673341
Sb 4.2201479172 0.003422905 18.7871472968 0.00217489634391 0.00125598399811 -0.020388592644
Sb 6.32132747 3.64277263 18.7871472968 -0 -0.00251171088588 -0.020388592644
Sb 0.0160990136 -0.0092947785 12.3407422103 0.00730244780231 -0.00421583820205 0.01913569397
Sb 2.10710964 3.64961928 10.8114542566 -0 -2.57110337382e-07 -0.0596799372923
Sb 4.1981188164 -0.0092939385 12.3407419703 -0.00730219069198 -0.00421583820205 0.01913569397
Sb -2.10710964 3.668208827 12.3407419703 2.57110337382e-07 0.00843167640409 0.01913569397
Sb 2.10710669 1.2114431578 29.1926292589 2.57110337382e-07 0.000754875950552 -0.0112776307286
Sb 4.2186306193 4.8687098961 29.1926292589 -0.000653574477624 -0.000377695085614 -0.0112776307286
Sb 6.32132897 1.21653861 29.156379139 -2.57110337382e-07 2.57110337382e-07 -0.00889704611475
Sb -0.0044127993 4.8687073261 29.1926289689 0.000653574477624 -0.000377437975276 -0.0112773736182
Sb 2.10710745 1.2052730215 22.4785498497 2.57110337382e-07 -0.00198309203222 0.0153759695064
Sb 4.2239744936 4.8717943042 22.4785498497 0.00171749705371 0.000991417460944 0.0153759695064
Sb 6.32132821 1.21653905 22.6164250551 -2.57110337382e-07 2.57110337382e-07 0.00865999038369
Sb -0.0097566636 4.8717926042 22.4785494697 -0.00171749705371 0.000991417460944 0.0153762266168
Cr 2.10710877 3.64961978 13.1678203158 -0 -2.57110337382e-07 -0.0328880116958
61
Lattice="8.42843558953 0 0 -4.21421779477 7.29923593142 0 0 0 31.0334408416" Properties=species:S:1:pos:R:3:forces:R:3 energy=-133599.397271 ionic_step=32 pbc="T T T"
Te 2.1071096 1.1908181588 3.4911097117 -2.57110337382e-07 0.000418061408583 0.0365693175065
Te 4.2364938429 4.8790198706 3.4911097117 -0.000362011355033 -0.000209030704291 0.0365693175065
Te 6.32132606 1.21654029 3.4360614346 2.57110337382e-07 0 -0.00822521680318
Te -0.0222760129 4.8790206606 3.4911097217 0.000362011355033 -0.000209287814629 0.0365693175065
Te -0.4324139063 0.2496544029 7.1807699567 0.0134715532374 -0.00777758770579 -0.0322102688465
Te 2.10710848 3.64961994 7.0843999266 2.57110337382e-07 -5.14220674763e-07 -0.0315073291841
Te 4.6466317363 0.2496539129 7.1807697667 -0.0134715532374 -0.00777758770579 -0.0322102688465
Te -2.10710848 3.1503111341 7.1807697667 -0 0.0155556896323 -0.0322102688465
Te -0.011107465 0.0064128957 0.0088163367 0.00460767435622 -0.00266006355055 -0.00120353348928
Te 2.10710891 3.6496197 0.0005817022 -0 -2.57110337382e-07 0.00742611787459
Te 4.225325285 0.0064128957 0.0088163367 -0.00460767435622 -0.00266006355055 -0.00120353348928
Te -2.10710891 3.6367938986 0.0088163367 0 0.0053201271011 -0.00120353348928
Te 0.0825091442 2.4807167439 13.9813774431 -0.0276897548947 -0.0159863494474 -0.0372612014244
Te 2.1071087 5.9874259723 13.9813774431 0 0.0319732131154 -0.0372612014244
Te 4.1317086858 2.4807164939 13.9813778331 0.0276897548947 -0.0159863494474 -0.0372612014244
Te -2.1071087 6.08269937 13.9204849258 -0 -2.57110337382e-07 -0.00395718520264
Te 2.10710913 1.2870915365 17.2739026299 -0 -0.0180656007458 0.00482570392232
Te 4.1531184596 4.8308835868 17.2739026299 0.0156456782503 0.00903280037289 0.00482570392232
Te 6.32132652 1.21654002 17.2079735354 0 2.57110337382e-07 0.00591225220809
Te 0.0610993704 4.8308838368 17.2739022499 -0.0156456782503 0.00903280037289 0.00482570392232
Te 2.10710868 0.6360185982 10.1520480295 0 0.0162437168951 0.05364247235
Te 4.7169636577 5.1564204459 10.1520480295 -0.0140675349995 -0.00812211555789 0.0536427294603
Te 6.32132698 1.21653976 10.5809109254 -0 2.57110337382e-07 0.0465840222578
Te -0.5027458277 5.1564201759 10.1520484495 0.0140675349995 -0.00812185844755 0.0536427294603
Te 0.0685477157 -0.039576061 24.12595285 -0.0209868883991 0.0121170959801 0.00112640038807
Te 2.10710934 3.64961945 24.0639851804 -2.57110337382e-07 -2.57110337382e-07 0.00322930583751
Te 4.1456701043 -0.039575561 24.12595304 0.0209868883991 0.0121168388698 0.00112614327773
Te -2.10710934 3.728771572 24.12595304 2.57110337382e-07 -0.0242336777396 0.00112614327773
Te 0.016436831 2.4425704033 27.5931204847 -0.00532064132178 -0.00307195431104 -0.00557338078342
Te 2.10710823 6.0637194734 27.5931204847 2.57110337382e-07 0.00614365151173 -0.00557338078342
Te 4.197780999 2.4425696133 27.5931204747 0.00532064132178 -0.0030716972007 -0.00557312367308
Te -2.10710823 6.0826991 27.5951557366 -2.57110337382e-07 -0 0.0083540290822
Te -0.0528652362 2.4025577499 20.6892659683 0.0118941813176 0.00686741711146 0.000549187680647
Te 2.10710915 6.1437431802 20.6892659683 -0 -0.0137343200023 0.000549187680647
Te 4.2670830662 2.4025580199 20.6892655383 -0.0118941813176 0.00686741711146 0.000549187680647
Te -2.10710915 6.08269963 20.6360013496 0 -2.57110337382e-07 -0.00170258465414
Sb 0.1204945968 2.5026457375 8.896057042 -0.00712452744884 -0.00411299406709 0.00804292557397
Sb 2.10711038 5.9435650749 8.896057042 -2.57110337382e-07 0.00822650235486 0.00804292557397
Sb 4.0937232332 2.5026474275 8.896057432 0.00712452744884 -0.00411299406709 0.00804292557397
Sb -2.10711038 6.08270034 7.6694728389 2.57110337382e-07 -2.57110337382e-07 -0.0365281798525
Sb 0.0063240391 2.436728413 1.9029847136 -0.00269040257036 -0.00155294643779 0.0101381177133
Sb 2.10711114 6.075398404 1.9029847136 -2.57110337382e-07 0.00310640709624 0.0101381177133
Sb 4.2078937909 2.436730983 1.9029850036 0.00269040257036 -0.00155320354812 0.010137860603
Sb -2.10711114 6.08270078 1.8829393199 2.57110337382e-07 -2.57110337382e-07 0.00993988564317
Sb -0.0060712402 0.0035052398 18.789657712 -0.00225794298289 0.00130354941052 -0.0205834822798
Sb 2.10710819 3.64962011 18.9208202019 0 -2.57110337382e-07 -0.0290933202264
Sb 4.2202890702 0.0035043998 18.789657962 0.00225794298289 0.00130380652086 -0.0205832251694
Sb 6.32132747 3.6426096405 18.789657962 -0 -0.00260735593139 -0.0205832251694
Sb 0.0068740596 -0.0039687463 12.3419075494 0.0081126024754 -0.00468352190574 0.0186194164125
Sb 2.10710964 3.64961928 10.807193216 -0 -2.57110337382e-07 -0.0595151295661
Sb 4.2073437704 -0.0039679063 12.3419073094 -0.0081126024754 -0.00468377901608 0.0186194164125
Sb -2.10710964 3.6575567627 12.3419073094 2.57110337382e-07 0.00936755803216 0.0186194164125
Sb 2.10710669 1.2122393614 29.1966320541 2.57110337382e-07 0.000682885056086 -0.0115905340092
Sb 4.2179410872 4.8683117943 29.1966320541 -0.00059109666564 -0.00034169963838 -0.0115905340092
Sb 6.32132897 1.21653861 29.1626338088 -2.57110337382e-07 2.57110337382e-07 -0.00929479580668
Sb -0.0037232672 4.8683092243 29.1966317641 0.00059109666564 -0.000341442528043 -0.0115902768988
Sb 2.10710745 1.204641939 22.4769330248 2.57110337382e-07 -0.00204197029948 0.015621766989
Sb 4.2245210268 4.8721098455 22.4769330248 0.00176840490051 0.00102072803941 0.0156220240993
Sb 6.32132821 1.21653905 22.6169467106 -2.57110337382e-07 2.57110337382e-07 0.00870267069969
Sb -0.0103031968 4.8721081455 22.4769326448 -0.00176840490051 0.00102098514974 0.0156220240993
Cr 2.10710877 3.64961978 13.1678464273 -0 -2.57110337382e-07 -0.0324637796392
61
Lattice="8.42843558953 0 0 -4.21421779477 7.29923593142 0 0 0 31.0334408416" Properties=species:S:1:pos:R:3:forces:R:3 energy=-133599.412397 ionic_step=33 pbc="T T T"
Te 2.1071096 1.1903862286 3.4867752361 -2.57110337382e-07 1.079863417e-05 0.0364533607443
Te 4.2368679052 4.8792358357 3.4867752361 -9.25597214574e-06 -5.39931708501e-06 0.0364536178546
Te 6.32132606 1.21654029 3.437597769 2.57110337382e-07 0 -0.00798867529278
Te -0.0226500752 4.8792366257 3.4867752461 9.25597214574e-06 -5.6564274224e-06 0.0364536178546
Te -0.4273885523 0.2467530121 7.1791741335 0.0143303017643 -0.00827329643627 -0.032117709125
Te 2.10710848 3.64961994 7.0625303738 2.57110337382e-07 -5.14220674763e-07 -0.0280296547607
Te 4.6416063823 0.2467525221 7.1791739435 -0.0143303017643 -0.00827329643627 -0.032117709125
Te -2.10710848 3.1561139158 7.1791739435 -0 0.0165471070932 -0.032117709125
Te -0.0108960081 0.006290811 0.010935445 0.00430222727541 -0.00248368585911 -0.000959021558433
Te 2.10710891 3.6496197 0.0052794962 -0 -2.57110337382e-07 0.00681496660264
Te 4.2251138281 0.006290811 0.010935445 -0.00430222727541 -0.00248368585911 -0.000959021558433
Te -2.10710891 3.6370380681 0.010935445 0 0.00496737171821 -0.000959021558433
Te 0.0874612827 2.4835758637 13.9862109753 -0.0294751290774 -0.0170171047899 -0.0376733492952
Te 2.1071087 5.9817077326 13.9862109753 0 0.0340347238006 -0.0376733492952
Te 4.1267565473 2.4835756137 13.9862113653 0.0294751290774 -0.0170171047899 -0.0376736064055
Te -2.1071087 6.08269937 13.9009637183 -0 -2.57110337382e-07 0.00133697375438
Te 2.10710913 1.2921467387 17.2817776748 -0 -0.0203394845696 0.00382734448226
Te 4.1487405281 4.8283559856 17.2817776748 0.017614629214 0.0101697422848 0.00382734448226
Te 6.32132652 1.21654002 17.2135206586 0 2.57110337382e-07 0.00512163792064
Te 0.0654773019 4.8283562356 17.2817772948 -0.017614629214 0.0101697422848 0.0038276015926
Te 2.10710868 0.6369666575 10.157022078 0 0.0175601218225 0.0515354531351
Te 4.7161426146 5.1559464163 10.157022078 -0.0152073051251 -0.00878006091125 0.0515357102454
Te 6.32132698 1.21653976 10.5629972009 -0 2.57110337382e-07 0.0494112075277
Te -0.5019247846 5.1559461463 10.157022498 0.0152073051251 -0.00878006091125 0.0515357102454
Te 0.0700930053 -0.0404682347 24.1229101467 -0.0213445288784 0.012323555581 0.00250322624475
Te 2.10710934 3.64961945 24.0599157141 -2.57110337382e-07 -2.57110337382e-07 0.00449634558013
Te 4.1441248147 -0.0404677347 24.1229103367 0.0213445288784 0.0123232984707 0.00250296913441
Te -2.10710934 3.7305559195 24.1229103367 2.57110337382e-07 -0.0246465969414 0.00250296913441
Te 0.015450237 2.4420007927 27.6004051515 -0.00488663907228 -0.00282127173209 -0.00703222483772
Te 2.10710823 6.0648586945 27.6004051515 2.57110337382e-07 0.00564254346418 -0.00703222483772
Te 4.198767593 2.4420000027 27.6004051415 0.00488663907228 -0.00282101462175 -0.00703222483772
Te -2.10710823 6.0826991 27.6044655074 -2.57110337382e-07 -0 0.00685841824965
Te -0.0555178026 2.4010262893 20.690835692 0.0124870777556 0.00720963097052 0.000689055704183
Te 2.10710915 6.1468061014 20.690835692 -0 -0.0144190048307 0.000689055704183
Te 4.2697356326 2.4010265593 20.690835262 -0.0124870777556 0.00720963097052 0.000689055704183
Te -2.10710915 6.08269963 20.6362986335 0 -2.57110337382e-07 -0.0019113582481
Sb 0.1317403595 2.5091384847 8.8789336412 -0.00805938063556 -0.00465266866526 0.00802672762272
Sb 2.10711038 5.9305795806 8.8789336412 -2.57110337382e-07 0.00930585155119 0.00802647051238
Sb 4.0824774705 2.5091401747 8.8789340312 0.00805938063556 -0.0046529257756 0.00802672762272
Sb -2.10711038 6.08270034 7.6815328772 2.57110337382e-07 -2.57110337382e-07 -0.0361664256078
Sb 0.0048379526 2.4358704201 1.9011938768 -0.0023983252271 -0.00138428205646 0.0108485135755
Sb 2.10711114 6.0771143897 1.9011938768 -2.57110337382e-07 0.0027690783336 0.0108485135755
Sb 4.2093798774 2.4358729901 1.9011941668 0.0023983252271 -0.0013845391668 0.0108482564651
Sb -2.10711114 6.08270078 1.879449908 2.57110337382e-07 -2.57110337382e-07 0.0105075852681
Sb -0.0068279617 0.0039421334 18.7931252897 -0.00234664604928 0.001354971478 -0.0206701284635
Sb 2.10710819 3.64962011 18.9341220882 0 -2.57110337382e-07 -0.0291228879152
Sb 4.2210457917 0.0039412934 18.7931255397 0.00234664604928 0.001354971478 -0.0206698713531
Sb 6.32132747 3.6417358533 18.7931255397 -0 -0.002709942956 -0.0206698713531
Sb -0.0058045389 0.0033512493 12.3412642747 0.00923823153246 -0.00533349683864 0.0176773641363
Sb 2.10710964 3.64961928 10.796481545 -0 -2.57110337382e-07 -0.0591711159347
Sb 4.2200223689 0.0033520893 12.3412640347 -0.00923823153246 -0.00533349683864 0.0176773641363
Sb -2.10710964 3.6429167714 12.3412640347 2.57110337382e-07 0.0106672507876 0.0176773641363
Sb 2.10710669 1.2133679749 29.2023342808 2.57110337382e-07 0.000574127383373 -0.0119803132806
Sb 4.2169636796 4.8677474875 29.2023342808 -0.000496994282159 -0.000287192246855 -0.0119800561703
Sb 6.32132897 1.21653861 29.17131828 -2.57110337382e-07 2.57110337382e-07 -0.00977044993084
Sb -0.0027458596 4.8677449175 29.2023339908 0.000496994282159 -0.000286935136518 -0.01197979906
Sb 2.10710745 1.2041176556 22.4754508374 2.57110337382e-07 -0.00219315117787 0.0158904472915
Sb 4.2249750693 4.8723719872 22.4754508374 0.00189927406224 0.0010963184786 0.0158907044019
Sb 6.32132821 1.21653905 22.6196449097 -2.57110337382e-07 2.57110337382e-07 0.00870652735475
Sb -0.0107572393 4.8723702872 22.4754504574 -0.00189927406224 0.00109657558893 0.0158907044019
Cr 2.10710877 3.64961978 13.1638488795 -0 -2.57110337382e-07 -0.0321511334689
61
Lattice="8.42843558953 0 0 -4.21421779477 7.29923593142 0 0 0 31.0334408416" Properties=species:S:1:pos:R:3:forces:R:3 energy=-133599.430616 ionic_step=34 pbc="T T T"
Te 2.1071096 1.1900361227 3.4761490769 -2.57110337382e-07 -0.000320616590715 0.0369542116815
Te 4.2371711057 4.8794108887 3.4761490769 0.000277679164372 0.000160179740189 0.0369542116815
Te 6.32132606 1.21654029 3.4343621955 2.57110337382e-07 0 -0.00732944438774
Te -0.0229532757 4.8794116787 3.4761490869 -0.000277679164372 0.000159922629851 0.0369542116815
Te -0.4192787634 0.2420708211 7.1711142811 0.0157958306874 -0.00911944655659 -0.03215961811
Te 2.10710848 3.64961994 7.0384236314 2.57110337382e-07 -5.14220674763e-07 -0.0242326492982
Te 4.6334965934 0.2420703311 7.1711140911 -0.0157958306874 -0.00911944655659 -0.0321593609997
Te -2.10710848 3.1654782977 7.1711140911 -0 0.0182394073339 -0.03215961811
Te -0.0108536957 0.0062663819 0.0145050585 0.00392453218979 -0.00226565629301 -0.000771331012145
Te 2.10710891 3.6496197 0.0136497126 -0 -2.57110337382e-07 0.00555152640474
Te 4.2250715157 0.0062663819 0.0145050585 -0.00392453218979 -0.00226565629301 -0.000771331012145
Te -2.10710891 3.6370869263 0.0145050585 0 0.00453131258601 -0.000771331012145
Te 0.0871648916 2.4834047421 13.9917934731 -0.030167527216 -0.0174169113646 -0.0375555927607
Te 2.1071087 5.9820499757 13.9917934731 0 0.0348340798395 -0.0375555927607
Te 4.1270529384 2.4834044921 13.9917938631 0.030167527216 -0.0174169113646 -0.0375555927607
Te -2.1071087 6.08269937 13.871199799 -0 -2.57110337382e-07 0.0103906000646
Te 2.10710913 1.2990740145 17.2973405212 -0 -0.0234482056589 0.00144290321339
Te 4.1427413341 4.8248923477 17.2973405212 0.0203070886671 0.0117242313846 0.00144290321339
Te 6.32132652 1.21654002 17.2249140511 0 2.57110337382e-07 0.0039314741689
Te 0.0714764959 4.8248925977 17.2973401412 -0.0203070886671 0.0117239742743 0.00144290321339
Te 2.10710868 0.6406102115 10.1701953961 0 0.0196172616319 0.048689755921
Te 4.7129872058 5.1541246393 10.1701953961 -0.0169888226528 -0.00980875937111 0.0486900130313
Te 6.32132698 1.21653976 10.5396752875 -0 2.57110337382e-07 0.0523695190696
Te -0.4987693758 5.1541243693 10.1701958161 0.0169888226528 -0.00980850226077 0.0486900130313
Te 0.0728614462 -0.0420665956 24.1144586665 -0.0219844765082 0.0126930231359 0.00555846838385
Te 2.10710934 3.64961945 24.0510738624 -2.57110337382e-07 -2.57110337382e-07 0.00703942392717
Te 4.1413563738 -0.0420660956 24.1144588565 0.0219844765082 0.0126927660255 0.00555821127352
Te -2.10710934 3.7337526412 24.1144588565 2.57110337382e-07 -0.0253857891614 0.00555821127352
Te 0.0142848551 2.4413279589 27.6142323085 -0.0043441362604 -0.00250811134116 -0.0101190915483
Te 2.10710823 6.0662043623 27.6142323085 2.57110337382e-07 0.00501596557198 -0.0101190915483
Te 4.1999329749 2.4413271689 27.6142322985 0.0043441362604 -0.00250785423082 -0.0101190915483
Te -2.10710823 6.0826991 27.6225788999 -2.57110337382e-07 -0 0.00356997703454
Te -0.0599962909 2.3984406316 20.6923238391 0.0134892938507 0.00778838633996 0.000984218371497
Te 2.10710915 6.1519774168 20.6923238391 -0 -0.0155762584593 0.000984218371497
Te 4.2742141209 2.3984409016 20.6923234091 -0.0134892938507 0.00778812922963 0.000984218371497
Te -2.10710915 6.08269963 20.6356261413 0 -2.57110337382e-07 -0.00212835937285
Sb 0.144257197 2.5163650876 8.8524121628 -0.00912176054963 -0.00526613393025 0.00776010420285
Sb 2.10711038 5.9161263748 8.8524121628 -2.57110337382e-07 0.0105327820812 0.00776010420285
Sb 4.069960633 2.5163667776 8.8524125528 0.00912176054963 -0.00526613393025 0.00776010420285
Sb -2.10711038 6.08270034 7.6950493865 2.57110337382e-07 -2.57110337382e-07 -0.0359211423459
Sb 0.0030946515 2.4348639243 1.8985764883 -0.00205251182332 -0.00118450732432 0.0118844111248
Sb 2.10711114 6.0791273813 1.8985764883 -2.57110337382e-07 0.00236978597965 0.0118846682351
Sb 4.2111231785 2.4348664944 1.8985767783 0.00205251182332 -0.00118476443465 0.0118841540145
Sb -2.10711114 6.08270078 1.8748072976 2.57110337382e-07 -2.57110337382e-07 0.0113313667891
Sb -0.008536408 0.0049285058 18.7976644486 -0.00245231839795 0.00141590662796 -0.0205503150462
Sb 2.10710819 3.64962011 18.9539789662 0 -2.57110337382e-07 -0.0289763350229
Sb 4.222754238 0.0049276658 18.7976646986 0.00245231839795 0.00141590662796 -0.0205500579359
Sb 6.32132747 3.6397631085 18.7976646986 -0 -0.00283181325592 -0.0205500579359
Sb -0.0228811442 0.0132104366 12.3370627358 0.0107844931015 -0.00622618393003 0.0162262333922
Sb 2.10710964 3.64961928 10.7879832576 -0 -2.57110337382e-07 -0.0585856756965
Sb 4.2370989742 0.0132112766 12.3370624958 -0.0107842359911 -0.00622618393003 0.0162262333922
Sb -2.10710964 3.6231983968 12.3370624958 2.57110337382e-07 0.0124523678601 0.0162262333922
Sb 2.10710669 1.2152523131 29.2106903889 2.57110337382e-07 0.000372809989203 -0.0124587956185
Sb 4.2153317957 4.8668053185 29.2106903889 -0.000322673473414 -0.000186662104939 -0.0124585385082
Sb 6.32132897 1.21653861 29.1835162117 -2.57110337382e-07 2.57110337382e-07 -0.0103224658252
Sb -0.0011139757 4.8668027485 29.2106900989 0.000322673473414 -0.000186404994602 -0.0124582813978
Sb 2.10710745 1.2043651498 22.4743084785 2.57110337382e-07 -0.00255156298818 0.0161069341956
Sb 4.2247607331 4.8722482401 22.4743084785 0.0022098633498 0.00127552438375 0.0161071913059
Sb 6.32132821 1.21653905 22.6261814595 -2.57110337382e-07 2.57110337382e-07 0.00858748526855
Sb -0.0105429031 4.8722465401 22.4743080985 -0.0022098633498 0.00127578149409 0.0161071913059
Cr 2.10710877 3.64961978 13.1635116292 -0 -2.57110337382e-07 -0.0312540755018
61
Lattice="8.42843558953 0 0 -4.21421779477 7.29923593142 0 0 0 31.0334408416" Properties=species:S:1:pos:R:3:forces:R:3 energy=-133599.438952 ionic_step=35 pbc="T T T"
Te 2.1071096 1.1899707899 3.4719331749 -2.57110337382e-07 -0.000440430007935 0.0371604141721
Te 4.2372276855 4.879443555 3.4719331749 0.000381551740674 0.000220343559136 0.0371604141721
Te 6.32132606 1.21654029 3.4318174442 2.57110337382e-07 0 -0.00736749671767
Te -0.0230098555 4.879444345 3.4719331849 -0.000381551740674 0.000219829338461 0.0371604141721
Te -0.417410958 0.2409924426 7.1643526421 0.0162609432877 -0.00938812685915 -0.0320858274432
Te 2.10710848 3.64961994 7.0301582511 2.57110337382e-07 -5.14220674763e-07 -0.02239739571
Te 4.631628788 0.2409919526 7.1643524521 -0.0162609432877 -0.00938812685915 -0.0320858274432
Te -2.10710848 3.1676350547 7.1643524521 -0 0.0187765108286 -0.0320858274432
Te -0.0110389311 0.0063733276 0.0166437332 0.00385382684701 -0.00222477574936 -0.000837151258515
Te 2.10710891 3.6496197 0.0180356009 -0 -2.57110337382e-07 0.00490335124421
Te 4.2252567511 0.0063733276 0.0166437332 -0.00385382684701 -0.00222477574936 -0.000837151258515
Te -2.10710891 3.6368730348 0.0166437332 0 0.00444955149873 -0.000837151258515
Te 0.0837190563 2.4814152873 13.9944988725 -0.0293884828937 -0.0169672253845 -0.0374149534061
Te 2.1071087 5.9860288854 13.9944988725 0 0.0339347078793 -0.0374149534061
Te 4.1304987737 2.4814150373 13.9944992625 0.0293884828937 -0.0169672253845 -0.0374149534061
Te -2.1071087 6.08269937 13.8621054517 -0 -2.57110337382e-07 0.0140716487649
Te 2.10710913 1.3021129027 17.3049592512 -0 -0.0246900485884 0.000448143318056
Te 4.1401095809 4.8233729036 17.3049592512 0.021382324098 0.012344895739 0.000448400428394
Te 6.32132652 1.21654002 17.2285289401 0 2.57110337382e-07 0.00377540819411
Te 0.0741082491 4.8233731536 17.3049588712 -0.021382324098 0.012344895739 0.000448400428394
Te 2.10710868 0.6397496689 10.1779922607 0 0.0199281080298 0.0473846638484
Te 4.7137324571 5.1545549105 10.1779922607 -0.0172582742864 -0.00996405401489 0.0473846638484
Te 6.32132698 1.21653976 10.5340097705 -0 2.57110337382e-07 0.052840030987
Te -0.4995146271 5.1545546405 10.1779926807 0.0172582742864 -0.00996405401489 0.0473846638484
Te 0.0753294159 -0.0434914792 24.1111904818 -0.0225742876221 0.0130334372225 0.00681033861656
Te 2.10710934 3.64961945 24.0475905024 -2.57110337382e-07 -2.57110337382e-07 0.00791745572933
Te 4.1388884041 -0.0434909792 24.1111906718 0.0225742876221 0.0130331801122 0.00681008150623
Te -2.10710934 3.7366024085 24.1111906718 2.57110337382e-07 -0.0260666173348 0.00681008150623
Te 0.0140792417 2.4412092478 27.6197169728 -0.00422560839487 -0.00243971999141 -0.0113444794163
Te 2.10710823 6.0664417843 27.6197169728 2.57110337382e-07 0.00487918287249 -0.0113444794163
Te 4.2001385883 2.4412084578 27.6197169628 0.00422560839487 -0.00243946288108 -0.0113444794163
Te -2.10710823 6.0826991 27.6305291282 -2.57110337382e-07 -0 0.00234176095287
Te -0.0629171561 2.3967542686 20.69295954 0.0141058444398 0.00814448415724 0.00120507615131
Te 2.10710915 6.1553501429 20.69295954 -0 -0.0162881969835 0.00120507615131
Te 4.2771349861 2.3967545386 20.69295911 -0.0141058444398 0.0081442270469 0.00120507615131
Te -2.10710915 6.08269963 20.6341959284 0 -2.57110337382e-07 -0.002053797375
Sb 0.1472121198 2.5180711139 8.8439332362 -0.00938632708679 -0.00541860036032 0.00772436586596
Sb 2.10711038 5.9127143223 8.8439332362 -2.57110337382e-07 0.010838229162 0.00772436586596
Sb 4.0670057102 2.5180728039 8.8439336262 0.00938632708679 -0.00541885747066 0.00772436586596
Sb -2.10711038 6.08270034 7.6914070425 2.57110337382e-07 -2.57110337382e-07 -0.0365965712022
Sb 0.0028916498 2.4347467212 1.8990194455 -0.00200186108685 -0.00115545385619 0.0121944861917
Sb 2.10711114 6.0793617876 1.8990194455 -2.57110337382e-07 0.00231142193306 0.0121944861917
Sb 4.2113261802 2.4347492912 1.8990197355 0.00200186108685 -0.00115571096653 0.0121942290813
Sb -2.10711114 6.08270078 1.8745390771 2.57110337382e-07 -2.57110337382e-07 0.0115756216096
Sb -0.009526585 0.005500185 18.7978047437 -0.00250579734812 0.00144675986845 -0.0203068315567
Sb 2.10710819 3.64962011 18.962297828 0 -2.57110337382e-07 -0.0288488082956
Sb 4.223744415 0.005499345 18.7978049937 0.00250579734812 0.00144675986845 -0.0203068315567
Sb 6.32132747 3.6386197501 18.7978049937 -0 -0.00289351973689 -0.0203065744464
Sb -0.0282860558 0.0163309652 12.336432964 0.0112431779434 -0.00649100757754 0.0156860445733
Sb 2.10710964 3.64961928 10.778314736 -0 -2.57110337382e-07 -0.0578107451396
Sb 4.2425038858 0.0163318052 12.336432724 -0.0112431779434 -0.00649126468787 0.0156860445733
Sb -2.10710964 3.6169573396 12.336432724 2.57110337382e-07 0.0129822722654 0.0156860445733
Sb 2.10710669 1.216006892 29.2132892975 2.57110337382e-07 0.00028179292977 -0.0125127887894
Sb 4.2146783114 4.866428029 29.2132892975 -0.000243740599838 -0.000141153575223 -0.012512531679
Sb 6.32132897 1.21653861 29.1868418201 -2.57110337382e-07 2.57110337382e-07 -0.0103304362457
Sb -0.0004604914 4.866425459 29.2132890075 0.000243740599838 -0.000140896464885 -0.0125122745687
Sb 2.10710745 1.2049733761 22.4744784759 2.57110337382e-07 -0.00280764488421 0.0160498557007
Sb 4.2242339939 4.8719441269 22.4744784759 0.00243174957096 0.00140356533177 0.016050112811
Sb 6.32132821 1.21653905 22.6322617875 -2.57110337382e-07 2.57110337382e-07 0.00831212009721
Sb -0.0100161639 4.8719424269 22.4744780959 -0.00243174957096 0.0014038224421 0.016050112811
Cr 2.10710877 3.64961978 13.1547651748 -0 -2.57110337382e-07 -0.0308175021489
61
Lattice="8.42843558953 0 0 -4.21421779477 7.29923593142 0 0 0 31.0334408416" Properties=species:S:1:pos:R:3:forces:R:3 energy=-133599.446224 ionic_step=36 pbc="T T T"
Te 2.1071096 1.1901616029 3.470229104 -2.57110337382e-07 -0.000669515318542 0.0367935177207
Te 4.2370624367 4.8793481485 3.470229104 0.000580040921133 0.000334757659271 0.0367935177207
Te 6.32132606 1.21654029 3.4300190944 2.57110337382e-07 0 -0.00815296879837
Te -0.0228446067 4.8793489385 3.470229114 -0.000580040921133 0.000334500548933 0.0367935177207
Te -0.415926901 0.2401356215 7.1526162015 0.0167502242597 -0.00967069111994 -0.0316795931101
Te 2.10710848 3.64961994 7.0214341775 2.57110337382e-07 -5.14220674763e-07 -0.0204299874083
Te 4.630144731 0.2401351315 7.1526160115 -0.0167504813701 -0.00967069111994 -0.0316795931101
Te -2.10710848 3.169348697 7.1526160115 -0 0.0193416393502 -0.0316795931101
Te -0.0113534577 0.0065549197 0.0189399717 0.00388005210143 -0.00223994525927 -0.00104181108707
Te 2.10710891 3.6496197 0.0222603032 -0 -2.57110337382e-07 0.00425517608367
Te 4.2255712777 0.0065549197 0.0189399717 -0.00388005210143 -0.00223994525927 -0.00104181108707
Te -2.10710891 3.6365098506 0.0189399717 0 0.00447989051854 -0.00104181108707
Te 0.0781567905 2.4782039102 13.9960629584 -0.0279296388394 -0.0161249319192 -0.0370642549059
Te 2.1071087 5.9924516397 13.9960629584 0 0.0322501209488 -0.0370642549059
Te 4.1360610395 2.4782036602 13.9960633484 0.0279296388394 -0.0161249319192 -0.0370642549059
Te -2.1071087 6.08269937 13.8587035135 -0 -2.57110337382e-07 0.0164596895785
Te 2.10710913 1.3043424635 17.3100486149 -0 -0.0253991588989 -0.000209030704291
Te 4.1381787255 4.8222581232 17.3100486149 0.021996560694 0.0126997080046 -0.000209030704291
Te 6.32132652 1.21654002 17.2283112016 0 2.57110337382e-07 0.00408651170234
Te 0.0760391045 4.8222583732 17.3100482349 -0.021996560694 0.0126994508943 -0.000208773593954
Te 2.10710868 0.6404832943 10.1870004423 0 0.0202829202954 0.0461929574347
Te 4.7130971192 5.1541880978 10.1870004423 -0.0175655211396 -0.0101414601477 0.046193214545
Te 6.32132698 1.21653976 10.5325169929 -0 2.57110337382e-07 0.0524744200872
Te -0.4988792892 5.1541878278 10.1870008623 0.0175655211396 -0.0101414601477 0.046193214545
Te 0.0784379126 -0.0452861715 24.1111090304 -0.0233101374077 0.0134584406102 0.00723791310763
Te 2.10710934 3.64961945 24.0476527145 -2.57110337382e-07 -2.57110337382e-07 0.0078925160266
Te 4.1357799074 -0.0452856715 24.1111092204 0.0233101374077 0.0134581834999 0.00723765599729
Te -2.10710934 3.740191793 24.1111092204 2.57110337382e-07 -0.0269163669998 0.00723765599729
Te 0.0141346847 2.4412412579 27.6220695182 -0.00423357881533 -0.00244434797749 -0.0116622677933
Te 2.10710823 6.0663777642 27.6220695182 2.57110337382e-07 0.00488843884464 -0.0116622677933
Te 4.2000831453 2.4412404679 27.6220695082 0.00423357881533 -0.00244409086715 -0.0116622677933
Te -2.10710823 6.0826991 27.6353510574 -2.57110337382e-07 -0 0.00207565175368
Te -0.0661373315 2.3948950986 20.6939608082 0.0147794735237 0.00853323498736 0.00146012960599
Te 2.10710915 6.1590684829 20.6939608082 -0 -0.0170662128644 0.00146012960599
Te 4.2803551615 2.3948953686 20.6939603782 -0.0147794735237 0.00853323498736 0.00146012960599
Te -2.10710915 6.08269963 20.6323488443 0 -2.57110337382e-07 -0.00180208635471
Sb 0.1441860632 2.5163240184 8.8365280191 -0.00947605859454 -0.00547053664847 0.00765186075081
Sb 2.10711038 5.9162085131 8.8365280191 -2.57110337382e-07 0.010941844628 0.00765160364048
Sb 4.0700317668 2.5163257084 8.8365284091 0.00947605859454 -0.00547079375881 0.00765186075081
Sb -2.10711038 6.08270034 7.6844696837 2.57110337382e-07 -2.57110337382e-07 -0.0377358271072
Sb 0.0031822097 2.4349144761 1.9012573323 -0.00205405448534 -0.00118553576567 0.0122963018853
Sb 2.10711114 6.0790262779 1.9012573323 -2.57110337382e-07 0.00237158575201 0.0122963018853
Sb 4.2110356203 2.4349170461 1.9012576223 0.00205405448534 -0.001185792876 0.0122960447749
Sb -2.10711114 6.08270078 1.8764157085 2.57110337382e-07 -2.57110337382e-07 0.0116725522068
Sb -0.0103031741 0.0059485491 18.7958592379 -0.00256930360145 0.00148352664669 -0.0199666745804
Sb 2.10710819 3.64962011 18.967640277 0 -2.57110337382e-07 -0.0287968720074
Sb 4.2245210041 0.0059477091 18.7958594879 0.00256930360145 0.00148352664669 -0.01996641747
Sb 6.32132747 3.6377230218 18.7958594879 -0 -0.00296705329338 -0.01996641747
Sb -0.0294797649 0.0170201538 12.3381327218 0.011281744494 -0.00651311906655 0.0154998966891
Sb 2.10710964 3.64961928 10.7739947452 -0 -2.57110337382e-07 -0.0569018600969
Sb 4.2436975949 0.0170209938 12.3381324818 -0.0112814873836 -0.00651337617689 0.0154998966891
Sb -2.10710964 3.6155789624 12.3381324818 2.57110337382e-07 0.0130264952434 0.0154998966891
Sb 2.10710669 1.2166225451 29.2137677795 2.57110337382e-07 0.000197974959784 -0.0123970891375
Sb 4.2141451405 4.8661202025 29.2137677795 -0.000171235484696 -9.92445902293e-05 -0.0123968320272
Sb 6.32132897 1.21653861 29.1867898092 -2.57110337382e-07 2.57110337382e-07 -0.0101121495692
Sb 7.26795e-05 4.8661176325 29.2137674895 0.000171235484696 -9.89874798919e-05 -0.0123965749169
Sb 2.10710745 1.2059682894 22.4754789052 2.57110337382e-07 -0.00310203622051 0.0158649933681
Sb 4.2233723741 4.8714466703 22.4754789052 0.0026865459153 0.00155063244475 0.0158649933681
Sb 6.32132821 1.21653905 22.6402848769 -2.57110337382e-07 2.57110337382e-07 0.00787708940636
Sb -0.0091545441 4.8714449703 22.4754785252 -0.0026865459153 0.00155088955509 0.0158649933681
Cr 2.10710877 3.64961978 13.1476388238 -0 -2.57110337382e-07 -0.0297929174544
61
Lattice="8.42843558953 0 0 -4.21421779477 7.29923593142 0 0 0 31.0334408416" Properties=species:S:1:pos:R:3:forces:R:3 energy=-133599.450794 ionic_step=37 pbc="T T T"
Te 2.1071096 1.1902420048 3.4719946607 -2.57110337382e-07 -0.000924568773224 0.036113975099
Te 4.2369928066 4.8793079476 3.4719946607 0.000800641590606 0.000462284386612 0.0361142322093
Te 6.32132606 1.21654029 3.4307789869 2.57110337382e-07 0 -0.00909527818488
Te -0.0227749766 4.8793087376 3.4719946707 -0.000800641590606 0.000462027276275 0.036113975099
Te -0.4160566625 0.2402105394 7.1442577088 0.0168957487107 -0.00975450908992 -0.0311491744841
Te 2.10710848 3.64961994 7.0138033536 2.57110337382e-07 -5.14220674763e-07 -0.0184983174436
Te 4.6302744925 0.2402100494 7.1442575188 -0.0168957487107 -0.00975450908992 -0.0311489173738
Te -2.10710848 3.1691988612 7.1442575188 -0 0.0195095324005 -0.0311491744841
Te -0.0116276255 0.0067132107 0.0209746403 0.00395332854758 -0.0022821113546 -0.00123901471584
Te 2.10710891 3.6496197 0.0251139793 -0 -2.57110337382e-07 0.00390087803875
Te 4.2258454455 0.0067132107 0.0209746403 -0.00395332854758 -0.0022821113546 -0.00123901471584
Te -2.10710891 3.6361932687 0.0209746403 0 0.00456447981954 -0.00123901471584
Te 0.0765030046 2.477249096 13.9969808916 -0.0273043464989 -0.0157639490055 -0.0371470444346
Te 2.1071087 5.9943612681 13.9969808916 0 0.0315278980111 -0.0371470444346
Te 4.1377148254 2.477248846 13.9969812816 0.0273043464989 -0.0157636918952 -0.0371470444346
Te -2.1071087 6.08269937 13.8607211583 -0 -2.57110337382e-07 0.0171014369806
Te 2.10710913 1.3067749265 17.3116710168 -0 -0.025999768647 -0.000138325361511
Te 4.1360721517 4.8210418917 17.3116710168 0.0225166949065 0.0130000128787 -0.000138325361511
Te 6.32132652 1.21654002 17.2245040307 0 2.57110337382e-07 0.00450020223519
Te 0.0781456783 4.8210421417 17.3116706368 -0.0225166949065 0.0129997557684 -0.000138068251174
Te 2.10710868 0.6388055536 10.1909888006 0 0.0201019146178 0.045390773182
Te 4.7145500846 5.1550269682 10.1909888006 -0.0174089409441 -0.0100512144193 0.0453910302924
Te 6.32132698 1.21653976 10.5336430182 -0 2.57110337382e-07 0.0521106089598
Te -0.5003322546 5.1550266982 10.1909892206 0.0174086838338 -0.0100509573089 0.0453910302924
Te 0.081904949 -0.0472878669 24.1141169951 -0.0241336618183 0.0139338376241 0.00678976978957
Te 2.10710934 3.64961945 24.0500937299 -2.57110337382e-07 -2.57110337382e-07 0.00716643643384
Te 4.132312871 -0.0472873669 24.1141171851 0.0241336618183 0.0139335805137 0.00678951267924
Te -2.10710934 3.7441951837 24.1141171851 2.57110337382e-07 -0.0278674181378 0.00678976978957
Te 0.0142805917 2.4413254974 27.6213814726 -0.00429991328237 -0.00248265741776 -0.0111547319873
Te 2.10710823 6.0662092852 27.6213814726 2.57110337382e-07 0.00496505772518 -0.0111547319873
Te 4.1999372383 2.4413247074 27.6213814625 0.00429991328237 -0.00248240030742 -0.0111547319873
Te -2.10710823 6.0826991 27.6363257741 -2.57110337382e-07 -0 0.00283824101436
Te -0.0691581337 2.3931510368 20.6952990731 0.0153728841824 0.00887596306709 0.00167198852399
Te 2.10710915 6.1625566064 20.6952990731 -0 -0.0177511548032 0.00167198852399
Te 4.2833759637 2.3931513068 20.6952986431 -0.0153728841824 0.00887570595675 0.00167198852399
Te -2.10710915 6.08269963 20.6306491888 0 -2.57110337382e-07 -0.00160308295357
Sb 0.1407183502 2.5143219325 8.834209285 -0.0094269505201 -0.00544225451136 0.00775187667206
Sb 2.10711038 5.9202126851 8.834209285 -2.57110337382e-07 0.0108852803537 0.00775161956172
Sb 4.0734994798 2.5143236225 8.834209675 0.0094269505201 -0.00544251162169 0.00775161956172
Sb -2.10711038 6.08270034 7.6742821524 2.57110337382e-07 -2.57110337382e-07 -0.0389141637834
Sb 0.0035974983 2.4351542432 1.9031785941 -0.002138386676 -0.00123412961943 0.0123546659319
Sb 2.10711114 6.0785467436 1.9031785941 -2.57110337382e-07 0.00246903056988 0.0123546659319
Sb 4.2106203317 2.4351568132 1.9031788841 0.002138386676 -0.00123464384011 0.0123544088215
Sb -2.10711114 6.08270078 1.8779848777 2.57110337382e-07 -2.57110337382e-07 0.0117597126112
Sb -0.0106221157 0.0061326902 18.7943651897 -0.00265209313009 0.00153134916944 -0.0198054663988
Sb 2.10710819 3.64962011 18.9720466939 0 -2.57110337382e-07 -0.0288770904327
Sb 4.2248399457 0.0061318502 18.7943654397 0.00265209313009 0.00153134916944 -0.0198052092885
Sb 6.32132747 3.6373547396 18.7943654397 -0 -0.00306269833889 -0.0198052092885
Sb -0.0286033342 0.0165141461 12.3414934266 0.011116422547 -0.00641773113138 0.0154996395787
Sb 2.10710964 3.64961928 10.7648584405 -0 -2.57110337382e-07 -0.0559978601507
Sb 4.2428211642 0.0165149861 12.3414931866 -0.011116422547 -0.00641798824172 0.0154996395787
Sb -2.10710964 3.6165909779 12.3414931866 2.57110337382e-07 0.0128357193731 0.0154993824684
Sb 2.10710669 1.216860736 29.2140836744 2.57110337382e-07 0.000158637078164 -0.0123618650213
Sb 4.2139388612 4.866001107 29.2140836744 -0.000137039809824 -7.94470942509e-05 -0.012361607911
Sb 6.32132897 1.21653861 29.1858913864 -2.57110337382e-07 2.57110337382e-07 -0.00997253865602
Sb 0.0002789588 4.865998537 29.2140833844 0.000137039809824 -7.91899839135e-05 -0.0123613508006
Sb 2.10710745 1.2064100905 22.4752386446 2.57110337382e-07 -0.00329666874591 0.0158140855213
Sb 4.2229897634 4.8712257698 22.4752386446 0.00285521029662 0.00164807726262 0.0158143426317
Sb 6.32132821 1.21653905 22.6468280331 -2.57110337382e-07 2.57110337382e-07 0.00757241365656
Sb -0.0087719334 4.8712240698 22.4752382646 -0.00285521029662 0.00164833437295 0.0158143426317
Cr 2.10710877 3.64961978 13.1367867339 -0 -2.57110337382e-07 -0.0291668537829
61
Lattice="8.42843558953 0 0 -4.21421779477 7.29923593142 0 0 0 31.0334408416" Properties=species:S:1:pos:R:3:forces:R:3 energy=-133599.456661 ionic_step=38 pbc="T T T"
Te 2.1071096 1.1902791592 3.4745847168 -2.57110337382e-07 -0.00129917853479 0.0350626509294
Te 4.23696063 4.8792893704 3.4745847168 0.00112511483638 0.000649460712226 0.0350626509294
Te 6.32132606 1.21654029 3.4323966047 2.57110337382e-07 0 -0.0102088230561
Te -0.0227428 4.8792901604 3.4745847268 -0.00112511483638 0.000649203601889 0.0350626509294
Te -0.4147061266 0.2394308068 7.1328747475 0.0172803857754 -0.00997665242142 -0.0303233360805
Te 2.10710848 3.64961994 7.0010654016 2.57110337382e-07 -5.14220674763e-07 -0.0159428978004
Te 4.6289239566 0.2394303168 7.1328745575 -0.0172803857754 -0.00997665242142 -0.0303233360805
Te -2.10710848 3.1707583265 7.1328745575 -0 0.0199535619532 -0.0303233360805
Te -0.0119983805 0.0069272662 0.0243100942 0.00403149009014 -0.00232736277398 -0.00146784291611
Te 2.10710891 3.6496197 0.0294973506 -0 -2.57110337382e-07 0.00341673927346
Te 4.2262162005 0.0069272662 0.0243100942 -0.00403149009014 -0.00232736277398 -0.00146784291611
Te -2.10710891 3.6357651575 0.0243100942 0 0.00465472554796 -0.00146784291611
Te 0.0763315292 2.4771500945 13.9973203919 -0.0271377390003 -0.0156677897394 -0.0373077383954
Te 2.1071087 5.9945592709 13.9973203919 0 0.0313355794787 -0.0373077383954
Te 4.1378863008 2.4771498445 13.9973207819 0.0271377390003 -0.0156677897394 -0.0373077383954
Te -2.1071087 6.08269937 13.8617331277 -0 -2.57110337382e-07 0.0181607315706
Te 2.10710913 1.3118798822 17.3139907531 -0 -0.0272760643618 -0.000104901017652
Te 4.1316511325 4.8184894139 17.3139907531 0.0236222693573 0.0136381607361 -0.000104901017652
Te 6.32132652 1.21654002 17.2188843516 0 2.57110337382e-07 0.00486324203157
Te 0.0825666975 4.8184896639 17.3139903731 -0.0236222693573 0.0136379036257 -0.000104901017652
Te 2.10710868 0.638945966 10.1946523842 0 0.0202839487367 0.0444242954238
Te 4.714428484 5.154956762 10.1946523842 -0.0175665495809 -0.0101422314787 0.0444245525341
Te 6.32132698 1.21653976 10.5320941966 -0 2.57110337382e-07 0.0519828251222
Te -0.500210654 5.154956492 10.1946528042 0.0175665495809 -0.0101419743684 0.0444245525341
Te 0.0877432967 -0.05065864 24.1189279142 -0.0254824626482 0.0147123677257 0.00618350361403
Te 2.10710934 3.64961945 24.0536242412 -2.57110337382e-07 -2.57110337382e-07 0.00616936254547
Te 4.1264745233 -0.05065814 24.1189281042 0.0254824626482 0.0147123677257 0.00618324650369
Te -2.10710934 3.75093673 24.1189281042 2.57110337382e-07 -0.029424478341 0.00618324650369
Te 0.0143764236 2.4413808259 27.6211444202 -0.00436059132199 -0.00251762442364 -0.0104880448825
Te 2.10710823 6.0660986281 27.6211444202 2.57110337382e-07 0.00503524884728 -0.0104880448825
Te 4.1998414064 2.4413800359 27.6211444102 0.00436059132199 -0.0025173673133 -0.0104880448825
Te -2.10710823 6.0826991 27.6387706838 -2.57110337382e-07 -0 0.00397081205052
Te -0.0740429721 2.3903307727 20.6978716116 0.0162987385073 0.00941049545851 0.0019602092122
Te 2.10710915 6.1681971346 20.6978716116 -0 -0.018820219586 0.0019602092122
Te 4.2882608021 2.3903310427 20.6978711816 -0.0162987385073 0.00941023834817 0.0019602092122
Te -2.10710915 6.08269963 20.6284490283 0 -2.57110337382e-07 -0.00152543563169
Sb 0.1349708602 2.511003616 8.8279197081 -0.00938272754207 -0.00541680058796 0.00780355584987
Sb 2.10711038 5.926849318 8.8279197081 -2.57110337382e-07 0.0108341153966 0.00780355584987
Sb 4.0792469698 2.511005306 8.8279200981 0.00938272754207 -0.00541680058796 0.00780355584987
Sb -2.10711038 6.08270034 7.6627799643 2.57110337382e-07 -2.57110337382e-07 -0.0403262137563
Sb 0.0038864152 2.4353210495 1.9045394334 -0.00221911932194 -0.0012806665905 0.0125858081252
Sb 2.10711114 6.078213131 1.9045394334 -2.57110337382e-07 0.00256210451201 0.0125860652355
Sb 4.2103314148 2.4353236195 1.9045397234 0.00221911932194 -0.00128092370084 0.0125855510148
Sb -2.10711114 6.08270078 1.8786457903 2.57110337382e-07 -2.57110337382e-07 0.0120376488859
Sb -0.0110086491 0.0063558554 18.7939780938 -0.00279787469139 0.00161542424977 -0.0197028793742
Sb 2.10710819 3.64962011 18.9808704177 0 -2.57110337382e-07 -0.0290609243239
Sb 4.2252264791 0.0063550154 18.7939783438 0.00279787469139 0.00161542424977 -0.0197028793742
Sb 6.32132747 3.6369084091 18.7939783438 -0 -0.00323084849954 -0.0197026222639
Sb -0.0271731237 0.0156884133 12.3454608718 0.010858797989 -0.00626886424604 0.0154438466355
Sb 2.10710964 3.64961928 10.7554468857 -0 -2.57110337382e-07 -0.0550318966132
Sb 4.2413909537 0.0156892533 12.3454606318 -0.0108585408786 -0.00626912135638 0.0154438466355
Sb -2.10710964 3.6182424434 12.3454606318 2.57110337382e-07 0.0125382427128 0.0154438466355
Sb 2.10710669 1.2172644806 29.2158811826 2.57110337382e-07 9.51308248312e-05 -0.0125001903828
Sb 4.2135892082 4.8657992347 29.2158811826 -8.22753079621e-05 -4.7822522753e-05 -0.0125001903828
Sb 6.32132897 1.21653861 29.1858634497 -2.57110337382e-07 2.57110337382e-07 -0.00998693683491
Sb 0.0006286118 4.8657966647 29.2158808926 8.22753079621e-05 -4.75654124156e-05 -0.0124999332725
Sb 2.10710745 1.2066692343 22.4738072186 2.57110337382e-07 -0.00353449580799 0.0158922470639
Sb 4.2227653384 4.8710961978 22.4738072186 0.00306089856653 0.00176686223849 0.0158925041742
Sb 6.32132821 1.21653905 22.6558350684 -2.57110337382e-07 2.57110337382e-07 0.00726079592766
Sb -0.0085475084 4.8710944978 22.4738068386 -0.00306089856653 0.00176711934882 0.0158925041742
Cr 2.10710877 3.64961978 13.1272665724 -0 -2.57110337382e-07 -0.0281633521361
61
Lattice="8.42843558953 0 0 -4.21421779477 7.29923593142 0 0 0 31.0334408416" Properties=species:S:1:pos:R:3:forces:R:3 energy=-133599.462605 ionic_step=39 pbc="T T T"
Te 2.1071096 1.1900984113 3.4771030958 -2.57110337382e-07 -0.00159279854008 0.0342190719125
Te 4.2371171622 4.8793797443 3.4771030958 0.00137939696005 0.000796270714871 0.0342193290228
Te 6.32132606 1.21654029 3.4342832431 2.57110337382e-07 0 -0.0109274464491
Te -0.0228993322 4.8793805343 3.4771031058 -0.00137939696005 0.000796013604534 0.0342190719125
Te -0.4134248753 0.2386910756 7.1244895146 0.0175575507191 -0.0101368321616 -0.0296227104111
Te 2.10710848 3.64961994 6.9891304085 2.57110337382e-07 -5.14220674763e-07 -0.0136682426455
Te 4.6276427053 0.2386905856 7.1244893246 -0.0175575507191 -0.0101365750513 -0.0296227104111
Te -2.10710848 3.1722377887 7.1244893246 -0 0.0202736643232 -0.0296227104111
Te -0.0123668006 0.0071399738 0.0279919109 0.00409473923314 -0.00236387244189 -0.00163522174575
Te 2.10710891 3.6496197 0.033971972 -0 -2.57110337382e-07 0.00303827285684
Te 4.2265846206 0.0071399738 0.0279919109 -0.00409473923314 -0.00236387244189 -0.00163522174575
Te -2.10710891 3.6353397424 0.0279919109 0 0.00472800199411 -0.00163522174575
Te 0.0787038251 2.4785197409 13.9973891841 -0.0276141644555 -0.0159428978004 -0.0377229715903
Te 2.1071087 5.9918199782 13.9973891841 0 0.0318857956007 -0.0377229715903
Te 4.1355140049 2.4785194909 13.9973895741 0.0276141644555 -0.0159428978004 -0.0377232287006
Te -2.1071087 6.08269937 13.8621295459 -0 -2.57110337382e-07 0.0192997303652
Te 2.10710913 1.3187903111 17.3170966646 -0 -0.0290233862147 -5.09078468016e-05
Te 4.1256665283 4.8150341994 17.3170966646 0.0251353636928 0.0145118216625 -5.09078468016e-05
Te 6.32132652 1.21654002 17.2138345898 0 2.57110337382e-07 0.00496017262877
Te 0.0885513017 4.8150344494 17.3170962846 -0.0251353636928 0.0145118216625 -5.09078468016e-05
Te 2.10710868 0.6379874716 10.1950152687 0 0.0202813776333 0.0436887027486
Te 4.715258564 5.1554360092 10.1950152687 -0.0175639784776 -0.0101406888167 0.0436887027486
Te 6.32132698 1.21653976 10.5291121989 -0 2.57110337382e-07 0.0522407067905
Te -0.501040734 5.1554357392 10.1950156887 0.0175639784776 -0.0101406888167 0.0436887027486
Te 0.0945468534 -0.0545866772 24.1233394539 -0.0269981280871 0.0155875713141 0.0057898676875
Te 2.10710934 3.64961945 24.0558613562 -2.57110337382e-07 -2.57110337382e-07 0.00544431139406
Te 4.1196709666 -0.0545861772 24.1233396439 0.0269981280871 0.0155875713141 0.0057898676875
Te -2.10710934 3.7587928043 24.1233396439 2.57110337382e-07 -0.0311748855179 0.0057898676875
Te 0.0144373168 2.4414159827 27.6220466601 -0.00440584274137 -0.00254384967805 -0.0101106069072
Te 2.10710823 6.0660283146 27.6220466601 2.57110337382e-07 0.00508744224577 -0.0101106069072
Te 4.1997805132 2.4414151927 27.6220466501 0.00440584274137 -0.00254359256772 -0.0101106069072
Te -2.10710823 6.0826991 27.6424834527 -2.57110337382e-07 -0 0.0049920543106
Te -0.0795537259 2.387149136 20.7008580927 0.0172821855478 0.00997819508344 0.00223865970758
Te 2.10710915 6.174560408 20.7008580927 -0 -0.0199558759462 0.00223865970758
Te 4.2937715559 2.387149406 20.7008576627 -0.0172821855478 0.00997819508344 0.00223865970758
Te -2.10710915 6.08269963 20.6262575267 0 -2.57110337382e-07 -0.00166967453096
Sb 0.1310334955 2.5087303764 8.8216001009 -0.00937450001127 -0.00541191549155 0.00790717131583
Sb 2.10711038 5.9313957972 8.8216001009 -2.57110337382e-07 0.0108246023141 0.00790717131583
Sb 4.0831843345 2.5087320664 8.8216004909 0.00937424290093 -0.00541217260188 0.00790717131583
Sb -2.10711038 6.08270034 7.6501142742 2.57110337382e-07 -2.57110337382e-07 -0.0416205071947
Sb 0.0039641708 2.4353659418 1.9049405839 -0.00227259827212 -0.00131151983098 0.0129064247159
Sb 2.10711114 6.0781233465 1.9049405839 -2.57110337382e-07 0.00262381099298 0.0129066818262
Sb 4.2102536592 2.4353685118 1.9049408739 0.00227259827212 -0.00131203405166 0.0129064247159
Sb -2.10711114 6.08270078 1.8781211041 2.57110337382e-07 -2.57110337382e-07 0.0124022313443
Sb -0.011564487 0.0066767688 18.7948081448 -0.0029534264455 0.00170515575751 -0.0196637986029
Sb 2.10710819 3.64962011 18.9923543794 0 -2.57110337382e-07 -0.0292092769886
Sb 4.225782317 0.0066759288 18.7948083948 0.0029534264455 0.00170541286785 -0.0196635414926
Sb 6.32132747 3.6362665824 18.7948083948 -0 -0.00341056862537 -0.0196635414926
Sb -0.0262558032 0.0151587978 12.3488005822 0.0106299697887 -0.00613696664296 0.0152371299242
Sb 2.10710964 3.64961928 10.7414351384 -0 -2.57110337382e-07 -0.0540343085041
Sb 4.2404736332 0.0151596378 12.3488003422 -0.0106297126784 -0.00613696664296 0.0152368728139
Sb -2.10710964 3.6193016744 12.3488003422 2.57110337382e-07 0.0122739332859 0.0152368728139
Sb 2.10710669 1.2176338039 29.2189106068 2.57110337382e-07 3.65096679082e-05 -0.0127714417888
Sb 4.213269365 4.865614573 29.2189106068 -3.16245714979e-05 -1.85119442915e-05 -0.0127714417888
Sb 6.32132897 1.21653861 29.1870576113 -2.57110337382e-07 2.57110337382e-07 -0.0101478879061
Sb 0.000948455 4.865612003 29.2189103168 3.16245714979e-05 -1.82548339541e-05 -0.0127711846784
Sb 2.10710745 1.2064720875 22.4714560801 2.57110337382e-07 -0.00373504187114 0.0160650252106
Sb 4.2229360724 4.8711947712 22.4714560801 0.0032347051546 0.00186713527007 0.0160650252106
Sb 6.32132821 1.21653905 22.6650517866 -2.57110337382e-07 2.57110337382e-07 0.00702322597592
Sb -0.0087182424 4.8711930712 22.4714557001 -0.0032347051546 0.0018673923804 0.0160650252106
Cr 2.10710877 3.64961978 13.1162773399 -0 -2.57110337382e-07 -0.0275460302161
61
Lattice="8.42843558953 0 0 -4.21421779477 7.29923593142 0 0 0 31.0334408416" Properties=species:S:1:pos:R:3:forces:R:3 energy=-133599.472185 ionic_step=40 pbc="T T T"
Te 2.1071096 1.1896573243 3.47990875 -2.57110337382e-07 -0.00191315802046 0.033170833067
Te 4.2374991545 4.8796002878 3.47990875 0.00165681901409 0.00095645045506 0.033170833067
Te 6.32132606 1.21654029 3.4364872134 2.57110337382e-07 0 -0.0116458127317
Te -0.0232813245 4.8796010778 3.47990876 -0.00165681901409 0.000956193344722 0.033170833067
Te -0.4108090589 0.2371808327 7.1125134087 0.0180085222509 -0.010397027823 -0.0286528902185
Te 2.10710848 3.64961994 6.9719760657 2.57110337382e-07 -5.14220674763e-07 -0.0108094328042
Te 4.6250268889 0.2371803427 7.1125132187 -0.0180085222509 -0.010397027823 -0.0286528902185
Te -2.10710848 3.1752582747 7.1125132187 -0 0.0207943127564 -0.0286528902185
Te -0.0129808492 0.0074944951 0.0340994134 0.00418267096852 -0.00241452317835 -0.00183705336059
Te 2.10710891 3.6496197 0.0412996886 -0 -2.57110337382e-07 0.00248882806585
Te 4.2271986692 0.0074944951 0.0340994134 -0.00418267096852 -0.00241452317835 -0.00183705336059
Te -2.10710891 3.6346306999 0.0340994134 0 0.00482930346704 -0.00183705336059
Te 0.0835431012 2.4813136995 13.9964793801 -0.0286858003417 -0.0165615052721 -0.0383328373106
Te 2.1071087 5.9862320609 13.9964793801 0 0.0331232676545 -0.0383328373106
Te 4.1306747288 2.4813134495 13.9964797701 0.0286858003417 -0.0165615052721 -0.0383328373106
Te -2.1071087 6.08269937 13.8612097611 -0 -2.57110337382e-07 0.0214409452549
Te 2.10710913 1.3314504104 17.3236002553 -0 -0.0320688581609 -0.000188461877301
Te 4.1147025658 4.8087041498 17.3236002553 0.0277728015336 0.0160344290805 -0.000188461877301
Te 6.32132652 1.21654002 17.2075585198 0 2.57110337382e-07 0.00478739448205
Te 0.0995152642 4.8087043998 17.3235998753 -0.0277728015336 0.0160344290805 -0.000188204766963
Te 2.10710868 0.6377003672 10.1931751292 0 0.0204158463398 0.042830211332
Te 4.7155072037 5.1555795614 10.1931751292 -0.0176804494604 -0.0102080517251 0.0428304684424
Te 6.32132698 1.21653976 10.5227237115 -0 2.57110337382e-07 0.0528539149452
Te -0.5012893737 5.1555792914 10.1931755492 0.0176804494604 -0.0102080517251 0.0428304684424
Te 0.1061681901 -0.0612962621 24.1289922819 -0.0294087946104 0.0169793095703 0.00565925563611
Te 2.10710934 3.64961945 24.0573891851 -2.57110337382e-07 -2.57110337382e-07 0.00480282110229
Te 4.1080496299 -0.0612957621 24.1289924719 0.0294087946104 0.0169793095703 0.00565899852577
Te -2.10710934 3.7722119742 24.1289924719 2.57110337382e-07 -0.0339586191407 0.00565899852577
Te 0.0145450639 2.4414781905 27.6254396431 -0.00447192009808 -0.00258190200799 -0.0100584135087
Te 2.10710823 6.0659038989 27.6254396431 2.57110337382e-07 0.00516354690564 -0.0100584135087
Te 4.1996727661 2.4414774005 27.6254396331 0.00447192009808 -0.00258164489765 -0.0100581563984
Te -2.10710823 6.0826991 27.6506145254 -2.57110337382e-07 -0 0.00619584491022
Te -0.0888943982 2.3817562939 20.7060569562 0.0188341035442 0.0108742246092 0.00264720803368
Te 2.10710915 6.1853460923 20.7060569562 -0 -0.0217476778874 0.00264720803368
Te 4.3031122282 2.3817565639 20.7060565262 -0.0188341035442 0.0108739674989 0.00264720803368
Te -2.10710915 6.08269963 20.6229186127 0 -2.57110337382e-07 -0.00215021375152
Sb 0.1256588784 2.5056273383 8.809619091 -0.00941358078255 -0.00543454120124 0.00803341249149
Sb 2.10711038 5.9376018733 8.809619091 -2.57110337382e-07 0.0108695966231 0.00803341249149
Sb 4.0885589516 2.5056290283 8.809619481 0.00941358078255 -0.00543479831157 0.00803341249149
Sb -2.10711038 6.08270034 7.6314950014 2.57110337382e-07 -2.57110337382e-07 -0.0433850554401
Sb 0.0038472457 2.435298435 1.9048103765 -0.00232916254634 -0.00134442995417 0.0134862085267
Sb 2.10711114 6.07825836 1.9048103765 -2.57110337382e-07 0.00268937412901 0.013486465637
Sb 4.2103705843 2.435301005 1.9048106665 0.00232916254634 -0.00134468706451 0.0134859514163
Sb -2.10711114 6.08270078 1.8764379269 2.57110337382e-07 -2.57110337382e-07 0.0130432074154
Sb -0.012754487 0.0073638159 18.7968005506 -0.00319459594197 0.00184450956038 -0.0195882081638
Sb 2.10710819 3.64962011 19.0129428363 0 -2.57110337382e-07 -0.0292974658343
Sb 4.226972317 0.0073629759 18.7968008006 0.00319459594197 0.00184450956038 -0.0195879510534
Sb 6.32132747 3.6348924881 18.7968008006 -0 -0.00368901912075 -0.0195879510534
Sb -0.0250488219 0.0144619465 12.3527953278 0.0102669299923 -0.005927421718 0.014755305152
Sb 2.10710964 3.64961928 10.7204175175 -0 -2.57110337382e-07 -0.0526387135928
Sb 4.2392666519 0.0144627865 12.3527950878 -0.0102669299923 -0.005927421718 0.0147550480417
Sb -2.10710964 3.6206953771 12.3527950878 2.57110337382e-07 0.011854843436 0.0147550480417
Sb 2.10710669 1.2182866792 29.2246604396 2.57110337382e-07 -6.4020474008e-05 -0.0132792347051
Sb 4.2127039587 4.8652881354 29.2246604396 5.55358328744e-05 3.18816818353e-05 -0.0132792347051
Sb 6.32132897 1.21653861 29.1899064297 -2.57110337382e-07 2.57110337382e-07 -0.0105047570544
Sb 0.0015138613 4.8652855654 29.2246601496 -5.55358328744e-05 3.21387921727e-05 -0.0132789775947
Sb 2.10710745 1.2058849232 22.4673794938 2.57110337382e-07 -0.00403406119352 0.0163280490858
Sb 4.2234445714 4.8714883534 22.4673794938 0.00349361526434 0.00201677348642 0.0163280490858
Sb 6.32132821 1.21653905 22.6805374118 -2.57110337382e-07 2.57110337382e-07 0.00665504397279
Sb -0.0092267414 4.8714866534 22.4673791138 -0.00349361526434 0.00201703059676 0.0163283061961
Cr 2.10710877 3.64961978 13.1021078609 -0 -2.57110337382e-07 -0.0267590154733
61
Lattice="8.42843558953 0 0 -4.21421779477 7.29923593142 0 0 0 31.0334408416" Properties=species:S:1:pos:R:3:forces:R:3 energy=-133599.485089 ionic_step=41 pbc="T T T"
Te 2.1071096 1.1888372997 3.4832722037 -2.57110337382e-07 -0.00223223194915 0.0318042916238
Te 4.2382093164 4.8800103001 3.4832722037 0.00193321262677 0.00111611597457 0.0318042916238
Te 6.32132606 1.21654029 3.4395585239 2.57110337382e-07 0 -0.0124312848124
Te -0.0239914864 4.8800110901 3.4832722137 -0.00193321262677 0.00111585886424 0.0318042916238
Te -0.4071499637 0.2350682521 7.0966369234 0.0185613094763 -0.0107161017517 -0.0273567970077
Te 2.10710848 3.64961994 6.9481166749 2.57110337382e-07 -5.14220674763e-07 -0.00712941254526
Te 4.6213677937 0.2350677621 7.0966367334 -0.0185613094763 -0.0107161017517 -0.0273567970077
Te -2.10710848 3.1794834358 7.0966367334 -0 0.0214327177241 -0.0273567970077
Te -0.0138596782 0.0080018875 0.0428899968 0.00428474377246 -0.00247365855595 -0.0020406847478
Te 2.10710891 3.6496197 0.0517553837 -0 -2.57110337382e-07 0.00180362901673
Te 4.2280774982 0.0080018875 0.0428899968 -0.00428474377246 -0.00247365855595 -0.0020406847478
Te -2.10710891 3.6336159151 0.0428899968 0 0.0049473171119 -0.0020406847478
Te 0.0914713416 2.4858910734 13.9949666192 -0.0303742439273 -0.0175362105611 -0.0392995721791
Te 2.1071087 5.9770773132 13.9949666192 0 0.0350726782326 -0.0392995721791
Te 4.1227464884 2.4858908234 13.9949670092 0.0303742439273 -0.0175362105611 -0.0392995721791
Te -2.1071087 6.08269937 13.85937709 -0 -2.57110337382e-07 0.0246936481331
Te 2.10710913 1.3510531204 17.3343693564 -0 -0.0363150353828 -0.00048413876529
Te 4.0977261289 4.7989027948 17.3343693564 0.0314499935789 0.0181576462466 -0.00048413876529
Te 6.32132652 1.21654002 17.2001418584 0 2.57110337382e-07 0.00431688256464
Te 0.1164917011 4.7989030448 17.3343689764 -0.0314502506892 0.0181576462466 -0.000483881654952
Te 2.10710868 0.6371691454 10.1881290859 0 0.0204970932064 0.0417423774946
Te 4.715967255 5.1558451723 10.1881290859 -0.0177508976928 -0.0102486751584 0.0417426346049
Te 6.32132698 1.21653976 10.5126817305 -0 2.57110337382e-07 0.0539677169267
Te -0.501749425 5.1558449023 10.1881295059 0.0177508976928 -0.0102486751584 0.0417426346049
Te 0.1234349212 -0.0712652187 24.1360281389 -0.0325362847543 0.0187849954698 0.00585337394083
Te 2.10710934 3.64961945 24.057699273 -2.57110337382e-07 -2.57110337382e-07 0.00433102363319
Te 4.0907828988 -0.0712647187 24.1360283289 0.0325362847543 0.0187847383594 0.00585311683049
Te -2.10710934 3.7921498873 24.1360283289 2.57110337382e-07 -0.0375697338292 0.00585311683049
Te 0.0147326909 2.4415865171 27.6316791172 -0.00456345137819 -0.00263460962715 -0.0104445932355
Te 2.10710823 6.0656872458 27.6316791172 2.57110337382e-07 0.0052692192543 -0.0104445932355
Te 4.1994851391 2.4415857271 27.6316791072 0.00456345137819 -0.00263435251681 -0.0104445932355
Te -2.10710823 6.0826991 27.6636572015 -2.57110337382e-07 -0 0.00760995176582
Te -0.1027488406 2.3737574241 20.714006349 0.0208472774859 0.0120366204445 0.00318919662488
Te 2.10710915 6.2013438318 20.714006349 -0 -0.024072469558 0.00318919662488
Te 4.3169666706 2.3737576941 20.714005919 -0.0208472774859 0.0120363633342 0.00318919662488
Te -2.10710915 6.08269963 20.6183588502 0 -2.57110337382e-07 -0.00302464600896
Sb 0.1202554849 2.5025076862 8.7910057997 -0.00959098691535 -0.00553687111551 0.00829669347697
Sb 2.10711038 5.9438411777 8.7910057997 -2.57110337382e-07 0.011074513562 0.00829643636663
Sb 4.0939623451 2.5025093762 8.7910061897 0.00959098691535 -0.00553712822585 0.00829669347697
Sb -2.10711038 6.08270034 7.6058752571 2.57110337382e-07 -2.57110337382e-07 -0.0456008323277
Sb 0.0035002032 2.4350980698 1.9049141285 -0.00238238438618 -0.00137502608432 0.0143066476133
Sb 2.10711114 6.0786590904 1.9049141285 -2.57110337382e-07 0.00275082349965 0.0143069047236
Sb 4.2107176268 2.4351006398 1.9049144185 0.00238238438618 -0.00137528319465 0.0143063905029
Sb -2.10711114 6.08270078 1.8742148508 2.57110337382e-07 -2.57110337382e-07 0.0139286954173
Sb -0.014844831 0.0085706771 18.7991040597 -0.00351624097403 0.00203014322397 -0.0193928043073
Sb 2.10710819 3.64962011 19.0442708824 0 -2.57110337382e-07 -0.0290606672136
Sb 4.229062661 0.0085698371 18.7991043097 0.00351624097403 0.0020304003343 -0.019392547197
Sb 6.32132747 3.6324787658 18.7991043097 -0 -0.00406028644793 -0.019392547197
Sb -0.024209225 0.0139772048 12.3582575763 0.00976762171713 -0.00563894391945 0.013847705661
Sb 2.10710964 3.64961928 10.6888910862 -0 -2.57110337382e-07 -0.0504093098574
Sb 4.238427055 0.0139780448 12.3582573363 -0.00976762171713 -0.00563920102979 0.013847705661
Sb -2.10710964 3.6216648605 12.3582573363 2.57110337382e-07 0.0112784020596 0.0138474485507
Sb 2.10710669 1.2192704829 29.2330896492 2.57110337382e-07 -0.000213401580027 -0.0139747181677
Sb 4.2118519601 4.8647962335 29.2330896492 0.000185119442915 0.000106443679676 -0.0139747181677
Sb 6.32132897 1.21653861 29.1943682853 -2.57110337382e-07 2.57110337382e-07 -0.0109976375712
Sb 0.0023658599 4.8647936635 29.2330893592 -0.000185119442915 0.000106957900351 -0.0139744610574
Sb 2.10710745 1.2047883903 22.4618855391 2.57110337382e-07 -0.00442332624431 0.0165471070932
Sb 4.2243941963 4.8720366198 22.4618855391 0.00383094402699 0.00221140601182 0.0165473642035
Sb 6.32132821 1.21653905 22.7045556326 -2.57110337382e-07 2.57110337382e-07 0.00606317597613
Sb -0.0101763663 4.8720349198 22.4618851592 -0.00383094402699 0.00221166312216 0.0165473642035
Cr 2.10710877 3.64961978 13.0807875501 -0 -2.57110337382e-07 -0.0258444740033
61
Lattice="8.42843558953 0 0 -4.21421779477 7.29923593142 0 0 0 31.0334408416" Properties=species:S:1:pos:R:3:forces:R:3 energy=-133599.504437 ionic_step=42 pbc="T T T"
Te 2.1071096 1.1875596294 3.4866907246 -2.57110337382e-07 -0.00232093501554 0.0300281734131
Te 4.2393158108 4.8806491353 3.4866907246 0.00201008861765 0.0011603389526 0.0300281734131
Te 6.32132606 1.21654029 3.4422049647 2.57110337382e-07 0 -0.0132833484705
Te -0.0250979808 4.8806499253 3.4866907346 -0.00201008861765 0.00116008184227 0.0300281734131
Te -0.4017776555 0.231966547 7.0728892434 0.0192562787182 -0.0111174509884 -0.0254881190757
Te 2.10710848 3.64961994 6.9198582551 2.57110337382e-07 -5.14220674763e-07 -0.00325270287821
Te 4.6159954855 0.231966057 7.0728890534 -0.0192562787182 -0.011117193878 -0.0254881190757
Te -2.10710848 3.185686846 7.0728890534 -0 0.0222351590871 -0.0254881190757
Te -0.0152024919 0.0087771617 0.0553715459 0.00444620906434 -0.00256673249808 -0.00227774047886
Te 2.10710891 3.6496197 0.0666271186 -0 -2.57110337382e-07 0.000910427704668
Te 4.2294203119 0.0087771617 0.0553715459 -0.00444620906434 -0.00256673249808 -0.00227774047886
Te -2.10710891 3.6320653666 0.0553715459 0 0.00513397921684 -0.00227774047886
Te 0.1020248562 2.4919841507 13.9906529037 -0.0323768763451 -0.0186924357483 -0.0403593809898
Te 2.1071087 5.9648911586 13.9906529037 0 0.037385128607 -0.0403593809898
Te 4.1121929738 2.4919839007 13.9906532937 0.0323768763451 -0.0186924357483 -0.0403593809898
Te -2.1071087 6.08269937 13.8581135872 -0 -2.57110337382e-07 0.0292933520689
Te 2.10710913 1.3808099674 17.3516847676 -0 -0.0413739383811 -0.00112151529166
Te 4.0719559555 4.7840243713 17.3516847676 0.0358311537278 0.0206870977457 -0.00112151529166
Te 6.32132652 1.21654002 17.1912070288 0 2.57110337382e-07 0.00339848443951
Te 0.1422618745 4.7840246213 17.3516843876 -0.0358311537278 0.0206868406354 -0.00112151529166
Te 2.10710868 0.6373892486 10.1789768736 0 0.0205207473574 0.0406573718708
Te 4.7157766401 5.1557351207 10.1789768736 -0.0177714665198 -0.0102605022339 0.0406573718708
Te 6.32132698 1.21653976 10.500104261 -0 2.57110337382e-07 0.0550349819372
Te -0.5015588101 5.1557348507 10.1789772936 0.0177714665198 -0.0102605022339 0.0406573718708
Te 0.1493060383 -0.086201922 24.1443753863 -0.0361435427878 0.0208675892026 0.00662599050466
Te 2.10710934 3.64961945 24.0558658081 -2.57110337382e-07 -2.57110337382e-07 0.00413073468037
Te 4.0649117817 -0.086201422 24.1443755763 0.0361435427878 0.0208673320922 0.00662599050466
Te -2.10710934 3.8220232941 24.1443755763 0 -0.0417349212948 0.00662599050466
Te 0.0152645376 2.441893579 27.6422200013 -0.00478045250294 -0.00276007947179 -0.0115990186503
Te 2.10710823 6.0650731219 27.6422200013 2.57110337382e-07 0.00551990183325 -0.0115990186503
Te 4.1989532924 2.441892789 27.6422199913 0.00478045250294 -0.00275982236145 -0.01159876154
Te -2.10710823 6.0826991 27.6842760657 -2.57110337382e-07 -0 0.00922049091918
Te -0.1232863586 2.361900077 20.7257667969 0.0231620418534 0.0133728228679 0.00394021592037
Te 2.10710915 6.2250585261 20.7257667969 -0 -0.0267451315151 0.00394021592037
Te 4.3375041886 2.361900347 20.7257663669 -0.0231620418534 0.0133728228679 0.00394021592037
Te -2.10710915 6.08269963 20.611650334 0 -2.57110337382e-07 -0.0044989166835
Sb 0.1124452973 2.4979984701 8.7640771212 -0.00977764902029 -0.00564460034688 0.00864867752884
Sb 2.10711038 5.9528596097 8.7640771212 -2.57110337382e-07 0.0112899720248 0.00864867752884
Sb 4.1017725327 2.4980001601 8.7640775112 0.00977764902029 -0.00564485745721 0.00864867752884
Sb -2.10711038 6.08270034 7.5688664346 2.57110337382e-07 -2.57110337382e-07 -0.0483827661781
Sb 0.0030620945 2.4348451275 1.9046748677 -0.00248522852113 -0.00143441857225 0.0155243221711
Sb 2.10711114 6.0791649749 1.9046748677 -2.57110337382e-07 0.00286935136518 0.0155243221711
Sb 4.2111557355 2.4348476975 1.9046751577 0.00248522852113 -0.00143467568259 0.0155240650608
Sb -2.10711114 6.08270078 1.8708196694 2.57110337382e-07 -2.57110337382e-07 0.0152294166141
Sb -0.0181869528 0.0105002529 18.8021270937 -0.00394870056151 0.00227979736156 -0.0190570182067
Sb 2.10710819 3.64962011 19.0915605294 0 -2.57110337382e-07 -0.0280409676155
Sb 4.2324047828 0.0104994129 18.8021273437 0.00394870056151 0.0022800544719 -0.0190567610964
Sb 6.32132747 3.6286196141 18.8021273437 -0 -0.00455959472313 -0.0190567610964
Sb -0.0223607684 0.0129099973 12.3642328596 0.00896518035416 -0.00517563109149 0.0124518536394
Sb 2.10710964 3.64961928 10.6480611133 -0 -0 -0.0473877491725
Sb 4.2365785984 0.0129108373 12.3642326196 -0.00896492324382 -0.00517588820183 0.0124515965291
Sb -2.10710964 3.6237992753 12.3642326196 2.57110337382e-07 0.0103517764037 0.0124515965291
Sb 2.10710669 1.2207258306 29.2458406595 2.57110337382e-07 -0.000441458449284 -0.014969478063
Sb 4.2105915927 4.8640685597 29.2458406595 0.000382580182024 0.000220343559136 -0.0149692209527
Sb 6.32132897 1.21653861 29.2009899971 -2.57110337382e-07 2.57110337382e-07 -0.0117034054473
Sb 0.0036262273 4.8640659897 29.2458403695 -0.000382580182024 0.000220857779811 -0.0149689638424
Sb 2.10710745 1.203194999 22.4537348146 2.57110337382e-07 -0.0048861248516 0.0166054711398
Sb 4.225774113 4.8728333155 22.4537348146 0.00423177904296 0.00244280531546 0.0166054711398
Sb 6.32132821 1.21653905 22.7412532697 -2.57110337382e-07 2.57110337382e-07 0.00523373802774
Sb -0.011556283 4.8728316155 22.4537344346 -0.00423177904296 0.0024430624258 0.0166054711398
Cr 2.10710877 3.64961978 13.0536083455 -0 -2.57110337382e-07 -0.0247322146838
61
Lattice="8.42843558953 0 0 -4.21421779477 7.29923593142 0 0 0 31.0334408416" Properties=species:S:1:pos:R:3:forces:R:3 energy=-133599.529336 ionic_step=43 pbc="T T T"
Te 2.1071096 1.1855234805 3.4916515546 -2.57110337382e-07 -0.00217643900594 0.027010983604
Te 4.2410791666 4.8816672098 3.4916515546 0.00188487588334 0.0010880909478 0.027010983604
Te 6.32132606 1.21654029 3.4467934751 2.57110337382e-07 0 -0.0143894371419
Te -0.0268613366 4.8816679998 3.4916515646 -0.00188487588334 0.00108783383746 0.027010983604
Te -0.3945895379 0.2278164834 7.038008516 0.0200132115514 -0.0115542814516 -0.022566574312
Te 2.10710848 3.64961994 6.8769776663 2.57110337382e-07 -5.14220674763e-07 0.00213941511735
Te 4.6088073679 0.2278159934 7.038008326 -0.0200132115514 -0.0115542814516 -0.0225663172016
Te -2.10710848 3.1939869731 7.038008326 -0 0.0231090771239 -0.022566574312
Te -0.0171585157 0.0099064731 0.0733852519 0.00464829778952 -0.00268346059125 -0.00246594524583
Te 2.10710891 3.6496197 0.0882462172 -0 -2.57110337382e-07 -0.000249911247935
Te 4.2313763357 0.0099064731 0.0733852519 -0.00464829778952 -0.00268346059125 -0.00246594524583
Te -2.10710891 3.6298067438 0.0733852519 0 0.00536717829284 -0.00246594524583
Te 0.1181150275 2.5012738198 13.9846775646 -0.0349497794913 -0.0201780192777 -0.0421506687103
Te 2.1071087 5.9463118205 13.9846775646 0 0.0403562956658 -0.0421506687103
Te 4.0961028025 2.5012735698 13.9846779546 0.0349497794913 -0.0201780192777 -0.0421506687103
Te -2.1071087 6.08269937 13.8563245817 -0 -2.57110337382e-07 0.0358440092447
Te 2.10710913 1.426155416 17.378327345 -0 -0.0460793146655 -0.00192524220631
Te 4.0326856633 4.761351647 17.378327345 0.039906095465 0.0230396573328 -0.00192524220631
Te 6.32132652 1.21654002 17.1790626917 0 2.57110337382e-07 0.00203759942375
Te 0.1815321667 4.761351897 17.378326965 -0.039906095465 0.0230396573328 -0.00192498509598
Te 2.10710868 0.6375730299 10.1639256435 0 0.0203086313291 0.0389015653769
Te 4.715617481 5.1556432301 10.1639256435 -0.0175878897389 -0.0101545727749 0.0389018224872
Te 6.32132698 1.21653976 10.4810790943 -0 2.57110337382e-07 0.0566655756969
Te -0.501399651 5.1556429601 10.1639260635 0.0175876326286 -0.0101543156646 0.0389018224872
Te 0.1878348044 -0.1084465259 24.1562267971 -0.0390733150822 0.0225591181122 0.00792465481878
Te 2.10710934 3.64961945 24.0519676686 -2.57110337382e-07 -2.57110337382e-07 0.00415953103816
Te 4.0263830156 -0.1084460259 24.1562269871 0.0390733150822 0.0225591181122 0.00792439770844
Te -2.10710934 3.8665125017 24.1562269871 0 -0.0451179791141 0.00792439770844
Te 0.0161327913 2.4423948658 27.6582751917 -0.0051103250658 -0.00295059823179 -0.0135905953237
Te 2.10710823 6.0640705484 27.6582751917 2.57110337382e-07 0.00590093935325 -0.0135905953237
Te 4.1980850387 2.4423940758 27.6582751817 0.0051103250658 -0.00295008401112 -0.0135905953237
Te -2.10710823 6.0826991 27.7152762049 -2.57110337382e-07 -0 0.0113858741806
Te -0.1542298455 2.3440348382 20.7438745159 0.0250721145498 0.0144755691049 0.00497611346968
Te 2.10710915 6.2607890037 20.7438745159 -0 -0.0289508810995 0.00497611346968
Te 4.3684476755 2.3440351082 20.7438740859 -0.0250721145498 0.0144755691049 0.00497611346968
Te -2.10710915 6.08269963 20.6019813257 0 -2.57110337382e-07 -0.0067851418035
Sb 0.1034217184 2.492788702 8.7236483156 -0.0101849117947 -0.00587985630558 0.00943749204393
Sb 2.10711038 5.963279146 8.7236483156 -2.57110337382e-07 0.0117604839422 0.00943749204393
Sb 4.1107961116 2.492790392 8.7236487056 0.0101849117947 -0.00588011341592 0.00943749204393
Sb -2.10711038 6.08270034 7.5164199338 2.57110337382e-07 -2.57110337382e-07 -0.0516316124013
Sb 0.0023127444 2.4344124899 1.905387813 -0.00261352657948 -0.00150846634942 0.017277814672
Sb 2.10711114 6.0800302503 1.905387813 -2.57110337382e-07 0.00301770402985 0.017277814672
Sb 4.2119050856 2.4344150599 1.905388103 0.00261352657948 -0.00150872345976 0.0172775575617
Sb -2.10711114 6.08270078 1.8668080817 2.57110337382e-07 -2.57110337382e-07 0.0170428158237
Sb -0.0232312569 0.0134125847 18.8048762602 -0.00448631827697 0.00259038664912 -0.0185566814902
Sb 2.10710819 3.64962011 19.1624949999 0 -2.57110337382e-07 -0.0252492635722
Sb 4.2374490869 0.0134117447 18.8048765102 0.00448631827697 0.00259038664912 -0.0185566814902
Sb 6.32132747 3.6227949506 18.8048765102 -0 -0.00518077329824 -0.0185564243798
Sb -0.0209202772 0.012078329 12.3737909564 0.00781512581505 -0.00451177220037 0.0101049504798
Sb 2.10710964 3.64961928 10.5863014487 -0 -0 -0.0419717199155
Sb 4.2351381072 0.012079169 12.3737907164 -0.00781512581505 -0.00451202931071 0.0101046933694
Sb -2.10710964 3.625462612 12.3737907164 2.57110337382e-07 0.00902380151108 0.0101046933694
Sb 2.10710669 1.2229630733 29.2643041199 2.57110337382e-07 -0.000788300294412 -0.0162943676316
Sb 4.2086540846 4.8629499384 29.2643041199 0.000682885056086 0.000393893036869 -0.0162941105212
Sb 6.32132897 1.21653861 29.2107423132 -2.57110337382e-07 2.57110337382e-07 -0.012638258634
Sb 0.0055637354 4.8629473684 29.2643038299 -0.000682885056086 0.000394150147206 -0.0162938534109
Sb 2.10710745 1.200774203 22.4420615615 2.57110337382e-07 -0.00527616123341 0.0160819944929
Sb 4.2278705829 4.8740437135 22.4420615615 0.00456936491595 0.00263795206154 0.0160822516032
Sb 6.32132821 1.21653905 22.7975178739 -2.57110337382e-07 2.57110337382e-07 0.00416621590693
Sb -0.0136527529 4.8740420135 22.4420611815 -0.00456936491595 0.00263795206154 0.0160822516032
Cr 2.10710877 3.64961978 13.0097559627 -0 -2.57110337382e-07 -0.0230229451608
61
Lattice="8.42843558953 0 0 -4.21421779477 7.29923593142 0 0 0 31.0334408416" Properties=species:S:1:pos:R:3:forces:R:3 energy=-133599.559538 ionic_step=44 pbc="T T T"
Te 2.1071096 1.1826775475 3.4963856275 -2.57110337382e-07 -0.000934596076382 0.0235402511596
Te 4.2435438158 4.8830901762 3.4963856275 0.000809383342077 0.00046742659336 0.02354050827
Te 6.32132606 1.21654029 3.4495414926 2.57110337382e-07 0 -0.0152145042146
Te -0.0293259858 4.8830909662 3.4963856375 -0.000809640452415 0.000466912372685 0.0235402511596
Te -0.3891905883 0.224699397 6.9972460404 0.0199859578557 -0.011538597721 -0.0193131001028
Te 2.10710848 3.64961994 6.843532675 2.57110337382e-07 -5.14220674763e-07 0.0051123819485
Te 4.6034084183 0.224698907 6.9972458504 -0.0199859578557 -0.011538597721 -0.0193128429924
Te -2.10710848 3.200221146 6.9972458504 -0 0.0230777096627 -0.0193128429924
Te -0.0198464792 0.0114583703 0.0934661318 0.00501802245468 -0.00289686217128 -0.00245540372199
Te 2.10710891 3.6496197 0.112131699 -0 -2.57110337382e-07 -0.00105055283854
Te 4.2340642992 0.0114583703 0.0934661318 -0.00501802245468 -0.00289686217128 -0.00245540372199
Te -2.10710891 3.6267029495 0.0934661318 0 0.0057939814529 -0.00245540372199
Te 0.1388379812 2.5132382282 13.9706764025 -0.0373599317939 -0.0215695004236 -0.0433598586271
Te 2.1071087 5.9223830035 13.9706764025 0 0.0431392579576 -0.0433598586271
Te 4.0753798488 2.5132379783 13.9706767925 0.0373599317939 -0.0215695004236 -0.0433598586271
Te -2.1071087 6.08269937 13.8628313586 -0 -2.57110337382e-07 0.0408268075832
Te 2.10710913 1.4833931317 17.4129454444 -0 -0.0467370029086 -0.00272202714186
Te 3.9831163706 4.7327327891 17.4129454444 0.0404755948623 0.0233685014543 -0.00272202714186
Te 6.32132652 1.21654002 17.1668753068 0 2.57110337382e-07 -0.00026508075784
Te 0.2311014594 4.7327330391 17.4129450644 -0.0404758519726 0.0233685014543 -0.00272202714186
Te 2.10710868 0.6382001916 10.1361379724 0 0.0195028475317 0.0385935471927
Te 4.7150743432 5.1553296492 10.1361379724 -0.0168900922833 -0.00975168087621 0.038593804303
Te 6.32132698 1.21653976 10.4664577751 -0 2.57110337382e-07 0.0569620239159
Te -0.5008565132 5.1553293792 10.1361383924 0.0168898351729 -0.00975142376587 0.038593804303
Te 0.2343024439 -0.1352746425 24.1673527412 -0.0391134242949 0.0225822580426 0.0102443042826
Te 2.10710934 3.64961945 24.0423172725 -2.57110337382e-07 -2.57110337382e-07 0.00544328295271
Te 3.9799153761 -0.1352741425 24.1673529312 0.0391134242949 0.0225820009322 0.0102440471723
Te -2.10710934 3.9201687351 24.1673529312 0 -0.0451642589748 0.0102440471723
Te 0.0182443412 2.4436139703 27.6791644412 -0.00582920556912 -0.00336557431633 -0.0169335439303
Te 2.10710823 6.0616323395 27.6791644412 2.57110337382e-07 0.00673089152231 -0.0169335439303
Te 4.1959734888 2.4436131803 27.6791644312 0.00582920556912 -0.00336506009565 -0.0169335439303
Te -2.10710823 6.0826991 27.7538728578 -2.57110337382e-07 -0 0.0133021175251
Te -0.1930316844 2.3216325756 20.7673867006 0.0248296595016 0.0143357010814 0.00584334663767
Te 2.10710915 6.3055935288 20.7673867006 -0 -0.0286708879421 0.00584334663767
Te 4.4072495144 2.3216328456 20.7673862706 -0.0248296595016 0.0143357010814 0.00584360374801
Te -2.10710915 6.08269963 20.5899352799 0 -2.57110337382e-07 -0.00972905516652
Sb 0.0928228512 2.4866694404 8.6823512129 -0.0103016398879 -0.00594721921397 0.0103885431819
Sb 2.10711038 5.9755176693 8.6823512129 -2.57110337382e-07 0.0118949526486 0.0103882860716
Sb 4.1213949788 2.4866711304 8.6823516029 0.0103013827775 -0.00594721921397 0.0103885431819
Sb -2.10711038 6.08270034 7.4504057739 2.57110337382e-07 -2.57110337382e-07 -0.0536321879365
Sb 0.0017605077 2.4340936557 1.905518341 -0.00287115113754 -0.00165733323476 0.0193591228531
Sb 2.10711114 6.0806679187 1.905518341 -2.57110337382e-07 0.0033151806902 0.0193591228531
Sb 4.2124573223 2.4340962257 1.905518631 0.00287115113754 -0.0016575903451 0.0193588657428
Sb -2.10711114 6.08270078 1.8620528598 2.57110337382e-07 -2.57110337382e-07 0.0191557485763
Sb -0.0293326662 0.0169352366 18.8060021852 -0.00496325795281 0.00286549471012 -0.0180861695728
Sb 2.10710819 3.64962011 19.2529122202 0 -2.57110337382e-07 -0.0199651319184
Sb 4.2435504962 0.0169343966 18.8060024352 0.00496325795281 0.00286575182046 -0.0180861695728
Sb 6.32132747 3.6157496468 18.8060024352 -0 -0.00573124653057 -0.0180861695728
Sb -0.0160973335 0.0092937998 12.3823382411 0.00612205424339 -0.00353423869765 0.00759478225592
Sb 2.10710964 3.64961928 10.5183844929 -0 -0 -0.036646707718
Sb 4.2303151635 0.0092946398 12.3823380011 -0.00612205424339 -0.00353449580799 0.00759478225592
Sb -2.10710964 3.6310316704 12.3823380011 2.57110337382e-07 0.00706899161597 0.00759478225592
Sb 2.10710669 1.2255903911 29.2874603355 2.57110337382e-07 -0.00120790436502 -0.0178002628776
Sb 4.2063787616 4.8616362794 29.2874603355 0.00104618196281 0.000603695072172 -0.0178000057673
Sb 6.32132897 1.21653861 29.2219468271 -2.57110337382e-07 2.57110337382e-07 -0.0137014098791
Sb 0.0078390584 4.8616337094 29.2874600455 -0.00104618196281 0.000603952182509 -0.0177997486569
Sb 2.10710745 1.1978513224 22.4258573119 2.57110337382e-07 -0.00520622722164 0.0145303336068
Sb 4.2304018705 4.8755051538 22.4258573119 0.00450894398666 0.00260298505565 0.0145305907171
Sb 6.32132821 1.21653905 22.8691895165 -2.57110337382e-07 2.57110337382e-07 0.00341031151503
Sb -0.0161840405 4.8755034538 22.4258569319 -0.00450894398666 0.00260298505565 0.0145305907171
Cr 2.10710877 3.64961978 12.9617589638 -0 -2.57110337382e-07 -0.0222819531685
61
Lattice="8.42843558953 0 0 -4.21421779477 7.29923593142 0 0 0 31.0334408416" Properties=species:S:1:pos:R:3:forces:R:3 energy=-133599.604922 ionic_step=45 pbc="T T T"
Te 2.1071096 1.1792309856 3.5013154287 -2.57110337382e-07 0.00123901471584 0.0194349704027
Te 4.2465286245 4.8848134572 3.5013154287 -0.00107292143789 -0.00061963591309 0.019435227513
Te 6.32132606 1.21654029 3.4533094692 2.57110337382e-07 0 -0.0157454370613
Te -0.0323107945 4.8848142472 3.5013154387 0.00107292143789 -0.000619893023427 0.019435227513
Te -0.3845080458 0.2219959286 6.9550349653 0.0193195278612 -0.0111539606563 -0.0160609114452
Te 2.10710848 3.64961994 6.8184655618 2.57110337382e-07 -5.14220674763e-07 0.00593359236609
Te 4.5987258758 0.2219954386 6.9550347753 -0.0193195278612 -0.011153703546 -0.0160606543349
Te -2.10710848 3.2056280829 6.9550347753 -0 0.0223079213126 -0.0160606543349
Te -0.0229287088 0.0132378972 0.1123683856 0.00548056395163 -0.00316399981182 -0.00205611136804
Te 2.10710891 3.6496197 0.1345819048 0 -2.57110337382e-07 -0.00118090777959
Te 4.2371465288 0.0132378972 0.1123683856 -0.00548056395163 -0.00316399981182 -0.00205611136804
Te -2.10710891 3.6231438957 0.1123683856 0 0.00632825673397 -0.00205611136804
Te 0.1610483926 2.5260614212 13.9523934437 -0.03912499426 -0.022588685801 -0.0434711874031
Te 2.1071087 5.8967366175 13.9523934437 0 0.045177371602 -0.0434711874031
Te 4.0531694374 2.5260611712 13.9523938337 0.03912499426 -0.022588685801 -0.0434714445135
Te -2.1071087 6.08269937 13.8774397812 -0 -2.57110337382e-07 0.042255569728
Te 2.10710913 1.5464591969 17.4513236825 -0 -0.0423576425319 -0.00339205668108
Te 3.9284995814 4.7011997565 17.4513236825 0.0366829602756 0.0211789498211 -0.00339179957074
Te 6.32132652 1.21654002 17.1566037408 0 2.57110337382e-07 -0.00286420915843
Te 0.2857182486 4.7012000065 17.4513233025 -0.0366829602756 0.0211786927108 -0.00339179957074
Te 2.10710868 0.6414159803 10.0980601392 0 0.0185487110697 0.0399130374441
Te 4.7122893898 5.1537217548 10.0980601392 -0.0160637396589 -0.00927448409003 0.0399130374441
Te 6.32132698 1.21653976 10.4551413998 -0 2.57110337382e-07 0.05630973499
Te -0.4980715598 5.1537214848 10.0980605592 0.0160634825486 -0.00927448409003 0.0399130374441
Te 0.2816240406 -0.1625957919 24.1766376706 -0.036155884084 0.0208745311817 0.0131560788535
Te 2.10710934 3.64961945 24.0278282764 -2.57110337382e-07 -2.57110337382e-07 0.00883533963378
Te 3.9325937794 -0.1625952919 24.1766378606 0.036155884084 0.0208745311817 0.0131558217431
Te -2.10710934 3.9748110338 24.1766378606 0 -0.0417490623634 0.0131558217431
Te 0.0213974921 2.4454344437 27.7018411758 -0.00683219299524 -0.00394458679611 -0.0211650658629
Te 2.10710823 6.0579913927 27.7018411758 2.57110337382e-07 0.00788891648188 -0.0211650658629
Te 4.1928203379 2.4454336537 27.7018411658 0.00683219299524 -0.00394432968577 -0.0211650658629
Te -2.10710823 6.0826991 27.7937233386 -2.57110337382e-07 -0 0.014714167498
Te -0.2332509153 2.298411981 20.7942933508 0.02174202146 0.012552898002 0.00623338301948
Te 2.10710915 6.3520347181 20.7942933508 -0 -0.0251055388936 0.00623338301948
Te 4.4474687453 2.298412251 20.7942929208 -0.02174202146 0.012552898002 0.00623338301948
Te -2.10710915 6.08269963 20.5774251953 0 -2.57110337382e-07 -0.0129529616869
Sb 0.084507688 2.4818686764 8.6402086606 -0.0104417650217 -0.00602795185991 0.0113056557553
Sb 2.10711038 5.9851191972 8.6402086606 -2.57110337382e-07 0.0120566750508 0.011305398645
Sb 4.129710142 2.4818703664 8.6402090506 0.0104415079114 -0.00602820897025 0.0113056557553
Sb -2.10711038 6.08270034 7.3860698983 2.57110337382e-07 -2.57110337382e-07 -0.0533532232204
Sb 0.0012306019 2.4337877143 1.9075543357 -0.00315885760507 -0.00182342651271 0.0213051909968
Sb 2.10711114 6.0812798014 1.9075543357 -2.57110337382e-07 0.0036473672461 0.0213054481071
Sb 4.2129872281 2.4337902843 1.9075546257 0.00315885760507 -0.00182368362305 0.0213051909968
Sb -2.10711114 6.08270078 1.8595262582 2.57110337382e-07 -2.57110337382e-07 0.021085104548
Sb -0.0354998233 0.0204958481 18.8022810749 -0.0051213808103 0.00295702599023 -0.0177454983757
Sb 2.10710819 3.64962011 19.3523711627 0 -2.57110337382e-07 -0.0132095578037
Sb 4.2497176533 0.0204950081 18.8022813249 0.0051213808103 0.00295702599023 -0.0177452412654
Sb 6.32132747 3.6086284239 18.8022813249 -0 -0.00591405198045 -0.0177452412654
Sb -0.0099949054 0.0057705597 12.3890573353 0.00414204753522 -0.00239112613765 0.00515326249214
Sb 2.10710964 3.64961928 10.4583812625 -0 -0 -0.0327843962299
Sb 4.2242127354 0.0057713997 12.3890570953 -0.00414179042488 -0.00239112613765 0.00515326249214
Sb -2.10710964 3.6380781506 12.3890570953 2.57110337382e-07 0.00478250938564 0.00515326249214
Sb 2.10710669 1.2285629672 29.3101102849 2.57110337382e-07 -0.00166813186893 -0.0190202514285
Sb 4.2038044364 4.8601499914 29.3101102849 0.00144470298575 0.000833808824129 -0.0190199943181
Sb 6.32132897 1.21653861 29.2320453402 -2.57110337382e-07 2.57110337382e-07 -0.0145203063036
Sb 0.0104133836 4.8601474214 29.3101099949 -0.00144470298575 0.000834065934466 -0.0190199943181
Sb 2.10710745 1.1951869097 22.4092050913 2.57110337382e-07 -0.00457990643978 0.0118522723326
Sb 4.2327093186 4.8768373602 22.4092050913 0.00396644117479 0.00228982466472 0.011852529443
Sb 6.32132821 1.21653905 22.9507376778 -2.57110337382e-07 2.57110337382e-07 0.00366562208005
Sb -0.0184914886 4.8768356602 22.4092047113 -0.00396644117479 0.00228982466472 0.011852529443
Cr 2.10710877 3.64961978 12.9163084174 -0 -2.57110337382e-07 -0.0225184946789
61
Lattice="8.42843558953 0 0 -4.21421779477 7.29923593142 0 0 0 31.0334408416" Properties=species:S:1:pos:R:3:forces:R:3 energy=-133599.679877 ionic_step=46 pbc="T T T"
Te 2.1071096 1.1738894232 3.5073873111 -2.57110337382e-07 0.00551116008178 0.0142207727606
Te 4.2511545511 4.8874842384 3.5073873111 -0.00477273919282 -0.00275545148572 0.0142210298709
Te 6.32132606 1.21654029 3.4584937017 2.57110337382e-07 0 -0.0159819785716
Te -0.0369367211 4.8874850284 3.5073873211 0.00477273919282 -0.00275596570639 0.0142210298709
Te -0.383508147 0.2214186364 6.9060050322 0.0169685109362 -0.00979667518525 -0.0127562722789
Te 2.10710848 3.64961994 6.8156296479 2.57110337382e-07 -5.14220674763e-07 0.00234433205625
Te 4.597725977 0.2214181464 6.9060048422 -0.0169685109362 -0.00979641807491 -0.0127560151685
Te -2.10710848 3.2067826671 6.9060048422 -0 0.0195936074808 -0.0127562722789
Te -0.0273544213 0.0157930847 0.1307972164 0.00628429086628 -0.00362808397079 -0.000947194482914
Te 2.10710891 3.6496197 0.156237178 0 -2.57110337382e-07 8.43321906612e-05
Te 4.2415722413 0.0157930847 0.1307972164 -0.00628429086628 -0.00362808397079 -0.000947194482914
Te -2.10710891 3.6180335206 0.1307972164 0 0.00725616794158 -0.000947194482914
Te 0.1866599711 2.5408482799 13.9228386201 -0.0396600408721 -0.0228974753162 -0.0410826323689
Te 2.1071087 5.8671629002 13.9228386201 0 0.0457954648531 -0.0410826323689
Te 4.0275578589 2.5408480299 13.9228390101 0.0396602979825 -0.0228974753162 -0.0410826323689
Te -2.1071087 6.08269937 13.9158829653 -0 -2.57110337382e-07 0.0358090422388
Te 2.10710913 1.6289677076 17.5039469465 -0 -0.0316829355445 -0.00438758790742
Te 3.8570451485 4.6599455012 17.5039469465 0.0274383009847 0.0158413392171 -0.00438758790742
Te 6.32132652 1.21654002 17.148105759 0 2.57110337382e-07 -0.00628814752134
Te 0.3571726815 4.6599457512 17.5039465665 -0.0274383009847 0.0158413392171 -0.00438733079708
Te 2.10710868 0.6454252552 10.0318540726 0 0.0159241287457 0.0454992737444
Te 4.7088172575 5.1517171174 10.0318540726 -0.0137906271661 -0.00796219292803 0.0454995308547
Te 6.32132698 1.21653976 10.4549072475 -0 2.57110337382e-07 0.0526939923154
Te -0.4945994275 5.1517168474 10.0318544926 0.0137906271661 -0.00796219292803 0.0454995308547
Te 0.3348261109 -0.1933120358 24.1823062602 -0.0304475203734 0.0175788908771 0.0178298305664
Te 2.10710934 3.64961945 24.0000235263 -2.57110337382e-07 -2.57110337382e-07 0.0182867156359
Te 3.8793917091 -0.1933115358 24.1823064502 0.0304475203734 0.0175788908771 0.0178298305664
Te -2.10710934 4.0362435216 24.1823064502 0 -0.0351577817542 0.0178298305664
Te 0.027567853 2.4489969048 27.7308388619 -0.00869932826531 -0.00502265044075 -0.0276766422674
Te 2.10710823 6.0508664703 27.7308388619 2.57110337382e-07 0.0100450437712 -0.0276766422674
Te 4.186649977 2.4489961148 27.7308388519 0.00869932826531 -0.00502239333041 -0.0276766422674
Te -2.10710823 6.0826991 27.840547844 -2.57110337382e-07 -0 0.0150674371016
Te -0.2830541202 2.2696580738 20.8320159827 0.0148710048038 0.00858594260652 0.0055402135499
Te 2.10710915 6.4095425324 20.8320159827 -0 -0.0171716281027 0.0055402135499
Te 4.4972719502 2.2696583438 20.8320155527 -0.0148710048038 0.00858594260652 0.0055402135499
Te -2.10710915 6.08269963 20.5613623823 0 -2.57110337382e-07 -0.0168080740856
Sb 0.0804261707 2.4795122102 8.5984405024 -0.0105384385086 -0.00608400191346 0.0120885567327
Sb 2.10711038 5.9898321296 8.5984405024 -2.57110337382e-07 0.0121685180476 0.0120885567327
Sb 4.1337916593 2.4795139002 8.5984408924 0.0105384385086 -0.0060842590238 0.0120885567327
Sb -2.10711038 6.08270034 7.3076780035 2.57110337382e-07 -2.57110337382e-07 -0.0490646227929
Sb 0.0010509659 2.4336840014 1.9139692863 -0.00361702822628 -0.00208799304988 0.0231754115909
Sb 2.10711114 6.0814872273 1.9139692863 -2.57110337382e-07 0.00417650032043 0.0231754115909
Sb 4.2131668641 2.4336865714 1.9139695763 0.00361702822628 -0.00208825016021 0.0231751544806
Sb -2.10711114 6.08270078 1.8615792619 2.57110337382e-07 -2.57110337382e-07 0.0229769224104
Sb -0.0421145883 0.0243148862 18.7871510006 -0.0046660384028 0.00269400211508 -0.0178262310217
Sb 2.10710819 3.64962011 19.4855537579 0 -2.57110337382e-07 -0.00572327611012
Sb 4.2563324183 0.0243140462 18.7871512506 0.0046660384028 0.00269425922542 -0.0178262310217
Sb 6.32132747 3.6009903475 18.7871512506 -0 -0.00538826134051 -0.0178259739113
Sb 0.0007739722 -0.0004468576 12.3918902704 0.00125264156372 -0.000722994268717 0.00296628196237
Sb 2.10710964 3.64961928 10.3972347398 -0 -0 -0.0312563894948
Sb 4.2134438578 -0.0004460176 12.3918900304 -0.00125264156372 -0.000723251379055 0.00296602485203
Sb -2.10710964 3.6505129852 12.3918900304 2.57110337382e-07 0.00144624564777 0.00296602485203
Sb 2.10710669 1.2324415175 29.3345345309 2.57110337382e-07 -0.00223274616982 -0.0198478896045
Sb 4.2004455149 4.8582107163 29.3345345309 0.00193398395778 0.00111611597457 -0.0198478896045
Sb 6.32132897 1.21653861 29.2408557158 -2.57110337382e-07 2.57110337382e-07 -0.014864319935
Sb 0.0137723051 4.8582081463 29.3345342409 -0.00193398395778 0.00111637308491 -0.0198476324942
Sb 2.10710745 1.1934064189 22.3879155571 2.57110337382e-07 -0.00322159252739 0.00717414974396
Sb 4.2342512681 4.8777276056 22.3879155571 0.00279016138127 0.00161053915336 0.0071744068543
Sb 6.32132821 1.21653905 23.0640361736 -2.57110337382e-07 2.57110337382e-07 0.00650437731508
Sb -0.0200334381 4.8777259056 22.3879151771 -0.00278990427093 0.0016107962637 0.0071744068543
Cr 2.10710877 3.64961978 12.8612115014 -0 -2.57110337382e-07 -0.0256917504629
61
Lattice="8.42843558953 0 0 -4.21421779477 7.29923593142 0 0 0 31.0334408416" Properties=species:S:1:pos:R:3:forces:R:3 energy=-133599.760789 ionic_step=47 pbc="T T T"
Te 2.1071096 1.1720670635 3.5039552376 -2.57110337382e-07 0.00722762869413 0.0171544017101
Te 4.2527327602 4.8883954183 3.5039552376 -0.00625909405322 -0.0036136857919 0.0171544017101
Te 6.32132606 1.21654029 3.4549504033 2.57110337382e-07 0 -0.0170762401675
Te -0.0385149302 4.8883962083 3.5039552476 0.00625909405322 -0.00361420001257 0.0171544017101
Te -0.3941472596 0.2275611338 6.9132618088 0.0147676464482 -0.00852577878757 -0.0142300287327
Te 2.10710848 3.64961994 6.8800450233 2.57110337382e-07 -5.14220674763e-07 -0.0092914533723
Te 4.6083650896 0.2275606438 6.9132616188 -0.0147676464482 -0.00852577878757 -0.0142297716224
Te -2.10710848 3.1944976723 6.9132616188 -0 0.0170520717958 -0.0142300287327
Te -0.0285763437 0.0164985623 0.1189217977 0.00676611563853 -0.00390627735584 0.000100787252254
Te 2.10710891 3.6496197 0.1424617112 0 -2.57110337382e-07 0.00260889859341
Te 4.2427941637 0.0164985623 0.1189217977 -0.00676611563853 -0.00390627735584 0.000100787252254
Te -2.10710891 3.6166225655 0.1189217977 0 0.00781255471168 0.000100787252254
Te 0.179258955 2.5365752992 13.9054021244 -0.0391689601277 -0.0226138826141 -0.0353986941404
Te 2.1071087 5.8757088615 13.9054021244 0 0.0452280223385 -0.0353986941404
Te 4.034958875 2.5365750492 13.9054025144 0.0391689601277 -0.0226138826141 -0.0353986941404
Te -2.1071087 6.08269937 13.9526698891 -0 -2.57110337382e-07 0.0253536503692
Te 2.10710913 1.6324184448 17.5128566089 -0 -0.0298960186997 -0.00598578576458
Te 3.8540567238 4.6582201326 17.5128566089 0.025890753864 0.0149478807947 -0.00598578576458
Te 6.32132652 1.21654002 17.1589228795 0 2.57110337382e-07 -0.00731710309154
Te 0.3601611062 4.6582203826 17.5128562289 -0.025890753864 0.0149478807947 -0.00598578576458
Te 2.10710868 0.6501729688 9.9968248018 0 0.0137448615261 0.0532362380169
Te 4.7047056189 5.1493432606 9.9968248018 -0.0119034372898 -0.00687255931821 0.0532364951272
Te 6.32132698 1.21653976 10.4845106474 -0 2.57110337382e-07 0.0472021155089
Te -0.4904877889 5.1493429906 9.9968252218 0.0119031801794 -0.00687255931821 0.0532364951272
Te 0.3211520223 -0.1854172934 24.1678956602 -0.0315353542109 0.0182070114313 0.0209683764548
Te 2.10710934 3.64961945 23.9797529321 -2.57110337382e-07 -2.57110337382e-07 0.0239899371397
Te 3.8930657977 -0.1854167934 24.1678958502 0.0315353542109 0.0182070114313 0.0209683764548
Te -2.10710934 4.0204540368 24.1678958502 0 -0.0364140228627 0.0209683764548
Te 0.0321894644 2.4516651946 27.7327424419 -0.00998436573154 -0.0057644137641 -0.0307064304832
Te 2.10710823 6.0455298907 27.7327424419 2.57110337382e-07 0.0115288275282 -0.0307064304832
Te 4.1820283656 2.4516644046 27.7327424319 0.00998436573154 -0.00576415665376 -0.0307064304832
Te -2.10710823 6.0826991 27.8351874647 -2.57110337382e-07 -0 0.0116776944135
Te -0.2792246661 2.2718690112 20.8383323707 0.0152366157036 0.00879703019351 0.00359054586153
Te 2.10710915 6.4051206576 20.8383323707 -0 -0.0175938032767 0.00359054586153
Te 4.4934424961 2.2718692812 20.8383319407 -0.0152366157036 0.00879703019351 0.00359054586153
Te -2.10710915 6.08269963 20.5614457674 0 -2.57110337382e-07 -0.016511882977
Sb 0.0890783855 2.4845075711 8.6232162001 -0.0102155079248 -0.00589733980852 0.0112424066123
Sb 2.10711038 5.9798414079 8.6232162001 -2.57110337382e-07 0.0117957080584 0.0112424066123
Sb 4.1251394445 2.4845092611 8.6232165901 0.0102155079248 -0.00589759691886 0.0112424066123
Sb -2.10711038 6.08270034 7.3228439061 2.57110337382e-07 -2.57110337382e-07 -0.0468568163258
Sb 0.0018327457 2.4341353623 1.9188296278 -0.00382014539282 -0.00220523536372 0.0221652250753
Sb 2.10711114 6.0805845053 1.9188296278 -2.57110337382e-07 0.00441098494812 0.0221652250753
Sb 4.2123850843 2.4341379323 1.9188299178 0.00382040250315 -0.00220549247406 0.022164967965
Sb -2.10711114 6.08270078 1.8697494275 2.57110337382e-07 -2.57110337382e-07 0.0221744810475
Sb -0.0392950171 0.0226870053 18.7681083368 -0.00454391099255 0.00262355388264 -0.0179763834587
Sb 2.10710819 3.64962011 19.499285699 0 -2.57110337382e-07 -0.00534815212788
Sb 4.2535128471 0.0226861653 18.7681085868 0.00454391099255 0.00262355388264 -0.0179761263484
Sb 6.32132747 3.6042461094 18.7681085868 -2.57110337382e-07 -0.00524710776528 -0.0179761263484
Sb 0.00874909 -0.0050512961 12.3775722202 0.000443772442321 -0.000255824785695 0.00482596103265
Sb 2.10710964 3.64961928 10.4439189836 -0 -0 -0.0407435038339
Sb 4.20546874 -0.0050504561 12.3775719802 -0.000443772442321 -0.000256081896032 0.00482596103265
Sb -2.10710964 3.6597218623 12.3775719802 2.57110337382e-07 0.000512163792064 0.00482596103265
Sb 2.10710669 1.2325824374 29.3278405232 2.57110337382e-07 -0.00219263695719 -0.0187477144709
Sb 4.2003234747 4.8581402563 29.3278405232 0.0018990169519 0.00109606136826 -0.0187477144709
Sb 6.32132897 1.21653861 29.2339747612 -2.57110337382e-07 2.57110337382e-07 -0.0136996101067
Sb 0.0138943453 4.8581376863 29.3278402332 -0.0018990169519 0.0010963184786 -0.0187474573605
Sb 2.10710745 1.1967697198 22.385119996 2.57110337382e-07 -0.00369236155514 0.00570476416582
Sb 4.2313385654 4.8760459551 22.385119996 0.00319793837635 0.00184579511206 0.00570476416582
Sb 6.32132821 1.21653905 23.0799718886 -2.57110337382e-07 2.57110337382e-07 0.00747908260409
Sb -0.0171207354 4.8760442551 22.385119616 -0.00319768126602 0.0018460522224 0.00570476416582
Cr 2.10710877 3.64961978 12.8826831071 -0 -2.57110337382e-07 -0.0314736477299
61
Lattice="8.42843558953 0 0 -4.21421779477 7.29923593142 0 0 0 31.0334408416" Properties=species:S:1:pos:R:3:forces:R:3 energy=-133599.813685 ionic_step=48 pbc="T T T"
Te 2.1071096 1.168703498 3.5117264247 -2.57110337382e-07 0.00846252964458 0.0143051049512
Te 4.255645692 4.890077201 3.5117264247 -0.00732867305673 -0.00423126482229 0.0143053620616
Te 6.32132606 1.21654029 3.4680182138 2.57110337382e-07 0 -0.0181825859493
Te -0.041427862 4.890077991 3.5117264347 0.00732867305673 -0.00423152193263 0.0143053620616
Te -0.4035151034 0.2329696635 6.8959294959 0.0122939878922 -0.00709778797376 -0.01300104132
Te 2.10710848 3.64961994 6.8668106246 2.57110337382e-07 -5.14220674763e-07 -0.00839490962585
Te 4.6177329334 0.2329691735 6.8959293059 -0.0122939878922 -0.00709753086342 -0.0130007842097
Te -2.10710848 3.1836806129 6.8959293059 -0 0.0141958330579 -0.01300104132
Te -0.0307865098 0.0177746028 0.117958213 0.00722300070806 -0.00417007256199 0.00113385658785
Te 2.10710891 3.6496197 0.144620198 0 -2.57110337382e-07 0.00408316926796
Te 4.2450043298 0.0177746028 0.117958213 -0.00722300070806 -0.00417007256199 0.00113385658785
Te -2.10710891 3.6140704844 0.117958213 0 0.00834014512399 0.00113385658785
Te 0.1780237179 2.5358621344 13.9033838321 -0.0378936928543 -0.0218777757181 -0.0348983574238
Te 2.1071087 5.8771351912 13.9033838321 0 0.0437558085466 -0.0348983574238
Te 4.0361941121 2.5358618844 13.9033842221 0.0378939499647 -0.0218777757181 -0.0348983574238
Te -2.1071087 6.08269937 13.9784481905 -0 -2.57110337382e-07 0.0210861329893
Te 2.10710913 1.6597351607 17.5360510508 -0 -0.0258241622866 -0.00647892339168
Te 3.830399765 4.6445617747 17.5360510508 0.0223644855868 0.0129120811433 -0.00647892339168
Te 6.32132652 1.21654002 17.1532711322 0 2.57110337382e-07 -0.00524402244124
Te 0.383818065 4.6445620247 17.5360506708 -0.0223647426971 0.0129120811433 -0.00647892339168
Te 2.10710868 0.6426777677 9.9675120481 0 0.0106821631872 0.0535681674625
Te 4.7111966504 5.1530908612 9.9675120481 -0.00925108704933 -0.00534121014877 0.0535681674625
Te 6.32132698 1.21653976 10.4886746671 -0 2.57110337382e-07 0.0453966867198
Te -0.4969788204 5.1530905912 9.9675124681 0.00925108704933 -0.00534121014877 0.0535684245728
Te 0.3265186385 -0.1885157121 24.1701950432 -0.0304413497253 0.0175752913324 0.02218399413
Te 2.10710934 3.64961945 23.966870408 -2.57110337382e-07 -2.57110337382e-07 0.0298219709226
Te 3.8876991815 -0.1885152121 24.1701952332 0.0304413497253 0.0175752913324 0.0221837370196
Te -2.10710934 4.0266508743 24.1701952332 0 -0.0351505826648 0.0221837370196
Te 0.0363849534 2.4540874625 27.7361223587 -0.0111097376783 -0.00641413158666 -0.032514687486
Te 2.10710823 6.040685355 27.7361223587 2.57110337382e-07 0.0128282631733 -0.032514687486
Te 4.1778328766 2.4540866725 27.7361223487 0.0111097376783 -0.00641387447632 -0.0325144303756
Te -2.10710823 6.0826991 27.8387812538 -2.57110337382e-07 -0 0.011495146074
Te -0.2943937583 2.2631111277 20.855879607 0.0126313166549 0.00729293471983 0.00237672795876
Te 2.10710915 6.4226364247 20.855879607 -0 -0.014585355219 0.00237672795876
Te 4.5086115883 2.2631113977 20.855879177 -0.0126313166549 0.00729293471983 0.00237672795876
Te -2.10710915 6.08269963 20.5559379638 0 -2.57110337382e-07 -0.0159076736841
Sb 0.1008790559 2.4913206945 8.6134301156 -0.0112773736182 -0.00651054796318 0.0120962700428
Sb 2.10711038 5.9662151611 8.6134301156 -2.57110337382e-07 0.013021610147 0.0120962700428
Sb 4.1133387741 2.4913223845 8.6134305056 0.0112771165079 -0.00651054796318 0.0120962700428
Sb -2.10711038 6.08270034 7.3150010936 2.57110337382e-07 -2.57110337382e-07 -0.0445405092963
Sb 0.001114375 2.4337206106 1.9349124997 -0.00381448896539 -0.00220189292934 0.0218757188354
Sb 2.10711114 6.0814140088 1.9349124997 -2.57110337382e-07 0.00440430007935 0.0218757188354
Sb 4.213103455 2.4337231806 1.9349127897 0.00381448896539 -0.00220215003967 0.0218754617251
Sb -2.10711114 6.08270078 1.8839616903 2.57110337382e-07 -2.57110337382e-07 0.0220135299763
Sb -0.0380052599 0.0219423632 18.7424462588 -0.00400475061506 0.00231219326407 -0.018692949969
Sb 2.10710819 3.64962011 19.5555099279 0 -2.57110337382e-07 -0.00387696677738
Sb 4.2522230899 0.0219415232 18.7424465088 0.00400475061506 0.00231245037441 -0.018692949969
Sb 6.32132747 3.6057353935 18.7424465088 -2.57110337382e-07 -0.00462464363848 -0.0186926928587
Sb 0.0067662892 -0.003906525 12.3846629458 -0.000313160390931 0.000181005677517 0.00432202477139
Sb 2.10710964 3.64961928 10.4190938678 -0 -0 -0.0372282913012
Sb 4.2074515408 -0.003905685 12.3846627058 0.000313160390931 0.000181005677517 0.00432202477139
Sb -2.10710964 3.65743232 12.3846627058 2.57110337382e-07 -0.000362011355033 0.00432176766105
Sb 2.10710669 1.2341878341 29.3253740976 2.57110337382e-07 -0.00231913524318 -0.0176128294417
Sb 4.1989331611 4.857337558 29.3253740976 0.00200880306596 0.00115931051125 -0.0176128294417
Sb 6.32132897 1.21653861 29.2306739831 -2.57110337382e-07 2.57110337382e-07 -0.0122916738992
Sb 0.0152846589 4.857334988 29.3253738076 -0.00200880306596 0.00115956762159 -0.0176125723313
Sb 2.10710745 1.199496403 22.3793100627 2.57110337382e-07 -0.00375638202915 0.00279941735341
Sb 4.2289771896 4.8746826135 22.3793100627 0.00325321709889 0.00187793390424 0.00279967446375
Sb 6.32132821 1.21653905 23.1326463774 -2.57110337382e-07 2.57110337382e-07 0.0107837217705
Sb -0.0147593596 4.8746809135 22.3793096827 -0.00325321709889 0.00187819101457 0.00279967446375
Cr 2.10710877 3.64961978 12.832012007 -0 -2.57110337382e-07 -0.0334017181499
61
Lattice="8.42843558953 0 0 -4.21421779477 7.29923593142 0 0 0 31.0334408416" Properties=species:S:1:pos:R:3:forces:R:3 energy=-133599.851472 ionic_step=49 pbc="T T T"
Te 2.1071096 1.1672891941 3.5139855154 -2.57110337382e-07 0.00880397217262 0.0122502791349
Te 4.2568705146 4.890784353 3.5139855154 -0.00762434994471 -0.00440198608631 0.0122502791349
Te 6.32132606 1.21654029 3.4721296552 2.57110337382e-07 0 -0.0189953117258
Te -0.0426526846 4.890785143 3.5139855254 0.00762434994471 -0.00440224319665 0.0122502791349
Te -0.4044389761 0.2335030619 6.8715025616 0.0112357217436 -0.0064866367018 -0.0107299857099
Te 2.10710848 3.64961994 6.8626393312 2.57110337382e-07 -5.14220674763e-07 -0.00885796534347
Te 4.6186568061 0.2335025719 6.8715023716 -0.0112357217436 -0.0064866367018 -0.0107299857099
Te -2.10710848 3.1826138161 6.8715023716 -0 0.0129737876243 -0.0107299857099
Te -0.0323698996 0.0186887738 0.1136254744 0.00759992446266 -0.00438758790742 0.00149612505322
Te 2.10710891 3.6496197 0.1448526026 0 -2.57110337382e-07 0.00437113284583
Te 4.2465877196 0.0186887738 0.1136254744 -0.00759992446266 -0.00438758790742 0.00149612505322
Te -2.10710891 3.6122421424 0.1136254744 0 0.00877543292517 0.00149612505322
Te 0.1610171618 2.5260433901 13.8971628774 -0.0360769512104 -0.0208287655416 -0.0313908582013
Te 2.1071087 5.8967726797 13.8971628774 0 0.0416577881936 -0.0313908582013
Te 4.0532006682 2.5260431401 13.8971632674 0.0360769512104 -0.0208287655416 -0.0313911153116
Te -2.1071087 6.08269937 13.9909490113 -0 -2.57110337382e-07 0.0207652592883
Te 2.10710913 1.6657393183 17.5472973788 -0 -0.0242154229056 -0.0085610029038
Te 3.8252000143 4.6415596958 17.5472973788 0.0209714617789 0.012107840008 -0.00856074579346
Te 6.32132652 1.21654002 17.1466377184 0 2.57110337382e-07 -0.00270685763195
Te 0.3890178157 4.6415599458 17.5472969988 -0.0209714617789 0.012107840008 -0.00856074579346
Te 2.10710868 0.645517893 9.968176358 0 0.011133134719 0.0540299376284
Te 4.7087370309 5.1516707985 9.968176358 -0.00964163765181 -0.00556669591465 0.0540301947387
Te 6.32132698 1.21653976 10.4967410642 -0 2.57110337382e-07 0.0395715949161
Te -0.4945192009 5.1516705285 9.968176778 0.00964163765181 -0.00556669591465 0.0540301947387
Te 0.3214309023 -0.1855783049 24.1704284532 -0.0306408673471 0.0176904767635 0.0221593115376
Te 2.10710934 3.64961945 23.9645831635 -2.57110337382e-07 -2.57110337382e-07 0.0314980732119
Te 3.8927869177 -0.1855778049 24.1704286432 0.0306408673471 0.0176904767635 0.0221590544272
Te -2.10710934 4.0207760599 24.1704286432 0 -0.0353809535271 0.0221590544272
Te 0.0393109834 2.4557768075 27.7321209091 -0.0119062655035 -0.00687410198024 -0.0323704485867
Te 2.10710823 6.0373066651 27.7321209091 2.57110337382e-07 0.0137482039605 -0.0323704485867
Te 4.1749068467 2.4557760175 27.7321208991 0.0119062655035 -0.0068738448699 -0.0323704485867
Te -2.10710823 6.0826991 27.8337954335 -2.57110337382e-07 -0 0.011365562464
Te -0.2992902686 2.2602841248 20.8614195398 0.0117615123835 0.00679079823092 0.00180208635471
Te 2.10710915 6.4282904304 20.8614195398 -0 -0.0135810822412 0.00180208635471
Te 4.5135080986 2.2602843948 20.8614191098 -0.0117615123835 0.00679054112059 0.00180208635471
Te -2.10710915 6.08269963 20.5529935289 0 -2.57110337382e-07 -0.0143045907306
Sb 0.0946037007 2.4876976148 8.6063445262 -0.0109701267651 -0.00633314183038 0.0115630232031
Sb 2.10711038 5.9734613205 8.6063445262 -2.57110337382e-07 0.0126667978814 0.0115627660927
Sb 4.1196141293 2.4876993048 8.6063449162 0.0109698696547 -0.00633339894072 0.0115630232031
Sb -2.10711038 6.08270034 7.3354304933 2.57110337382e-07 -2.57110337382e-07 -0.0451920268912
Sb 0.0008184371 2.4335497507 1.9422744725 -0.00384379954386 -0.0022188622116 0.0218631204289
Sb 2.10711114 6.0817557286 1.9422744725 -2.57110337382e-07 0.00443823864388 0.0218631204289
Sb 4.2133993929 2.4335523207 1.9422747625 0.00384379954386 -0.00221911932194 0.0218628633186
Sb -2.10711114 6.08270078 1.8909829141 2.57110337382e-07 -2.57110337382e-07 0.0220736937952
Sb -0.0342311178 0.0197633603 18.7289422401 -0.00409268235044 0.00236310111087 -0.019330069385
Sb 2.10710819 3.64962011 19.5824208113 0 -2.57110337382e-07 -0.00292463008772
Sb 4.2484489478 0.0197625203 18.7289424901 0.00409268235044 0.00236310111087 -0.0193298122747
Sb 6.32132747 3.6100933995 18.7289424901 -2.57110337382e-07 -0.00472620222175 -0.0193298122747
Sb 0.0089164746 -0.0051479357 12.3805691442 -0.000674143304615 0.000389522161133 0.00468840700215
Sb 2.10710964 3.64961928 10.4560098561 -0 -0 -0.0401117837349
Sb 4.2053013554 -0.0051470957 12.3805689042 0.000674143304615 0.000389265050796 0.00468840700215
Sb -2.10710964 3.6599151415 12.3805689042 2.57110337382e-07 -0.000778530101592 0.00468840700215
Sb 2.10710669 1.2348662024 29.3225717024 2.57110337382e-07 -0.00234561760793 -0.016870809008
Sb 4.1983456771 4.8569983738 29.3225717024 0.00203168588599 0.0011726802488 -0.0168705518976
Sb 6.32132897 1.21653861 29.2279747372 -2.57110337382e-07 2.57110337382e-07 -0.0114264976139
Sb 0.0158721429 4.8569958038 29.3225714124 -0.00203168588599 0.00117293735913 -0.0168702947873
Sb 2.10710745 1.2033947837 22.3741618011 2.57110337382e-07 -0.00399626597392 0.00142002039336
Sb 4.2256010945 4.8727334232 22.3741618011 0.00346096225149 0.00199774732146 0.00142002039336
Sb 6.32132821 1.21653905 23.152768624 -2.57110337382e-07 2.57110337382e-07 0.0125760379323
Sb -0.0113832645 4.8727317232 22.3741614211 -0.00346096225149 0.00199800443179 0.00142002039336
Cr 2.10710877 3.64961978 12.8523559529 -0 -2.57110337382e-07 -0.0337606441809
