61
Properties=species:S:1:pos:R:3:forces:R:3 energy=-194.452063698418 mlff_rel_energy_eV=0.0 mlff_fmax_eV_A=2.8077782992105544 calculator_label=/data/pclancy3/yi/flare-data/1-Cr-Sb2Te3/3.fine-tuning/2-layer/MACE-omat/MACE-matpes-pbe-omat-ft.model neb_image=0 neb_protocol=mlff_pre_neb pbc="F F F"
Te       2.10710960       1.21612744       3.42192680       0.26366447       0.17542407       0.34109418
Te       4.21457537       4.86636523       3.42192680      -0.53885728       0.88390884      -0.04722076
Te       6.32132606       1.21654029       3.40258279      -0.79640147       0.35292842      -0.25824105
Te      -0.00035754       4.86636602       3.42192681      -0.26482443       1.36120297       0.62351259
Te      -0.07696737       0.04443715       6.96506176       0.15301946       0.94063822       0.41474254
Te       2.10710848       3.64961994       7.10629020      -0.70454320       0.75276376      -0.63861498
Te       4.29118520       0.04443665       6.96506157      -0.13784193       0.84086764       0.19979398
Te      -2.10710848       3.56074564       6.96506157      -0.18391030       1.24053889       0.33672029
Te      -0.00000000      -0.00000000       0.00000000       0.17289250       1.15481399       0.74314339
Te       2.10710891       3.64961970       0.00000000      -0.73455541       0.79252202       0.50701773
Te       4.21421783      -0.00000000       0.00000000      -0.19764423       1.03746267       0.71212950
Te      -2.10710891       3.64961970       0.00000000       0.10677187       1.48063617       1.22095684
Te       0.09510216       2.48798733      13.95071521      -1.07004019      -1.17447097       0.13145604
Te       2.10710870       5.97288480      13.95071521      -0.04433600      -0.95523248       0.43977067
Te       4.11911567       2.48798708      13.95071560       0.23479617      -0.37131195       0.10958798
Te      -2.10710870       6.08269937      14.00926900       0.06049645      -1.44762384      -0.88631311
Te       2.10710913       1.32635459      17.08272201      -0.36967139      -1.60069591      -0.05311537
Te       4.11911567       4.81125206      17.08272201       0.65493413       0.23368382      -0.18018419
Te       6.32132652       1.21654002      17.02416822      -0.22650997       0.03751571       0.64692336
Te       0.09510216       4.81125231      17.08272162       0.68952478      -0.38547815      -0.27337585
Te       2.10710868       1.16191020      10.45735891       0.16417653      -1.24034231       0.33829459
Te       4.26152840       4.89347465      10.45735891      -0.82938195       0.61884418      -0.59061352
Te       6.32132698       1.21653976      10.53271700      -1.23461470      -0.57586280       0.81425293
Te      -0.04731057       4.89347438      10.45735933      -0.90816543       1.08493990      -0.42528772
Te       0.07696737      -0.04443715      24.06837547       0.88422561       0.64870780      -0.52852254
Te       2.10710934       3.64961945      23.92714703       1.12216948      -0.25859141       0.60937586
Te       4.13725046      -0.04443665      24.06837566       1.27767482       0.41619346      -0.21885948
Te      -2.10710934       3.73849375      24.06837566       0.81752131       0.30095151      -0.23583477
Te      -0.00035754       2.43287416      27.61151043       0.73799840      -0.07869971       0.60440394
Te       2.10710823       6.08311195      27.61151043       0.46163139      -0.66239602       0.81969302
Te       4.21457537       2.43287337      27.61151042       0.33204958      -0.23294046       0.59917000
Te      -2.10710823       6.08269910      27.63085443       1.31138571      -0.85616830       0.70233042
Te      -0.04731057       2.40576474      20.57607831      -0.19559302      -0.58052743      -0.30622157
Te       2.10710915       6.13732919      20.57607831       1.04846159      -0.43194153       0.61482607
Te       4.26152840       2.40576501      20.57607789       1.70172691      -0.28214240       0.43081793
Te      -2.10710915       6.08269963      20.50072022       1.02919488      -0.65338461       0.68207117
Sb      -0.04783569       2.40546014       8.59398377      -0.39439800      -1.24158740      -0.80872662
Sb       2.10711038       6.13793626       8.59398377       0.72009216      -1.20885387       0.65380758
Sb       4.26205352       2.40546184       8.59398416       1.17082107      -1.26480043       0.11772985
Sb      -2.10711038       6.08270034       8.39629258       0.61129131      -1.45830585      -0.17945116
Sb       0.00077807       2.43352644       1.84259646       0.20285038      -1.96844273      -1.99190962
Sb       2.10711114       6.08180234       1.84259646       0.62908653      -1.46652688      -0.05575390
Sb       4.21343976       2.43352901       1.84259675       0.51422103      -2.02965912      -0.25782959
Sb      -2.10711114       6.08270078       1.84746453       0.47974487      -1.91202167      -0.91603227
Sb      -0.06737878       0.03890117      18.68632111       0.58489120       1.02795386       0.12014343
Sb       2.10710819       3.64962011      18.79321941      -1.22028838       1.41387944       0.40837155
Sb       4.28159661       0.03890034      18.68632135      -0.00363963       0.22802689      -0.60380527
Sb       6.32132747       3.57181777      18.68632135      -0.63807174      -0.04977227      -0.75819897
Sb       0.06737878      -0.03890117      12.34711612       0.47487458       0.97418498       0.11252119
Sb       2.10710964       3.64961928      12.24021781       1.02635885       1.10807112      -0.26484413
Sb       4.14683905      -0.03890034      12.34711588       0.67248814       1.49793888      -0.88222782
Sb      -2.10710964       3.72742163      12.34711588       0.35459290       1.46673813       1.09315499
Sb       2.10710669       1.21743705      29.19084076      -0.58456176       0.62461704      -0.74395598
Sb       4.21343976       4.86571295      29.19084076      -0.82429823       0.17159565      -0.74822266
Sb       6.32132897       1.21653861      29.18597269      -0.62505809       0.34627102      -0.45362236
Sb       0.00077807       4.86571038      29.19084047      -0.85862407       0.46555029      -1.39815655
Sb       2.10710745       1.16130313      22.43945345      -1.77069884      -0.87989276       0.69202356
Sb       4.26205352       4.89377925      22.43945345      -1.43199836       0.24072549      -0.61921405
Sb       6.32132821       1.21653905      22.63714464      -1.37946867      -0.24228144       0.27020413
Sb      -0.04783569       4.89377756      22.43945306      -2.45154825       0.75994261      -0.73276211
Cr       2.10710891       3.64961970      15.51671861      -0.04608416       0.82991527      -0.05292336
61
Properties=species:S:1:pos:R:3:forces:R:3 energy=-210.01430586642874 mlff_rel_energy_eV=-15.562242168010755 mlff_fmax_eV_A=0.037005435040491766 calculator_label=/data/pclancy3/yi/flare-data/1-Cr-Sb2Te3/3.fine-tuning/2-layer/MACE-omat/MACE-matpes-pbe-omat-ft.model neb_image=1 neb_protocol=mlff_pre_neb pbc="F F F"
Te       1.58963333       1.19531890       4.52587848       0.00128186       0.00274654      -0.00698692
Te       4.08080756       4.96849572       4.34006831       0.01490917      -0.00920944      -0.01762065
Te       5.60940562       1.23324849       5.37410065       0.01506144      -0.01240952      -0.02200571
Te      -0.20048677       5.07708704       4.34130931       0.01269159       0.02282430       0.01352137
Te      -0.03733392       0.23410209       7.52153387      -0.00286290       0.00043866       0.01520283
Te       2.18604151       3.71225772       6.69354316       0.00226845      -0.00308460       0.01383010
Te       3.94819564      -0.30108733       6.89417713      -0.01894148      -0.00677926       0.02040950
Te      -2.23986143       3.91089132       7.14038677       0.00402347      -0.00530792       0.00668433
Te       0.93037503       0.13951658       0.41295031      -0.00225343       0.00069912       0.00083067
Te       2.05706821       3.74153146       0.87668967       0.00532946      -0.00269527      -0.00387378
Te       3.56338420      -0.09598393       1.05242609       0.01513842      -0.02047910       0.01017631
Te      -2.42991357       3.83941763       0.89549310       0.00100380       0.00641349       0.01473091
Te      -0.21845679       2.14035122      14.18250875       0.00340002       0.00996513       0.00015265
Te       1.64189767       5.73472332      13.84047428       0.00411413       0.00679173      -0.01616401
Te       3.96713657       2.95716005      13.69019732       0.00010514      -0.00509402      -0.00297460
Te      -1.11340417       5.76583480      12.99478570      -0.01876815       0.01133713      -0.01095468
Te       2.05212037       0.93515579      16.48483741      -0.00556425       0.01896395       0.01109304
Te       3.77984673       5.11720101      16.59991546       0.00205730       0.00545843      -0.00170883
Te       6.07980638       1.39900817      16.62150475       0.00155394       0.00290057      -0.00512828
Te      -0.08925932       4.70993255      16.77013549      -0.00602028       0.00968272      -0.00910200
Te       1.90060852       0.51672494      10.60482519      -0.00101109      -0.00180842       0.00771671
Te       4.46750693       5.21285990      10.03754851       0.00332158      -0.00198408       0.00920936
Te       6.07595446       0.79220508      10.61895263       0.00071884       0.00148945       0.00478038
Te       0.36768624       6.35870956       9.62814891       0.01483297      -0.01351059       0.01189007
Te      -0.58749813       0.44314866      23.59878279       0.01302865      -0.02900708      -0.00893869
Te       2.15624615       3.76515812      23.88245061       0.01002553      -0.00780258      -0.00740475
Te       3.32050247      -0.38176729      24.17486140       0.00505092       0.01178036       0.00316499
Te      -1.79657095       2.88480490      24.55038734       0.00213470      -0.01920625      -0.00972296
Te       0.67516425       2.02618918      26.98987025       0.00215507       0.00327778       0.01545073
Te       1.91725359       6.14079986      27.74516792      -0.00237695      -0.01247351      -0.02478936
Te       5.06826963       2.84730391      26.99152896       0.01730811      -0.01752862      -0.00556605
Te      -1.99054615       5.37068464      26.41029677      -0.01913595       0.00438071       0.01639772
Te      -0.25127127       2.38679937      20.14618285       0.00273111       0.00900314       0.01051495
Te       1.90304892       6.33055297      20.42341376      -0.01017828       0.00723608      -0.01627325
Te       4.62757554       2.67551401      20.36161446      -0.01366397       0.00279847      -0.01177685
Te      -1.72191196       4.99531423      20.91762589      -0.00645966       0.01241612       0.00216754
Sb       0.06171147       2.74539259       8.46220930       0.00192473       0.00910233       0.01567462
Sb       2.74298272       6.18980653       8.02845149       0.00340956       0.00008696       0.00551008
Sb       4.10032511       1.77705459       8.82727931      -0.00171190       0.01114113       0.00747199
Sb      -1.17891853       6.46241954       7.21312841      -0.01711222      -0.00508490       0.03132810
Sb       0.07446527       2.21855479       2.23450988       0.00474506       0.00249981      -0.00207781
Sb       2.04526226       5.92039391       2.68289243       0.00550798       0.00191484      -0.00334061
Sb       3.87001497       2.09908167       3.11626395       0.00535363      -0.00768867      -0.00546475
Sb      -1.79386281       6.07311395       2.18024076       0.00562041       0.00651458       0.00304435
Sb       1.06848323       0.06361964      19.08143874      -0.02004806       0.00419434      -0.00518586
Sb       1.82446536       4.01281911      18.66183187      -0.00536125      -0.00214486      -0.01246766
Sb       4.06110994       0.37651614      18.54061400       0.00411325      -0.00082734      -0.00767974
Sb       5.93526069       3.81908916      17.93420019       0.00026799       0.00171479       0.00310693
Sb       1.05214964      -0.26406114      13.43810721      -0.02213211       0.00529940      -0.01416239
Sb       2.29640814       4.04225804      11.56388902      -0.00284696      -0.00998966      -0.00149908
Sb       4.02443316       0.30089163      12.58561060       0.00216870      -0.00970923       0.00353959
Sb      -0.91294160       3.36516258      11.65827191      -0.03334047      -0.00539958       0.01512149
Sb       2.87509945       1.91480447      28.73644939       0.01164034      -0.02083879      -0.01241996
Sb       3.71344728       4.61618360      29.19012761       0.00856735       0.00025247      -0.02001638
Sb       6.79122457       0.61671412      26.44331499       0.00647299       0.01671202       0.01452124
Sb      -0.23760474       4.37113489      28.31322461      -0.00970502       0.01026853       0.00450683
Sb       1.76305782       1.27316900      22.28907101       0.00690631      -0.00450476      -0.00600472
Sb       3.81129375       5.12347530      21.97630451      -0.00637178       0.00854738      -0.01036237
Sb       5.32341342       1.50526247      24.25395803       0.00070299       0.01848621      -0.00446732
Sb      -0.51608423       5.17595500      23.36616616      -0.00005750      -0.02455034       0.00104113
Cr       1.86055005       3.52157998      15.40218499       0.00427670       0.01177972      -0.00665049
61
Properties=species:S:1:pos:R:3:forces:R:3 energy=-210.85198822752596 mlff_rel_energy_eV=-16.399924529107977 mlff_fmax_eV_A=0.0983007458930817 calculator_label=/data/pclancy3/yi/flare-data/1-Cr-Sb2Te3/3.fine-tuning/2-layer/MACE-omat/MACE-matpes-pbe-omat-ft.model neb_image=2 neb_protocol=mlff_pre_neb pbc="F F F"
Te       1.75502113       1.07580361       4.93289363      -0.00413806       0.00123233       0.00451341
Te       4.12407343       4.88450718       4.68406617      -0.00141492      -0.00536449       0.00823336
Te       5.82517170       1.29512217       5.83174701      -0.00707352      -0.00965613       0.00615688
Te      -0.19729526       4.83215856       4.54334003       0.00244820       0.00163695      -0.00126029
Te      -0.71031124       0.40930735       8.44618854       0.00778856       0.00252785      -0.02312885
Te       2.09729918       3.69407276       7.19779133       0.00135327       0.00296571       0.00429914
Te       4.18889271      -0.32566193       7.28347918      -0.01641985       0.00133655       0.00724825
Te      -2.12796784       4.22995148       7.61611452      -0.00167522      -0.00908377       0.00142237
Te       1.22345144      -0.13816378       0.85210220      -0.00492670      -0.00259834       0.00540641
Te       2.22923916       3.50895838       1.23884615       0.00142730      -0.00542192       0.00326562
Te       3.85872979      -0.21589008       1.49321679      -0.00665181      -0.00982698       0.01082515
Te      -2.22352587       3.41586318       1.05583069       0.00150455       0.00277866      -0.00065697
Te      -1.15337650       2.61395966      12.21342775       0.00479246      -0.00081594       0.01252636
Te       2.24395828       6.35423539      14.44587349       0.02447187       0.01311827       0.00123906
Te       4.82721237       3.17638072      13.91108013       0.00687050      -0.00775247       0.01029425
Te      -2.39404665       6.30971655      12.94113573      -0.03454648      -0.00578563       0.03015862
Te       2.17517490       0.65711189      15.83184238       0.00876183       0.03093942      -0.00980236
Te       4.85702243       5.17537129      17.12050856       0.00291878      -0.00897926      -0.00017638
Te       5.65920284       1.35418813      17.18473632       0.00540856      -0.00977204      -0.00259095
Te       1.26134631       4.18945522      15.89119880      -0.00565688       0.03763347      -0.02310582
Te       2.28288230       1.16179489      11.01400847       0.01474234       0.01029264      -0.00396950
Te       4.40284115       5.18520855      10.58345139       0.00979624      -0.00340972      -0.00200624
Te       6.42782710       0.92764250      10.76078721       0.00850782       0.00460257      -0.00615641
Te       0.44567652       6.14949522      10.64653199      -0.00556065      -0.01452259       0.00663237
Te      -1.21645204       0.95292062      23.24517913      -0.00126678      -0.00499815       0.01151878
Te       1.61648947       3.94262770      23.62514798      -0.00772225      -0.00505707      -0.00786617
Te       2.91836983      -0.14750626      24.73015760       0.02867737       0.02798590      -0.02998281
Te      -2.01551920       3.66035692      24.13990857      -0.01069222      -0.00938411       0.00372421
Te       0.41266527       1.93194197      26.69930428       0.01982575       0.01191957       0.00059584
Te       2.04700727       5.91056936      27.51294955       0.00110835       0.01781151      -0.00188183
Te       4.85743462       3.64984259      25.76692556      -0.03741450      -0.01657754       0.00260404
Te      -1.73472084       5.66959296      26.23298002       0.01546754       0.01218893      -0.01317318
Te       0.24494091       1.74108089      19.55745308      -0.03100267      -0.00387839      -0.01848108
Te       2.01372373       5.96609950      20.05437945      -0.00768038      -0.00103128      -0.00848799
Te       4.54673598       2.41264841      21.00449650      -0.00775433       0.00446080      -0.01847559
Te      -1.73821387       4.12826018      20.04358936      -0.00730113      -0.01809720       0.00048706
Sb       0.00446063       3.13434881       9.18159164       0.00052309      -0.00890800      -0.00246801
Sb       2.54149814       6.12862298       8.67398012       0.00188939      -0.00372680       0.00874450
Sb       4.35625076       1.96937001       8.98855875       0.00910555       0.00978728      -0.00458280
Sb      -2.35086019       6.15927094       9.70865754      -0.01739923      -0.01007668       0.01806084
Sb       0.25119501       1.98294719       2.59030365      -0.00317258       0.00037087       0.00312351
Sb       2.08001733       5.72118564       2.99779813       0.00489283      -0.00353188       0.00145347
Sb       4.02108975       2.03158341       3.55170319      -0.00188059      -0.00427368       0.00254881
Sb      -1.79212819       5.68081319       2.37913970       0.00455557       0.00231797      -0.00177897
Sb       1.90943400      -0.40109608      18.39893876       0.02069742       0.00632447      -0.02497789
Sb       2.45941298       3.41635565      18.69730025      -0.03051616      -0.00862122       0.00061392
Sb       4.61217565      -0.13917230      19.39504179       0.01199098      -0.03299464      -0.01364157
Sb       6.45349248       3.59806818      18.71898788      -0.00097514      -0.00674861      -0.00334756
Sb      -0.59000083       0.01653501      11.18680046      -0.01859247       0.03525105      -0.03285763
Sb       2.44342818       4.26968764      12.47720873       0.01433711       0.00112962       0.00965595
Sb       4.54080482       0.56918275      12.77179023       0.01528438       0.00523776      -0.00413409
Sb      -3.47696967       4.21903178      11.56883078       0.00108505       0.01134852       0.00216897
Sb       3.15971174       1.67376178      27.23761017      -0.00271481       0.00637424       0.03042993
Sb       3.95993114       4.22829591      28.56475619       0.00067589       0.01442462      -0.00918345
Sb       6.86065971       1.94675626      24.71538643      -0.01957704      -0.00098786       0.03913456
Sb      -0.21919989       4.30521958      28.13944440       0.00701056       0.01260219      -0.00540284
Sb       1.42159770       1.23789820      22.42348467      -0.01465091       0.00497640      -0.01278164
Sb       3.69618352       5.17547803      22.16243111      -0.01100717      -0.00564409      -0.00648745
Sb       5.23661247       0.25053505      23.17510689       0.03776800      -0.02872632      -0.05339951
Sb      -0.56397113       5.32696733      22.13813129      -0.01055152      -0.01497242       0.00785026
Cr       3.57477826       2.89136347      16.25055675       0.03424890      -0.01235089       0.09130994
61
Properties=species:S:1:pos:R:3:forces:R:3 energy=-209.0652233040541 mlff_rel_energy_eV=-14.613159605636099 mlff_fmax_eV_A=0.054579641558983476 calculator_label=/data/pclancy3/yi/flare-data/1-Cr-Sb2Te3/3.fine-tuning/2-layer/MACE-omat/MACE-matpes-pbe-omat-ft.model neb_image=3 neb_protocol=mlff_pre_neb pbc="F F F"
Te       1.81004723       1.30668205       4.49568997       0.00640050      -0.00059554       0.00177583
Te       3.92421880       5.09795929       4.30485814      -0.00231800       0.00856407       0.00340512
Te       5.87594418       1.46057126       5.09003931       0.00828385       0.01076606      -0.00308132
Te      -0.42428656       4.81649593       4.23109240      -0.00121768      -0.00254009       0.00656128
Te      -0.22105256       0.44178168       6.91004330      -0.01531154       0.01047032      -0.00875997
Te       2.18706038       3.92512501       6.81979629       0.00187715      -0.00019079       0.00977987
Te       4.22928388      -0.11663564       6.55154370       0.00810433      -0.00546294       0.00871544
Te      -2.33191320       3.89330461       7.52058453      -0.00030102       0.00819441       0.00896945
Te       1.09384715       0.10207314       0.36362992      -0.00675109       0.00062594       0.01230397
Te       1.97694165       3.76938226       0.84865817      -0.00248179      -0.00244502       0.00735023
Te       3.73273712       0.02208113       0.98123765       0.01234522      -0.00038991       0.01562093
Te      -2.27850641       3.50251058       0.60557455      -0.00021373      -0.00726891       0.00856129
Te      -0.20469401       2.01270096      13.19974336       0.00371489      -0.00088758       0.00457066
Te       2.21546008       5.61959124      14.18313143       0.00016062      -0.00529676       0.00261064
Te       4.59810186       2.21787222      13.81730627       0.00115457      -0.00891242       0.00088694
Te      -2.17228644       5.63840917      14.25123766       0.00021276       0.00205162      -0.00631715
Te       2.19343091       1.04667231      16.62148817       0.00369983      -0.00614406       0.00336861
Te       4.35899023       4.40263178      16.82069754       0.00436369      -0.00025798       0.00215362
Te       6.04118760       0.87680312      17.29559476       0.00735867      -0.00448547       0.00929788
Te       0.19048052       4.78465747      15.86008176      -0.00358608      -0.01270793       0.00764509
Te       2.60170128       0.66194960      10.10922039      -0.00410631       0.00136966       0.00582794
Te       4.55924544       4.73269413      10.40466278       0.00216965      -0.00502234       0.00585225
Te       6.64696016       1.10219675      10.09867619       0.00155080      -0.00075794       0.00214161
Te       0.36166457       5.65986809      10.64466162       0.00555993      -0.00923240       0.00532170
Te      -0.54555605       0.79602047      23.63006616       0.02612354      -0.02115425      -0.00491723
Te       2.02623605       4.34844110      23.90782399       0.00271832      -0.01310926      -0.00438614
Te       3.25147163      -0.05056755      23.55425986       0.00331968      -0.00294313      -0.00955090
Te      -1.89788715       3.04303397      24.60739035      -0.02690267      -0.01927851      -0.02393540
Te       0.47358250       2.32963179      27.18042486      -0.00546659       0.00697165      -0.03564549
Te       2.21278890       6.21005069      27.54508403      -0.00310000      -0.00106414      -0.03063505
Te       4.39358534       2.11646068      27.14027597       0.00434975       0.00806819      -0.02151003
Te      -1.88898365       5.93007998      26.37169668      -0.00891303       0.04424681       0.03068737
Te      -0.62353180       2.69137712      19.98239091      -0.00076388       0.01456108       0.01319757
Te       1.68408098       6.39357893      19.91230138       0.00732786       0.00123792      -0.01275279
Te       4.67262235       3.15701524      20.84533798      -0.01128186      -0.00160892       0.00056551
Te      -1.84503870       4.98749281      20.87348583      -0.00236160       0.03898821       0.00625727
Sb       0.06764327       2.62050187       8.53264595      -0.00280712       0.00356409       0.00321595
Sb       2.66947613       5.96095193       8.76389904       0.00102539       0.00294905       0.00630897
Sb       4.57651233       2.15638212       8.34070820      -0.00271136      -0.00047173       0.00418600
Sb      -2.21938413       5.89769359       9.40297304       0.00914201       0.01513775       0.00372092
Sb       0.09677286       2.13053419       2.21902581      -0.00355935       0.00020813       0.01407414
Sb       1.78712022       5.89937831       2.71392337      -0.00668270       0.00463318       0.00443582
Sb       3.97327634       2.31747531       2.92392657       0.00438573       0.01035798       0.00070049
Sb      -2.09514629       5.68653414       2.13008830      -0.00560661      -0.00104798       0.01043998
Sb       1.92699616       0.29800943      19.28769094      -0.02806396      -0.00376872      -0.00885551
Sb       1.61692042       3.86261589      18.47376032      -0.00021354      -0.00558359       0.00002051
Sb       4.67816035      -0.56511635      19.46738222      -0.00831424       0.00101008      -0.00695836
Sb       6.44161311       3.44851782      18.38601309       0.00295470      -0.00064291       0.00761155
Sb      -0.28048460       0.61629805      10.77966068       0.00607455      -0.01142866       0.01502209
Sb       2.54404699       3.47870998      12.22175856      -0.00062772      -0.00596436       0.00433239
Sb       4.83136303       0.11249989      11.96229442      -0.00087703      -0.00971923       0.00042565
Sb      -1.94560086       4.10799796      12.02325060      -0.00013989      -0.00738181       0.00221063
Sb       2.31521845       2.09058968      29.28254819      -0.00580958      -0.00659133      -0.03814710
Sb       3.86052148       4.47986204      28.95568491       0.00607626       0.00971878      -0.02794418
Sb       6.74171979       0.75037420      27.19144190      -0.00253035       0.00567612      -0.00687931
Sb      -0.18980089       4.86913024      28.28400942       0.00363388       0.00009957      -0.00538591
Sb       1.60716485       1.91196047      22.14178070       0.01083326      -0.00030466      -0.01105049
Sb       3.48393964       5.76352441      21.85521301      -0.00190283      -0.00460806      -0.00057093
Sb       5.50821193       0.52274027      22.03457581       0.01035167       0.01502188       0.00803526
Sb      -0.72954311       5.40865903      23.53785697      -0.00436239      -0.03860446      -0.00188395
Cr       3.86328990       2.15256419      18.37626213       0.00401248       0.00338125       0.00099881
61
Properties=species:S:1:pos:R:3:forces:R:3 energy=-193.14703920827094 mlff_rel_energy_eV=1.3050244901470478 mlff_fmax_eV_A=2.833653787770671 calculator_label=/data/pclancy3/yi/flare-data/1-Cr-Sb2Te3/3.fine-tuning/2-layer/MACE-omat/MACE-matpes-pbe-omat-ft.model neb_image=4 neb_protocol=mlff_pre_neb pbc="F F F"
Te       2.07681118       1.19904749       3.41874951       0.34147889       0.13632732       0.43387316
Te       4.21421783       4.90114442       3.41874951      -0.49850461       0.84110187      -0.00896070
Te       6.35162447       1.19904749       3.41874951      -0.88095973       0.38731262      -0.27660869
Te       0.00000000       4.86615959       3.44214538      -0.28325266       1.34115083       0.51223968
Te       0.00000000       0.00000000       6.91110412       0.18944225       0.99935237       0.39533005
Te       2.16533053       3.61600542       6.92505787      -0.66416679       0.81785547      -0.51150599
Te       4.21421783       0.06722856       6.92505787      -0.16293055       0.86085939       0.21558835
Te      -2.16533053       3.61600542       6.92505787      -0.04799091       1.16641175       0.45242051
Te       0.00000000       0.00000000      -0.01585640       0.17063435       1.15933463       0.76039819
Te       2.13183918       3.63534166      -0.00539679      -0.74729572       0.80208658       0.57398455
Te       4.21421783       0.02855607      -0.00539679      -0.20204898       1.03459683       0.73634852
Te      -2.13183918       3.63534166      -0.00539679       0.16013272       1.50053060       1.26956404
Te      -0.00000000       2.49282831      13.88098103      -0.88189374      -0.88469863       0.01158263
Te       2.05536521       6.05282524      13.88098103      -0.71217635      -0.86750772       0.82211159
Te       4.21421783       2.43307980      13.79989804      -0.02777797      -0.77461421      -0.04664887
Te      -2.05536521       6.05282524      13.88098103       0.37216685      -1.36976946      -0.25806368
Te       1.96138091       1.13240375      17.15032516       0.16212169      -0.83074125      -0.36131670
Te       4.21421783       5.03443189      17.15032516       0.81733361      -0.79201408       0.04068427
Te       6.46705474       1.13240375      17.15032516      -0.73295631       0.39656152       0.52033522
Te       0.00000000       4.86615959      16.23850217       0.81844790       0.52289965      -1.04646870
Te       2.07052235       1.19541663      10.38043244       0.01803112      -1.16063480       0.46507798
Te       4.21421783       4.90840613      10.38043244      -0.77640002       0.77336212      -0.35064323
Te       6.35791330       1.19541663      10.38043244      -1.12064015      -0.53951551       0.67651475
Te       0.00000000       4.86615959      10.35109097      -0.86068606       1.18500961      -0.30769650
Te       0.00000000      -0.00000000      24.37414111       0.81814971       0.70723124      -0.50264885
Te       2.06440396       3.67427542      24.10437237       1.20330324      -0.23698688       0.74531739
Te       4.21421783      -0.04931145      24.10437237       1.14975247       0.36516070      -0.20690148
Te      -2.06440396       3.67427542      24.10437237       0.81052884       0.26142079      -0.18604223
Te      -0.00000000       2.48047182      27.59663590       0.71730582      -0.22033482       0.58713601
Te       2.06606623       6.05900348      27.59663590       0.52960506      -0.62236220       0.86838070
Te       4.21421783       2.43307980      27.57130687       0.36337244      -0.23417434       0.66640241
Te      -2.06606623       6.05900348      27.59663590       1.26614851      -0.84033131       0.74230565
Te      -0.00000000       2.44919457      20.67789053      -0.15652316      -0.42691206      -0.57643581
Te       2.09315313       6.07464211      20.67789053       0.99634379      -0.21125947       0.33949447
Te       4.21421783       2.43307980      21.01492299       1.19344117       0.22176123       0.89837312
Te      -2.09315313       6.07464211      20.67789053       0.97023666      -0.60376311       0.72738815
Sb       0.00000000       2.43246271       8.46789382      -0.51200668      -1.35224812      -1.04298000
Sb       2.10764333       6.08300804       8.46789382       0.66369311      -1.09826806       0.57567209
Sb       4.21421783       2.43307980       8.62437001       1.12042265      -1.49328839      -0.10013266
Sb      -2.10764333       6.08300804       8.46789382       0.54554062      -1.44857688      -0.31770646
Sb      -0.00000000       2.43434111       1.84055693       0.13867752      -1.86737914      -2.09159080
Sb       2.10601658       6.08206883       1.84055693       0.55663595      -1.47448011      -0.08105023
Sb       4.21421783       2.43307980       1.87858587       0.55728707      -2.05073482      -0.28366803
Sb      -2.10601658       6.08206883       1.84055693       0.49331752      -1.95209241      -0.90415899
Sb       0.00000000      -0.00000000      18.93507092       0.37870907       0.57901766       0.18689496
Sb       1.97526166       3.72574175      18.57680326      -1.37752913       1.48502054       0.60771808
Sb       4.21421783      -0.15224410      18.57680326       0.17599970       0.03233340      -0.28609328
Sb       6.45317400       3.72574175      18.57680326      -0.36156533       0.13152546      -0.64436329
Sb       0.00000000      -0.00000000      12.37598846       0.47247181       0.86274195      -0.12182911
Sb       2.10086875       3.65322246      12.20931014       1.10344631       0.88066643       0.29969169
Sb       4.21421783      -0.00720553      12.20931014       0.75840219       1.73159168      -0.56087932
Sb      -2.10086875       3.65322246      12.20931014       0.42219857       1.03145704       0.95021145
Sb       2.10847988       1.21733143      29.16138514      -0.58752827       0.64675499      -0.75526552
Sb       4.21421783       4.86457654      29.16138514      -0.85002246       0.15903266      -0.79017122
Sb       6.31995578       1.21733143      29.16138514      -0.64539789       0.36372931      -0.46473519
Sb       0.00000000       4.86615959      29.23540596      -0.84406934       0.47512358      -1.46717077
Sb       2.03423865       1.17446823      22.63158697      -1.78100494      -1.08679396       0.85225542
Sb       4.21421783       4.95030294      22.63158697      -1.28434709       0.09223728      -0.66497125
Sb       6.39419701       1.17446823      22.63158697      -1.27944402      -0.30303394       0.42118950
Sb       0.00000000       4.86615959      22.48200101      -2.62614571       0.85412277      -0.63515887
Cr       4.21421783       2.43307980      18.58850245       0.45048536      -0.06316617      -1.50261811
