61
Lattice="8.42843558953249 0.0 0.0 -4.21421779476624 7.29923593142487 0.0 0.0 0.0 31.03344084160948" Properties=species:S:1:pos:R:3:forces:R:3 repair_mode=unwrap repair_image_index=0 migrant_element=Cr energy=-224.81684307529954 mlff_rel_energy_eV=0.0 mlff_fmax_eV_A=1.1528039592313344 calculator_label=/home/ycao73/.cache/mace/20231203mace128L1_epoch199model neb_image=0 neb_protocol=mlff_pre_neb pbc="T T T"
Te       2.10710960       1.21462736       3.47415502      -0.00000259       0.00984859       0.99766868
Te       4.21587447       4.86711527       3.47415502      -0.00852368      -0.00492108       0.99766290
Te       6.32132606       1.21654029       3.46466275       0.00000244       0.00000641       1.02982679
Te      -0.00165665       4.86711606       3.47415503       0.00852359      -0.00492400       0.99764354
Te      -0.02695353       0.01556163       6.87246688       0.06835934      -0.03946191      -1.10096848
Te       2.10710848       3.64961994       6.92340891       0.00000183      -0.00000425      -0.98483908
Te       4.24117136       0.01556114       6.87246669      -0.06835937      -0.03945998      -1.10095375
Te      -2.10710848       3.61849668       6.87246669      -0.00000161       0.07893044      -1.10094686
Te       0.00000000      -0.00000000      -0.00000000       0.00000006       0.00000691      -0.00000967
Te       2.10710891       3.64961970       0.00000000       0.00000000      -0.00000141      -0.00000921
Te       4.21421783      -0.00000000      -0.00000000      -0.00000008       0.00000690      -0.00000968
Te      -2.10710891       3.64961970      -0.00000000       0.00000012      -0.00000141      -0.00000922
Te       0.04989991       2.46188979      13.94767274      -0.21228664      -0.12256107       1.04839665
Te       2.10710870       6.02507988      13.94767274       0.00000052       0.24512406       1.04840182
Te       4.16431791       2.46188954      13.94767313       0.21228768      -0.12256110       1.04839990
Te      -2.10710870       6.08269937      13.89721196      -0.00000024      -0.00000561       1.15280396
Te       2.10710913       1.27415951      17.08576449      -0.00000054      -0.24512514      -1.04839665
Te       4.16431791       4.83734960      17.08576449       0.21228744       0.12255809      -1.04840122
Te       6.32132652       1.21654002      17.13622527       0.00000026       0.00000280      -1.15279700
Te       0.04989991       4.83734985      17.08576410      -0.21228842       0.12255812      -1.04840448
Te       2.10710868       1.19979071      10.38957074       0.00000092      -0.08268392      -0.00592315
Te       4.22872293       4.87453439      10.38957074       0.07161180       0.04133765      -0.00592371
Te       6.32132698       1.21653976      10.39367857      -0.00000129       0.00000667       0.18887547
Te      -0.01450510       4.87453412      10.38957116      -0.07161206       0.04133884      -0.00592458
Te       0.02695353      -0.01556163      24.16097035      -0.06835923       0.03947469       1.10096808
Te       2.10710934       3.64961945      24.11002832      -0.00000182       0.00000184       0.98483950
Te       4.18726430      -0.01556114      24.16097054       0.06835924       0.03947274       1.10095336
Te      -2.10710934       3.68074272      24.16097054       0.00000181      -0.07893294       1.10094725
Te      -0.00165665       2.43212412      27.55928221       0.00852374       0.00491729      -0.99765959
Te       2.10710823       6.08461203      27.55928221       0.00000254      -0.00984781      -0.99766519
Te       4.21587447       2.43212333      27.55928220      -0.00852361       0.00492019      -0.99764023
Te      -2.10710823       6.08269910      27.56877447      -0.00000244      -0.00000562      -1.02982321
Te      -0.01450510       2.42470500      20.64386649      -0.07161179      -0.04134251       0.00592285
Te       2.10710915       6.09944868      20.64386649      -0.00000097       0.08268309       0.00592392
Te       4.22872293       2.42470527      20.64386606       0.07161203      -0.04134371       0.00592375
Te      -2.10710915       6.08269963      20.63975866       0.00000129      -0.00000696      -0.18887529
Sb      -0.03010179       2.41569882       8.46835666       0.13152835       0.07595166       0.43998857
Sb       2.10711038       6.11745891       8.46835666      -0.00001072      -0.15188856       0.43999275
Sb       4.24431962       2.41570051       8.46835705      -0.13152832       0.07593921       0.43997994
Sb      -2.10711038       6.08270034       8.40236640       0.00001057      -0.00001185       0.50026214
Sb       0.00023601       2.43321348       1.88274910       0.01793444       0.01037920      -0.25051603
Sb       2.10711114       6.08242826       1.88274910      -0.00001756      -0.02072883      -0.25051543
Sb       4.21398182       2.43321606       1.88274939      -0.01793441       0.01035885      -0.25052981
Sb      -2.10711114       6.08270078       1.88196358       0.00001772      -0.00001990      -0.23995896
Sb      -0.05024943       0.02901154      18.75537477       0.09830046      -0.05674596       0.38974210
Sb       2.10710819       3.64962011      18.71413272       0.00000514      -0.00000677       0.68267688
Sb       4.26446726       0.02901070      18.75537502      -0.09830040      -0.05674010       0.38974561
Sb       6.32132747       3.59159704      18.75537502      -0.00000514       0.11350100       0.38974644
Sb       0.05024943      -0.02901154      12.27806246      -0.09830143       0.05675999      -0.38974469
Sb       2.10710964       3.64961928      12.31930450      -0.00000516       0.00000122      -0.68267516
Sb       4.16396839      -0.02901070      12.27806221       0.09830138       0.05675411      -0.38974817
Sb      -2.10710964       3.70764235      12.27806221       0.00000513      -0.11350585      -0.38974483
Sb       2.10710669       1.21681113      29.15068812       0.00001755       0.02072726       0.25052297
Sb       4.21398182       4.86602591      29.15068812      -0.01793448      -0.01038059       0.25052078
Sb       6.32132897       1.21653861      29.15147365      -0.00001774       0.00001837       0.23996645
Sb       0.00023601       4.86602333      29.15068783       0.01793438      -0.01036027       0.25053459
Sb       2.10710745       1.18178048      22.56508056       0.00001072       0.15188765      -0.43998934
Sb       4.24431962       4.88354057      22.56508056      -0.13152836      -0.07595876      -0.43999196
Sb       6.32132821       1.21653905      22.63107083      -0.00001057       0.00001118      -0.50025924
Sb      -0.03010179       4.88353888      22.56508018       0.13152817      -0.07594638      -0.43998325
Cr       2.10710891       3.64961970      15.51671861       0.00000000      -0.00000076      -0.00000049
61
Lattice="8.42843558953249 0.0 0.0 -4.21421779476624 7.29923593142487 0.0 0.0 0.0 31.03344084160948" Properties=species:S:1:pos:R:3:forces:R:3 repair_mode=unwrap repair_image_index=1 migrant_element=Cr energy=-227.05656213531842 mlff_rel_energy_eV=-2.2397190600188708 mlff_fmax_eV_A=0.20566013453407972 calculator_label=/home/ycao73/.cache/mace/20231203mace128L1_epoch199model neb_image=1 neb_protocol=mlff_pre_neb pbc="T T T"
Te       2.10710897       1.21443131       3.73600704      -0.00000040       0.00168502       0.03130723
Te       4.21604524       4.86721431       3.73600714      -0.00145951      -0.00084197       0.03130659
Te       6.32132662       1.21654142       3.77225232       0.00000037      -0.00000025       0.01839863
Te      -0.00182743       4.86721438       3.73600727       0.00145949      -0.00084241       0.03130459
Te       0.05375707      -0.03103556       6.60464299       0.01473399      -0.00850642      -0.06354263
Te       2.10710885       3.64961895       6.56589729       0.00000025      -0.00000002      -0.06107633
Te       4.16046058      -0.03103559       6.60464299      -0.01473391      -0.00850611      -0.06354118
Te      -2.10710894       3.71169207       6.60464274      -0.00000022       0.01701307      -0.06354063
Te      -0.00143701       0.00083106      -0.00008041      -0.00243158       0.00140426       0.00719150
Te       2.10710890       3.64961947       0.01630934       0.00000001       0.00000007       0.00708434
Te       4.21565483       0.00083104      -0.00008043       0.00243158       0.00140428       0.00719150
Te      -2.10710887       3.64796014      -0.00008045      -0.00000001      -0.00280769       0.00719149
Te      -0.02491883       2.41869436      13.72416179      -0.00358730      -0.00207089       0.02575282
Te       2.10710880       6.11147192      13.72416180       0.00000004       0.00414229       0.02575297
Te       4.23913660       2.41869426      13.72416152       0.00358730      -0.00207084       0.02575325
Te      -2.10710888       6.08269864      13.97084121      -0.00000006      -0.00000006       0.07007049
Te       2.10710895       1.11124604      17.05552367      -0.00000009       0.01473097      -0.03000100
Te       4.30540540       4.91880481      17.05552364      -0.01275783      -0.00736562      -0.03000126
Te       6.32132671       1.21653995      16.98721251       0.00000013      -0.00000035       0.00132185
Te      -0.09118746       4.91880478      17.05552363       0.01275782      -0.00736572      -0.03000156
Te       2.10710880       1.46766001      10.39251007       0.00000011       0.03037717       0.01750565
Te       3.99674163       4.74059940      10.39251007      -0.02630739      -0.01518871       0.01750547
Te       6.32132671       1.21654093      10.25421241      -0.00000013       0.00000030       0.00027211
Te       0.21747627       4.74059923      10.39251016       0.02630709      -0.01518841       0.01750506
Te      -0.01280775       0.00739641      24.50696756       0.00911328      -0.00526157       0.05690222
Te       2.10710896       3.64961985      24.45973780      -0.00000027       0.00000029       0.05535119
Te       4.22702563       0.00739648      24.50696770      -0.00911325      -0.00526187       0.05690065
Te      -2.10710892       3.63483075      24.50696775       0.00000028       0.01052338       0.05690008
Te       0.00353352       2.43511977      27.30120714       0.00224520       0.00129565      -0.02682740
Te       2.10710887       6.07861746      27.30120715       0.00000038      -0.00259243      -0.02682793
Te       4.21068430       2.43511972      27.30120706      -0.00224519       0.00129609      -0.02682537
Te      -2.10710883       6.08269763      27.30693572      -0.00000037       0.00000010      -0.02120929
Te       0.02842828       2.44949284      20.77900173      -0.00900877      -0.00520122       0.01751161
Te       2.10710895       6.04987215      20.77900173      -0.00000007       0.01040185       0.01751168
Te       4.18578968       2.44949281      20.77900168       0.00900868      -0.00520124       0.01751158
Te      -2.10710889       6.08269800      20.73085562       0.00000009      -0.00000046       0.00714556
Sb       0.00674164       2.43697213       8.30121622       0.00496012       0.00286474      -0.06332829
Sb       2.10710897       6.07491347       8.30121605      -0.00000082      -0.00572818      -0.06332822
Sb       4.20747606       2.43697227       8.30121651      -0.00496011       0.00286379      -0.06332941
Sb      -2.10710913       6.08269780       8.32097249       0.00000098      -0.00000076      -0.04787738
Sb      -0.00839980       2.42823061       2.01430020       0.00137681       0.00079692       0.01849789
Sb       2.10710911       6.09239792       2.01430021      -0.00000148      -0.00159133       0.01849828
Sb       4.22261762       2.42823085       2.01430034      -0.00137681       0.00079521       0.01849631
Sb      -2.10710908       6.08269865       1.99993388       0.00000148      -0.00000148       0.01959044
Sb      -0.06868182       0.03965409      18.81439407       0.01141118      -0.00658768       0.00051663
Sb       2.10710897       3.64961876      18.79618988       0.00000029      -0.00000032       0.00293585
Sb       4.28289972       0.03965400      18.81439391      -0.01141120      -0.00658722       0.00051720
Sb       6.32132682       3.57031208      18.81439420      -0.00000041       0.01317583       0.00051759
Sb       0.10027001      -0.05788893      12.10044401       0.03470485      -0.02003677      -0.05410137
Sb       2.10710900       3.64961917      15.30183090       0.00000009      -0.00000012       0.19632227
Sb       4.11394765      -0.05788901      12.10044377      -0.03470471      -0.02003707      -0.05410153
Sb      -2.10710890       3.76540180      12.10044290       0.00000033       0.04007385      -0.05410138
Sb       2.10710870       1.21966533      29.03785976       0.00000149       0.00031790      -0.00933749
Sb       4.21151151       4.86459640      29.03785973      -0.00027415      -0.00016055      -0.00933720
Sb       6.32132692       1.21654036      29.03093513      -0.00000149       0.00000133      -0.01846094
Sb       0.00270632       4.86459615      29.03785951       0.00027414      -0.00015882      -0.00933558
Sb       2.10710882       1.18815997      22.77227070       0.00000089      -0.00233059       0.04847436
Sb       4.23879639       4.88034954      22.77227064       0.00201919       0.00116421       0.04847459
Sb       6.32132686       1.21654081      22.77654204      -0.00000085       0.00000107       0.04622631
Sb      -0.02457854       4.88034943      22.77227054      -0.00201916       0.00116522       0.04847567
Cr       2.10710897       3.64961967      12.26944511      -0.00000037       0.00000029      -0.20566013
61
Lattice="8.42843558953249 0.0 0.0 -4.21421779476624 7.29923593142487 0.0 0.0 0.0 31.03344084160948" Properties=species:S:1:pos:R:3:forces:R:3 repair_mode=unwrap repair_image_index=2 migrant_element=Cr energy=-228.02728704237072 mlff_rel_energy_eV=-3.2104439670711713 mlff_fmax_eV_A=0.499939391143556 calculator_label=/home/ycao73/.cache/mace/20231203mace128L1_epoch199model neb_image=2 neb_protocol=mlff_pre_neb pbc="T T T"
Te       2.10710896       1.20502398       3.68282346      -0.00000035       0.00494061       0.01391099
Te       4.22419232       4.87191797       3.68282362      -0.00427915      -0.00246989       0.01391044
Te       6.32132670       1.21654136       3.71240561       0.00000030      -0.00000032       0.02148040
Te      -0.00997449       4.87191802       3.68282375       0.00427918      -0.00247031       0.01390844
Te       0.03523968      -0.02034417       6.45823871      -0.00049954       0.00028842      -0.00384083
Te       2.10710895       3.64961918       6.41651822       0.00000006       0.00000011      -0.04444340
Te       4.17897816      -0.02034421       6.45823859       0.00049970       0.00028874      -0.00383937
Te      -2.10710884       3.69030985       6.45823854      -0.00000020      -0.00057703      -0.00383884
Te      -0.00326498       0.00188641      -0.03432738      -0.00549536       0.00317304      -0.01375346
Te       2.10710892       3.64961942      -0.01912382       0.00000001       0.00000003      -0.00595653
Te       4.21748281       0.00188640      -0.03432739       0.00549533       0.00317305      -0.01375338
Te      -2.10710887       3.64584934      -0.03432744      -0.00000001      -0.00634537      -0.01375337
Te       0.02486916       2.44743882      14.09045967       0.01001665       0.00578306       0.01784850
Te       2.10710889       6.05398191      14.09045985       0.00000007      -0.01156649       0.01784911
Te       4.18934866       2.44743879      14.09045958      -0.01001675       0.00578320       0.01784897
Te      -2.10710886       6.08269858      14.09093800      -0.00000005      -0.00000009       0.02042777
Te       2.10710894       1.21909541      16.94443451      -0.00000012      -0.00401693      -0.01866201
Te       4.21200500       4.86488043      16.94443462       0.00347847       0.00200858      -0.01866264
Te       6.32132666       1.21654023      16.94280365       0.00000014      -0.00000037      -0.02183657
Te       0.00221281       4.86488048      16.94443467      -0.00347845       0.00200844      -0.01866320
Te       2.10710890       1.18995822      10.28683485       0.00000007       0.02427826      -0.00346318
Te       4.23723856       4.87944990      10.28683459      -0.02102543      -0.01213924      -0.00346330
Te       6.32132676       1.21654066      10.38843277      -0.00000009       0.00000017      -0.07261895
Te      -0.02302074       4.87944989      10.28683457       0.02102564      -0.01213929      -0.00346339
Te       0.00123587      -0.00071161      24.43689509      -0.00069131       0.00039910       0.01811315
Te       2.10710892       3.64961984      24.43814477      -0.00000024       0.00000034       0.01009673
Te       4.21298196      -0.00071160      24.43689517       0.00069130       0.00039881       0.01811171
Te      -2.10710889       3.65104689      24.43689520       0.00000025      -0.00079790       0.01811114
Te       0.00193524       2.43419695      27.26643489       0.00211758       0.00122195      -0.04123244
Te       2.10710887       6.08046291      27.26643489       0.00000037      -0.00244493      -0.04123294
Te       4.21228260       2.43419690      27.26643474      -0.00211757       0.00122237      -0.04123033
Te      -2.10710884       6.08269754      27.27949017      -0.00000036       0.00000020      -0.04429970
Te      -0.00230346       2.43175008      20.69060364       0.00547615       0.00316171       0.00064636
Te       2.10710895       6.08535794      20.69060362      -0.00000012      -0.00632364       0.00064635
Te       4.21652128       2.43175013      20.69060365      -0.00547614       0.00316157       0.00064635
Te      -2.10710893       6.08269811      20.69239660       0.00000012      -0.00000035      -0.00399606
Sb      -0.10454154       2.37272284       8.21909567       0.00259130       0.00149708      -0.05891753
Sb       2.10710902       6.20341248       8.21909493      -0.00000075      -0.00299290      -0.05891725
Sb       4.31875942       2.37272294       8.21909585      -0.00259109       0.00149609      -0.05891852
Sb      -2.10710893       6.08269791       8.19033422       0.00000060      -0.00000058      -0.03274043
Sb      -0.00448201       2.43049252       1.97272202       0.00079929       0.00046342      -0.00709485
Sb       2.10710910       6.08787391       1.97272210      -0.00000139      -0.00092429      -0.00709446
Sb       4.21869987       2.43049271       1.97272223      -0.00079929       0.00046182      -0.00709644
Sb      -2.10710907       6.08269858       1.92956603       0.00000141      -0.00000133       0.02310508
Sb      -0.00108895       0.00062969      18.67810707      -0.00413927       0.00239037      -0.01547136
Sb       2.10710885       3.64961908      18.68668279       0.00000050      -0.00000062      -0.02012787
Sb       4.21530677       0.00062963      18.67810706       0.00413925       0.00239094      -0.01547082
Sb       6.32132676       3.64836161      18.67810710      -0.00000051      -0.00478018      -0.01547037
Sb      -0.04215092       0.02433722      12.42006834       0.03256193      -0.01879921      -0.02071141
Sb       2.10710893       3.64961963      12.20245528      -0.00000026      -0.00000005       0.14790743
Sb       4.25636874       0.02433725      12.42006833      -0.03256190      -0.01879954      -0.02071173
Sb      -2.10710892       3.60094820      12.42006828       0.00000031       0.03759920      -0.02071148
Sb       2.10710875       1.22036294      29.00505911       0.00000139      -0.00018507      -0.03792396
Sb       4.21090736       4.86424748      29.00505908       0.00016127       0.00009100      -0.03792367
Sb       6.32132689       1.21654033      28.98871393      -0.00000140       0.00000120      -0.03614368
Sb       0.00331047       4.86424728      29.00505884      -0.00016126       0.00009260      -0.03792200
Sb       2.10710879       1.21590682      22.70039263       0.00000086       0.00062811       0.01568395
Sb       4.21476687       4.86647615      22.70039261      -0.00054309      -0.00031495       0.01568428
Sb       6.32132683       1.21654084      22.69957382      -0.00000087       0.00000100       0.02380981
Sb      -0.00054905       4.86647601      22.70039240       0.00054308      -0.00031395       0.01568536
Cr       2.10710895       3.64961926       9.01689737      -0.00000028       0.00000025       0.49993939
61
Lattice="8.42843558953249 0.0 0.0 -4.21421779476624 7.29923593142487 0.0 0.0 0.0 31.03344084160948" Properties=species:S:1:pos:R:3:forces:R:3 repair_mode=unwrap repair_image_index=3 migrant_element=Cr energy=-226.92323823514633 mlff_rel_energy_eV=-2.106395159846784 mlff_fmax_eV_A=0.6632274633324073 calculator_label=/home/ycao73/.cache/mace/20231203mace128L1_epoch199model neb_image=3 neb_protocol=mlff_pre_neb pbc="T T T"
Te       2.10710883       1.13830835       3.99683252       0.00000009      -0.04226687      -0.05308009
Te       4.28197203       4.90527656       3.99683292       0.03660453       0.02113328      -0.05308016
Te       6.32132691       1.21654129       3.69547238      -0.00000008      -0.00000077       0.22457880
Te      -0.06775465       4.90527673       3.99683329      -0.03660418       0.02113318      -0.05308048
Te      -0.05539577       0.03198395       6.71568836       0.00533305      -0.00307933       0.08558495
Te       2.10710902       3.64961767       7.26026613      -0.00000002       0.00000072      -0.19442942
Te       4.26961363       0.03198412       6.71568796      -0.00533302      -0.00307934       0.08558722
Te      -2.10710901       3.58565277       6.71568815       0.00000001       0.00615830       0.08558812
Te      -0.03091372       0.01784968       0.00413930       0.02696499      -0.01556844      -0.01197891
Te       2.10710905       3.64961935       0.02995582      -0.00000007      -0.00000001      -0.04818607
Te       4.24513178       0.01784972       0.00413920      -0.02696556      -0.01556876      -0.01197818
Te      -2.10710880       3.61392332       0.00413902      -0.00000001       0.03113735      -0.01197759
Te       0.02822896       2.44937891      14.21908524      -0.00688284      -0.00397442      -0.02221603
Te       2.10710889       6.05010250      14.21908533       0.00000008       0.00794786      -0.02221531
Te       4.18598886       2.44937889      14.21908501       0.00688287      -0.00397435      -0.02221524
Te      -2.10710891       6.08269821      14.52048145       0.00000003      -0.00000001      -0.13639795
Te       2.10710892       1.25660796      16.95392216      -0.00000005      -0.00939586       0.09829514
Te       4.17951819       4.84612415      16.95392239       0.00813663       0.00469833       0.09829441
Te       6.32132669       1.21654019      16.91709557       0.00000007      -0.00000035       0.07345676
Te       0.03469959       4.84612417      16.95392261      -0.00813658       0.00469825       0.09829351
Te       2.10710891       1.17027312      10.47422546      -0.00000002       0.01986655       0.04553906
Te       4.25428668       4.88929243      10.47422477      -0.01720506      -0.00993322       0.04553929
Te       6.32132677       1.21654014      10.85974362       0.00000001      -0.00000021      -0.09042917
Te      -0.04006881       4.88929241      10.47422455       0.01720498      -0.00993319       0.04553988
Te       0.01288499      -0.00743701      24.48170982      -0.00668022       0.00385622      -0.04510557
Te       2.10710881       3.64961991      24.47749506      -0.00000013       0.00000028      -0.09997199
Te       4.20133284      -0.00743712      24.48171013       0.00668021       0.00385603      -0.04510744
Te      -2.10710878       3.66449827      24.48171026       0.00000017      -0.00771333      -0.04510822
Te       0.03194138       2.45152076      27.21375319       0.00118496       0.00068377       0.06542929
Te       2.10710904       6.04581456      27.21375320       0.00000016      -0.00136733       0.06542852
Te       4.18227650       2.45152088      27.21375244      -0.00118473       0.00068382       0.06543256
Te      -2.10710893       6.08269738      27.30653982      -0.00000013       0.00000064      -0.03300005
Te      -0.01691717       2.42331288      20.70579549       0.00991839       0.00572636       0.02306639
Te       2.10710895       6.10223221      20.70579544      -0.00000007      -0.01145243       0.02306636
Te       4.23113498       2.42331293      20.70579567      -0.00991838       0.00572628       0.02306599
Te      -2.10710892       6.08269786      20.69707296       0.00000004       0.00000040      -0.00722024
Sb      -0.21559585       2.30860553       8.63356551       0.09014317       0.05204478       0.01875213
Sb       2.10710887       6.33164518       8.63356422      -0.00000051      -0.10408811       0.01875225
Sb       4.42981374       2.30860546       8.63356591      -0.09014332       0.05204427       0.01875108
Sb      -2.10710881       6.08269761       8.35517592       0.00000051      -0.00000006       0.04653034
Sb       0.11694638       2.50059993       2.18289337      -0.06567655      -0.03791853      -0.01104355
Sb       2.10710860       5.94765878       2.18289541       0.00000027       0.07583596      -0.01104240
Sb       4.09727171       2.50059942       2.18289355       0.06567632      -0.03791808      -0.01104424
Sb      -2.10710886       6.08269881       1.55935287       0.00000009       0.00000029       0.08728930
Sb      -0.00521291       0.00301066      18.66699276      -0.00500881       0.00289231       0.07929340
Sb       2.10710891       3.64961905      18.72958936       0.00000026      -0.00000032       0.10302187
Sb       4.21943073       0.00301067      18.66699259       0.00500880       0.00289265       0.07929417
Sb       6.32132669       3.64359951      18.66699276      -0.00000029      -0.00578393       0.07929449
Sb       0.10740311      -0.06200716      12.61259728      -0.03245654       0.01873833      -0.01851513
Sb       2.10710891       3.64961984      12.41311237      -0.00000022      -0.00000005      -0.03031733
Sb       4.10681470      -0.06200719      12.61259745       0.03245659       0.01873808      -0.01851582
Sb      -2.10710886       3.77363796      12.61259659       0.00000023      -0.03747788      -0.01851562
Sb       2.10710908       1.22303235      29.01467694       0.00000048      -0.02909710       0.04972728
Sb       4.20859573       4.86291220      29.01467677       0.02519905       0.01454830       0.04972724
Sb       6.32132661       1.21654026      28.81041309      -0.00000067       0.00000092       0.06223692
Sb       0.00562219       4.86291235      29.01467611      -0.02519889       0.01454876       0.04972903
Sb       2.10710897       1.21337869      22.73608183       0.00000039      -0.00957417      -0.06044713
Sb       4.21695658       4.86774027      22.73608178       0.00829169       0.00478643      -0.06044664
Sb       6.32132665       1.21654121      22.75500594      -0.00000039       0.00000029      -0.02384689
Sb      -0.00273875       4.86774033      22.73608128      -0.00829173       0.00478690      -0.06044541
Cr       2.10710869       3.64962253       4.74669716      -0.00000011       0.00000056      -0.66322746
61
Lattice="8.42843558953249 0.0 0.0 -4.21421779476624 7.29923593142487 0.0 0.0 0.0 31.03344084160948" Properties=species:S:1:pos:R:3:forces:R:3 repair_mode=unwrap repair_image_index=4 migrant_element=Cr energy=-225.6303774259561 mlff_rel_energy_eV=-0.8135343506565675 mlff_fmax_eV_A=1.0726376361810814 calculator_label=/home/ycao73/.cache/mace/20231203mace128L1_epoch199model neb_image=4 neb_protocol=mlff_pre_neb pbc="T T T"
Te       2.10710960       1.13425048       3.64861162      -0.00000286       0.59173578       0.56889900
Te       4.28548284       4.90730371       3.64861162      -0.51245360      -0.29586501       0.56889237
Te       6.32132606       1.21654029       4.21566554       0.00000204       0.00000075      -0.80326917
Te      -0.07126502       4.90730450       3.64861163       0.51245319      -0.29586805       0.56887672
Te      -0.02766651       0.01597327       6.76777276       0.18353097      -0.10595581      -0.64164833
Te       2.10710848       3.64961994       6.81409457       0.00000206      -0.00000466      -0.79372173
Te       4.24188433       0.01597277       6.76777258      -0.18353110      -0.10595349      -0.64163514
Te      -2.10710848       3.61767340       6.76777258      -0.00000200       0.21191912      -0.64162918
Te       0.01726803      -0.00996970       0.01915004      -0.00005641       0.00003783       0.14670114
Te       2.10710891       3.64961970      -0.32428345       0.00000133      -0.00000032       0.18868984
Te       4.19694979      -0.00996970       0.01915004       0.00005758       0.00003825       0.14670177
Te      -2.10710891       3.66955910       0.01915004       0.00000028      -0.00006763       0.14670219
Te       0.00903879       2.43829860      13.86706574       0.01883645       0.01087796       0.84747725
Te       2.10710870       6.07226226      13.86706574       0.00000044      -0.02175568       0.84748377
Te       4.20517903       2.43829835      13.86706613      -0.01883667       0.01087854       0.84748119
Te      -2.10710870       6.08269937      13.85564805      -0.00000027      -0.00000521       0.96833343
Te       2.10710913       1.20064149      17.18457284      -0.00000045       0.05088544      -0.94001160
Te       4.22798636       4.87410861      17.18457284      -0.04406569      -0.02544871      -0.94001761
Te       6.32132652       1.21654002      17.16476326       0.00000035       0.00000273      -0.85420514
Te      -0.01376853       4.87410886      17.18457246       0.04406579      -0.02544919      -0.94002173
Te       2.10710868       1.21049506      10.34893359       0.00000112      -0.07354655      -0.13737804
Te       4.21945269       4.86918222      10.34893359       0.06369843       0.03676917      -0.13737818
Te       6.32132698       1.21653976      10.34253598      -0.00000129       0.00000665      -0.03157643
Te      -0.00523487       4.86918195      10.34893401      -0.06369766       0.03677002      -0.13737946
Te      -0.02352793       0.01358386      24.21928783       0.02457120      -0.01417945       0.82818189
Te       2.10710934       3.64961945      24.21350115      -0.00000192       0.00000192       0.91256616
Te       4.23774576       0.01358436      24.21928802      -0.02457115      -0.01418163       0.82816814
Te      -2.10710934       3.62245172      24.21928802       0.00000200       0.02837456       0.82816317
Te      -0.04848459       2.40508799      27.54273495       0.12241358       0.07067160      -1.01318702
Te       2.10710823       6.13868430      27.54273495       0.00000268      -0.14135665      -1.01319299
Te       4.26270242       2.40508720      27.54273494      -0.12241359       0.07067474      -1.01316754
Te      -2.10710823       6.08269910      27.22259082      -0.00000259      -0.00000363      -0.43621687
Te       0.01296630       2.44056563      20.69074500      -0.00982132      -0.00566778       0.02406919
Te       2.10710915       6.06772743      20.69074500      -0.00000113       0.01133380       0.02406961
Te       4.20125152       2.44056590      20.69074458       0.00982146      -0.00566909       0.02407112
Te      -2.10710915       6.08269963      20.69580375       0.00000124      -0.00000706       0.00875470
Sb      -0.00583960       2.42970661       8.42373455       0.04713788       0.02722779       0.30587832
Sb       2.10711038       6.08944332       8.42373455      -0.00001000      -0.05444186       0.30588227
Sb       4.22005742       2.42970830       8.42373494      -0.04713777       0.02721615       0.30586998
Sb      -2.10711038       6.08270034       8.34217953       0.00000974      -0.00001133       0.28998396
Sb      -0.11823573       2.36481380       2.02204818      -0.53982668      -0.31165006      -0.01498611
Sb       2.10711114       6.21922763       2.02204818      -0.00001309       0.62332686      -0.01498446
Sb       4.33245356       2.36481637       2.02204847       0.53983561      -0.31167034      -0.01499802
Sb      -2.10711114       6.08270078       1.95492345       0.00001526      -0.00001748      -0.61729336
Sb       0.00027821      -0.00016063      18.77953867      -0.03999701       0.02310191       0.31707689
Sb       2.10710819       3.64962011      18.78218146       0.00000562      -0.00000767       0.25047445
Sb       4.21393961      -0.00016146      18.77953892       0.03999705       0.02310837       0.31708061
Sb       6.32132747       3.64994137      18.77953892      -0.00000571      -0.04619225       0.31708085
Sb      -0.00014456       0.00008346      12.27074799      -0.04324659       0.02497479      -0.29792993
Sb       2.10710964       3.64961928      12.20739149      -0.00000557       0.00000155      -0.16414080
Sb       4.21436239       0.00008430      12.27074774       0.04324653       0.02496850      -0.29793348
Sb      -2.10710964       3.64945235      12.27074774       0.00000549      -0.04993516      -0.29792933
Sb       2.10710669       1.15010466      29.03381549       0.00001654      -0.30804996       0.20919595
Sb       4.27175132       4.89937915      29.03381549       0.26679273       0.15400883       0.20919503
Sb       6.32132897       1.21653861      29.18787885      -0.00001733       0.00001812       0.48141572
Sb      -0.05753350       4.89937657      29.03381521      -0.26679365       0.15402850       0.20920782
Sb       2.10710745       1.21441909      22.61367564       0.00001057      -0.02498743      -0.26331402
Sb       4.21605377       4.86722127      22.61367564       0.02164971       0.01247949      -0.26331569
Sb       6.32132821       1.21653905      22.58644052      -0.00001084       0.00001164      -0.28949368
Sb      -0.00183594       4.86721958      22.61367526      -0.02164972       0.01249164      -0.26330710
Cr       2.10710940       3.64961942       2.14592841      -0.00001125       0.00000612       1.07263764
