61
Lattice="8.428435589532 0.0 0.0 -4.214217794766 7.299235931425 0.0 0.0 0.0 31.033440841609" Properties=species:S:1:pos:R:3:forces:R:3 branch_id=historical_curvature_warp image_index=0 energy=-223.25952653075433 mlff_rel_energy_eV=0.0 mlff_fmax_eV_A=2.027820655718557 calculator_label=/data/pclancy3/yi/flare-data/1-Cr-Sb2Te3/3.fine-tuning/2-layer/MACE-omat/MACE-matpes-pbe-omat-ft.model neb_image=0 neb_protocol=mlff_pre_neb pbc="T T T"
Te       2.10744601       1.21354019       3.41254337      -0.00129909       0.01215995       1.02443961
Te       0.00276640      -2.43186842       3.41254337      -0.01117420      -0.00495276       1.02443421
Te      -2.10824211       1.21719419       3.38538356       0.00083484      -0.00047448       1.10854975
Te       4.21320531      -2.43249178       3.41107878       0.00444288      -0.00256655       1.04239147
Te      -0.14767532       0.08526043       6.97789257       0.25532391      -0.14740612      -1.11196678
Te      -2.11172824      -3.64694924       7.05874685      -0.00236006       0.00136042      -1.08540261
Te      -4.07165586       0.02485596       6.97812592      -0.19077768      -0.06007816      -1.15029455
Te      -2.05735384       3.51372943       6.97812592      -0.04335510       0.19525878      -1.15028754
Te       0.00049552      -0.00028609       0.00268288      -0.01041989       0.00602476       0.00030282
Te      -2.10747599      -3.64940429      -0.00308441      -0.00813992       0.00469926       0.00448681
Te      -4.21389062      -0.00009060       0.00057115       0.00696475      -0.00437514      -0.01324207
Te       2.10735091      -3.64985425       0.00057115       0.00727911      -0.00384008      -0.01324218
Te       0.17741958       2.47897744      13.78975036      -0.25681069      -0.09598988       0.86228630
Te      -2.05814760      -1.39313519      13.78975036      -0.04527375       0.27039582       0.86229221
Te      -4.45714591       2.57333449      13.92253187       0.27158568      -0.15679876       0.87862168
Te       2.10470209      -1.21514688      13.89228571      -0.01385594       0.00799385       0.89018787
Te       2.09440037       1.02354448     -13.88865516       0.01933672      -0.24940752      -0.72079571
Te       0.16078465      -2.32557274     -13.88865516       0.22566695       0.10795456      -0.72080009
Te      -2.04117795       1.17847469     -13.91688198      -0.02219435       0.01281551      -0.94444825
Te       4.35937602      -2.51688351     -14.11593492      -0.40583260       0.23430196      -0.43863787
Te       2.15203410       1.09568677      10.38899708       0.00513111       0.07385294      -0.17377771
Te       0.12712446      -2.41155614      10.38899708      -0.06138690      -0.04137411      -0.17378389
Te      -2.10826780       1.21720902      10.47731738      -0.05513303       0.03183749       0.00656354
Te       4.08965336      -2.36115900      10.40810354       0.03159172      -0.01824643      -0.00931422
Te       0.28553338      -0.16485285      -7.04908116      -0.34538254       0.19941704       1.17464778
Te      -2.03979346      -3.68848083      -7.11179535      -0.04985725       0.02878766       1.00612417
Te       4.06405015       0.04552971      -6.91845580       0.28460769      -0.03081032       1.22822964
Te       1.99259517      -3.54233201      -6.91845580       0.16899458      -0.23106883       1.22822250
Te       0.00009101       2.43212971      -3.42495934       0.01459871      -0.00358947      -0.97332374
Te      -2.10624058      -1.21614021      -3.42495934       0.01040601      -0.01085675      -0.97332967
Te      -4.21484012       2.43343912      -3.40284132      -0.00372278       0.00214736      -1.04409827
Te       2.10723896      -1.21661154      -3.38977230      -0.00567184       0.00326669      -1.09239887
Te      -0.02180159       2.47020236     -10.35795495       0.03337955      -0.05304752       0.02162256
Te      -2.15015874      -1.21621698     -10.35795495       0.06263033      -0.00239044       0.02162557
Te      -3.97507961       2.29501326     -10.43820484       0.06573044      -0.03794948      -0.16023441
Te       2.18215737      -1.25986572     -10.51199702      -0.09799910       0.05657074      -0.11735136
Sb       0.00391944       2.41825669       8.61950618       0.09062676       0.04095560       0.48301213
Sb      -2.09231198      -1.21251922       8.61950618       0.00984682      -0.09897145       0.48301679
Sb      -4.18832363       2.41812981       8.56502544      -0.04168585       0.02406942       0.44698135
Sb       2.11170727      -1.21919132       8.36203490      -0.06304837       0.03639187       0.28173001
Sb       0.00236690       2.43529918       1.83705735       0.02611076       0.00421851      -0.28992372
Sb      -2.10784747      -1.21969592       1.83705735       0.00940596      -0.02473104      -0.28992321
Sb      -4.21701031       2.43469208       1.83482700      -0.02676951       0.01545985      -0.28205780
Sb       2.10839355      -1.21727814       1.83816743      -0.00650684       0.00374562      -0.27547063
Sb      -0.08898265       0.05137418     -12.14534741       0.11725387      -0.06768732       0.17016847
Sb      -1.90272798      -3.76761564     -12.09002400      -0.24797186       0.14316316       1.53794478
Sb      -4.09522627      -0.12316377     -12.32690286      -0.02620699       0.07436390       0.02623667
Sb      -1.94095023       3.60815187     -12.32690286      -0.07749649      -0.01448512       0.02623825
Sb       0.03607400      -0.02082734      12.22503296      -0.10290142       0.05941990       0.06884547
Sb      -2.10359106      -3.65164726      12.01283341      -0.00876250       0.00505605      -0.04238581
Sb       4.20386750      -0.00659023      12.32047798       0.13714072       0.11157708       0.06511196
Sb       2.10764103      -3.63735747      12.32047798      -0.02804960      -0.17455257       0.06511458
Sb       2.10500921       1.21538069      -1.82998739      -0.01727459       0.04229960       0.25129215
Sb      -0.00004592      -2.43067834      -1.82998739      -0.04526135      -0.00619186       0.25128833
Sb      -2.10587506       1.21582757      -1.84477976       0.01959911      -0.01130609       0.25500445
Sb       4.21405810      -2.43298414      -1.84149487       0.05049209      -0.02915879       0.26635642
Sb       2.18106995       1.18989441      -8.69963679      -0.06398749       0.23316295      -0.41606021
Sb       0.06005621      -2.48380576      -8.69963679      -0.23391367      -0.06117320      -0.41606545
Sb      -2.04751422       1.18213291      -8.22151382       0.18461541      -0.10658261      -0.60764047
Sb       4.12669097      -2.38254267      -8.46317739       0.30159784      -0.17413782      -0.36319553
Cr      -1.88137911      -3.77994102      16.47228056       0.20528893      -0.11852757      -2.01391765
61
Lattice="8.428435589532 0.0 0.0 -4.214217794766 7.299235931425 0.0 0.0 0.0 31.033440841609" Properties=species:S:1:pos:R:3:forces:R:3 branch_id=historical_curvature_warp image_index=1 energy=-227.72829608188022 mlff_rel_energy_eV=-4.468769551125888 mlff_fmax_eV_A=0.3960471278046515 calculator_label=/data/pclancy3/yi/flare-data/1-Cr-Sb2Te3/3.fine-tuning/2-layer/MACE-omat/MACE-matpes-pbe-omat-ft.model neb_image=1 neb_protocol=mlff_pre_neb pbc="T T T"
Te       2.10954738       1.21611417       3.68940199       0.00291701      -0.00318555       0.18234940
Te       0.00158914      -2.43497472       3.68940190       0.00421801      -0.00093317       0.18234950
Te      -2.10626095       1.21605171       3.67645553       0.00125289      -0.00072249       0.17558154
Te       4.21578552      -2.43398162       3.68989006      -0.00079527       0.00045894       0.17688071
Te      -0.04054485       0.02340925       6.70808349       0.05524454      -0.03189513      -0.16307030
Te      -2.10276148      -3.65212700       6.75719564       0.01146988      -0.00662264      -0.17199675
Te      -4.15583048       0.00303457       6.69896838      -0.03933365      -0.01083865      -0.16439568
Te      -2.08054268       3.59753719       6.69896856      -0.01028000       0.03948315      -0.16439571
Te       0.00022373      -0.00012782       0.00400645       0.00084361      -0.00048641      -0.00047493
Te      -2.10529080      -3.65066603       0.00221433       0.00118862      -0.00068642       0.00146329
Te      -4.21028587      -0.00298408      -0.00034142       0.00248131      -0.00153229      -0.00172629
Te       2.11166031      -3.65152878      -0.00034142       0.00256820      -0.00138262      -0.00172634
Te       0.12424445       2.45563501      14.09579708      -0.00188320      -0.00544066       0.19821994
Te      -2.06451964      -1.33541307      14.09579737       0.00377038       0.00435100       0.19822022
Te      -4.28848223       2.47595688      14.13227759       0.12394904      -0.07156180       0.10226069
Te       2.11567155      -1.22148088      14.11744401       0.01240702      -0.00716380       0.13410655
Te       2.13791763       1.13110429     -14.07256031       0.01691874       0.03097105      -0.10568829
Te       0.08939410      -2.41704068     -14.07256047      -0.01836184      -0.03013821      -0.10568816
Te      -2.04162557       1.17873333     -14.12822963      -0.00278806       0.00160994      -0.15883535
Te       4.28227547      -2.47237062     -14.14433862      -0.04424079       0.02554147      -0.04803977
Te       2.14149923       1.14090389      10.41079146      -0.00786967       0.04108486      -0.00565435
Te       0.08269868      -2.42504170      10.41079131      -0.03951488      -0.01372736      -0.00565446
Te      -2.10165691       1.21339292      10.45715855       0.00958134      -0.00553138       0.00970977
Te       4.16629877      -2.40541121      10.42943303       0.04013074      -0.02317003       0.01082943
Te       0.14322959      -0.08269190      -6.72210134      -0.09079174       0.05241968       0.18364565
Te      -2.05286854      -3.68093158      -6.77143064      -0.01728318       0.00997869       0.21021904
Te       4.20424767      -0.00082091      -6.65628530       0.07000679      -0.02646916       0.14858054
Te       2.10283618      -3.64057034      -6.65628546       0.05792731      -0.04739256       0.14858069
Te       0.00753542       2.42887592      -3.69282881       0.00346036      -0.00235728      -0.17662168
Te      -2.09970077      -1.22096218      -3.69282892       0.00377149      -0.00181917      -0.17662153
Te      -4.21433626       2.43314794      -3.67898301      -0.00057184       0.00033001      -0.17005615
Te       2.11188906      -1.21929791      -3.66963628       0.00463594      -0.00267750      -0.16689198
Te       0.00554186       2.41879620     -10.36375563       0.05854042      -0.00414887       0.00207391
Te      -2.09196783      -1.21419520     -10.36375570       0.03286334      -0.04862362       0.00207404
Te      -4.06217125       2.34529591     -10.42258470      -0.06340237       0.03660557       0.01636006
Te       2.16727586      -1.25127511     -10.47040623      -0.01316411       0.00759971       0.02019459
Sb       0.00467273       2.42130133       8.47342225      -0.00628147      -0.00574343      -0.08414782
Sb      -2.09457210      -1.21469546       8.47342234       0.00183310       0.00831078      -0.08414784
Sb      -4.18805788       2.41797631       8.43974617       0.00564383      -0.00325857      -0.07176100
Sb       2.11388637      -1.22045092       8.32921877       0.00745458      -0.00430461      -0.03231193
Sb       0.00314889       2.43428321       1.96307347       0.00463344      -0.00027028       0.05679899
Sb      -2.10657613      -1.21986585       1.96307352       0.00255102      -0.00387780       0.05679879
Sb      -4.21493602       2.43349506       1.96047375      -0.00096246       0.00055593       0.05551014
Sb       2.10858866      -1.21739178       1.96419816       0.00066626      -0.00038499       0.06135147
Sb      -0.02718676       0.01569721     -12.27020409       0.01581815      -0.00913208      -0.05255868
Sb      -1.99455551      -3.71459942     -12.21319164      -0.05506086       0.03178887      -0.04618015
Sb      -4.08835051      -0.04665507     -12.37687371      -0.01216080       0.05846688      -0.01615579
Sb      -2.00376992       3.56394300     -12.37687346      -0.05671369      -0.01870172      -0.01615605
Sb       0.04925764      -0.02843744      12.35188956       0.02266881      -0.01308697       0.06041756
Sb      -2.08770481      -3.66081912      12.20204431       0.00019814      -0.00011440       0.09857463
Sb       4.20229971      -0.02924449      12.39736758      -0.02554512      -0.02212142       0.02384502
Sb       2.12647762      -3.62467209      12.39736760       0.00638597       0.03318388       0.02384505
Sb       2.10728713       1.21623056      -1.95412100      -0.00007352       0.00465348      -0.05601592
Sb       0.00035760      -2.43307665      -1.95412118      -0.00406654      -0.00226329      -0.05601615
Sb      -2.10261391       1.21394538      -1.96804187       0.00374152      -0.00215993      -0.05616451
Sb       4.22304174      -2.43817183      -1.96413498       0.00663929      -0.00383355      -0.05215050
Sb       2.17820175       1.17983380      -8.49172438      -0.00796865      -0.00150708       0.10851203
Sb       0.06733572      -2.47629164      -8.49172459      -0.00267890       0.00765464       0.10851172
Sb      -2.03256407       1.17350241      -8.29054953      -0.00785070       0.00453300      -0.00780846
Sb       4.20571257      -2.42816650      -8.37239973       0.03290769      -0.01899953       0.03950354
Cr      -2.00709098      -3.70736178      15.76884062      -0.10164550       0.05868490      -0.37825600
61
Lattice="8.428435589532 0.0 0.0 -4.214217794766 7.299235931425 0.0 0.0 0.0 31.033440841609" Properties=species:S:1:pos:R:3:forces:R:3 branch_id=historical_curvature_warp image_index=2 energy=-227.48629822834738 mlff_rel_energy_eV=-4.226771697593051 mlff_fmax_eV_A=0.9446518302263187 calculator_label=/data/pclancy3/yi/flare-data/1-Cr-Sb2Te3/3.fine-tuning/2-layer/MACE-omat/MACE-matpes-pbe-omat-ft.model neb_image=2 neb_protocol=mlff_pre_neb pbc="T T T"
Te       2.11013921       1.21948485       3.76329899       0.00507304      -0.00381787       0.01313089
Te      -0.00103382      -2.43717248       3.76329899       0.00584281      -0.00248441       0.01313095
Te      -2.10817527       1.21715720       3.75624789       0.00175522      -0.00101348       0.01200102
Te       4.21996524      -2.43639479       3.76626436      -0.00286780       0.00165580       0.01211345
Te      -0.01487609       0.00858955       6.58711027       0.01942171      -0.01121323      -0.03185596
Te      -2.09983711      -3.65381557       6.63795827       0.01537190      -0.00887503      -0.03997132
Te      -4.19463791      -0.00208749       6.60234452       0.00121546      -0.00442823      -0.02046922
Te      -2.09551042       3.63370626       6.60234461       0.00444252       0.00116137      -0.02046925
Te       0.00168099      -0.00096894       0.00445143       0.00132168      -0.00076322      -0.00014097
Te      -2.10338279      -3.65176768       0.00164676       0.00160404      -0.00092611       0.00222653
Te      -4.20842739      -0.00598729      -0.00143817       0.00201087      -0.00099024       0.00247358
Te       2.11519059      -3.65163663      -0.00143817       0.00186287      -0.00124643       0.00247354
Te       0.10974082       2.43048105      14.13832286       0.07053059       0.00295050       0.06945931
Te      -2.04998729      -1.31027604      14.13832323       0.03271011      -0.06255632       0.06945946
Te      -4.22178439       2.43744934      14.06620237       0.11265016      -0.06503879       0.09035824
Te       2.18188023      -1.25970643      14.09305455       0.00354845      -0.00204860       0.01216790
Te       2.07917079       0.92769471     -14.09668688       0.12426440       0.10873641      -0.00613603
Te       0.23617944      -2.26445950     -14.09668732      -0.03203640      -0.16198440      -0.00613567
Te      -2.14113502       1.23618504     -14.15313448       0.12495275      -0.07214146       0.02088272
Te       4.45329071      -2.57110649     -14.14853583      -0.06244690       0.03605387      -0.02485104
Te       2.13755983       1.18108025      10.37254314       0.00517953       0.00124734       0.00308165
Te       0.04593513      -2.44171836      10.37254301       0.00150947      -0.00510914       0.00308149
Te      -2.07848249       1.20001330      10.38996362       0.01180542      -0.00681607      -0.02283896
Te       4.20196614      -2.42600370      10.34536227       0.04107244      -0.02371306       0.03509893
Te       0.10705003      -0.06180326      -6.60627714      -0.00627450       0.00362251       0.02927397
Te      -2.08049310      -3.66498257      -6.63815428      -0.00500122       0.00288748       0.05139459
Te       4.24768007       0.00334875      -6.56010002       0.00157658      -0.01166181       0.02057611
Te       2.12094158      -3.68026860      -6.56010017       0.01088769       0.00446550       0.02057628
Te       0.01438611       2.42335429      -3.76515783      -0.00015211      -0.00177950      -0.01348449
Te      -2.09149355      -1.22413459      -3.76515786       0.00146501       0.00102152      -0.01348436
Te      -4.21671330       2.43452035      -3.75534377       0.00584243      -0.00337315      -0.00730041
Te       2.11701025      -1.22225500      -3.75011014       0.00380954      -0.00219932      -0.00500562
Te       0.03173163       2.45352248     -10.31947729       0.06668037      -0.00398475       0.01260857
Te      -2.10894692      -1.25423978     -10.31947768       0.03679115      -0.05575418       0.01260874
Te      -4.03951596       2.33221597     -10.37631953      -0.01202421       0.00694231      -0.00592102
Te       2.09985446      -1.21234967     -10.41411662       0.04247401      -0.02452216       0.04183267
Sb       0.00034319       2.41190715       8.35964984       0.00634779      -0.00515351      -0.03327713
Sb      -2.08860129      -1.20624923       8.35964969       0.00763702      -0.00292048      -0.03327711
Sb      -4.19618540       2.42266863       8.36254572       0.00633378      -0.00365671      -0.00940600
Sb       2.09394654      -1.20893896       8.30071883       0.01662464      -0.00959826      -0.00651584
Sb       0.00156745       2.43362396       2.01097265       0.00404574      -0.00059010       0.00177192
Sb      -2.10679578      -1.21816661       2.01097268       0.00253386      -0.00320855       0.00177191
Sb      -4.21436084       2.43316313       2.00664163       0.00269615      -0.00155672      -0.00283773
Sb       2.10963696      -1.21799702       2.01623440       0.00166775      -0.00096275      -0.00153526
Sb      -0.12615733       0.07283765     -12.20407200       0.02587676      -0.01494006      -0.07439790
Sb      -1.96601862      -3.73107587     -12.15085279      -0.00236218       0.00136379      -0.03965471
Sb      -4.15116647      -0.08213400     -12.39677537       0.04214612       0.03234182       0.05017857
Sb      -2.00445198       3.63608248     -12.39677520      -0.00693616      -0.05267069       0.05017856
Sb       0.04869252      -0.02811103      12.39347418       0.00006070      -0.00003495       0.01426343
Sb      -2.10671406      -3.64984417      12.26541295       0.05104615      -0.02947154       0.03196345
Sb       4.24334077      -0.07601910      12.32832052      -0.01159639       0.00828092       0.00069318
Sb       2.18750667      -3.63682690      12.32832016      -0.01296971       0.00590217       0.00069324
Sb       2.11131540       1.21178742      -1.99959538       0.00040694       0.00277164      -0.00374971
Sb       0.00621956      -2.43434384      -1.99959543      -0.00219697      -0.00173828      -0.00374960
Sb      -2.10262638       1.21395252      -2.01613608       0.00489144      -0.00282419       0.00369918
Sb       4.22653958      -2.44019149      -2.01488817       0.00446185      -0.00257595       0.00848356
Sb       2.17986658       1.19153294      -8.37530264      -0.01034887      -0.00786814       0.03844351
Sb       0.05803643      -2.48358282      -8.37530281       0.00163948       0.01289656       0.03844350
Sb      -2.02237008       1.16761699      -8.25666793      -0.01747991       0.01009195       0.01023167
Sb       4.19412387      -2.42147581      -8.28323386       0.00074532      -0.00043019      -0.00276962
Cr      -1.57984110      -3.95403420      16.03057954      -0.75214038       0.43424856      -0.37159133
61
Lattice="8.428435589532 0.0 0.0 -4.214217794766 7.299235931425 0.0 0.0 0.0 31.033440841609" Properties=species:S:1:pos:R:3:forces:R:3 branch_id=historical_curvature_warp image_index=3 energy=-226.95912296703972 mlff_rel_energy_eV=-3.6995964362853897 mlff_fmax_eV_A=0.19892692429732375 calculator_label=/data/pclancy3/yi/flare-data/1-Cr-Sb2Te3/3.fine-tuning/2-layer/MACE-omat/MACE-matpes-pbe-omat-ft.model neb_image=3 neb_protocol=mlff_pre_neb pbc="T T T"
Te       2.11012685       1.21973126       3.76380820       0.00492506      -0.00402080       0.00782345
Te      -0.00125339      -2.43728499       3.76380820       0.00594455      -0.00225479       0.00782354
Te      -2.10910560       1.21769433       3.75614307       0.00014615      -0.00008447       0.01159290
Te       4.21971631      -2.43625107       3.76705921      -0.00423568       0.00244555       0.00996451
Te      -0.01773384       0.01023950       6.57354554       0.01228002      -0.00708996      -0.04693599
Te      -2.09928280      -3.65413559       6.62520032       0.01343249      -0.00775529      -0.05325563
Te      -4.20126241      -0.00146671       6.59533660      -0.00361229      -0.00177964      -0.02720484
Te      -2.09936029       3.63913284       6.59533670      -0.00026511       0.00401800      -0.02720488
Te       0.00108949      -0.00062743       0.00398768       0.00031088      -0.00017965       0.00099879
Te      -2.10361203      -3.65163533       0.00174159       0.00011364      -0.00006563       0.00220924
Te      -4.20884883      -0.00561623      -0.00226699       0.00190416      -0.00132684       0.00323421
Te       2.11465853      -3.65145718      -0.00226699       0.00210102      -0.00098572       0.00323418
Te       0.03761904       2.42187123      14.09325186      -0.01117074      -0.00295179       0.00497409
Te      -2.07859184      -1.24351181      14.09325209      -0.00302903       0.01115026       0.00497405
Te      -4.25502234       2.45663948      13.95082048       0.01490509      -0.00860545       0.01844214
Te       2.19148324      -1.26525071      14.07528269       0.01123786      -0.00648797      -0.00104732
Te       1.98352495       0.84732199     -14.10834413      -0.03927330      -0.05070481      -0.01130299
Te       0.25796164      -2.14144133     -14.10834474       0.02427521       0.05936427      -0.01130295
Te      -2.27462922       1.31325789     -14.16526958      -0.01896022       0.01094662       0.00777002
Te       4.43964926      -2.56323067     -14.11308341      -0.04583113       0.02646069       0.01612231
Te       2.12864139       1.20271514      10.35412345      -0.00645237       0.01536268      -0.02078832
Te       0.02273953      -2.44481223      10.35412336      -0.01653075      -0.00209333      -0.02078841
Te      -2.07731211       1.19933762      10.37726981       0.00678708      -0.00391870      -0.03897831
Te       4.18828275      -2.41810354      10.31289289       0.02460923      -0.01420801      -0.02449201
Te       0.09938869      -0.05737998      -6.60463764      -0.00589938       0.00340589       0.03092934
Te      -2.09300271      -3.65776017      -6.62889692      -0.01634595       0.00943735       0.05012009
Te       4.24337926       0.00829848      -6.55578449      -0.00962280      -0.01176190       0.01984485
Te       2.11450455      -3.67901893      -6.55578464       0.00537462       0.01421451       0.01984497
Te       0.01351464       2.42323888      -3.76634157      -0.00187216      -0.00224157      -0.00969487
Te      -2.09182934      -1.22332218      -3.76634159       0.00100516       0.00274217      -0.00969473
Te      -4.21825866       2.43541256      -3.75569443       0.00462651      -0.00267114      -0.00769733
Te       2.11602387      -1.22168552      -3.74877288       0.00024569      -0.00014174      -0.00907655
Te       0.01281710       2.47550048     -10.31983510       0.02095702       0.02342183       0.01773744
Te      -2.13743773      -1.24884845     -10.31983557      -0.00980545      -0.02986020       0.01773739
Te      -4.05746486       2.34257873     -10.34745873      -0.03503965       0.02023025       0.02332385
Te       2.05868150      -1.18857848     -10.40800453      -0.00587285       0.00339077       0.04463829
Sb       0.00354554       2.40935424       8.34851362       0.00897693       0.00077998      -0.03601075
Sb      -2.08478923      -1.20774606       8.34851344       0.00381310      -0.00816405      -0.03601072
Sb      -4.19935805       2.42450036       8.35582245       0.00331688      -0.00191489      -0.01533571
Sb       2.08456473      -1.20352237       8.29586724       0.01139885      -0.00658116      -0.00074396
Sb       0.00138571       2.43387579       2.01097160       0.00290626      -0.00043269       0.00129987
Sb      -2.10710474      -1.21813514       2.01097164       0.00182779      -0.00230042       0.00129985
Sb      -4.21461048       2.43330726       2.00622267       0.00303486      -0.00175229      -0.00369042
Sb       2.10950050      -1.21791824       2.01693883       0.00196824      -0.00113624      -0.00455973
Sb      -0.16456526       0.09501246     -12.13074214      -0.02161587       0.01247966       0.03801581
Sb      -1.97991946      -3.72305032     -12.18038715      -0.00795002       0.00459006      -0.06691315
Sb      -4.20253212      -0.10317984     -12.40467326      -0.01906234       0.01691090       0.04061924
Sb      -2.01190843       3.69108937     -12.40467315      -0.02417665       0.00805276       0.04061919
Sb       0.04724816      -0.02727714      12.36884988      -0.01670432       0.00964425      -0.01676065
Sb      -2.14904353      -3.62540526      12.25637864       0.00048599      -0.00028059       0.00796987
Sb       4.25598509      -0.08982354      12.30556267       0.00182561      -0.00976016      -0.03115612
Sb       2.20578388      -3.64087484      12.30556228       0.00936538       0.00329909      -0.03115618
Sb       2.11030567       1.21243790      -1.99944551       0.00018544       0.00162472      -0.00344906
Sb       0.00515137      -2.43379462      -1.99944556      -0.00131447      -0.00097299      -0.00344895
Sb      -2.10311142       1.21423256      -2.01747583       0.00443532      -0.00256085       0.00681959
Sb       4.22657238      -2.44021043      -2.01525847       0.00318461      -0.00183853       0.00810802
Sb       2.18216438       1.20387443      -8.36632137      -0.01395539       0.00244126       0.04241412
Sb       0.04849725      -2.49174350      -8.36632152      -0.00909198       0.01086521       0.04241415
Sb      -2.03089680       1.17253988      -8.25921910      -0.02215016       0.01278832      -0.00352695
Sb       4.18980693      -2.41898346      -8.27271764      -0.01432112       0.00826844       0.02243441
Cr      -0.85962450      -4.36985168      16.39179351       0.17225446      -0.09945124      -0.00312627
61
Lattice="8.428435589532 0.0 0.0 -4.214217794766 7.299235931425 0.0 0.0 0.0 31.033440841609" Properties=species:S:1:pos:R:3:forces:R:3 branch_id=historical_curvature_warp image_index=4 energy=-227.28216403234012 mlff_rel_energy_eV=-4.022637501585791 mlff_fmax_eV_A=0.5521319971223453 calculator_label=/data/pclancy3/yi/flare-data/1-Cr-Sb2Te3/3.fine-tuning/2-layer/MACE-omat/MACE-matpes-pbe-omat-ft.model neb_image=4 neb_protocol=mlff_pre_neb pbc="T T T"
Te       2.10981228       1.22023229       3.76552974       0.00417542      -0.00349603       0.00348535
Te      -0.00184458      -2.43726308       3.76552974       0.00511526      -0.00186796       0.00348546
Te      -2.10954984       1.21795082       3.75541883       0.00001323      -0.00000774       0.01086774
Te       4.21962363      -2.43619756       3.76877108      -0.00408690       0.00235967       0.00666691
Te      -0.01943865       0.01122378       6.57420356       0.00606159      -0.00349977      -0.04521960
Te      -2.09996616      -3.65374105       6.62757795       0.01114282      -0.00643334      -0.05214524
Te      -4.20239826      -0.00044738       6.59384449      -0.00493493      -0.00049910      -0.02508800
Te      -2.10081098       3.63960684       6.59384461      -0.00203543       0.00452316      -0.02508804
Te       0.00061880      -0.00035567       0.00422476       0.00030100      -0.00017396       0.00100156
Te      -2.10471586      -3.65099803       0.00081223       0.00032866      -0.00018977       0.00326729
Te      -4.20956746      -0.00577323      -0.00258986       0.00108868      -0.00092483       0.00307637
Te       2.11443518      -3.65075633      -0.00258986       0.00134512      -0.00048050       0.00307635
Te       0.02446899       2.43265254      14.09308612      -0.01540674       0.01035494       0.00442632
Te      -2.09450377      -1.23751413      14.09308629      -0.01667102       0.00816540       0.00442626
Te      -4.27313556       2.46709716      13.96377975       0.00220562      -0.00127342       0.06416122
Te       2.18754237      -1.26297548      14.09042602      -0.00583493       0.00336898       0.00088176
Te       1.93341163       0.93817330     -14.14271531      -0.06304787       0.07368683      -0.05296766
Te       0.15422523      -2.14346771     -14.14271573      -0.09533870       0.01775744      -0.05296750
Te      -2.24632391       1.29691589     -14.20425668       0.02864122      -0.01653599      -0.01350711
Te       4.36775597      -2.52172304     -14.12166715      -0.09033108       0.05215278       0.01704620
Te       2.12351057       1.20687988      10.35618518      -0.00844668       0.00885602      -0.01374622
Te       0.01656736      -2.44245120      10.35618510      -0.01189299       0.00288713      -0.01374625
Te      -2.07888330       1.20024475      10.38339779       0.00342542      -0.00197786      -0.03993499
Te       4.17921218      -2.41286665      10.31519479       0.01821129      -0.01051412      -0.02883846
Te       0.08857240      -0.05113518      -6.60892737      -0.01214008       0.00700893       0.02668760
Te      -2.10006888      -3.65368055      -6.62336932      -0.01681361       0.00970736       0.06029133
Te       4.23953491       0.01333479      -6.55635203      -0.00917027      -0.00888431       0.01607045
Te       2.10822082      -3.67820775      -6.55635220       0.00310882       0.01238390       0.01607059
Te       0.01190145       2.42239392      -3.76860206      -0.00274347      -0.00128780      -0.00490876
Te      -2.09190419      -1.22150263      -3.76860208      -0.00025646       0.00301989      -0.00490862
Te      -4.21893133       2.43580093      -3.75689172       0.00376718      -0.00217499      -0.00459508
Te       2.11407978      -1.22056309      -3.75003761      -0.00147251       0.00085025      -0.01076360
Te       0.01623449       2.48757274     -10.33206086      -0.01857078       0.02370938       0.01823440
Te      -2.14618386      -1.25784401     -10.33206118      -0.02981842       0.00422835       0.01823441
Te      -4.09067671       2.36175361     -10.34045003      -0.05469543       0.03157853       0.01782757
Te       2.04973571      -1.18341366     -10.41620928       0.00557327      -0.00321763       0.05240336
Sb       0.00120336       2.41099826       8.35103529       0.00879638       0.00538739      -0.02904479
Sb      -2.08738409      -1.20653968       8.35103509      -0.00026730      -0.01031140      -0.02904474
Sb      -4.19891246       2.42424309       8.35277760       0.00189166      -0.00109202      -0.01290789
Sb       2.08330503      -1.20279507       8.29535471       0.00818223      -0.00472406       0.00820435
Sb       0.00158085       2.43435414       2.01133114       0.00191238      -0.00090035       0.00127544
Sb      -2.10742143      -1.21854331       2.01133118       0.00173584      -0.00120586       0.00127541
Sb      -4.21553870       2.43384317       2.00619840       0.00367934      -0.00212439      -0.00371505
Sb       2.10927356      -1.21778721       2.01835811       0.00153862      -0.00088818      -0.00563462
Sb      -0.12937359       0.07469454     -12.06366330       0.00912639      -0.00526919       0.09731907
Sb      -1.98836897      -3.71817184     -12.28546680       0.01129419      -0.00652044      -0.18372624
Sb      -4.23237267      -0.07834018     -12.41908902      -0.01682978       0.03930044       0.02598519
Sb      -2.04834037       3.70451225     -12.41908892      -0.04245016      -0.00507540       0.02598516
Sb       0.04552709      -0.02628345      12.36508115      -0.01711917       0.00988376      -0.01721511
Sb      -2.16772750      -3.61461807      12.25620725      -0.00738106       0.00426142       0.01122576
Sb       4.24845589      -0.07639760      12.31760909      -0.00024411       0.00300526      -0.02255769
Sb       2.19039211      -3.64106734      12.31760873      -0.00272462      -0.00129121      -0.02255771
Sb       2.10912749       1.21326965      -1.99994021       0.00068482      -0.00099962      -0.00414539
Sb       0.00384197      -2.43319016      -1.99994025       0.00120796      -0.00009329      -0.00414529
Sb      -2.10356866       1.21449655      -2.01872057       0.00334600      -0.00193194       0.01003734
Sb       4.22600206      -2.43988116      -2.01771365       0.00087302      -0.00050391       0.00782680
Sb       2.17470338       1.21471216      -8.36740825      -0.01356596       0.00842195       0.03874316
Sb       0.03538096      -2.49070094      -8.36740839      -0.01407665       0.00753758       0.03874329
Sb      -2.03924108       1.17735747      -8.27496656      -0.02853959       0.01647727      -0.02868452
Sb       4.19016000      -2.41918728      -8.25806642      -0.00977439       0.00564337       0.01977235
Cr      -0.39898251      -4.63580377      16.54058038       0.46790768      -0.27014696       0.11372232
61
Lattice="8.428435589532 0.0 0.0 -4.214217794766 7.299235931425 0.0 0.0 0.0 31.033440841609" Properties=species:S:1:pos:R:3:forces:R:3 branch_id=historical_curvature_warp image_index=5 energy=-227.46247635453466 mlff_rel_energy_eV=-4.2029498237803296 mlff_fmax_eV_A=0.14701227265950711 calculator_label=/data/pclancy3/yi/flare-data/1-Cr-Sb2Te3/3.fine-tuning/2-layer/MACE-omat/MACE-matpes-pbe-omat-ft.model neb_image=5 neb_protocol=mlff_pre_neb pbc="T T T"
Te       2.10787185       1.21842915       3.81682886       0.00384851       0.00198750      -0.09651540
Te      -0.00125299      -2.43468082       3.81682902       0.00020221      -0.00432689      -0.09651543
Te      -2.11197367       1.21935048       3.80761523      -0.00118190       0.00068142      -0.09163425
Te       4.21762010      -2.43504074       3.81923609      -0.00241131       0.00139241      -0.09512456
Te      -0.02646717       0.01528169       6.53103575       0.00960309      -0.00554484       0.06417578
Te      -2.09927859      -3.65413825       6.57632351       0.00437274      -0.00252424       0.05743358
Te      -4.20801973       0.00003211       6.55181681      -0.00268875       0.00329813       0.07053710
Te      -2.10403697       3.64423515       6.55181664      -0.00420122       0.00067949       0.07053727
Te      -0.00255626       0.00147773       0.00424522       0.00199765      -0.00115430       0.00153929
Te      -2.10873222      -3.64867922      -0.00155491      -0.00035090       0.00020270       0.00286078
Te      -4.21356490      -0.00426514      -0.00352392      -0.00045876      -0.00151016       0.00519136
Te       2.11113067      -3.64804837      -0.00352393       0.00107761       0.00115202       0.00519138
Te       0.01466896       2.44359810      14.13293052      -0.00515472      -0.00540719      -0.08546107
Te      -2.10888276      -1.23449987      14.13293046       0.00210516       0.00716822      -0.08546088
Te      -4.25832559       2.45854666      14.08771188       0.01428005      -0.00824496       0.00668922
Te       2.16329587      -1.24897688      14.15150326      -0.01768369       0.01021020      -0.09639467
Te       1.94417233       1.05360202     -14.17588198      -0.00023857       0.05465555      -0.00463721
Te       0.05964113      -2.21050234     -14.17588175      -0.04745296      -0.02712090      -0.00463708
Te      -2.00520741       1.15770775     -14.20864780       0.02359771      -0.01362446       0.00460824
Te       4.28126441      -2.47178709     -14.27213289      -0.04136250       0.02388153       0.13903749
Te       2.11709382       1.21181620      10.36265564      -0.01162466       0.00021725      -0.02761017
Te       0.00908403      -2.43936246      10.36265585      -0.00600105       0.00995907      -0.02761035
Te      -2.08714106       1.20501241      10.38526242       0.00309281      -0.00178631      -0.04244512
Te       4.17696510      -2.41156942      10.34565238       0.02280721      -0.01316706      -0.02115130
Te       0.05194005      -0.02998503      -6.61812314      -0.02222315       0.01282948      -0.05954137
Te      -2.11053950      -3.64763528      -6.57145679      -0.00462755       0.00267165      -0.04640544
Te       4.22745268       0.02353847      -6.53536164      -0.00435021      -0.00556587      -0.06244663
Te       2.09334350      -3.67284562      -6.53536157       0.00264416       0.00654970      -0.06244669
Te       0.00313956       2.42167564      -3.81959507      -0.00135143       0.00050943       0.09131936
Te      -2.09566316      -1.21355590      -3.81959497      -0.00111676       0.00091682       0.09131938
Te      -4.22344993       2.43840971      -3.80497108       0.00626248      -0.00361553       0.09167321
Te       2.10645543      -1.21616158      -3.80871092      -0.00189029       0.00109247       0.08639848
Te       0.01402711       2.50071635     -10.34178039       0.00256126      -0.05845486       0.05019323
Te      -2.15867012      -1.26250416     -10.34178043       0.05190383       0.02701050       0.05019324
Te      -4.15194092       2.39712475     -10.43003224      -0.03423511       0.01976556       0.06274191
Te       2.10604282      -1.21592282     -10.38833019       0.00023618      -0.00013522       0.08306177
Sb       0.00129166       2.42158237       8.32423416      -0.00006455       0.00652802       0.00789639
Sb      -2.09650615      -1.21190870       8.32423391      -0.00568550      -0.00320706       0.00789630
Sb      -4.20133151       2.42563957       8.33195755      -0.00307589       0.00177608       0.01131685
Sb       2.07554559      -1.19831569       8.26470243       0.01637346      -0.00945234       0.04698182
Sb       0.00104368       2.43416399       2.04333318      -0.00119077       0.00322000      -0.02999282
Sb      -2.10752516      -1.21798288       2.04333328      -0.00338433      -0.00057843      -0.02999282
Sb      -4.21745404       2.43494922       2.04060005       0.00147683      -0.00085310      -0.03788189
Sb       2.10883750      -1.21753541       2.04829380       0.00135691      -0.00078291      -0.03394435
Sb      -0.06444000       0.03720528     -11.99292508       0.04435703      -0.02561003       0.00940938
Sb      -2.06550134      -3.67363918     -12.43873367       0.01578655      -0.00911412      -0.04878630
Sb      -4.21370244      -0.06530815     -12.45859221      -0.00455594       0.07498876      -0.01825997
Sb      -2.05029092       3.68182731     -12.45859187      -0.06722062      -0.03354868      -0.01825986
Sb       0.03328862      -0.01921725      12.39767837      -0.01589043       0.00917352      -0.04617562
Sb      -2.17454551      -3.61068169      12.29216565       0.03430850      -0.01980815       0.02483120
Sb       4.23114396      -0.04152954      12.36132722      -0.00522519       0.00946521      -0.02079328
Sb       2.15153994      -3.64350850      12.36132678      -0.01081066      -0.00020812      -0.02079331
Sb       2.10384251       1.21487251      -2.03688749      -0.00267144      -0.00414974       0.03119237
Sb      -0.00018877      -2.42941500      -2.03688738       0.00225768       0.00438876       0.03119259
Sb      -2.10898771       1.21762512      -2.04676713       0.00625759      -0.00361325       0.03532956
Sb       4.22032456      -2.43660352      -2.05228364      -0.00066319       0.00038345       0.02846281
Sb       2.16518685       1.23809670      -8.35063649      -0.02887809      -0.00692930      -0.00765924
Sb       0.01037135      -2.49415140      -8.35063649      -0.00843852       0.02847402      -0.00765897
Sb      -2.08870002       1.20591301      -8.31394128      -0.00893370       0.00515736      -0.02933315
Sb       4.17758956      -2.41192948      -8.23767812       0.02593689      -0.01497425       0.06644856
Cr      -0.07075587      -4.82530660      16.72983666       0.07859021      -0.04537398       0.01990931
61
Lattice="8.428435589532 0.0 0.0 -4.214217794766 7.299235931425 0.0 0.0 0.0 31.033440841609" Properties=species:S:1:pos:R:3:forces:R:3 branch_id=historical_curvature_warp image_index=6 energy=-226.4171919874811 mlff_rel_energy_eV=-3.157665456726761 mlff_fmax_eV_A=0.7681434822227037 calculator_label=/data/pclancy3/yi/flare-data/1-Cr-Sb2Te3/3.fine-tuning/2-layer/MACE-omat/MACE-matpes-pbe-omat-ft.model neb_image=6 neb_protocol=mlff_pre_neb pbc="T T T"
Te       2.10870921       1.21746383       3.58373571      -0.00107607      -0.00061458       0.71608755
Te       0.00000003      -2.43492420       3.58373571      -0.00000008       0.00124062       0.71608228
Te      -2.10870914       1.21746383       3.58373571       0.00107593      -0.00061462       0.71608763
Te       4.21421779      -2.43307634       3.57866983       0.00000000      -0.00000188       0.76814348
Te      -0.00000000       0.00000000       6.73023730       0.00000001       0.00000485      -0.55918383
Te      -2.11186507      -3.64687025       6.75807582      -0.02306461       0.01331417      -0.67736703
Te      -4.21421776      -0.00549197       6.75807582      -0.00000007      -0.02662799      -0.67737218
Te      -2.10235273       3.65236568       6.75807582       0.02306474       0.01331421      -0.67736712
Te       0.00000000       0.00000000      -0.00547728       0.00000006       0.00000625       0.03454643
Te      -2.10782211      -3.64920445       0.00303373      -0.00151456       0.00087368      -0.03540510
Te      -4.21421776      -0.00082357       0.00303373      -0.00000007      -0.00174276      -0.03540505
Te       2.10782211      -3.64920445       0.00303373       0.00151467       0.00087368      -0.03540510
Te       0.00000000       2.44262829      13.93275255       0.00000006       0.06912902       0.69377456
Te      -2.11537812      -1.22131069      13.93275255      -0.05986499      -0.03456922       0.69377939
Te      -4.21421776       2.43307980      14.11551804      -0.00000009       0.00000204      -0.07932073
Te       2.11537812      -1.22131069      13.93275255       0.05986513      -0.03456916       0.69377930
Te       1.97104262       1.13798199     -14.25171701      -0.25679172      -0.14825604      -0.05460658
Te       0.00000003      -2.27596052     -14.25171701      -0.00000004       0.29651490      -0.05460913
Te      -1.97104255       1.13798199     -14.25171701       0.25679168      -0.14825607      -0.05460661
Te       4.21421779      -2.43307634     -13.91299990       0.00000011      -0.00000720      -0.74378363
Te       2.10381612       1.21463880      10.33710037       0.03613091       0.02086558       0.12912466
Te       0.00000003      -2.42927415      10.33710037      -0.00000008      -0.04172579       0.12912094
Te      -2.10381606       1.21463880      10.33710037      -0.03613108       0.02086557       0.12912466
Te       4.21421779      -2.43307634      10.32928454       0.00000004      -0.00000432       0.37538440
Te       0.00000000      -0.00000000      -6.74699509       0.00000010       0.00000702       0.57812351
Te      -2.11643660      -3.64423087      -6.69461214       0.14753946      -0.08518018       0.63500116
Te       4.21421783      -0.01077073      -6.69461214      -0.00000005       0.17037343       0.63500725
Te       2.11643660      -3.64423087      -6.69461214      -0.14753940      -0.08518020       0.63500124
Te      -0.00000000       2.43045523      -3.59552834       0.00000010      -0.00655075      -0.67202857
Te      -2.10483594      -1.21522415      -3.59552834       0.00567182       0.00326755      -0.67203313
Te      -4.21421776       2.43307980      -3.59498629      -0.00000004      -0.00000156      -0.63707577
Te       2.10483594      -1.21522415      -3.59552834      -0.00567174       0.00326759      -0.67203322
Te      -0.00000000       2.40488425     -10.30721420       0.00000009       0.28186242      -0.31630567
Te      -2.08269083      -1.20243866     -10.30721420      -0.24410283      -0.14093925      -0.31630698
Te      -4.21421776       2.43307980     -10.26805999      -0.00000008       0.00000036      -0.16249641
Te       2.08269083      -1.20243866     -10.30721420       0.24410293      -0.14093925      -0.31630702
Sb       0.00000000       2.42739575       8.39926522       0.00000008      -0.08370440       0.27859129
Sb      -2.10218635      -1.21369442       8.39926522       0.07249215       0.04184556       0.27859481
Sb      -4.21421776       2.43307980       8.35798337      -0.00000013       0.00000225       0.44432428
Sb       2.10218635      -1.21369442       8.39926522      -0.07249207       0.04184566       0.27859477
Sb       0.00000000       2.43781189       1.96015735       0.00000012      -0.04196583      -0.45309167
Sb      -2.11120699      -1.21890248       1.96015735       0.03634697       0.02097568      -0.45309181
Sb      -4.21421776       2.43307980       1.95613627      -0.00000008       0.00000394      -0.42954282
Sb       2.11120699      -1.21890248       1.96015735      -0.03634686       0.02097578      -0.45309185
Sb      -0.00000000       0.00000000     -11.97142417       0.00000003       0.00000634      -0.06018803
Sb      -1.99321705      -3.71537172     -12.47690343      -0.10711777       0.06184234       0.38029086
Sb      -4.21421776       0.13151097     -12.47690343      -0.00000003      -0.12368277       0.38029313
Sb      -2.22100068       3.58386421     -12.47690343       0.10711771       0.06184234       0.38029092
Sb       0.00000000      -0.00000000      12.28357695       0.00000008       0.00000739      -0.52584350
Sb      -2.11302755      -3.64619909      12.34092277       0.02579454      -0.01489491      -0.48992369
Sb       4.21421783      -0.00683429      12.34092277      -0.00000013       0.02979322      -0.48992814
Sb       2.11302755      -3.64619909      12.34092277      -0.02579448      -0.01489484      -0.48992369
Sb       2.10024860       1.21257909      -1.96136998       0.04296820       0.02481614       0.41086752
Sb       0.00000003      -2.42515472      -1.96136998      -0.00000014      -0.04962076       0.41086508
Sb      -2.10024853       1.21257909      -1.96136998      -0.04296832       0.02481606       0.41086752
Sb       4.21421779      -2.43307634      -1.97027533       0.00000006      -0.00000508       0.44314929
Sb       2.10126150       1.21316390      -8.40423866       0.04147183       0.02395027      -0.14024452
Sb       0.00000003      -2.42632433      -8.40423866      -0.00000013      -0.04789641      -0.14024608
Sb      -2.10126144       1.21316390      -8.40423866      -0.04147193       0.02395023      -0.14024457
Sb       4.21421779      -2.43307634      -8.16991420       0.00000004      -0.00001062      -0.65024322
Cr       0.00000003      -4.86615613      16.71632754      -0.00000001       0.00000033      -0.01027548
