61
Lattice="8.428435589532 0.0 0.0 -4.214217794766 7.299235931425 0.0 0.0 0.0 31.033440841609" Properties=species:S:1:pos:R:3:forces:R:3 branch_id=historical_curvature_warp image_index=0 energy=-223.25952653075433 mlff_rel_energy_eV=0.0 mlff_fmax_eV_A=2.027820655718557 calculator_label=/data/pclancy3/yi/flare-data/1-Cr-Sb2Te3/3.fine-tuning/2-layer/MACE-omat/MACE-matpes-pbe-omat-ft.model neb_image=0 neb_protocol=mlff_pre_neb pbc="T T T"
Te       2.10744601       1.21354019       3.41254337      -0.00129909       0.01215995       1.02443961
Te       0.00276640      -2.43186842       3.41254337      -0.01117420      -0.00495276       1.02443421
Te      -2.10824211       1.21719419       3.38538356       0.00083484      -0.00047448       1.10854975
Te       4.21320531      -2.43249178       3.41107878       0.00444288      -0.00256655       1.04239147
Te      -0.14767532       0.08526043       6.97789257       0.25532391      -0.14740612      -1.11196678
Te      -2.11172824      -3.64694924       7.05874685      -0.00236006       0.00136042      -1.08540261
Te      -4.07165586       0.02485596       6.97812592      -0.19077768      -0.06007816      -1.15029455
Te      -2.05735384       3.51372943       6.97812592      -0.04335510       0.19525878      -1.15028754
Te       0.00049552      -0.00028609       0.00268288      -0.01041989       0.00602476       0.00030282
Te      -2.10747599      -3.64940429      -0.00308441      -0.00813992       0.00469926       0.00448681
Te      -4.21389062      -0.00009060       0.00057115       0.00696475      -0.00437514      -0.01324207
Te       2.10735091      -3.64985425       0.00057115       0.00727911      -0.00384008      -0.01324218
Te       0.17741958       2.47897744      13.78975036      -0.25681069      -0.09598988       0.86228630
Te      -2.05814760      -1.39313519      13.78975036      -0.04527375       0.27039582       0.86229221
Te      -4.45714591       2.57333449      13.92253187       0.27158568      -0.15679876       0.87862168
Te       2.10470209      -1.21514688      13.89228571      -0.01385594       0.00799385       0.89018787
Te       2.09440037       1.02354448     -13.88865516       0.01933672      -0.24940752      -0.72079571
Te       0.16078465      -2.32557274     -13.88865516       0.22566695       0.10795456      -0.72080009
Te      -2.04117795       1.17847469     -13.91688198      -0.02219435       0.01281551      -0.94444825
Te       4.35937602      -2.51688351     -14.11593492      -0.40583260       0.23430196      -0.43863787
Te       2.15203410       1.09568677      10.38899708       0.00513111       0.07385294      -0.17377771
Te       0.12712446      -2.41155614      10.38899708      -0.06138690      -0.04137411      -0.17378389
Te      -2.10826780       1.21720902      10.47731738      -0.05513303       0.03183749       0.00656354
Te       4.08965336      -2.36115900      10.40810354       0.03159172      -0.01824643      -0.00931422
Te       0.28553338      -0.16485285      -7.04908116      -0.34538254       0.19941704       1.17464778
Te      -2.03979346      -3.68848083      -7.11179535      -0.04985725       0.02878766       1.00612417
Te       4.06405015       0.04552971      -6.91845580       0.28460769      -0.03081032       1.22822964
Te       1.99259517      -3.54233201      -6.91845580       0.16899458      -0.23106883       1.22822250
Te       0.00009101       2.43212971      -3.42495934       0.01459871      -0.00358947      -0.97332374
Te      -2.10624058      -1.21614021      -3.42495934       0.01040601      -0.01085675      -0.97332967
Te      -4.21484012       2.43343912      -3.40284132      -0.00372278       0.00214736      -1.04409827
Te       2.10723896      -1.21661154      -3.38977230      -0.00567184       0.00326669      -1.09239887
Te      -0.02180159       2.47020236     -10.35795495       0.03337955      -0.05304752       0.02162256
Te      -2.15015874      -1.21621698     -10.35795495       0.06263033      -0.00239044       0.02162557
Te      -3.97507961       2.29501326     -10.43820484       0.06573044      -0.03794948      -0.16023441
Te       2.18215737      -1.25986572     -10.51199702      -0.09799910       0.05657074      -0.11735136
Sb       0.00391944       2.41825669       8.61950618       0.09062676       0.04095560       0.48301213
Sb      -2.09231198      -1.21251922       8.61950618       0.00984682      -0.09897145       0.48301679
Sb      -4.18832363       2.41812981       8.56502544      -0.04168585       0.02406942       0.44698135
Sb       2.11170727      -1.21919132       8.36203490      -0.06304837       0.03639187       0.28173001
Sb       0.00236690       2.43529918       1.83705735       0.02611076       0.00421851      -0.28992372
Sb      -2.10784747      -1.21969592       1.83705735       0.00940596      -0.02473104      -0.28992321
Sb      -4.21701031       2.43469208       1.83482700      -0.02676951       0.01545985      -0.28205780
Sb       2.10839355      -1.21727814       1.83816743      -0.00650684       0.00374562      -0.27547063
Sb      -0.08898265       0.05137418     -12.14534741       0.11725387      -0.06768732       0.17016847
Sb      -1.90272798      -3.76761564     -12.09002400      -0.24797186       0.14316316       1.53794478
Sb      -4.09522627      -0.12316377     -12.32690286      -0.02620699       0.07436390       0.02623667
Sb      -1.94095023       3.60815187     -12.32690286      -0.07749649      -0.01448512       0.02623825
Sb       0.03607400      -0.02082734      12.22503296      -0.10290142       0.05941990       0.06884547
Sb      -2.10359106      -3.65164726      12.01283341      -0.00876250       0.00505605      -0.04238581
Sb       4.20386750      -0.00659023      12.32047798       0.13714072       0.11157708       0.06511196
Sb       2.10764103      -3.63735747      12.32047798      -0.02804960      -0.17455257       0.06511458
Sb       2.10500921       1.21538069      -1.82998739      -0.01727459       0.04229960       0.25129215
Sb      -0.00004592      -2.43067834      -1.82998739      -0.04526135      -0.00619186       0.25128833
Sb      -2.10587506       1.21582757      -1.84477976       0.01959911      -0.01130609       0.25500445
Sb       4.21405810      -2.43298414      -1.84149487       0.05049209      -0.02915879       0.26635642
Sb       2.18106995       1.18989441      -8.69963679      -0.06398749       0.23316295      -0.41606021
Sb       0.06005621      -2.48380576      -8.69963679      -0.23391367      -0.06117320      -0.41606545
Sb      -2.04751422       1.18213291      -8.22151382       0.18461541      -0.10658261      -0.60764047
Sb       4.12669097      -2.38254267      -8.46317739       0.30159784      -0.17413782      -0.36319553
Cr      -1.88137911      -3.77994102      16.47228056       0.20528893      -0.11852757      -2.01391765
61
Lattice="8.428435589532 0.0 0.0 -4.214217794766 7.299235931425 0.0 0.0 0.0 31.033440841609" Properties=species:S:1:pos:R:3:forces:R:3 branch_id=historical_curvature_warp image_index=1 energy=-221.66543077867857 mlff_rel_energy_eV=1.5940957520757593 mlff_fmax_eV_A=3.2624780116683585 calculator_label=/data/pclancy3/yi/flare-data/1-Cr-Sb2Te3/3.fine-tuning/2-layer/MACE-omat/MACE-matpes-pbe-omat-ft.model neb_image=1 neb_protocol=mlff_pre_neb pbc="T T T"
Te       2.10755595       1.21312249       3.37271494       0.00110171       0.01461603       0.99203788
Te       0.00318322      -2.43175475       3.37271485      -0.01210134      -0.00826022       0.99203384
Te      -2.10866231       1.21743692       3.33697048       0.00097901      -0.00055840       1.10177407
Te       4.21366733      -2.43275855       3.37091199       0.00336787      -0.00194586       1.01353452
Te      -0.20697201       0.11949549       7.03702029       0.37994972      -0.21935958      -1.02534609
Te      -2.11386499      -3.64571563       7.14987866      -0.00834877       0.00481809      -1.07893946
Te      -4.01415360       0.03174278       7.03808214      -0.29292262      -0.09179189      -1.09746072
Te      -2.03456680       3.46048760       7.03808226      -0.06696325       0.29957592      -1.09745504
Te       0.00062363      -0.00035989       0.00382814      -0.01552639       0.00897291      -0.00199644
Te      -2.10774925      -3.64924652      -0.00448725      -0.01160964       0.00670266       0.00474171
Te      -4.21352155      -0.00016329       0.00040660       0.01182733      -0.00631309      -0.02447894
Te       2.10759853      -3.65013745       0.00040660       0.01138862      -0.00708215      -0.02447901
Te       0.23495510       2.48667994      13.72305249      -0.43177534      -0.13473037       0.75117636
Te      -2.03605036      -1.44681377      13.72305259      -0.09920580       0.44128979       0.75118176
Te      -4.54807525       2.62583262      13.91413909       0.50845558      -0.29355580       0.66022181
Te       2.10345255      -1.21442556      13.90555517      -0.00785128       0.00452745       0.75197561
Te       2.08863454       0.90033103     -13.87068444       0.07902979       0.08481311      -0.65323943
Te       0.26460778      -2.25897271     -13.87068452      -0.03392972      -0.11085010      -0.65324287
Te      -2.02475975       1.16899567     -13.94580776       0.03456052      -0.01995218      -0.78575675
Te       4.40965605      -2.54591281     -14.20159864       0.07138623      -0.04121982      -0.28946651
Te       2.17391540       1.04309675      10.39804758       0.01381000       0.07345145      -0.20368809
Te       0.18360949      -2.40421098      10.39804747      -0.05669970      -0.04868929      -0.20369361
Te      -2.11023639       1.21834569      10.53534021      -0.08995456       0.05194145      -0.14480981
Te       4.03267649      -2.32826349      10.42797267       0.04662390      -0.02692502      -0.03904257
Te       0.40988747      -0.23664856      -7.14604962      -0.58001938       0.33488472       1.06544093
Te      -2.00901941      -3.70624819      -7.23116675      -0.06660760       0.03845836       0.98926781
Te       4.00367996       0.06956521      -6.94876075       0.46911800      -0.01379358       1.14373307
Te       1.94159489      -3.50206758      -6.94876087       0.24651259      -0.39936960       1.14372715
Te       0.00100129       2.43212801      -3.39007077       0.01241469      -0.00398320      -0.92091665
Te      -2.10578399      -1.21692783      -3.39007087       0.00965514      -0.00876779      -0.92092131
Te      -4.21563409       2.43389748      -3.35915249      -0.00034134       0.00019510      -1.01708149
Te       2.10728815      -1.21664007      -3.34302540      -0.00711543       0.00410082      -1.07731924
Te      -0.02891076       2.48899290     -10.35153609      -0.01151679      -0.06878360       0.13343894
Te      -2.16998641      -1.21945564     -10.35153601       0.05380982       0.04435952       0.13344246
Te      -3.85873583       2.22784211     -10.47645712       0.23758401      -0.13716932      -0.00021161
Te       2.21493514      -1.27879015     -10.58661918      -0.14546669       0.08397629       0.06570643
Sb       0.01716044       2.41702527       8.72448468       0.04584619       0.03176390       0.29518661
Sb      -2.08462500      -1.22337071       8.72448475      -0.00458382      -0.05559386       0.29518997
Sb      -4.18560597       2.41656079       8.64320691       0.02259550      -0.01304421       0.24635394
Sb       2.11128960      -1.21895033       8.35272729      -0.06696304       0.03865290       0.01648441
Sb       0.00420494       2.43645195       1.79119773       0.02087005       0.00065010      -0.07289687
Sb      -2.10792671      -1.22186426       1.79119774       0.00987524      -0.01840707      -0.07289635
Sb      -4.21897305       2.43582534       1.78823241      -0.02218847       0.01281420      -0.06478225
Sb       2.10894236      -1.21759519       1.79393117      -0.00635777       0.00366115      -0.06216720
Sb      -0.11348428       0.06552037     -12.07412071       0.18099921      -0.10449189      -0.27703443
Sb      -1.80965978      -3.82134868     -11.88325314      -0.47831910       0.27615494       2.65466035
Sb      -4.06215000      -0.19742344     -12.34841900      -0.03009082       0.13114719      -0.41359462
Sb      -1.86010125       3.61663682     -12.34841896      -0.12861522      -0.03951356      -0.41359260
Sb       0.03146075      -0.01816371      12.20188645      -0.00968329       0.00559972       0.34988172
Sb      -2.10467179      -3.65102335      11.85896927       0.01362904      -0.00787099       0.27394810
Sb       4.22233737       0.00487675      12.34417764       0.06701175       0.15676255       0.36363935
Sb       2.10694542      -3.65908628      12.34417767      -0.10224649      -0.13641151       0.36364110
Sb       2.10367316       1.21578368      -1.78164916      -0.01763783       0.04126667       0.02508039
Sb      -0.00106279      -2.42972282      -1.78164923      -0.04454985      -0.00536108       0.02507643
Sb      -2.10470738       1.21515357      -1.80399796       0.02437073      -0.01406259       0.04765158
Sb       4.21521750      -2.43365364      -1.79806479       0.05170832      -0.02986040       0.05007770
Sb       2.21724402       1.19433668      -8.84140198      -0.03650461       0.14101529      -0.13119996
Sb       0.07429621      -2.51735468      -8.84140208      -0.14037071      -0.03889833      -0.13120527
Sb      -2.01456520       1.16310986      -8.14998233       0.21126066      -0.12196713      -0.40870047
Sb       4.09858844      -2.36631784      -8.48906391       0.29956925      -0.17296500      -0.13283381
Cr      -1.73308568      -3.86555818      16.84339631      -0.11324383       0.06537619      -3.25985653
61
Lattice="8.428435589532 0.0 0.0 -4.214217794766 7.299235931425 0.0 0.0 0.0 31.033440841609" Properties=species:S:1:pos:R:3:forces:R:3 branch_id=historical_curvature_warp image_index=2 energy=-220.81078416535934 mlff_rel_energy_eV=2.448742365394992 mlff_fmax_eV_A=3.514980386586412 calculator_label=/data/pclancy3/yi/flare-data/1-Cr-Sb2Te3/3.fine-tuning/2-layer/MACE-omat/MACE-matpes-pbe-omat-ft.model neb_image=2 neb_protocol=mlff_pre_neb pbc="T T T"
Te       2.10690455       1.21305636       3.35306508       0.00313350       0.01274923       1.02675855
Te       0.00291479      -2.43115754       3.35306499      -0.00946862      -0.00908642       1.02675446
Te      -2.10772879       1.21689795       3.31814838       0.00137167      -0.00078503       1.13589294
Te       4.21541855      -2.43376962       3.35081715       0.00004840      -0.00002938       1.04680543
Te      -0.20854300       0.12040250       7.04232461       0.36166451      -0.20880265      -1.02455011
Te      -2.11165867      -3.64698945       7.16378217      -0.01562095       0.00901670      -1.09720375
Te      -4.02015086       0.02973168       7.05910671      -0.28680142      -0.08328345      -1.11089993
Te      -2.03582375       3.46668694       7.05910682      -0.07127110       0.29002053      -1.11089427
Te       0.00202709      -0.00117018       0.00279695      -0.01806382       0.01043817       0.00163671
Te      -2.10672651      -3.64983700      -0.00440222      -0.01052796       0.00607820       0.00517317
Te      -4.21349565       0.00055235       0.00027277       0.01348718      -0.00629076      -0.02311213
Te       2.10699173      -3.65051770       0.00027277       0.01219943      -0.00853063      -0.02311221
Te       0.22347843       2.47981048      13.70022821      -0.37075585      -0.08399324       0.84153957
Te      -2.03583958      -1.43343995      13.70022832      -0.11263562       0.36307671       0.84154543
Te      -4.56409135       2.63507952      13.86505754       0.53131927      -0.30675613       0.87516254
Te       2.10496462      -1.21529855      13.87891710      -0.01048189       0.00604607       0.81558026
Te       2.07986053       0.82095340     -13.84701527       0.01202381      -0.03376112      -0.53173204
Te       0.32896380      -2.21168534     -13.84701533       0.03525552       0.00646761      -0.53173505
Te      -2.15603466       1.24478731     -13.93366615       0.16519688      -0.09537532      -0.58378922
Te       4.40944852      -2.54579299     -14.18376386       0.51879472      -0.29953139      -0.15570170
Te       2.17221046       1.04923250      10.39861725       0.03004589       0.06218859      -0.17408911
Te       0.17744331      -2.40580233      10.39861713      -0.03882766      -0.05711861      -0.17409484
Te      -2.10865120       1.21743049      10.53248442      -0.10158029       0.05865369      -0.17231550
Te       4.02446905      -2.32352493      10.41686815       0.01539409      -0.00889466      -0.04505511
Te       0.42182597      -0.24354125      -7.18526937      -0.63628368       0.36736930       1.12475390
Te      -2.01503750      -3.70277364      -7.24668768      -0.07972471       0.04603159       1.08529896
Te       3.99351522       0.06035373      -6.97283127       0.51624074       0.02772312       1.22433797
Te       1.94448989      -3.48865891      -6.97283139       0.23411995      -0.46093739       1.22433187
Te       0.00081249       2.43319818      -3.37204123       0.01238981      -0.00265347      -0.94387698
Te      -2.10680519      -1.21729942      -3.37204133       0.00849108      -0.00941121      -0.94388169
Te      -4.21390157       2.43289720      -3.34250207      -0.00437377       0.00252315      -1.03997144
Te       2.10845243      -1.21731227      -3.32345203      -0.00715791       0.00412524      -1.11491238
Te      -0.03378657       2.48717957     -10.33084985      -0.02475888      -0.01991608       0.14178648
Te      -2.17085394      -1.21432641     -10.33084976       0.00486812       0.03139324       0.14179023
Te      -3.85263459       2.22431955     -10.48254366       0.16979901      -0.09803375       0.01936740
Te       2.19905076      -1.26961931     -10.56431885      -0.31438287       0.18149945       0.20264498
Sb       0.02100457       2.41503661       8.73564782       0.02484707       0.03608967       0.24160292
Sb      -2.08098070      -1.22570550       8.73564789      -0.01882953      -0.03957109       0.24160616
Sb      -4.18806772       2.41798209       8.65995690       0.04067413      -0.02348193       0.19432231
Sb       2.09990807      -1.21237921       8.36927890      -0.06197481       0.03577283      -0.05048320
Sb       0.00474676       2.43611793       1.77707695       0.01607383      -0.00156548      -0.04926075
Sb      -2.10736654      -1.22216649       1.77707697       0.00939591      -0.01314574      -0.04926018
Sb      -4.21863716       2.43563142       1.77559941      -0.01942864       0.01122084      -0.03735960
Sb       2.10958780      -1.21796784       1.78081875      -0.00500744       0.00288140      -0.03854239
Sb      -0.15824634       0.09136377     -12.01731655       0.14039131      -0.08104713      -0.67817195
Sb      -1.82025901      -3.81522923     -11.89466211      -0.78414832       0.45272581       2.45171784
Sb      -4.09035124      -0.23599640     -12.30344766       0.06547898       0.21190101      -0.70785847
Sb      -1.84079673       3.66034631     -12.30344760      -0.15076543      -0.16265638      -0.70785603
Sb       0.02576316      -0.01487419      12.18607086       0.05038217      -0.02907887       0.34864195
Sb      -2.13171041      -3.63541259      11.83077363       0.03136647      -0.01811178       0.29249433
Sb       4.23056181       0.00072826      12.33054017      -0.00262095       0.17455348       0.38482170
Sb       2.11465034      -3.66413461      12.33054021      -0.15246983      -0.08500317       0.38482344
Sb       2.10419166       1.21563594      -1.76849348      -0.01656126       0.04424026      -0.01250837
Sb      -0.00067560      -2.43009799      -1.76849355      -0.04658669      -0.00778035      -0.01251250
Sb      -2.10405528       1.21477708      -1.79065935       0.02475518      -0.01428448       0.01473758
Sb       4.21569388      -2.43392869      -1.78244274       0.05164425      -0.02982361       0.01435898
Sb       2.22826190       1.21629027      -8.85715981      -0.02637069       0.09896645      -0.10915079
Sb       0.06079280      -2.53787324      -8.85715991      -0.09888832      -0.02664994      -0.10915626
Sb      -2.01320805       1.16232631      -8.15933970       0.20905161      -0.12069149      -0.36346690
Sb       4.08810493      -2.36026519      -8.50049872       0.31684000      -0.18293663      -0.11201804
Cr      -1.37491137      -4.07235029      16.87059859      -0.13037557       0.07526642      -3.51175516
61
Lattice="8.428435589532 0.0 0.0 -4.214217794766 7.299235931425 0.0 0.0 0.0 31.033440841609" Properties=species:S:1:pos:R:3:forces:R:3 branch_id=historical_curvature_warp image_index=3 energy=-221.44273094829674 mlff_rel_energy_eV=1.816795582457587 mlff_fmax_eV_A=3.466054608833703 calculator_label=/data/pclancy3/yi/flare-data/1-Cr-Sb2Te3/3.fine-tuning/2-layer/MACE-omat/MACE-matpes-pbe-omat-ft.model neb_image=3 neb_protocol=mlff_pre_neb pbc="T T T"
Te       2.10526896       1.21359826       3.36751315       0.00434371       0.00779571       1.02160624
Te       0.00162769      -2.43001204       3.36751307      -0.00457371      -0.00765777       1.02160216
Te      -2.10511722       1.21539015       3.34492485       0.00229901      -0.00132059       1.08303706
Te       4.21907887      -2.43588291       3.36493059      -0.00433886       0.00250365       1.03312593
Te      -0.14484602       0.08362701       6.97284209       0.17937829      -0.10355981      -0.96871471
Te      -2.10424761      -3.65126823       7.08067620      -0.01815049       0.01047714      -1.01690868
Te      -4.09805343       0.01675627       7.02444019      -0.15304660      -0.02810880      -1.04672519
Te      -2.06353802       3.54064027       7.02444030      -0.05217644       0.14659760      -1.04671981
Te       0.00497881      -0.00287436      -0.00078929      -0.01660734       0.00959702       0.01222274
Te      -2.10422984      -3.65127846      -0.00264949      -0.00409395       0.00236346       0.00540065
Te      -4.21374769       0.00221335      -0.00005097       0.01067605      -0.00340422      -0.00583844
Te       2.10542724      -3.65112993      -0.00005097       0.00829388      -0.00753953      -0.00583856
Te       0.12931494       2.45303412      13.72940774      -0.14628121       0.01280696       0.94358280
Te      -2.05973232      -1.33850375      13.72940786      -0.08422974       0.12027614       0.94358883
Te      -4.49945674       2.59776270      13.77412377       0.43303924      -0.25001406       1.17726492
Te       2.10971233      -1.21803964      13.81765066       0.00634502      -0.00366880       0.94606240
Te       2.06291129       0.77825569     -13.82439384      -0.30615702       0.00487910      -0.52041105
Te       0.35746640      -2.17565800     -13.82439389      -0.15730028       0.26269986      -0.52041396
Te      -2.48223756       1.43312072     -13.90128583       0.16597621      -0.09582567      -0.62871479
Te       4.32967354      -2.49973487     -14.06014191       0.34214896      -0.19754545      -0.18309496
Te       2.14499999       1.12064647      10.38693944       0.03983633       0.03781129      -0.05696326
Te       0.10199179      -2.41794434      10.38693933      -0.01282140      -0.05340846      -0.05696888
Te      -2.10391629       1.21469678      10.46500712      -0.08092161       0.04672627      -0.07533067
Te       4.06690720      -2.34802661      10.36973144      -0.05659986       0.03267114      -0.07050597
Te       0.31323552      -0.18084651      -7.15354085      -0.41349859       0.23874337       1.20032124
Te      -2.06208427      -3.67561117      -7.13942267      -0.10688741       0.06171396       1.20851367
Te       4.03790298       0.01321081      -6.97585735       0.35721862       0.09488843       1.34152151
Te       2.00751073      -3.50352836      -6.97585749       0.09644211      -0.35680112       1.34151519
Te      -0.00033437       2.43563625      -3.38390316       0.01560576       0.00402456      -0.92676553
Te      -2.10949005      -1.21752524      -3.38390326       0.00431572      -0.01553522      -0.92677016
Te      -4.20910445       2.43012759      -3.36813086      -0.01619932       0.00935069      -0.99160451
Te       2.11101973      -1.21879450      -3.34624013      -0.00250315       0.00143796      -1.06726547
Te      -0.03709030       2.46145249     -10.28836282       0.12486191       0.14755802       0.02731100
Te      -2.15022551      -1.19860178     -10.28836276      -0.06535858      -0.18192084       0.02731365
Te      -3.96351923       2.28833886     -10.46352974      -0.13454872       0.07768151      -0.06111648
Te       2.12712636      -1.22809373     -10.44082905      -0.61414096       0.35456420       0.16773969
Sb       0.01750671       2.41241613       8.65813069       0.00558540       0.04945433       0.13329317
Sb      -2.08046023      -1.22136602       8.65813076      -0.04003429      -0.02957205       0.13329611
Sb      -4.19748912       2.42342154       8.62320793       0.02572312      -0.01484982       0.12001565
Sb       2.07307750      -1.19688856       8.42232543      -0.03689343       0.02129195      -0.03475036
Sb       0.00452425       2.43422785       1.78834138       0.00459700      -0.00364606      -0.08109468
Sb      -2.10584093      -1.22102873       1.78834139       0.00545929      -0.00216596      -0.08109416
Sb      -4.21626691       2.43426295       1.79111956      -0.01159729       0.00669937      -0.06625888
Sb       2.11038721      -1.21842937       1.79292863       0.00015734      -0.00010036      -0.07127893
Sb      -0.22772619       0.13147799     -11.94762879       0.15715455      -0.09072596      -0.62432321
Sb      -1.88627237      -3.77711635     -12.33615630      -1.42576932       0.82316632       1.94109968
Sb      -4.19405400      -0.24420019     -12.17148709       0.25825621       0.35839385      -0.68629504
Sb      -1.88554342       3.75425747     -12.17148704      -0.18124338      -0.40285278      -0.68629296
Sb       0.01433458      -0.00827591      12.17555551       0.04979396      -0.02873955       0.09749078
Sb      -2.19345286      -3.59976555      11.92812128       0.06393632      -0.03691589       0.10812153
Sb       4.23420980      -0.01971223      12.27458429      -0.02617435       0.17177739       0.14657063
Sb       2.13417632      -3.65707362      12.27458434      -0.16184201      -0.06321755       0.14657276
Sb       2.10651429       1.21554474      -1.78523618      -0.00882138       0.04208258       0.00091971
Sb       0.00056470      -2.43206385      -1.78523625      -0.04084828      -0.01340435       0.00091571
Sb      -2.10346309       1.21443518      -1.79884468       0.01591137      -0.00917859       0.02744900
Sb       4.21638538      -2.43432792      -1.78803972       0.03854384      -0.02225993       0.02383277
Sb       2.21353224       1.26597109      -8.74804629      -0.00161783       0.12342926      -0.19407638
Sb       0.01040314      -2.54995738      -8.74804638      -0.10769691      -0.06031778      -0.19408149
Sb      -2.04173088       1.17879400      -8.26636544       0.10267949      -0.05927650      -0.40297565
Sb       4.09915908      -2.36664732      -8.50490200       0.35349758      -0.20410156      -0.16484648
Cr      -0.72244436      -4.44905256      16.73287994       1.62089743      -0.93582807      -2.91726788
61
Lattice="8.428435589532 0.0 0.0 -4.214217794766 7.299235931425 0.0 0.0 0.0 31.033440841609" Properties=species:S:1:pos:R:3:forces:R:3 branch_id=historical_curvature_warp image_index=4 energy=-222.82678331576034 mlff_rel_energy_eV=0.43274321499399093 mlff_fmax_eV_A=1.9367185907263427 calculator_label=/data/pclancy3/yi/flare-data/1-Cr-Sb2Te3/3.fine-tuning/2-layer/MACE-omat/MACE-matpes-pbe-omat-ft.model neb_image=4 neb_protocol=mlff_pre_neb pbc="T T T"
Te       2.10674764       1.21407800       3.39977510       0.00271010       0.00517528       0.96517828
Te       0.00195157      -2.43153248       3.39977502      -0.00312128      -0.00493284       0.96517419
Te      -2.10707941       1.21652302       3.38494305       0.00487056      -0.00280548       1.00323723
Te       4.21796346      -2.43523893       3.39356615      -0.00363721       0.00209860       0.99466387
Te      -0.10136546       0.05852348       6.92025527       0.12217338      -0.07053264      -0.86036264
Te      -2.10775563      -3.64924287       6.99968894      -0.02051579       0.01184273      -0.92598326
Te      -4.15110026      -0.00334108       6.97417128      -0.08485948      -0.00570465      -0.95574308
Te      -2.07265663       3.59662886       6.97417139      -0.03748559       0.07634332      -0.95573798
Te       0.00399156      -0.00230438      -0.00316181      -0.01249181       0.00722047       0.02782747
Te      -2.10578078      -3.65038302      -0.00214235      -0.00301697       0.00174158       0.00060197
Te      -4.21320464       0.00110836      -0.00108989       0.00683173      -0.00444202      -0.00143206
Te       2.10665571      -3.65104773      -0.00108989       0.00727005      -0.00369168      -0.00143217
Te       0.06261078       2.42597664      13.76121526      -0.07582706       0.04063240       0.99369321
Te      -2.06965195      -1.26720748      13.76121538      -0.07310003       0.04534855       0.99369907
Te      -4.42670834       2.55576137      13.84949965       0.34282684      -0.19792980       1.00316571
Te       2.10918375      -1.21773447      13.78774092       0.00410421      -0.00237505       0.95682240
Te       2.01710860       0.80014520     -13.91636812      -0.14666229       0.17913667      -0.69873211
Te       0.31560817      -2.14693646     -13.91636817      -0.22846536       0.03744384      -0.69873475
Te      -2.38948574       1.37957042     -13.96785495       1.54356369      -0.89117578      -0.27373618
Te       4.32224912      -2.49544840     -13.94009941       0.10468901      -0.06044863      -0.76287315
Te       2.13354818       1.17369723      10.37553896       0.06886545       0.03486685       0.02208595
Te       0.05032259      -2.43455215      10.37553886       0.00424272      -0.07707610       0.02208074
Te      -2.10580956       1.21578986      10.41248213      -0.08907848       0.05143557       0.02339388
Te       4.11148996      -2.37376648      10.35423405      -0.01151318       0.00664095       0.10152306
Te       0.19275269      -0.11128571      -7.04214488      -0.20899811       0.12067365       1.09680008
Te      -2.11254111      -3.64647989      -7.01817318      -0.03158060       0.01823529       1.14498182
Te       4.09356550      -0.01470241      -6.93876233       0.19949807       0.18197364       1.27488635
Te       2.05951553      -3.53777689      -6.93876247      -0.05783628      -0.26375205       1.27488010
Te       0.00047103       2.43256465      -3.41458999       0.01418908       0.00617117      -0.89622852
Te      -2.10642726      -1.21668693      -3.41459008       0.00174848      -0.01538143      -0.89623293
Te      -4.20970579       2.43047477      -3.40493387      -0.01392114       0.00803550      -0.91257037
Te       2.10743088      -1.21672247      -3.39129366       0.00166859      -0.00097041      -0.97899340
Te      -0.03805913       2.44844033     -10.26703486       0.07259301       0.37111754      -0.29723056
Te      -2.13944112      -1.19125670     -10.26703484      -0.28510300      -0.24843572      -0.29722992
Te      -4.06650723       2.34779904     -10.38518027      -0.03405245       0.01966012      -0.31744908
Te       2.08513411      -1.20384948     -10.34208754      -0.34963046       0.20184906      -0.26081958
Sb       0.01225478       2.41634553       8.59827506       0.00948112       0.02757805       0.07302681
Sb      -2.08648916      -1.21878241       8.59827512      -0.01914102      -0.02200743       0.07302954
Sb      -4.20385128       2.42709474       8.55830188       0.01459791      -0.00842658       0.10945331
Sb       2.07216801      -1.19636347       8.45990237      -0.06306422       0.03640188      -0.02197109
Sb       0.00330417       2.43347629       1.81247677       0.00235077      -0.01087528      -0.12464294
Sb      -2.10580011      -1.21959633       1.81247678       0.01059679       0.00339427      -0.12464248
Sb      -4.21521686       2.43365670       1.81264686      -0.01007447       0.00582007      -0.10898102
Sb       2.10956989      -1.21795749       1.81479369      -0.00508962       0.00292927      -0.11646499
Sb      -0.22849853       0.13192390     -11.88691616       0.19072870      -0.11010975      -0.40608119
Sb      -1.81476824      -3.81839927     -12.59161528      -0.97619084       0.56360260       1.37682061
Sb      -4.30038930      -0.16938996     -12.21582792       0.43692127       0.24248879       0.03570939
Sb      -2.00349860       3.80894148     -12.21582792       0.00846577      -0.49962817       0.03570936
Sb       0.00745395      -0.00430338      12.15616665       0.03853337      -0.02223866      -0.05829298
Sb      -2.18739841      -3.60326108      12.05690292       0.00417853      -0.00241474      -0.05181533
Sb       4.23186003      -0.01519956      12.26587277      -0.00893632       0.16500762      -0.06769794
Sb       2.12909334      -3.65729500      12.26587283      -0.14736061      -0.07476160      -0.06769521
Sb       2.10590241       1.21489716      -1.80970411       0.00882194       0.03317162       0.03475123
Sb       0.00081957      -2.43121015      -1.80970417      -0.02430975      -0.02422825       0.03474744
Sb      -2.10290274       1.21411165      -1.81787203      -0.00335711       0.00194588       0.04829805
Sb       4.21602535      -2.43412005      -1.81592392       0.02075293      -0.01198793       0.05732818
Sb       2.16867039       1.27515808      -8.63275420      -0.02954882       0.10611890      -0.09439309
Sb      -0.01998392      -2.51569935      -8.63275428      -0.10667042      -0.02747359      -0.09439740
Sb      -2.06831706       1.19414357      -8.36433083       0.02688941      -0.01551817      -0.22480604
Sb       4.12125131      -2.37940230      -8.45423073       0.29359098      -0.16951491      -0.31021626
Cr      -0.25877218      -4.71675393      16.70832470      -0.40311472       0.23273764      -1.87994963
61
Lattice="8.428435589532 0.0 0.0 -4.214217794766 7.299235931425 0.0 0.0 0.0 31.033440841609" Properties=species:S:1:pos:R:3:forces:R:3 branch_id=historical_curvature_warp image_index=5 energy=-224.07589045465267 mlff_rel_energy_eV=-0.8163639238983365 mlff_fmax_eV_A=1.4569893852723548 calculator_label=/data/pclancy3/yi/flare-data/1-Cr-Sb2Te3/3.fine-tuning/2-layer/MACE-omat/MACE-matpes-pbe-omat-ft.model neb_image=5 neb_protocol=mlff_pre_neb pbc="T T T"
Te       2.11104419       1.21455377       3.44951682      -0.00546403       0.00817572       0.86707536
Te       0.00368781      -2.43549129       3.44951673      -0.00980708       0.00064593       0.86707132
Te      -2.11323263       1.22007558       3.43713225       0.00982950      -0.00566882       0.90517092
Te       4.21233006      -2.43198648       3.43693395       0.00492960      -0.00284746       0.93128706
Te      -0.08238583       0.04756558       6.88647155       0.14354151      -0.08286953      -0.73266929
Te      -2.12148882      -3.64131401       6.92640877      -0.02123544       0.01225824      -0.82775689
Te      -4.17329195      -0.02720975       6.91036285      -0.05797103      -0.00102250      -0.85564577
Te      -2.06308162       3.62778176       6.91036294      -0.02809635       0.05071602      -0.85564097
Te      -0.00074361       0.00042946      -0.00406653      -0.00429824       0.00248931       0.04574336
Te      -2.11103968      -3.64734680      -0.00282123      -0.00473054       0.00273076      -0.00854109
Te      -4.21202146      -0.00253557      -0.00255170       0.00026064      -0.00671638      -0.00932176
Te       2.11040302      -3.65025045      -0.00255170       0.00595351       0.00313574      -0.00932183
Te       0.03307624       2.40404189      13.79465665      -0.03279100       0.06019235       0.92793525
Te      -2.06542316      -1.23066243      13.79465675      -0.06852112      -0.00170219       0.92793994
Te      -4.35127171       2.51220799      14.08481977       0.34215579      -0.19754260       0.44753420
Te       2.10392431      -1.21469793      13.79657074      -0.00281823       0.00162133       0.88161300
Te       1.93727014       0.87800218     -14.10565250      -0.03586329       0.16726331      -0.56188514
Te       0.20826285      -2.11672281     -14.10565253      -0.16278340      -0.05257472      -0.56188705
Te      -1.96779445       1.13610674     -14.13930529       0.77742326      -0.44884359      -0.28929992
Te       4.38156650      -2.52969533     -13.82400583      -0.06736479       0.03888620      -0.97661249
Te       2.13784228       1.20215095      10.36488901       0.08351663       0.03171421       0.03656534
Te       0.02782799      -2.45249781      10.36488892       0.01429815      -0.08818812       0.03656064
Te      -2.11348093       1.22021893      10.37966930      -0.09940066       0.05739500       0.08849586
Te       4.15230585      -2.39733153      10.37021353       0.05459494      -0.03152546       0.41305176
Te       0.07208064      -0.04161567      -6.86202094      -0.11435046       0.06602726       0.81369231
Te      -2.15914018      -3.61957590      -6.89111259       0.13286886      -0.07670999       0.98430001
Te       4.15528793      -0.02067995      -6.86116581       0.07990281       0.23210244       1.05931912
Te       2.09555344      -3.58824133      -6.86116594      -0.16104708      -0.18524285       1.05931324
Te       0.00292411       2.42467750      -3.46338437       0.00168439       0.01277155      -0.83478243
Te      -2.09837025      -1.21486778      -3.46338445      -0.01021954      -0.00785178      -0.83478648
Te      -4.21566695       2.43391646      -3.45217307      -0.00375837       0.00216835      -0.81963542
Te       2.09848241      -1.21155606      -3.45625645       0.01500439      -0.00866945      -0.83829258
Te      -0.03249330       2.44507499     -10.26399956       0.03465570       0.40298397      -0.46979298
Te      -2.13374376      -1.19439418     -10.26399958      -0.33167037      -0.23151440      -0.46979417
Te      -4.15745941       2.40031033     -10.25341030       0.03018254      -0.01742600      -0.48694167
Te       2.06964374      -1.19490608     -10.27126575       0.10260116      -0.05924565      -0.66784657
Sb       0.00559805       2.42617117       8.55894088       0.03138309      -0.03080291       0.06157979
Sb      -2.09832677      -1.21793031       8.55894094       0.04236920      -0.01178432       0.06158246
Sb      -4.20663790       2.42870360       8.47076922       0.00474338      -0.00273704       0.18299004
Sb       2.09727976      -1.21086174       8.47622336      -0.13804616       0.07969315      -0.00364262
Sb       0.00118003       2.43402006       1.84902843       0.00989018      -0.02246683      -0.17565648
Sb      -2.10733310      -1.21802864       1.84902844       0.02440501       0.00266110      -0.17565613
Sb      -4.21555179       2.43385007       1.84028442      -0.01526517       0.00881680      -0.15737696
Sb       2.10734808      -1.21667471       1.84630323      -0.01937321       0.01117633      -0.17024702
Sb      -0.15774437       0.09107393     -11.85311492       0.13710657      -0.07915161      -0.33896924
Sb      -1.67937813      -3.89656680     -12.65462262      -0.79822638       0.46085541       1.12839045
Sb      -4.38950352      -0.01404260     -12.44963654       0.55000006       0.02011710       0.54937938
Sb      -2.18259043       3.80844301     -12.44963659       0.25758360      -0.48637128       0.54937675
Sb       0.00588940      -0.00340009      12.13336371       0.01602992      -0.00924664      -0.11400297
Sb      -2.11375784      -3.64577750      12.20417306      -0.11607958       0.06701643      -0.21711250
Sb       4.22321180       0.01344648      12.30655124       0.04719368       0.15223771      -0.19088148
Sb       2.09996102      -3.66412844      12.30655131      -0.10823742      -0.11698704      -0.19087806
Sb       2.10242011       1.21383557      -1.84173981       0.03397425       0.02275165       0.08270462
Sb      -0.00000222      -2.42766359      -1.84173987      -0.00270991      -0.04080052       0.08270118
Sb      -2.10241327       1.21382905      -1.84797971      -0.03098097       0.01789429       0.08083983
Sb       4.21469135      -2.43334985      -1.86497112       0.00253917      -0.00147163       0.11862712
Sb       2.10014053       1.24285984      -8.52435935      -0.02784654       0.10980278       0.03174551
Sb      -0.02627776      -2.44020160      -8.52435940      -0.10900922      -0.03078965       0.03174214
Sb      -2.08845519       1.20577034      -8.44281401       0.05327332      -0.03075055       0.06244971
Sb       4.15292604      -2.39768972      -8.34980970       0.12516420      -0.07227362      -0.47329068
Cr       0.10193313      -4.92500720      16.82026795      -0.58109343       0.33549469      -0.99860903
61
Lattice="8.428435589532 0.0 0.0 -4.214217794766 7.299235931425 0.0 0.0 0.0 31.033440841609" Properties=species:S:1:pos:R:3:forces:R:3 branch_id=historical_curvature_warp image_index=6 energy=-226.4171919874811 mlff_rel_energy_eV=-3.157665456726761 mlff_fmax_eV_A=0.7681434822227037 calculator_label=/data/pclancy3/yi/flare-data/1-Cr-Sb2Te3/3.fine-tuning/2-layer/MACE-omat/MACE-matpes-pbe-omat-ft.model neb_image=6 neb_protocol=mlff_pre_neb pbc="T T T"
Te       2.10870921       1.21746383       3.58373571      -0.00107607      -0.00061458       0.71608755
Te       0.00000003      -2.43492420       3.58373571      -0.00000008       0.00124062       0.71608228
Te      -2.10870914       1.21746383       3.58373571       0.00107593      -0.00061462       0.71608763
Te       4.21421779      -2.43307634       3.57866983       0.00000000      -0.00000188       0.76814348
Te      -0.00000000       0.00000000       6.73023730       0.00000001       0.00000485      -0.55918383
Te      -2.11186507      -3.64687025       6.75807582      -0.02306461       0.01331417      -0.67736703
Te      -4.21421776      -0.00549197       6.75807582      -0.00000007      -0.02662799      -0.67737218
Te      -2.10235273       3.65236568       6.75807582       0.02306474       0.01331421      -0.67736712
Te       0.00000000       0.00000000      -0.00547728       0.00000006       0.00000625       0.03454643
Te      -2.10782211      -3.64920445       0.00303373      -0.00151456       0.00087368      -0.03540510
Te      -4.21421776      -0.00082357       0.00303373      -0.00000007      -0.00174276      -0.03540505
Te       2.10782211      -3.64920445       0.00303373       0.00151467       0.00087368      -0.03540510
Te       0.00000000       2.44262829      13.93275255       0.00000006       0.06912902       0.69377456
Te      -2.11537812      -1.22131069      13.93275255      -0.05986499      -0.03456922       0.69377939
Te      -4.21421776       2.43307980      14.11551804      -0.00000009       0.00000204      -0.07932073
Te       2.11537812      -1.22131069      13.93275255       0.05986513      -0.03456916       0.69377930
Te       1.97104262       1.13798199     -14.25171701      -0.25679172      -0.14825604      -0.05460658
Te       0.00000003      -2.27596052     -14.25171701      -0.00000004       0.29651490      -0.05460913
Te      -1.97104255       1.13798199     -14.25171701       0.25679168      -0.14825607      -0.05460661
Te       4.21421779      -2.43307634     -13.91299990       0.00000011      -0.00000720      -0.74378363
Te       2.10381612       1.21463880      10.33710037       0.03613091       0.02086558       0.12912466
Te       0.00000003      -2.42927415      10.33710037      -0.00000008      -0.04172579       0.12912094
Te      -2.10381606       1.21463880      10.33710037      -0.03613108       0.02086557       0.12912466
Te       4.21421779      -2.43307634      10.32928454       0.00000004      -0.00000432       0.37538440
Te       0.00000000      -0.00000000      -6.74699509       0.00000010       0.00000702       0.57812351
Te      -2.11643660      -3.64423087      -6.69461214       0.14753946      -0.08518018       0.63500116
Te       4.21421783      -0.01077073      -6.69461214      -0.00000005       0.17037343       0.63500725
Te       2.11643660      -3.64423087      -6.69461214      -0.14753940      -0.08518020       0.63500124
Te      -0.00000000       2.43045523      -3.59552834       0.00000010      -0.00655075      -0.67202857
Te      -2.10483594      -1.21522415      -3.59552834       0.00567182       0.00326755      -0.67203313
Te      -4.21421776       2.43307980      -3.59498629      -0.00000004      -0.00000156      -0.63707577
Te       2.10483594      -1.21522415      -3.59552834      -0.00567174       0.00326759      -0.67203322
Te      -0.00000000       2.40488425     -10.30721420       0.00000009       0.28186242      -0.31630567
Te      -2.08269083      -1.20243866     -10.30721420      -0.24410283      -0.14093925      -0.31630698
Te      -4.21421776       2.43307980     -10.26805999      -0.00000008       0.00000036      -0.16249641
Te       2.08269083      -1.20243866     -10.30721420       0.24410293      -0.14093925      -0.31630702
Sb       0.00000000       2.42739575       8.39926522       0.00000008      -0.08370440       0.27859129
Sb      -2.10218635      -1.21369442       8.39926522       0.07249215       0.04184556       0.27859481
Sb      -4.21421776       2.43307980       8.35798337      -0.00000013       0.00000225       0.44432428
Sb       2.10218635      -1.21369442       8.39926522      -0.07249207       0.04184566       0.27859477
Sb       0.00000000       2.43781189       1.96015735       0.00000012      -0.04196583      -0.45309167
Sb      -2.11120699      -1.21890248       1.96015735       0.03634697       0.02097568      -0.45309181
Sb      -4.21421776       2.43307980       1.95613627      -0.00000008       0.00000394      -0.42954282
Sb       2.11120699      -1.21890248       1.96015735      -0.03634686       0.02097578      -0.45309185
Sb      -0.00000000       0.00000000     -11.97142417       0.00000003       0.00000634      -0.06018803
Sb      -1.99321705      -3.71537172     -12.47690343      -0.10711777       0.06184234       0.38029086
Sb      -4.21421776       0.13151097     -12.47690343      -0.00000003      -0.12368277       0.38029313
Sb      -2.22100068       3.58386421     -12.47690343       0.10711771       0.06184234       0.38029092
Sb       0.00000000      -0.00000000      12.28357695       0.00000008       0.00000739      -0.52584350
Sb      -2.11302755      -3.64619909      12.34092277       0.02579454      -0.01489491      -0.48992369
Sb       4.21421783      -0.00683429      12.34092277      -0.00000013       0.02979322      -0.48992814
Sb       2.11302755      -3.64619909      12.34092277      -0.02579448      -0.01489484      -0.48992369
Sb       2.10024860       1.21257909      -1.96136998       0.04296820       0.02481614       0.41086752
Sb       0.00000003      -2.42515472      -1.96136998      -0.00000014      -0.04962076       0.41086508
Sb      -2.10024853       1.21257909      -1.96136998      -0.04296832       0.02481606       0.41086752
Sb       4.21421779      -2.43307634      -1.97027533       0.00000006      -0.00000508       0.44314929
Sb       2.10126150       1.21316390      -8.40423866       0.04147183       0.02395027      -0.14024452
Sb       0.00000003      -2.42632433      -8.40423866      -0.00000013      -0.04789641      -0.14024608
Sb      -2.10126144       1.21316390      -8.40423866      -0.04147193       0.02395023      -0.14024457
Sb       4.21421779      -2.43307634      -8.16991420       0.00000004      -0.00001062      -0.65024322
Cr       0.00000003      -4.86615613      16.71632754      -0.00000001       0.00000033      -0.01027548
