
     Program PWSCF v.7.3.1 starts on 14Sep2026 at  6:33: 0 

     This program is part of the open-source Quantum ESPRESSO suite
     for quantum simulation of materials; please cite
         "P. Giannozzi et al., J. Phys.:Condens. Matter 21 395502 (2009);
         "P. Giannozzi et al., J. Phys.:Condens. Matter 29 465901 (2017);
         "P. Giannozzi et al., J. Chem. Phys. 152 154105 (2020);
          URL http://www.quantum-espresso.org", 
     in publications or presentations arising from this work. More details at
     http://www.quantum-espresso.org/quote

     Parallel version (MPI), running on     4 processors

     MPI processes distributed on     1 nodes
     146582 MiB available memory on the printing compute node when the environment starts
 
     Reading input from scf.in

     Current dimensions of program PWSCF are:
     Max number of different atomic species (ntypx) = 10
     Max number of k-points (npk) =  40000
     Max angular momentum in pseudopotentials (lmaxx) =  4

     Fixed quantization axis for GGA:     0.000000    0.000000    1.000000
     Message from routine setup:
     using ibrav=0 with symmetry is DISCOURAGED, use correct ibrav instead
 
     K-points division:     npool     =       4
     Subspace diagonalization in iterative solution of the eigenvalue problem:
     a serial algorithm will be used

 
     G-vector sticks info
     --------------------
     sticks:   dense  smooth     PW     G-vecs:    dense   smooth      PW
     Sum        3481    3481    931               615191   615191   84659
 
     Using Slab Decomposition
 


     bravais-lattice index     =            0
     lattice parameter (alat)  =      15.9274  a.u.
     unit-cell volume          =   12884.0056 (a.u.)^3
     number of atoms/cell      =           61
     number of atomic types    =            3
     number of electrons       =       950.00
     number of Kohn-Sham states=         1140
     kinetic-energy cutoff     =      50.0000  Ry
     charge density cutoff     =     200.0000  Ry
     scf convergence threshold =      1.0E-06
     mixing beta               =       0.2000
     number of iterations used =            8  local-TF  mixing
     Exchange-correlation= PBE
                           (   1   4   3   4   0   0   0)
     Noncollinear calculation with spin-orbit


     celldm(1)=  15.927435  celldm(2)=   0.000000  celldm(3)=   0.000000
     celldm(4)=   0.000000  celldm(5)=   0.000000  celldm(6)=   0.000000

     crystal axes: (cart. coord. in units of alat)
               a(1) = (   1.000000   0.000000   0.000000 )  
               a(2) = (  -0.500000   0.866025   0.000000 )  
               a(3) = (   0.000000   0.000000   3.681993 )  

     reciprocal axes: (cart. coord. in units 2 pi/alat)
               b(1) = (  1.000000  0.577351  0.000000 )  
               b(2) = (  0.000000  1.154701  0.000000 )  
               b(3) = (  0.000000  0.000000  0.271592 )  


     PseudoPot. # 1 for Cr read from file:
     /data/pclancy3/yi/ONCVPseudoPack/SG15_v1.2/UPF/PBE/Cr_PBE_FR.SG15v1.2.UPF
     MD5 check sum: 19291ff833b3d067f23df56d5404fde6
     Pseudo is Norm-conserving, Zval = 14.0
     Generated using ONCVPSP code by D. R. Hamann
     Using radial grid of 1490 points, 10 beta functions with: 
                l(1) =   0
                l(2) =   0
                l(3) =   1
                l(4) =   1
                l(5) =   1
                l(6) =   1
                l(7) =   2
                l(8) =   2
                l(9) =   2
               l(10) =   2

     PseudoPot. # 2 for Sb read from file:
     /data/pclancy3/yi/ONCVPseudoPack/SG15_v1.2/UPF/PBE/Sb_PBE_FR.SG15v1.2.UPF
     MD5 check sum: 0e999992813bf262e14e71941f404476
     Pseudo is Norm-conserving, Zval = 15.0
     Generated using ONCVPSP code by D. R. Hamann
     Using radial grid of 1468 points, 10 beta functions with: 
                l(1) =   0
                l(2) =   0
                l(3) =   1
                l(4) =   1
                l(5) =   1
                l(6) =   1
                l(7) =   2
                l(8) =   2
                l(9) =   2
               l(10) =   2

     PseudoPot. # 3 for Te read from file:
     /data/pclancy3/yi/ONCVPseudoPack/SG15_v1.2/UPF/PBE/Te_PBE_FR.SG15v1.2.UPF
     MD5 check sum: 7c59b7da87cf03000ce4d32f994025eb
     Pseudo is Norm-conserving, Zval = 16.0
     Generated using ONCVPSP code by D. R. Hamann
     Using radial grid of 1324 points, 10 beta functions with: 
                l(1) =   0
                l(2) =   0
                l(3) =   1
                l(4) =   1
                l(5) =   1
                l(6) =   1
                l(7) =   2
                l(8) =   2
                l(9) =   2
               l(10) =   2

     atomic species   valence    mass     pseudopotential
     Cr               14.00    51.99610     Cr( 1.00)
     Sb               15.00   121.76000     Sb( 1.00)
     Te               16.00   127.60000     Te( 1.00)

      2 Sym. Ops. (no inversion) found


                                    s                        frac. trans.

      isym =  1     identity                                     

 Time Reversal            0
 cryst.   s( 1) = (     1          0          0      )
                  (     0          1          0      )
                  (     0          0          1      )

 cart.    s( 1) = (  1.0000000  0.0000000  0.0000000 )
                  (  0.0000000  1.0000000  0.0000000 )
                  (  0.0000000  0.0000000  1.0000000 )


      isym =  2     inv. 180 deg rotation - cryst. axis [1,1,0]  

 Time Reversal            1
 cryst.   s( 2) = (     0         -1          0      )
                  (    -1          0          0      )
                  (     0          0          1      )

 cart.    s( 2) = (  0.5000000 -0.8660258  0.0000000 )
                  ( -0.8660250 -0.5000000  0.0000000 )
                  (  0.0000000  0.0000000  1.0000000 )


   Cartesian axes

     site n.     atom                  positions (alat units)
         1        Te     tau(   1) = (   0.2500400   0.1439817   0.4048846  )
         2        Te     tau(   2) = (   0.0003282  -0.2885314   0.4048846  )
         3        Te     tau(   3) = (  -0.2501345   0.1444152   0.4016622  )
         4        Te     tau(   4) = (   0.4998799  -0.2886054   0.4047108  )
         5        Te     tau(   5) = (  -0.0175211   0.0101158   0.8278989  )
         6        Te     tau(   6) = (  -0.2505481  -0.4326959   0.8374919  )
         7        Te     tau(   7) = (  -0.4830856   0.0029491   0.8279266  )
         8        Te     tau(   8) = (  -0.2440968   0.4168899   0.8279266  )
         9        Te     tau(   9) = (   0.0000588  -0.0000339   0.0003183  )
        10        Te     tau(  10) = (  -0.2500436  -0.4329871  -0.0003660  )
        11        Te     tau(  11) = (  -0.4999612  -0.0000107   0.0000678  )
        12        Te     tau(  12) = (   0.2500287  -0.4330405   0.0000678  )
        13        Te     tau(  13) = (   0.0210501   0.2941207   1.6360984  )
        14        Te     tau(  14) = (  -0.2441909  -0.1652899   1.6360984  )
        15        Te     tau(  15) = (  -0.5288224   0.3053158   1.6518524  )
        16        Te     tau(  16) = (   0.2497144  -0.1441723   1.6482639  )
        17        Te     tau(  17) = (   0.2484922   0.1214394  -1.6478331  )
        18        Te     tau(  18) = (   0.0190765  -0.2759199  -1.6478331  )
        19        Te     tau(  19) = (  -0.2421776   0.1398213  -1.6511821  )
        20        Te     tau(  20) = (   0.5172224  -0.2986181  -1.6747989  )
        21        Te     tau(  21) = (   0.2553302   0.1299988   1.2326127  )
        22        Te     tau(  22) = (   0.0150828  -0.2861214   1.2326127  )
        23        Te     tau(  23) = (  -0.2501375   0.1444170   1.2430916  )
        24        Te     tau(  24) = (   0.4852209  -0.2801420   1.2348796  )
        25        Te     tau(  25) = (   0.0338774  -0.0195591  -0.8363451  )
        26        Te     tau(  26) = (  -0.2420133  -0.4376234  -0.8437859  )
        27        Te     tau(  27) = (   0.4821832   0.0054019  -0.8208470  )
        28        Te     tau(  28) = (   0.2364134  -0.4202835  -0.8208470  )
        29        Te     tau(  29) = (   0.0000108   0.2885624  -0.4063577  )
        30        Te     tau(  30) = (  -0.2498970  -0.1442901  -0.4063577  )
        31        Te     tau(  31) = (  -0.5000738   0.2887178  -0.4037334  )
        32        Te     tau(  32) = (   0.2500154  -0.1443461  -0.4021829  )
        33        Te     tau(  33) = (  -0.0025867   0.2930796  -1.2289297  )
        34        Te     tau(  34) = (  -0.2551077  -0.1442993  -1.2289297  )
        35        Te     tau(  35) = (  -0.4716272   0.2722941  -1.2384510  )
        36        Te     tau(  36) = (   0.2589042  -0.1494780  -1.2472062  )
        37        Sb     tau(  37) = (   0.0004650   0.2869164   1.0226698  )
        38        Sb     tau(  38) = (  -0.2482444  -0.1438605   1.0226698  )
        39        Sb     tau(  39) = (  -0.4969278   0.2869014   1.0162058  )
        40        Sb     tau(  40) = (   0.2505456  -0.1446521   0.9921218  )
        41        Sb     tau(  41) = (   0.0002808   0.2889385   0.2179595  )
        42        Sb     tau(  42) = (  -0.2500876  -0.1447120   0.2179595  )
        43        Sb     tau(  43) = (  -0.5003313   0.2888664   0.2176948  )
        44        Sb     tau(  44) = (   0.2501524  -0.1444252   0.2180912  )
        45        Sb     tau(  45) = (  -0.0105574   0.0060953  -1.4409966  )
        46        Sb     tau(  46) = (  -0.2257510  -0.4470124  -1.4344327  )
        47        Sb     tau(  47) = (  -0.4858821  -0.0146129  -1.4625375  )
        48        Sb     tau(  48) = (  -0.2302859   0.4280927  -1.4625375  )
        49        Sb     tau(  49) = (   0.0042800  -0.0024711   1.4504510  )
        50        Sb     tau(  50) = (  -0.2495826  -0.4332533   1.4252744  )
        51        Sb     tau(  51) = (   0.4987720  -0.0007819   1.4617752  )
        52        Sb     tau(  52) = (   0.2500631  -0.4315578   1.4617752  )
        53        Sb     tau(  53) = (   0.2497509   0.1442000  -0.2171206  )
        54        Sb     tau(  54) = (  -0.0000054  -0.2883902  -0.2171206  )
        55        Sb     tau(  55) = (  -0.2498536   0.1442531  -0.2188757  )
        56        Sb     tau(  56) = (   0.4999811  -0.2886638  -0.2184860  )
        57        Sb     tau(  57) = (   0.2587752   0.1411762  -1.0321769  )
        58        Sb     tau(  58) = (   0.0071254  -0.2946936  -1.0321769  )
        59        Sb     tau(  59) = (  -0.2429293   0.1402553  -0.9754496  )
        60        Sb     tau(  60) = (   0.4896153  -0.2826791  -1.0041220  )
        61        Cr     tau(  61) = (  -0.2232181  -0.4484748   1.9543699  )

     --------------------------------------------
     DFT-D3 Dispersion Correction (3-body terms):
     --------------------------------------------
       Reference C6 values for interpolation: 

         atom   Coordination number   C6
         Cr         0.000          1381.48
         Cr         1.827           571.38
         Cr        10.619           306.69
         Sb         0.000           985.88
         Sb         0.975           946.94
         Sb         1.952           896.11
         Sb         2.932           834.76
         Te         0.000           851.07
         Te         0.981           850.20
         Te         1.964           837.16

       Values used:

         atom   Coordination number  R0_AB[au]  C6      C8
         Te         3.082            3.676    837.16  84978.06
         Te         3.082            3.676    837.16  84978.06
         Te         3.125            3.676    837.16  84978.06
         Te         3.090            3.676    837.16  84978.06
         Te         3.140            3.676    837.16  84978.06
         Te         3.090            3.676    837.16  84978.06
         Te         3.146            3.676    837.16  84978.06
         Te         3.146            3.676    837.16  84978.06
         Te         5.225            3.676    837.16  84978.05
         Te         5.230            3.676    837.16  84978.05
         Te         5.219            3.676    837.16  84978.05
         Te         5.219            3.676    837.16  84978.05
         Te         3.291            3.676    837.16  84978.06
         Te         3.291            3.676    837.16  84978.06
         Te         3.461            3.676    837.16  84978.06
         Te         3.212            3.676    837.16  84978.06
         Te         3.941            3.676    837.16  84978.05
         Te         3.941            3.676    837.16  84978.05
         Te         3.120            3.676    837.16  84978.06
         Te         3.760            3.676    837.16  84978.05
         Te         5.229            3.676    837.16  84978.05
         Te         5.229            3.676    837.16  84978.05
         Te         5.161            3.676    837.16  84978.05
         Te         5.188            3.676    837.16  84978.05
         Te         3.223            3.676    837.16  84978.06
         Te         3.092            3.676    837.16  84978.06
         Te         3.195            3.676    837.16  84978.06
         Te         3.195            3.676    837.16  84978.06
         Te         3.066            3.676    837.16  84978.06
         Te         3.066            3.676    837.16  84978.06
         Te         3.101            3.676    837.16  84978.06
         Te         3.130            3.676    837.16  84978.06
         Te         5.050            3.676    837.16  84978.05
         Te         5.050            3.676    837.16  84978.05
         Te         5.131            3.676    837.16  84978.05
         Te         5.231            3.676    837.16  84978.05
         Sb         5.470            3.794    834.76  89580.53
         Sb         5.470            3.794    834.76  89580.53
         Sb         5.458            3.794    834.76  89580.53
         Sb         5.338            3.794    834.76  89580.53
         Sb         5.494            3.794    834.76  89580.53
         Sb         5.494            3.794    834.76  89580.53
         Sb         5.495            3.794    834.76  89580.53
         Sb         5.492            3.794    834.76  89580.53
         Sb         5.509            3.794    834.76  89580.53
         Sb         5.911            3.794    834.76  89580.53
         Sb         5.450            3.794    834.76  89580.53
         Sb         5.450            3.794    834.76  89580.53
         Sb         5.493            3.794    834.76  89580.53
         Sb         5.631            3.794    834.76  89580.53
         Sb         5.361            3.794    834.76  89580.53
         Sb         5.361            3.794    834.76  89580.53
         Sb         5.499            3.794    834.76  89580.53
         Sb         5.499            3.794    834.76  89580.53
         Sb         5.473            3.794    834.76  89580.53
         Sb         5.483            3.794    834.76  89580.53
         Sb         5.567            3.794    834.76  89580.53
         Sb         5.567            3.794    834.76  89580.53
         Sb         4.983            3.794    834.76  89580.53
         Sb         5.401            3.794    834.76  89580.53
         Cr         4.560            3.252    571.38  52732.00

         Molecular C6 ( Ry / a.u.^6 ) =   3092416.23


   Crystallographic axes

     site n.     atom                  positions (cryst. coord.)
         1        Te     tau(   1) = (  0.3331679  0.1662558  0.1099634  )
         2        Te     tau(   2) = ( -0.1662555 -0.3331675  0.1099634  )
         3        Te     tau(   3) = ( -0.1667563  0.1667564  0.1090882  )
         4        Te     tau(   4) = (  0.3332534 -0.3332529  0.1099162  )
         5        Te     tau(   5) = ( -0.0116807  0.0116807  0.2248508  )
         6        Te     tau(   6) = ( -0.5003653 -0.4996344  0.2274561  )
         7        Te     tau(   7) = ( -0.4813830  0.0034053  0.2248583  )
         8        Te     tau(   8) = ( -0.0034052  0.4813832  0.2248583  )
         9        Te     tau(   9) = (  0.0000392 -0.0000392  0.0000865  )
        10        Te     tau(  10) = ( -0.5000289 -0.4999707 -0.0000994  )
        11        Te     tau(  11) = ( -0.4999674 -0.0000124  0.0000184  )
        12        Te     tau(  12) = (  0.0000125 -0.5000324  0.0000184  )
        13        Te     tau(  13) = (  0.1908609  0.3396215  0.4443513  )
        14        Te     tau(  14) = ( -0.3396211 -0.1908604  0.4443513  )
        15        Te     tau(  15) = ( -0.3525482  0.3525485  0.4486300  )
        16        Te     tau(  16) = (  0.1664765 -0.1664759  0.4476553  )
        17        Te     tau(  17) = (  0.3186053  0.1402262 -0.4475384  )
        18        Te     tau(  18) = ( -0.1402260 -0.3186050 -0.4475384  )
        19        Te     tau(  19) = ( -0.1614517  0.1614518 -0.4484479  )
        20        Te     tau(  20) = (  0.3448151 -0.3448147 -0.4548621  )
        21        Te     tau(  21) = (  0.3303851  0.1501098  0.3347678  )
        22        Te     tau(  22) = ( -0.1501096 -0.3303847  0.3347678  )
        23        Te     tau(  23) = ( -0.1667583  0.1667584  0.3376138  )
        24        Te     tau(  24) = (  0.3234808 -0.3234803  0.3353835  )
        25        Te     tau(  25) = (  0.0225849 -0.0225849 -0.2271447  )
        26        Te     tau(  26) = ( -0.4946754 -0.5053242 -0.2291655  )
        27        Te     tau(  27) = (  0.4853020  0.0062376 -0.2229355  )
        28        Te     tau(  28) = ( -0.0062375 -0.4853018 -0.2229355  )
        29        Te     tau(  29) = (  0.1666125  0.3332033 -0.1103635  )
        30        Te     tau(  30) = ( -0.3332030 -0.1666120 -0.1103635  )
        31        Te     tau(  31) = ( -0.3333825  0.3333827 -0.1096508  )
        32        Te     tau(  32) = (  0.1666772 -0.1666766 -0.1092297  )
        33        Te     tau(  33) = (  0.1666230  0.3384193 -0.3337675  )
        34        Te     tau(  34) = ( -0.3384189 -0.1666225 -0.3337675  )
        35        Te     tau(  35) = ( -0.3144181  0.3144183 -0.3363534  )
        36        Te     tau(  36) = (  0.1726030 -0.1726024 -0.3387313  )
        37        Sb     tau(  37) = (  0.1661164  0.3313027  0.2777490  )
        38        Sb     tau(  38) = ( -0.3313024 -0.1661159  0.2777490  )
        39        Sb     tau(  39) = ( -0.3312851  0.3312853  0.2759934  )
        40        Sb     tau(  40) = (  0.1670306 -0.1670300  0.2694524  )
        41        Sb     tau(  41) = (  0.1670996  0.3336375  0.0591961  )
        42        Sb     tau(  42) = ( -0.3336372 -0.1670991  0.0591961  )
        43        Sb     tau(  43) = ( -0.3335541  0.3335544  0.0591242  )
        44        Sb     tau(  44) = (  0.1667685 -0.1667679  0.0592318  )
        45        Sb     tau(  45) = ( -0.0070383  0.0070383 -0.3913632  )
        46        Sb     tau(  46) = ( -0.4838339 -0.5161658 -0.3895805  )
        47        Sb     tau(  47) = ( -0.4943189 -0.0168735 -0.3972135  )
        48        Sb     tau(  48) = (  0.0168736  0.4943191 -0.3972135  )
        49        Sb     tau(  49) = (  0.0028534 -0.0028534  0.3939310  )
        50        Sb     tau(  50) = ( -0.4997216 -0.5002780  0.3870932  )
        51        Sb     tau(  51) = (  0.4983205 -0.0009029  0.3970065  )
        52        Sb     tau(  52) = (  0.0009030 -0.4983203  0.3970065  )
        53        Sb     tau(  53) = (  0.3330048  0.1665079 -0.0589682  )
        54        Sb     tau(  54) = ( -0.1665077 -0.3330045 -0.0589682  )
        55        Sb     tau(  55) = ( -0.1665690  0.1665692 -0.0594449  )
        56        Sb     tau(  56) = (  0.3333209 -0.3333204 -0.0593390  )
        57        Sb     tau(  57) = (  0.3402833  0.1630163 -0.2803310  )
        58        Sb     tau(  58) = ( -0.1630161 -0.3402830 -0.2803310  )
        59        Sb     tau(  59) = ( -0.1619528  0.1619530 -0.2649243  )
        60        Sb     tau(  60) = (  0.3264104 -0.3264099 -0.2727115  )
        61        Cr     tau(  61) = ( -0.4821452 -0.5178543  0.5307913  )

     number of k points=    10  Marzari-Vanderbilt smearing, width (Ry)=  0.0147
                       cart. coord. in units 2pi/alat
        k(    1) = (   0.0000000   0.0000000   0.0000000), wk =   0.0625000
        k(    2) = (   0.0000000   0.2886753   0.0000000), wk =   0.1250000
        k(    3) = (   0.0000000  -0.5773505   0.0000000), wk =   0.1250000
        k(    4) = (   0.2500000   0.4330129   0.0000000), wk =   0.0625000
        k(    5) = (  -0.2500000  -0.1443376   0.0000000), wk =   0.1250000
        k(    6) = (  -0.2500000   0.1443376   0.0000000), wk =   0.1250000
        k(    7) = (   0.5000000  -0.2886753   0.0000000), wk =   0.0625000
        k(    8) = (  -0.2500000  -0.4330129   0.0000000), wk =   0.0625000
        k(    9) = (  -0.2500000   0.4330129   0.0000000), wk =   0.1250000
        k(   10) = (   0.2500000  -0.4330129   0.0000000), wk =   0.1250000

                       cryst. coord.
        k(    1) = (   0.0000000   0.0000000   0.0000000), wk =   0.0625000
        k(    2) = (   0.0000000   0.2500000   0.0000000), wk =   0.1250000
        k(    3) = (   0.0000000  -0.5000000   0.0000000), wk =   0.1250000
        k(    4) = (   0.2500000   0.2500000   0.0000000), wk =   0.0625000
        k(    5) = (  -0.2500000   0.0000000   0.0000000), wk =   0.1250000
        k(    6) = (  -0.2500000   0.2500000   0.0000000), wk =   0.1250000
        k(    7) = (   0.5000000  -0.5000000   0.0000000), wk =   0.0625000
        k(    8) = (  -0.2500000  -0.2500000   0.0000000), wk =   0.0625000
        k(    9) = (  -0.2500000   0.5000000   0.0000000), wk =   0.1250000
        k(   10) = (   0.2500000  -0.5000000   0.0000000), wk =   0.1250000

     Dense  grid:   615191 G-vectors     FFT dimensions: (  72,  72, 270)

     Dynamical RAM for                 wfc:    2676.15 MB

     Dynamical RAM for     wfc (w. buffer):   10704.62 MB

     Dynamical RAM for           str. fact:      28.16 MB

     Dynamical RAM for           local pot:       0.00 MB

     Dynamical RAM for          nlocal pot:    2434.36 MB

     Dynamical RAM for                qrad:       8.93 MB

     Dynamical RAM for          rho,v,vnew:     240.79 MB

     Dynamical RAM for               rhoin:      80.26 MB

     Dynamical RAM for            rho*nmix:     600.77 MB

     Dynamical RAM for           G-vectors:      39.90 MB

     Dynamical RAM for          h,s,v(r/c):     237.96 MB

     Dynamical RAM for          <psi|beta>:      72.15 MB

     Dynamical RAM for                 psi:    5352.31 MB

     Dynamical RAM for                hpsi:    5352.31 MB

     Dynamical RAM for      wfcinit/wfcrot:    4043.99 MB

     Estimated static dynamical RAM per process >      13.34 GB

     Estimated max dynamical RAM per process >      24.68 GB

     Estimated total dynamical RAM >      96.97 GB
     Generating pointlists ...
     new r_m :   0.1209 (alat units)  1.9264 (a.u.) for type    1
     new r_m :   0.1209 (alat units)  1.9264 (a.u.) for type    2
     new r_m :   0.1255 (alat units)  1.9995 (a.u.) for type    3

     Initial potential from superposition of free atoms

     starting charge     949.9776, renormalised to     950.0000

 ==============================================================================
     atom number    1 relative position :    0.2500   0.1440   0.4049
     charge :    12.653378  (integrated on a sphere of radius 0.126)
     magnetization :          0.000000    0.000000   -0.000000
     magnetization/charge:    0.000000    0.000000   -0.000000
     polar coord.: r, theta, phi [deg] :     0.000000  180.000000  360.000000

 ==============================================================================

 ==============================================================================
     atom number    2 relative position :    0.0003  -0.2885   0.4049
     charge :    12.653377  (integrated on a sphere of radius 0.126)
     magnetization :          0.000000    0.000000   -0.000000
     magnetization/charge:    0.000000    0.000000   -0.000000
     polar coord.: r, theta, phi [deg] :     0.000000  180.000000  360.000000

 ==============================================================================

 ==============================================================================
     atom number    3 relative position :   -0.2501   0.1444   0.4017
     charge :    12.656776  (integrated on a sphere of radius 0.126)
     magnetization :          0.000000    0.000000    0.000000
     magnetization/charge:    0.000000    0.000000    0.000000
     polar coord.: r, theta, phi [deg] :     0.000000    0.000000  360.000000

 ==============================================================================

 ==============================================================================
     atom number    4 relative position :    0.4999  -0.2886   0.4047
     charge :    12.654079  (integrated on a sphere of radius 0.126)
     magnetization :          0.000000    0.000000   -0.000000
     magnetization/charge:    0.000000    0.000000   -0.000000
     polar coord.: r, theta, phi [deg] :     0.000000  180.000000  360.000000

 ==============================================================================

 ==============================================================================
     atom number    5 relative position :   -0.0175   0.0101   0.8279
     charge :    12.657006  (integrated on a sphere of radius 0.126)
     magnetization :          0.000000    0.000000   -0.000000
     magnetization/charge:    0.000000    0.000000   -0.000000
     polar coord.: r, theta, phi [deg] :     0.000000  180.000000  360.000000

 ==============================================================================

 ==============================================================================
     atom number    6 relative position :   -0.2505  -0.4327   0.8375
     charge :    12.654939  (integrated on a sphere of radius 0.126)
     magnetization :          0.000000    0.000000    0.000000
     magnetization/charge:    0.000000    0.000000    0.000000
     polar coord.: r, theta, phi [deg] :     0.000000    0.000000  360.000000

 ==============================================================================

 ==============================================================================
     atom number    7 relative position :   -0.4831   0.0029   0.8279
     charge :    12.658298  (integrated on a sphere of radius 0.126)
     magnetization :          0.000000    0.000000    0.000000
     magnetization/charge:    0.000000    0.000000    0.000000
     polar coord.: r, theta, phi [deg] :     0.000000  360.000000  360.000000

 ==============================================================================

 ==============================================================================
     atom number    8 relative position :   -0.2441   0.4169   0.8279
     charge :    12.658298  (integrated on a sphere of radius 0.126)
     magnetization :          0.000000    0.000000    0.000000
     magnetization/charge:    0.000000    0.000000    0.000000
     polar coord.: r, theta, phi [deg] :     0.000000  360.000000  360.000000

 ==============================================================================

 ==============================================================================
     atom number    9 relative position :    0.0001  -0.0000   0.0003
     charge :    12.683757  (integrated on a sphere of radius 0.126)
     magnetization :          0.000000    0.000000    0.000000
     magnetization/charge:    0.000000    0.000000    0.000000
     polar coord.: r, theta, phi [deg] :     0.000000    0.000000  360.000000

 ==============================================================================

 ==============================================================================
     atom number   10 relative position :   -0.2500  -0.4330  -0.0004
     charge :    12.684199  (integrated on a sphere of radius 0.126)
     magnetization :          0.000000    0.000000   -0.000000
     magnetization/charge:    0.000000    0.000000   -0.000000
     polar coord.: r, theta, phi [deg] :     0.000000  180.000000  360.000000

 ==============================================================================

 ==============================================================================
     atom number   11 relative position :   -0.5000  -0.0000   0.0001
     charge :    12.683273  (integrated on a sphere of radius 0.126)
     magnetization :          0.000000    0.000000   -0.000000
     magnetization/charge:    0.000000    0.000000   -0.000000
     polar coord.: r, theta, phi [deg] :     0.000000  360.000000  360.000000

 ==============================================================================

 ==============================================================================
     atom number   12 relative position :    0.2500  -0.4330   0.0001
     charge :    12.683273  (integrated on a sphere of radius 0.126)
     magnetization :          0.000000    0.000000   -0.000000
     magnetization/charge:    0.000000    0.000000   -0.000000
     polar coord.: r, theta, phi [deg] :     0.000000  360.000000  360.000000

 ==============================================================================

 ==============================================================================
     atom number   13 relative position :    0.0211   0.2941   1.6361
     charge :    12.654232  (integrated on a sphere of radius 0.126)
     magnetization :          0.000000    0.000000    0.002299
     magnetization/charge:    0.000000    0.000000    0.000182
     polar coord.: r, theta, phi [deg] :     0.002299    0.000000  360.000000

 ==============================================================================

 ==============================================================================
     atom number   14 relative position :   -0.2442  -0.1653   1.6361
     charge :    12.654232  (integrated on a sphere of radius 0.126)
     magnetization :          0.000000    0.000000    0.002299
     magnetization/charge:    0.000000    0.000000    0.000182
     polar coord.: r, theta, phi [deg] :     0.002299    0.000000  360.000000

 ==============================================================================

 ==============================================================================
     atom number   15 relative position :   -0.5288   0.3053   1.6519
     charge :    12.651442  (integrated on a sphere of radius 0.126)
     magnetization :          0.000000    0.000000    0.006507
     magnetization/charge:    0.000000    0.000000    0.000514
     polar coord.: r, theta, phi [deg] :     0.006507    0.000000  360.000000

 ==============================================================================

 ==============================================================================
     atom number   16 relative position :    0.2497  -0.1442   1.6483
     charge :    12.656811  (integrated on a sphere of radius 0.126)
     magnetization :          0.000000    0.000000    0.000047
     magnetization/charge:    0.000000    0.000000    0.000004
     polar coord.: r, theta, phi [deg] :     0.000047    0.000000  360.000000

 ==============================================================================

 ==============================================================================
     atom number   17 relative position :    0.2485   0.1214  -1.6478
     charge :    12.686930  (integrated on a sphere of radius 0.126)
     magnetization :          0.000000    0.000000    0.026275
     magnetization/charge:    0.000000    0.000000    0.002071
     polar coord.: r, theta, phi [deg] :     0.026275    0.000000  360.000000

 ==============================================================================

 ==============================================================================
     atom number   18 relative position :    0.0191  -0.2759  -1.6478
     charge :    12.686931  (integrated on a sphere of radius 0.126)
     magnetization :          0.000000    0.000000    0.026275
     magnetization/charge:    0.000000    0.000000    0.002071
     polar coord.: r, theta, phi [deg] :     0.026275    0.000000  360.000000

 ==============================================================================

 ==============================================================================
     atom number   19 relative position :   -0.2422   0.1398  -1.6512
     charge :    12.655958  (integrated on a sphere of radius 0.126)
     magnetization :          0.000000    0.000000    0.000256
     magnetization/charge:    0.000000    0.000000    0.000020
     polar coord.: r, theta, phi [deg] :     0.000256    0.000000  360.000000

 ==============================================================================

 ==============================================================================
     atom number   20 relative position :    0.5172  -0.2986  -1.6748
     charge :    12.681120  (integrated on a sphere of radius 0.126)
     magnetization :          0.000000    0.000000    0.028210
     magnetization/charge:    0.000000    0.000000    0.002225
     polar coord.: r, theta, phi [deg] :     0.028210    0.000000  360.000000

 ==============================================================================

 ==============================================================================
     atom number   21 relative position :    0.2553   0.1300   1.2326
     charge :    12.683239  (integrated on a sphere of radius 0.126)
     magnetization :          0.000000    0.000000   -0.000000
     magnetization/charge:    0.000000    0.000000   -0.000000
     polar coord.: r, theta, phi [deg] :     0.000000  180.000000  360.000000

 ==============================================================================

 ==============================================================================
     atom number   22 relative position :    0.0151  -0.2861   1.2326
     charge :    12.683239  (integrated on a sphere of radius 0.126)
     magnetization :          0.000000    0.000000   -0.000000
     magnetization/charge:    0.000000    0.000000   -0.000000
     polar coord.: r, theta, phi [deg] :     0.000000  180.000000  360.000000

 ==============================================================================

 ==============================================================================
     atom number   23 relative position :   -0.2501   0.1444   1.2431
     charge :    12.680490  (integrated on a sphere of radius 0.126)
     magnetization :          0.000000    0.000000   -0.000000
     magnetization/charge:    0.000000    0.000000   -0.000000
     polar coord.: r, theta, phi [deg] :     0.000000  360.000000  360.000000

 ==============================================================================

 ==============================================================================
     atom number   24 relative position :    0.4852  -0.2801   1.2349
     charge :    12.679567  (integrated on a sphere of radius 0.126)
     magnetization :          0.000000    0.000000   -0.000000
     magnetization/charge:    0.000000    0.000000   -0.000000
     polar coord.: r, theta, phi [deg] :     0.000000  180.000000  360.000000

 ==============================================================================

 ==============================================================================
     atom number   25 relative position :    0.0339  -0.0196  -0.8363
     charge :    12.659574  (integrated on a sphere of radius 0.126)
     magnetization :          0.000000    0.000000   -0.000000
     magnetization/charge:    0.000000    0.000000   -0.000000
     polar coord.: r, theta, phi [deg] :     0.000000  180.000000  360.000000

 ==============================================================================

 ==============================================================================
     atom number   26 relative position :   -0.2420  -0.4376  -0.8438
     charge :    12.651382  (integrated on a sphere of radius 0.126)
     magnetization :          0.000000    0.000000   -0.000000
     magnetization/charge:    0.000000    0.000000   -0.000000
     polar coord.: r, theta, phi [deg] :     0.000000  360.000000  360.000000

 ==============================================================================

 ==============================================================================
     atom number   27 relative position :    0.4822   0.0054  -0.8208
     charge :    12.662428  (integrated on a sphere of radius 0.126)
     magnetization :          0.000000    0.000000    0.000000
     magnetization/charge:    0.000000    0.000000    0.000000
     polar coord.: r, theta, phi [deg] :     0.000000    0.000000  360.000000

 ==============================================================================

 ==============================================================================
     atom number   28 relative position :    0.2364  -0.4203  -0.8208
     charge :    12.662427  (integrated on a sphere of radius 0.126)
     magnetization :          0.000000    0.000000    0.000000
     magnetization/charge:    0.000000    0.000000    0.000000
     polar coord.: r, theta, phi [deg] :     0.000000    0.000000  360.000000

 ==============================================================================

 ==============================================================================
     atom number   29 relative position :    0.0000   0.2886  -0.4064
     charge :    12.652076  (integrated on a sphere of radius 0.126)
     magnetization :          0.000000    0.000000   -0.000000
     magnetization/charge:    0.000000    0.000000   -0.000000
     polar coord.: r, theta, phi [deg] :     0.000000  360.000000  360.000000

 ==============================================================================

 ==============================================================================
     atom number   30 relative position :   -0.2499  -0.1443  -0.4064
     charge :    12.652076  (integrated on a sphere of radius 0.126)
     magnetization :          0.000000    0.000000   -0.000000
     magnetization/charge:    0.000000    0.000000   -0.000000
     polar coord.: r, theta, phi [deg] :     0.000000  360.000000  360.000000

 ==============================================================================

 ==============================================================================
     atom number   31 relative position :   -0.5001   0.2887  -0.4037
     charge :    12.654196  (integrated on a sphere of radius 0.126)
     magnetization :          0.000000    0.000000    0.000000
     magnetization/charge:    0.000000    0.000000    0.000000
     polar coord.: r, theta, phi [deg] :     0.000000    0.000000  360.000000

 ==============================================================================

 ==============================================================================
     atom number   32 relative position :    0.2500  -0.1443  -0.4022
     charge :    12.656791  (integrated on a sphere of radius 0.126)
     magnetization :          0.000000    0.000000   -0.000000
     magnetization/charge:    0.000000    0.000000   -0.000000
     polar coord.: r, theta, phi [deg] :     0.000000  180.000000  360.000000

 ==============================================================================

 ==============================================================================
     atom number   33 relative position :   -0.0026   0.2931  -1.2289
     charge :    12.678148  (integrated on a sphere of radius 0.126)
     magnetization :          0.000000    0.000000    0.000076
     magnetization/charge:    0.000000    0.000000    0.000006
     polar coord.: r, theta, phi [deg] :     0.000076    0.000000  360.000000

 ==============================================================================

 ==============================================================================
     atom number   34 relative position :   -0.2551  -0.1443  -1.2289
     charge :    12.678149  (integrated on a sphere of radius 0.126)
     magnetization :          0.000000    0.000000    0.000076
     magnetization/charge:    0.000000    0.000000    0.000006
     polar coord.: r, theta, phi [deg] :     0.000076    0.000000  360.000000

 ==============================================================================

 ==============================================================================
     atom number   35 relative position :   -0.4716   0.2723  -1.2385
     charge :    12.679401  (integrated on a sphere of radius 0.126)
     magnetization :          0.000000    0.000000    0.000109
     magnetization/charge:    0.000000    0.000000    0.000009
     polar coord.: r, theta, phi [deg] :     0.000109    0.000000  360.000000

 ==============================================================================

 ==============================================================================
     atom number   36 relative position :    0.2589  -0.1495  -1.2472
     charge :    12.682626  (integrated on a sphere of radius 0.126)
     magnetization :          0.000000    0.000000    0.000001
     magnetization/charge:    0.000000    0.000000    0.000000
     polar coord.: r, theta, phi [deg] :     0.000001    0.000000  360.000000

 ==============================================================================

 ==============================================================================
     atom number   37 relative position :    0.0005   0.2869   1.0227
     charge :    11.479425  (integrated on a sphere of radius 0.121)
     magnetization :          0.000000    0.000000   -0.000000
     magnetization/charge:    0.000000    0.000000   -0.000000
     polar coord.: r, theta, phi [deg] :     0.000000  360.000000  360.000000

 ==============================================================================

 ==============================================================================
     atom number   38 relative position :   -0.2482  -0.1439   1.0227
     charge :    11.479426  (integrated on a sphere of radius 0.121)
     magnetization :          0.000000    0.000000   -0.000000
     magnetization/charge:    0.000000    0.000000   -0.000000
     polar coord.: r, theta, phi [deg] :     0.000000  360.000000  360.000000

 ==============================================================================

 ==============================================================================
     atom number   39 relative position :   -0.4969   0.2869   1.0162
     charge :    11.477443  (integrated on a sphere of radius 0.121)
     magnetization :          0.000000    0.000000    0.000000
     magnetization/charge:    0.000000    0.000000    0.000000
     polar coord.: r, theta, phi [deg] :     0.000000    0.000000  360.000000

 ==============================================================================

 ==============================================================================
     atom number   40 relative position :    0.2505  -0.1447   0.9921
     charge :    11.466778  (integrated on a sphere of radius 0.121)
     magnetization :          0.000000    0.000000   -0.000000
     magnetization/charge:    0.000000    0.000000   -0.000000
     polar coord.: r, theta, phi [deg] :     0.000000  180.000000  360.000000

 ==============================================================================

 ==============================================================================
     atom number   41 relative position :    0.0003   0.2889   0.2180
     charge :    11.477039  (integrated on a sphere of radius 0.121)
     magnetization :          0.000000    0.000000   -0.000000
     magnetization/charge:    0.000000    0.000000   -0.000000
     polar coord.: r, theta, phi [deg] :     0.000000  180.000000  360.000000

 ==============================================================================

 ==============================================================================
     atom number   42 relative position :   -0.2501  -0.1447   0.2180
     charge :    11.477039  (integrated on a sphere of radius 0.121)
     magnetization :          0.000000    0.000000   -0.000000
     magnetization/charge:    0.000000    0.000000   -0.000000
     polar coord.: r, theta, phi [deg] :     0.000000  180.000000  360.000000

 ==============================================================================

 ==============================================================================
     atom number   43 relative position :   -0.5003   0.2889   0.2177
     charge :    11.477036  (integrated on a sphere of radius 0.121)
     magnetization :          0.000000    0.000000   -0.000000
     magnetization/charge:    0.000000    0.000000   -0.000000
     polar coord.: r, theta, phi [deg] :     0.000000  180.000000  360.000000

 ==============================================================================

 ==============================================================================
     atom number   44 relative position :    0.2502  -0.1444   0.2181
     charge :    11.476792  (integrated on a sphere of radius 0.121)
     magnetization :          0.000000    0.000000    0.000000
     magnetization/charge:    0.000000    0.000000    0.000000
     polar coord.: r, theta, phi [deg] :     0.000000    0.000000  360.000000

 ==============================================================================

 ==============================================================================
     atom number   45 relative position :   -0.0106   0.0061  -1.4410
     charge :    11.474234  (integrated on a sphere of radius 0.121)
     magnetization :          0.000000    0.000000    0.000152
     magnetization/charge:    0.000000    0.000000    0.000013
     polar coord.: r, theta, phi [deg] :     0.000152    0.000000  360.000000

 ==============================================================================

 ==============================================================================
     atom number   46 relative position :   -0.2258  -0.4470  -1.4344
     charge :    11.503181  (integrated on a sphere of radius 0.121)
     magnetization :          0.000000    0.000000    0.030495
     magnetization/charge:    0.000000    0.000000    0.002651
     polar coord.: r, theta, phi [deg] :     0.030495    0.000000  360.000000

 ==============================================================================

 ==============================================================================
     atom number   47 relative position :   -0.4859  -0.0146  -1.4625
     charge :    11.470010  (integrated on a sphere of radius 0.121)
     magnetization :          0.000000    0.000000    0.000200
     magnetization/charge:    0.000000    0.000000    0.000017
     polar coord.: r, theta, phi [deg] :     0.000200    0.000000  360.000000

 ==============================================================================

 ==============================================================================
     atom number   48 relative position :   -0.2303   0.4281  -1.4625
     charge :    11.470010  (integrated on a sphere of radius 0.121)
     magnetization :          0.000000    0.000000    0.000200
     magnetization/charge:    0.000000    0.000000    0.000017
     polar coord.: r, theta, phi [deg] :     0.000200    0.000000  360.000000

 ==============================================================================

 ==============================================================================
     atom number   49 relative position :    0.0043  -0.0025   1.4505
     charge :    11.472001  (integrated on a sphere of radius 0.121)
     magnetization :          0.000000    0.000000    0.000003
     magnetization/charge:    0.000000    0.000000    0.000000
     polar coord.: r, theta, phi [deg] :     0.000003    0.000000  360.000000

 ==============================================================================

 ==============================================================================
     atom number   50 relative position :   -0.2496  -0.4333   1.4253
     charge :    11.485362  (integrated on a sphere of radius 0.121)
     magnetization :          0.000000    0.000000    0.000218
     magnetization/charge:    0.000000    0.000000    0.000019
     polar coord.: r, theta, phi [deg] :     0.000218    0.000000  360.000000

 ==============================================================================

 ==============================================================================
     atom number   51 relative position :    0.4988  -0.0008   1.4618
     charge :    11.465712  (integrated on a sphere of radius 0.121)
     magnetization :          0.000000    0.000000    0.000006
     magnetization/charge:    0.000000    0.000000    0.000001
     polar coord.: r, theta, phi [deg] :     0.000006    0.000000  360.000000

 ==============================================================================

 ==============================================================================
     atom number   52 relative position :    0.2501  -0.4316   1.4618
     charge :    11.465712  (integrated on a sphere of radius 0.121)
     magnetization :          0.000000    0.000000    0.000006
     magnetization/charge:    0.000000    0.000000    0.000001
     polar coord.: r, theta, phi [deg] :     0.000006    0.000000  360.000000

 ==============================================================================

 ==============================================================================
     atom number   53 relative position :    0.2498   0.1442  -0.2171
     charge :    11.476938  (integrated on a sphere of radius 0.121)
     magnetization :          0.000000    0.000000   -0.000000
     magnetization/charge:    0.000000    0.000000   -0.000000
     polar coord.: r, theta, phi [deg] :     0.000000  360.000000  360.000000

 ==============================================================================

 ==============================================================================
     atom number   54 relative position :   -0.0000  -0.2884  -0.2171
     charge :    11.476938  (integrated on a sphere of radius 0.121)
     magnetization :          0.000000    0.000000   -0.000000
     magnetization/charge:    0.000000    0.000000   -0.000000
     polar coord.: r, theta, phi [deg] :     0.000000  360.000000  360.000000

 ==============================================================================

 ==============================================================================
     atom number   55 relative position :   -0.2499   0.1443  -0.2189
     charge :    11.475903  (integrated on a sphere of radius 0.121)
     magnetization :          0.000000    0.000000   -0.000000
     magnetization/charge:    0.000000    0.000000   -0.000000
     polar coord.: r, theta, phi [deg] :     0.000000  360.000000  360.000000

 ==============================================================================

 ==============================================================================
     atom number   56 relative position :    0.5000  -0.2887  -0.2185
     charge :    11.476307  (integrated on a sphere of radius 0.121)
     magnetization :          0.000000    0.000000    0.000000
     magnetization/charge:    0.000000    0.000000    0.000000
     polar coord.: r, theta, phi [deg] :     0.000000    0.000000  360.000000

 ==============================================================================

 ==============================================================================
     atom number   57 relative position :    0.2588   0.1412  -1.0322
     charge :    11.484999  (integrated on a sphere of radius 0.121)
     magnetization :          0.000000    0.000000    0.000000
     magnetization/charge:    0.000000    0.000000    0.000000
     polar coord.: r, theta, phi [deg] :     0.000000    0.000000  360.000000

 ==============================================================================

 ==============================================================================
     atom number   58 relative position :    0.0071  -0.2947  -1.0322
     charge :    11.484999  (integrated on a sphere of radius 0.121)
     magnetization :          0.000000    0.000000    0.000000
     magnetization/charge:    0.000000    0.000000    0.000000
     polar coord.: r, theta, phi [deg] :     0.000000    0.000000  360.000000

 ==============================================================================

 ==============================================================================
     atom number   59 relative position :   -0.2429   0.1403  -0.9754
     charge :    11.459499  (integrated on a sphere of radius 0.121)
     magnetization :          0.000000    0.000000    0.000000
     magnetization/charge:    0.000000    0.000000    0.000000
     polar coord.: r, theta, phi [deg] :     0.000000  360.000000  360.000000

 ==============================================================================

 ==============================================================================
     atom number   60 relative position :    0.4896  -0.2827  -1.0041
     charge :    11.473205  (integrated on a sphere of radius 0.121)
     magnetization :          0.000000    0.000000   -0.000000
     magnetization/charge:    0.000000    0.000000   -0.000000
     polar coord.: r, theta, phi [deg] :     0.000000  180.000000  360.000000

 ==============================================================================

 ==============================================================================
     atom number   61 relative position :   -0.2232  -0.4485   1.9544
     charge :    11.998055  (integrated on a sphere of radius 0.121)
     magnetization :          0.000000    0.000000    5.860348
     magnetization/charge:    0.000000    0.000000    0.488441
     polar coord.: r, theta, phi [deg] :     5.860348    0.000000  360.000000

 ==============================================================================
     Starting wfcs are 1100 randomized atomic wfcs +   40 random wfcs

     total cpu time spent up to now is      825.2 secs

     Self-consistent Calculation

     iteration #  1     ecut=    50.00 Ry     beta= 0.20
     Davidson diagonalization with overlap

---- Real-time Memory Report at c_bands before calling an iterative solver
         16572 MiB given to the printing process from OS
             0 MiB allocation reported by mallinfo(arena+hblkhd)
         96823 MiB available memory on the node where the printing process lives
------------------
     ethr =  1.00E-02,  avg # of iterations =  8.0

     Threshold (ethr) on eigenvalues was too large:
     Diagonalizing with lowered threshold

     Davidson diagonalization with overlap

---- Real-time Memory Report at c_bands before calling an iterative solver
         24865 MiB given to the printing process from OS
             0 MiB allocation reported by mallinfo(arena+hblkhd)
         96639 MiB available memory on the node where the printing process lives
------------------
     ethr =  3.24E-04,  avg # of iterations =  7.2

     total cpu time spent up to now is     7908.6 secs

     total energy              =   -9820.49219664 Ry
     estimated scf accuracy    <       2.91989918 Ry

     total magnetization       =     0.01    -0.00     4.40 Bohr mag/cell
     absolute magnetization    =     4.72 Bohr mag/cell

     iteration #  2     ecut=    50.00 Ry     beta= 0.20
     Davidson diagonalization with overlap

---- Real-time Memory Report at c_bands before calling an iterative solver
         24889 MiB given to the printing process from OS
             0 MiB allocation reported by mallinfo(arena+hblkhd)
         96672 MiB available memory on the node where the printing process lives
------------------
     ethr =  3.07E-04,  avg # of iterations =  1.0

     total cpu time spent up to now is    10184.7 secs

     total energy              =   -9820.33535540 Ry
     estimated scf accuracy    <       1.78507713 Ry

     total magnetization       =     0.00    -0.00     4.46 Bohr mag/cell
     absolute magnetization    =     4.85 Bohr mag/cell

     iteration #  3     ecut=    50.00 Ry     beta= 0.20
     Davidson diagonalization with overlap

---- Real-time Memory Report at c_bands before calling an iterative solver
         24939 MiB given to the printing process from OS
             0 MiB allocation reported by mallinfo(arena+hblkhd)
         96599 MiB available memory on the node where the printing process lives
------------------
     ethr =  1.88E-04,  avg # of iterations =  3.6

     total cpu time spent up to now is    12758.5 secs

     total energy              =   -9820.48955164 Ry
     estimated scf accuracy    <       0.19810362 Ry

     total magnetization       =     0.01    -0.00     4.49 Bohr mag/cell
     absolute magnetization    =     4.89 Bohr mag/cell

     iteration #  4     ecut=    50.00 Ry     beta= 0.20
     Davidson diagonalization with overlap

---- Real-time Memory Report at c_bands before calling an iterative solver
         25015 MiB given to the printing process from OS
             0 MiB allocation reported by mallinfo(arena+hblkhd)
         96590 MiB available memory on the node where the printing process lives
------------------
     c_bands:  1 eigenvalues not converged
     ethr =  2.09E-05,  avg # of iterations = 16.9

     total cpu time spent up to now is    16590.9 secs

     total energy              =   -9820.47390515 Ry
     estimated scf accuracy    <       0.13763888 Ry

     total magnetization       =     0.00    -0.00     4.64 Bohr mag/cell
     absolute magnetization    =     5.03 Bohr mag/cell

     iteration #  5     ecut=    50.00 Ry     beta= 0.20
     Davidson diagonalization with overlap

---- Real-time Memory Report at c_bands before calling an iterative solver
         25103 MiB given to the printing process from OS
             0 MiB allocation reported by mallinfo(arena+hblkhd)
         96534 MiB available memory on the node where the printing process lives
------------------
     ethr =  1.45E-05,  avg # of iterations =  9.6

     total cpu time spent up to now is    20502.4 secs

     total energy              =   -9820.48224924 Ry
     estimated scf accuracy    <       0.03061626 Ry

     total magnetization       =     0.01    -0.00     4.54 Bohr mag/cell
     absolute magnetization    =     5.04 Bohr mag/cell

     iteration #  6     ecut=    50.00 Ry     beta= 0.20
     Davidson diagonalization with overlap

---- Real-time Memory Report at c_bands before calling an iterative solver
         25180 MiB given to the printing process from OS
             0 MiB allocation reported by mallinfo(arena+hblkhd)
         96522 MiB available memory on the node where the printing process lives
------------------
     c_bands:  1 eigenvalues not converged
     ethr =  3.22E-06,  avg # of iterations = 14.6

     total cpu time spent up to now is    24756.1 secs

     total energy              =   -9820.48980441 Ry
     estimated scf accuracy    <       0.02581798 Ry

     total magnetization       =     0.00    -0.00     4.70 Bohr mag/cell
     absolute magnetization    =     5.19 Bohr mag/cell

     iteration #  7     ecut=    50.00 Ry     beta= 0.20
     Davidson diagonalization with overlap

---- Real-time Memory Report at c_bands before calling an iterative solver
         25254 MiB given to the printing process from OS
             0 MiB allocation reported by mallinfo(arena+hblkhd)
         96557 MiB available memory on the node where the printing process lives
------------------
     ethr =  2.72E-06,  avg # of iterations =  2.1

     total cpu time spent up to now is    27268.8 secs

     total energy              =   -9820.49108139 Ry
     estimated scf accuracy    <       0.00461002 Ry

     total magnetization       =     0.00    -0.00     4.67 Bohr mag/cell
     absolute magnetization    =     5.17 Bohr mag/cell

     iteration #  8     ecut=    50.00 Ry     beta= 0.20
     Davidson diagonalization with overlap

---- Real-time Memory Report at c_bands before calling an iterative solver
         25330 MiB given to the printing process from OS
             0 MiB allocation reported by mallinfo(arena+hblkhd)
         96507 MiB available memory on the node where the printing process lives
------------------
     ethr =  4.85E-07,  avg # of iterations =  4.2

     total cpu time spent up to now is    30065.4 secs

     total energy              =   -9820.49238058 Ry
     estimated scf accuracy    <       0.01754955 Ry

     total magnetization       =     0.00    -0.00     4.72 Bohr mag/cell
     absolute magnetization    =     5.25 Bohr mag/cell

     iteration #  9     ecut=    50.00 Ry     beta= 0.20
     Davidson diagonalization with overlap

---- Real-time Memory Report at c_bands before calling an iterative solver
         25405 MiB given to the printing process from OS
             0 MiB allocation reported by mallinfo(arena+hblkhd)
         96543 MiB available memory on the node where the printing process lives
------------------
     ethr =  4.85E-07,  avg # of iterations =  1.0

     total cpu time spent up to now is    32331.3 secs

     total energy              =   -9820.49128640 Ry
     estimated scf accuracy    <       0.01303919 Ry

     total magnetization       =     0.00    -0.00     4.72 Bohr mag/cell
     absolute magnetization    =     5.25 Bohr mag/cell

     iteration # 10     ecut=    50.00 Ry     beta= 0.20
     Davidson diagonalization with overlap

---- Real-time Memory Report at c_bands before calling an iterative solver
         25480 MiB given to the printing process from OS
             0 MiB allocation reported by mallinfo(arena+hblkhd)
         96520 MiB available memory on the node where the printing process lives
------------------
     ethr =  4.85E-07,  avg # of iterations =  2.0

     total cpu time spent up to now is    34881.5 secs

     total energy              =   -9820.49144165 Ry
     estimated scf accuracy    <       0.00397096 Ry

     total magnetization       =     0.00    -0.00     4.72 Bohr mag/cell
     absolute magnetization    =     5.27 Bohr mag/cell

     iteration # 11     ecut=    50.00 Ry     beta= 0.20
     Davidson diagonalization with overlap

---- Real-time Memory Report at c_bands before calling an iterative solver
         25555 MiB given to the printing process from OS
             0 MiB allocation reported by mallinfo(arena+hblkhd)
         96598 MiB available memory on the node where the printing process lives
------------------
     ethr =  4.18E-07,  avg # of iterations =  2.0

     total cpu time spent up to now is    37389.5 secs

     total energy              =   -9820.49096721 Ry
     estimated scf accuracy    <       0.00238240 Ry

     total magnetization       =     0.00    -0.00     4.72 Bohr mag/cell
     absolute magnetization    =     5.30 Bohr mag/cell

     iteration # 12     ecut=    50.00 Ry     beta= 0.20
     Davidson diagonalization with overlap

---- Real-time Memory Report at c_bands before calling an iterative solver
         25555 MiB given to the printing process from OS
             0 MiB allocation reported by mallinfo(arena+hblkhd)
         96603 MiB available memory on the node where the printing process lives
------------------
     ethr =  2.51E-07,  avg # of iterations =  6.0

     total cpu time spent up to now is    40368.3 secs

     total energy              =   -9820.49231941 Ry
     estimated scf accuracy    <       0.00219546 Ry

     total magnetization       =     0.01    -0.00     4.68 Bohr mag/cell
     absolute magnetization    =     5.38 Bohr mag/cell

     iteration # 13     ecut=    50.00 Ry     beta= 0.20
     Davidson diagonalization with overlap

---- Real-time Memory Report at c_bands before calling an iterative solver
         25555 MiB given to the printing process from OS
             0 MiB allocation reported by mallinfo(arena+hblkhd)
         96600 MiB available memory on the node where the printing process lives
------------------
     ethr =  2.31E-07,  avg # of iterations =  4.1

     total cpu time spent up to now is    43202.3 secs

     total energy              =   -9820.49315682 Ry
     estimated scf accuracy    <       0.00118024 Ry

     total magnetization       =     0.01    -0.01     4.68 Bohr mag/cell
     absolute magnetization    =     5.47 Bohr mag/cell

     iteration # 14     ecut=    50.00 Ry     beta= 0.20
     Davidson diagonalization with overlap

---- Real-time Memory Report at c_bands before calling an iterative solver
         25555 MiB given to the printing process from OS
             0 MiB allocation reported by mallinfo(arena+hblkhd)
         96588 MiB available memory on the node where the printing process lives
------------------
     c_bands:  1 eigenvalues not converged
     ethr =  1.24E-07,  avg # of iterations = 11.5

     total cpu time spent up to now is    46600.4 secs

     total energy              =   -9820.49393914 Ry
     estimated scf accuracy    <       0.00102475 Ry

     total magnetization       =     0.01    -0.01     4.67 Bohr mag/cell
     absolute magnetization    =     5.61 Bohr mag/cell

     iteration # 15     ecut=    50.00 Ry     beta= 0.20
     Davidson diagonalization with overlap

---- Real-time Memory Report at c_bands before calling an iterative solver
         25555 MiB given to the printing process from OS
             0 MiB allocation reported by mallinfo(arena+hblkhd)
         96583 MiB available memory on the node where the printing process lives
------------------
     ethr =  1.08E-07,  avg # of iterations = 11.3

     total cpu time spent up to now is    50417.8 secs

     total energy              =   -9820.49682034 Ry
     estimated scf accuracy    <       0.00017520 Ry

     total magnetization       =     0.02    -0.01     4.67 Bohr mag/cell
     absolute magnetization    =     5.90 Bohr mag/cell

     iteration # 16     ecut=    50.00 Ry     beta= 0.20
     Davidson diagonalization with overlap

---- Real-time Memory Report at c_bands before calling an iterative solver
         25586 MiB given to the printing process from OS
             0 MiB allocation reported by mallinfo(arena+hblkhd)
         96402 MiB available memory on the node where the printing process lives
------------------
     ethr =  1.84E-08,  avg # of iterations =  5.0

     total cpu time spent up to now is    53872.1 secs

     total energy              =   -9820.49796172 Ry
     estimated scf accuracy    <       0.00015455 Ry

     total magnetization       =     0.02    -0.01     4.67 Bohr mag/cell
     absolute magnetization    =     6.01 Bohr mag/cell

     iteration # 17     ecut=    50.00 Ry     beta= 0.20
     Davidson diagonalization with overlap

---- Real-time Memory Report at c_bands before calling an iterative solver
         25586 MiB given to the printing process from OS
             0 MiB allocation reported by mallinfo(arena+hblkhd)
         96465 MiB available memory on the node where the printing process lives
------------------
     ethr =  1.63E-08,  avg # of iterations =  6.2

     total cpu time spent up to now is    57972.9 secs

     total energy              =   -9820.50137861 Ry
     estimated scf accuracy    <       0.00012960 Ry

     total magnetization       =     0.02    -0.01     4.67 Bohr mag/cell
     absolute magnetization    =     6.41 Bohr mag/cell

     iteration # 18     ecut=    50.00 Ry     beta= 0.20
     Davidson diagonalization with overlap

---- Real-time Memory Report at c_bands before calling an iterative solver
         25586 MiB given to the printing process from OS
             0 MiB allocation reported by mallinfo(arena+hblkhd)
         96523 MiB available memory on the node where the printing process lives
------------------
