61
Properties=species:S:1:pos:R:3:forces:R:3 repair_mode=unwrap repair_image_index=0 migrant_element=Cr energy=-200.46618230333723 mlff_rel_energy_eV=0.0 mlff_fmax_eV_A=1.6891858583845054 calculator_label=/home/ycao73/.cache/mace/20231203mace128L1_epoch199model neb_image=0 neb_protocol=mlff_pre_neb pbc="F F F"
Te       2.10710960       1.21462736       3.47415502       0.21273235       0.22830155      -0.08404991
Te       4.21587447       4.86711527       3.47415502      -0.62756730       0.36164178      -0.27112181
Te       6.32132606       1.21654029       3.46466275      -0.72518337       0.27245193      -0.23911316
Te      -0.00165665       4.86711606       3.47415503      -0.30149371       0.84167694       0.33875992
Te      -0.02695353       0.01556163       6.87246688       0.23795148       0.78228170       0.33526556
Te       2.10710848       3.64961994       6.92340891      -0.29850187       0.57601517      -0.39330210
Te       4.24117136       0.01556114       6.87246669      -0.15629539       0.82709637       0.23859842
Te      -2.10710848       3.61849668       6.87246669       0.06188389       0.96202654       0.46330637
Te       0.00000000      -0.00000000      -0.00000000       0.21967527       0.80267373       0.55510852
Te       2.10710891       3.64961970       0.00000000      -0.46727724       0.46523480       0.87791440
Te       4.21421783      -0.00000000      -0.00000000      -0.22140717       0.70334167       0.55028871
Te      -2.10710891       3.64961970      -0.00000000       0.37515204       0.91087439       1.09949522
Te       0.04989991       2.46188979      13.94767274      -0.79029679      -0.69545519       0.41909890
Te       2.10710870       6.02507988      13.94767274      -0.18669521      -0.61888076       0.29688330
Te       4.16431791       2.46188954      13.94767313       0.28875403      -0.60299262       0.12932437
Te      -2.10710870       6.08269937      13.89721196       0.29592457      -1.34702598      -0.74314915
Te       2.10710913       1.27415951      17.08576449      -0.12001571      -1.04001871      -0.44851829
Te       4.16431791       4.83734960      17.08576449       0.55787080      -0.04107582      -0.05175337
Te       6.32132652       1.21654002      17.13622527      -0.50192097       0.30211261       0.62173750
Te       0.04989991       4.83734985      17.08576410       0.40050647      -0.27449834      -0.41487619
Te       2.10710868       1.19979071      10.38957074       0.18116271      -0.85499460       0.26160343
Te       4.22872293       4.87453439      10.38957074      -0.63242444       0.26046939      -0.68763320
Te       6.32132698       1.21653976      10.39367857      -1.22799769      -0.30835185       0.47443905
Te      -0.01450510       4.87453412      10.38957116      -0.63221377       0.70502678      -0.25879879
Te       0.02695353      -0.01556163      24.16097035       0.56150451       0.58803991      -0.29380651
Te       2.10710934       3.64961945      24.11002832       0.67876479       0.00283019       0.43663648
Te       4.18726430      -0.01556114      24.16097054       0.76800764       0.52816613      -0.43737743
Te      -2.10710934       3.68074272      24.16097054       0.77249047       0.28063705      -0.16987231
Te      -0.00165665       2.43212412      27.55928221       0.65642983       0.18400614       0.54093522
Te       2.10710823       6.08461203      27.55928221       0.16385738      -0.73855658       0.72560754
Te       4.21587447       2.43212333      27.55928220       0.35094783      -0.20400435       0.28617669
Te      -2.10710823       6.08269910      27.56877447       1.12921772      -0.76841660       0.55660802
Te      -0.01450510       2.42470500      20.64386649      -0.16383305      -0.38198845      -0.10870259
Te       2.10710915       6.09944868      20.64386649       0.60541535      -0.42824345       0.68928666
Te       4.22872293       2.42470527      20.64386606       0.98193209      -0.09192301       0.15459347
Te      -2.10710915       6.08269963      20.63975866       0.72848271      -0.44993957       0.49398847
Sb      -0.03010179       2.41569882       8.46835666      -0.30915663      -0.67139398      -0.44800330
Sb       2.10711038       6.11745891       8.46835666       0.25659518      -1.14403903       0.59749992
Sb       4.24431962       2.41570051       8.46835705       0.56898698      -0.88573246       0.44457640
Sb      -2.10711038       6.08270034       8.40236640       0.56693379      -1.26048083      -0.24623266
Sb       0.00023601       2.43321348       1.88274910       0.36164863      -0.86610051      -1.40443193
Sb       2.10711114       6.08242826       1.88274910       0.27524027      -1.34382854      -0.14535972
Sb       4.21398182       2.43321606       1.88274939       0.05532667      -1.13091303       0.05330976
Sb      -2.10711114       6.08270078       1.88196358       0.64421462      -1.41086398      -0.61587323
Sb      -0.05024943       0.02901154      18.75537477       0.58365274       0.87226188       0.33706649
Sb       2.10710819       3.64962011      18.71413272      -0.84700363       1.01481164       0.47957965
Sb       4.26446726       0.02901070      18.75537502       0.25635975       0.49642500      -0.25539943
Sb       6.32132747       3.59159704      18.75537502      -0.67168567      -0.46077560      -0.69050360
Sb       0.05024943      -0.02901154      12.27806246       0.58789230       0.86037358      -0.13108931
Sb       2.10710964       3.64961928      12.31930450       0.73046545       0.69246835      -0.46108614
Sb       4.16396839      -0.02901070      12.27806221       0.26172667       1.39935196      -0.55003361
Sb      -2.10710964       3.70764235      12.27806221       0.41628104       1.19672294       0.54675812
Sb       2.10710669       1.21681113      29.15068812      -0.28024386       0.93852346      -0.60238620
Sb       4.21398182       4.86602591      29.15068812      -0.91685415      -0.27529926      -0.52604166
Sb       6.32132897       1.21653861      29.15147365      -0.92471830       0.51769961      -0.36907726
Sb       0.00023601       4.86602333      29.15068783      -0.23055951       0.08081719      -1.40783470
Sb       2.10710745       1.18178048      22.56508056      -1.08079749      -0.58322280       0.39709536
Sb       4.24431962       4.88354057      22.56508056      -1.04249716      -0.10440373      -0.54225403
Sb       6.32132821       1.21653905      22.63107083      -1.11530882      -0.16614538       0.32386493
Sb      -0.03010179       4.88353888      22.56508018      -1.29833992       0.08791168      -0.72651657
Cr       2.10710891       3.64961970      15.51671861      -0.02369923       0.40729294      -0.00120868
61
Properties=species:S:1:pos:R:3:forces:R:3 repair_mode=unwrap repair_image_index=1 migrant_element=Cr energy=-214.08640463927873 mlff_rel_energy_eV=-13.620222335941492 mlff_fmax_eV_A=0.4198991144113812 calculator_label=/home/ycao73/.cache/mace/20231203mace128L1_epoch199model neb_image=1 neb_protocol=mlff_pre_neb pbc="F F F"
Te       1.89223531       1.14934703       3.75211424      -0.03838585      -0.02044589       0.03125221
Te       3.82342288       4.86797943       3.65842776      -0.04879921       0.00521763       0.03006675
Te       5.59135371       1.28090938       4.52774859      -0.08001341       0.02138395       0.13490593
Te      -0.21118429       4.89080863       3.85337361      -0.03136313       0.00073789       0.04189309
Te       0.65627947       0.13425797       6.62655633       0.09434165      -0.00176934      -0.02540664
Te       2.04712124       3.70138701       6.68810187       0.00706796       0.02076134      -0.03619645
Te       4.03180698       0.31762002       6.57356902      -0.04161487      -0.00647158      -0.02016489
Te      -2.01384406       3.91840197       6.67492598       0.01609696       0.04284210      -0.03562885
Te       0.73186841       0.14119242      -0.01019477       0.10795174       0.02286237      -0.00917950
Te       1.97069691       3.70741242       0.16439782      -0.01197721      -0.00243721       0.02280341
Te       3.43357337       0.09571526       0.26966892      -0.11406107       0.01948281       0.04421223
Te      -1.87421007       3.79772718       0.09872375       0.01344135       0.03345487       0.00690556
Te      -0.07934993       2.13331996      13.72136995      -0.01623466      -0.04028310      -0.03491246
Te       1.65469682       6.08317663      13.40688915      -0.04005195      -0.00174086      -0.06351380
Te       4.29611387       2.74014169      13.54001788       0.01033304       0.05150141      -0.06071143
Te      -1.24481971       6.04843618      14.20287857       0.10558720      -0.00291468       0.05036055
Te       1.81782838       0.98976193      17.01080090      -0.04597249      -0.03621096       0.00540441
Te       4.15801055       5.09921172      17.18712711       0.00100446       0.04170445       0.00693216
Te       5.73746545       1.20816142      16.81485109      -0.09416122       0.00518567      -0.05413173
Te      -0.03126209       4.88252000      17.14012740      -0.00687888       0.00223238       0.01500795
Te       2.07176890       1.39836585      10.32015286       0.00053615       0.03051531      -0.01536856
Te       3.68513509       4.84444338      10.43622810      -0.06813815      -0.00580160      -0.00615997
Te       5.91157339       0.95325895      10.47686682      -0.05929552      -0.04263390       0.01411216
Te      -0.17727697       4.63716660      10.58646645      -0.04075977      -0.03915572       0.02115617
Te      -0.39723290       0.81714840      24.37178549      -0.05760908       0.10523524       0.02301788
Te       2.17790343       3.70054436      24.38893392       0.00636468       0.01641054       0.03700503
Te       4.10336652       0.14448727      24.18450090      -0.01680552       0.01443467       0.00346247
Te      -1.83066541       3.46249518      24.44644690       0.02114037      -0.04341491       0.01464127
Te       0.34485174       2.03689089      27.45251739       0.04603102      -0.05755157      -0.01640889
Te       2.25327627       5.78558957      27.39743872       0.02150075      -0.03865588      -0.03307848
Te       4.46055656       2.28654270      26.97290166       0.03747976      -0.02333553      -0.08042408
Te      -1.58495657       5.43511336      26.38717008       0.07536193      -0.08003568      -0.16473852
Te      -0.20836396       2.49496471      20.63546730      -0.03497730       0.00681174       0.00280568
Te       2.32785808       5.98821079      20.88639750       0.03041629      -0.01178075       0.02807586
Te       4.44073447       2.25943796      20.59750799       0.02753567      -0.01387197      -0.00692843
Te      -1.60394159       5.59883095      20.20782714       0.06469030      -0.05886610      -0.05768323
Sb      -0.03549250       2.33289472       8.18102262       0.00315965      -0.00340418      -0.04820563
Sb       1.81036538       5.90285200       8.37625105      -0.03532164      -0.01235211      -0.03248409
Sb       4.31889424       2.46902706       8.62224049       0.00398243       0.02189056       0.03599151
Sb      -1.11490579       6.04756713       8.14579675       0.13766053       0.00180564      -0.04116965
Sb       0.03813333       2.28776368       1.80323050       0.00365626      -0.01369050      -0.02317815
Sb       1.74727141       5.86355805       1.94911836      -0.05236301      -0.02867682       0.00929161
Sb       3.98934926       2.29097626       2.26535583      -0.03401449      -0.02536590       0.06475953
Sb      -1.25591952       6.01608269       1.55574398       0.10932931      -0.00421120      -0.04379545
Sb       1.00456531      -0.01716264      19.47212624       0.14221291      -0.01132791       0.11122873
Sb       1.94188992       3.83390052      18.90908209      -0.02188159       0.00617877       0.04035914
Sb       3.83939470      -0.01366738      18.70739941      -0.04665612      -0.00859068      -0.00181082
Sb       6.03596348       3.42780207      18.39308046      -0.03883339      -0.02215579      -0.05136490
Sb       1.11018329      -0.14327731      12.49690376       0.15050752      -0.01393050       0.02702886
Sb       2.06589054       3.92710423      15.19336193      -0.00051425       0.03791198       0.36832640
Sb       4.00612680       0.17989682      12.49535928      -0.00671386       0.02806322       0.05352086
Sb      -2.04451205       3.97789680      12.62394049       0.00452169       0.03421181       0.05838033
Sb       2.68994638       1.72921412      29.22197130       0.07200632       0.05717782       0.01867057
Sb       4.05833680       4.16448627      29.11944147      -0.01742072      -0.06930871      -0.00063764
Sb       5.49260599       1.76609695      29.46992287      -0.09115973       0.06321691       0.04996254
Sb       0.03115782       4.58686982      28.52204860       0.00351133      -0.04564582      -0.09226532
Sb       1.79623851       1.33067569      22.67432128      -0.03461106       0.02703565       0.01504011
Sb       4.27935585       4.53366846      22.75920658       0.00615609      -0.03866262       0.03065234
Sb       5.80957549       2.06275585      23.23494460      -0.06971260       0.10539575       0.08643373
Sb      -0.05750683       4.97249794      22.38500752      -0.00176064       0.01284032      -0.02916300
Cr       1.97169219       3.57014550      12.22493850      -0.02552296      -0.01180283      -0.41895649
61
Properties=species:S:1:pos:R:3:forces:R:3 repair_mode=unwrap repair_image_index=2 migrant_element=Cr energy=-215.60912719981508 mlff_rel_energy_eV=-15.142944896477843 mlff_fmax_eV_A=0.09264024964065756 calculator_label=/home/ycao73/.cache/mace/20231203mace128L1_epoch199model neb_image=2 neb_protocol=mlff_pre_neb pbc="F F F"
Te       1.28590186       0.97186722       3.72944014       0.01457050       0.02054953      -0.00107670
Te       3.81017407       4.66423720       3.95023756       0.00686424      -0.01972832      -0.02393040
Te       5.22454714       1.39256141       5.10257149       0.01546699      -0.04661001      -0.04061422
Te      -0.37192168       5.01182861       3.50949509       0.02628154       0.00809910      -0.01035137
Te       1.04103781      -0.24915809       6.82445929      -0.00472820       0.00619070      -0.04266276
Te       1.93378626       3.44288918       6.42306152       0.01876646       0.00677040       0.00765818
Te       3.88466874      -0.15500175       6.95234962      -0.03221046      -0.00068384       0.00606438
Te      -1.89672266       3.58452032       6.42132030       0.00780845      -0.01609467      -0.02065782
Te       0.91124214       0.67851555      -0.59901987      -0.01130481      -0.03028341      -0.00354999
Te       2.34496306       3.73015051       0.28172699       0.00788483      -0.02792730      -0.02097887
Te       2.14674826      -0.53552269       1.52123478       0.02130077       0.01161950       0.00028411
Te      -1.35621040       4.36631133      -0.61228111       0.02758502      -0.00793104       0.02165727
Te       0.14101884       1.69317852      13.69815344      -0.01296174       0.00985282       0.00814929
Te       1.60499493       5.67029889      14.15661834      -0.01631296       0.03251480      -0.03141880
Te       4.75955550       3.66255016      13.95020203       0.00216939       0.03068321      -0.04713966
Te      -1.12373494       5.50900369      13.85917878      -0.01083653      -0.01239206       0.04649614
Te       1.83567345       0.96509140      17.33742018       0.01216007      -0.00470909      -0.00522078
Te       4.09912281       5.00275679      16.77116795      -0.00520011      -0.00921001      -0.03330003
Te       5.65869251       1.17946033      16.23210669       0.01646008      -0.03287785       0.00423985
Te       0.17930150       5.44161144      17.29646419       0.02057643       0.04542487      -0.00941815
Te       2.05481024       0.86149086      10.24418030      -0.00997654       0.01867769       0.00360055
Te       3.92123040       5.06974634      10.06190390      -0.00237584      -0.02161410      -0.00620002
Te       5.75470063       1.39177757      10.91664552      -0.00686950      -0.00983226       0.00506377
Te      -0.33414543       4.86144505      10.17617015       0.00894779      -0.01065106       0.00154655
Te      -0.31275736       0.90626964      23.75614979       0.00070281      -0.02199745      -0.00537658
Te       2.09830281       4.11436661      24.28210604      -0.00555039      -0.01742168      -0.00383916
Te       3.78687557       0.26871549      23.60758361       0.01878347       0.00167252       0.00985024
Te      -2.01624186       3.14007964      23.62004013       0.00570477      -0.00130999       0.01423284
Te       0.90661139       1.48485774      26.76308148      -0.01369076       0.01147846       0.00229978
Te       1.98657946       5.66128401      27.22396666      -0.02458811      -0.00999335       0.00268849
Te       4.66799304       2.22439195      26.73714075       0.00243947       0.00961960      -0.01699150
Te      -1.41217239       5.03799540      25.51605589      -0.01981314       0.00188024       0.02892791
Te      -0.52160025       2.71817876      20.20591855       0.01323071      -0.00185272      -0.01511000
Te       2.49574643       5.99020876      20.67244297      -0.00553352      -0.00484506       0.00135208
Te       4.95984376       2.50032267      20.20123484      -0.01903070       0.01526154      -0.02406385
Te      -1.59260280       5.35806658      19.49563937       0.01792851       0.00455759      -0.02281783
Sb      -0.15533675       2.02249469       8.28467549      -0.00165727       0.02168216      -0.00019534
Sb       1.79582106       5.83840239       7.83611150      -0.01862127       0.00209276       0.02400832
Sb       4.31287324       2.40569843       8.63012209      -0.00633129      -0.00030226       0.00973316
Sb      -1.06844800       5.93430847       7.52866276      -0.02064916      -0.02023025      -0.00684998
Sb      -0.11133892       2.60728381       1.30161094      -0.01646845       0.02234139       0.00152680
Sb       1.95817356       5.89575647       2.04353436       0.02046834      -0.00015091       0.02678349
Sb       3.75747926       2.07666482       2.69995705      -0.01925595       0.01130975      -0.01143598
Sb      -0.77202358       6.40226093       1.13426871      -0.03176516       0.02608388      -0.00204571
Sb       1.67499710      -0.21299372      19.91506618      -0.00449147       0.00911372      -0.02251482
Sb       2.12018459       3.81771206      18.68910056      -0.01471020       0.01698246      -0.01388761
Sb       4.25697686       0.14556896      18.66937566      -0.00708697      -0.00677472      -0.00304457
Sb       6.19400079       3.43804875      17.71652287      -0.00783866      -0.01301999      -0.02096829
Sb      -0.73658022       0.72947437      11.15222667       0.06035483      -0.02122045       0.04896570
Sb       2.18823939       3.60028576      12.12402152      -0.01485426       0.00670648       0.08012170
Sb       3.84390366       1.21332695      12.96597416       0.01415242       0.01580692       0.03351773
Sb      -1.77453639       3.22681651      12.22350054      -0.00574258       0.02340015       0.00764876
Sb       2.70640280       1.91322912      29.03997432       0.00432158      -0.02274009      -0.01248427
Sb       4.20468346       4.23761006      28.67443597      -0.00921506       0.00210137       0.01549606
Sb       5.47117345       1.82208219      29.33694977      -0.00682020       0.00954953      -0.02468470
Sb      -0.11398025       3.89968695      27.75681572       0.00641553       0.00192244       0.02088867
Sb       1.87716514       1.82590185      22.07834287       0.00852918      -0.01109522       0.00406598
Sb       4.27462778       4.87246327      22.81922726      -0.00281519      -0.00022727      -0.00264601
Sb       5.57683410       2.30608737      23.20908532       0.01131118       0.00438916      -0.03107119
Sb      -0.03798962       5.01360008      21.95171321      -0.00578079       0.00138216       0.00731514
Cr       1.89167564       3.48248647       9.20758260       0.00390187      -0.00599047       0.09236398
61
Properties=species:S:1:pos:R:3:forces:R:3 repair_mode=unwrap repair_image_index=3 migrant_element=Cr energy=-215.89014108814868 mlff_rel_energy_eV=-15.423958784811447 mlff_fmax_eV_A=0.08865380946797266 calculator_label=/home/ycao73/.cache/mace/20231203mace128L1_epoch199model neb_image=3 neb_protocol=mlff_pre_neb pbc="F F F"
Te       1.53941968       1.08757679       4.00441145      -0.04691310      -0.01646157       0.00926851
Te       3.33751932       5.11081655       4.15336516      -0.04028917       0.00454282       0.01035637
Te       5.03891017       1.57593653       5.40402288       0.00493605       0.01623158       0.00515687
Te      -0.53043254       4.29901037       4.28069019      -0.08497685       0.02329453       0.00461826
Te       0.81616316       0.03376932       7.54876621       0.00751143      -0.01932914       0.00977738
Te       2.08516998       3.62794648       7.07196503       0.01992648      -0.00052396      -0.00510582
Te       3.67574254      -0.11565056       7.09728376      -0.04160199       0.03003424      -0.01531539
Te      -2.07243842       3.37528876       7.58696104      -0.00621847      -0.03891406       0.02269930
Te       1.15539497       0.84131870      -0.18671077       0.04347068      -0.02120348       0.01504976
Te       2.30435253       3.85642661       0.23974738       0.08449388      -0.02379553      -0.01241186
Te       2.93160074      -0.15278398       1.67331704      -0.01825974      -0.04642808       0.01313556
Te      -1.05638250       4.18091653      -0.01804949      -0.02945053       0.02952589       0.01626702
Te      -0.30360757       1.91138360      13.94249091      -0.00184427      -0.02105708       0.01922867
Te       1.63198760       5.56541903      14.42742785       0.00244010       0.00987681      -0.00001227
Te       4.20896671       2.60162791      14.07996335       0.01190253       0.01679251       0.01694927
Te      -0.98402886       5.91491807      13.53031764      -0.00446025       0.00073491       0.00484194
Te       1.79990317       1.04512353      17.15600564       0.00928365      -0.01189224       0.01313678
Te       4.16278867       4.89156990      16.83898499       0.00433907       0.00365308       0.00204598
Te       5.88621194       1.08485135      16.53014364      -0.01248398      -0.01047254      -0.00294220
Te       0.02545848       4.94691025      17.01252894      -0.00086374       0.00800072       0.00192815
Te       2.56650444       0.63592427      10.84655974       0.00625995      -0.01318399       0.02464520
Te       3.93951029       4.86919934      10.57166301      -0.00549730      -0.00321607       0.02326741
Te       6.59547501       1.69752161      10.53095047      -0.00852817       0.00347839       0.02288403
Te      -0.31689435       5.57730770      10.32106357      -0.00078955       0.00813360       0.00388726
Te      -0.38856002       0.89002277      24.01445691      -0.00403284       0.00126737      -0.01544095
Te       2.08769600       3.90842227      24.35580407       0.00618664       0.01413668      -0.00603594
Te       3.85678620       0.19568134      23.77751197      -0.01329712       0.01608604      -0.00645825
Te      -1.94880749       3.25799804      23.92219005      -0.01576121      -0.02011023      -0.00960142
Te       0.56551842       1.71645112      27.10920302       0.02144698      -0.01099661      -0.02328920
Te       2.18450940       5.74372837      27.19949445      -0.00838225      -0.01116846      -0.00999231
Te       4.53846078       2.21260067      26.81182517       0.01501127      -0.00650426      -0.00709264
Te      -1.38307838       5.24192420      25.74887558      -0.00107564      -0.00801269      -0.01981971
Te      -0.46876695       2.67285863      20.32910820       0.00143915      -0.00703481      -0.01717262
Te       2.45891654       5.94836607      20.72578251       0.01218822      -0.00028291      -0.00237886
Te       4.69288306       2.35435989      20.33346172       0.01316740      -0.00191516      -0.01600019
Te      -1.43163114       5.41348107      19.61766204      -0.00924006      -0.00183473      -0.01974051
Sb       0.18210777       2.40259161       9.07296187       0.01234711       0.02378075       0.02122081
Sb       1.89999553       5.98612132       8.55149889      -0.00022357       0.00121797       0.01138726
Sb       4.19605717       2.30320856       9.03358190      -0.00960737       0.00787434       0.02247911
Sb      -0.91002222       5.90374942       7.58031361       0.01724742      -0.03220963      -0.02373006
Sb      -0.39543597       2.09473102       1.90222357      -0.01043127       0.01732899      -0.05370278
Sb       1.93395393       6.10061267       1.89310007       0.04484896       0.00162648      -0.02840529
Sb       3.98806771       2.34402479       2.76224944      -0.04835218       0.03767541      -0.00706192
Sb      -0.93340723       5.97350968       2.09575984       0.03902209      -0.00388826       0.01587385
Sb       1.31380259      -0.06209099      19.76154835       0.00790311       0.00978450       0.00737997
Sb       2.07126533       3.80256086      18.65456347      -0.00314684      -0.00725673      -0.00102434
Sb       4.00002147       0.05955887      18.65463728       0.00468236      -0.00034937       0.00364055
Sb       6.15304950       3.38974439      18.03002951       0.01060914      -0.00852063      -0.01238820
Sb      -1.24387893       1.10082403      11.41494845       0.02714914       0.04147469      -0.02235023
Sb       2.06084003       3.43284912      12.33400056      -0.00708033      -0.00469296       0.03105929
Sb       4.94204641       0.49541755      12.38589090      -0.00128109       0.00526536       0.03302522
Sb      -2.21292076       3.47817932      12.57180261      -0.00165911       0.01040298       0.01473568
Sb       2.74817002       1.82227536      29.11371023      -0.00908993       0.00352131      -0.00402605
Sb       4.15227501       4.20628262      28.83389013       0.01188911      -0.00001244      -0.00616572
Sb       5.52863382       1.82025029      29.35420865      -0.01505070       0.00998902      -0.00578031
Sb      -0.03503949       4.27649643      28.02675257       0.00505103      -0.01744366      -0.00962601
Sb       1.80449225       1.63401771      22.29225995       0.00348863       0.00751863      -0.00395501
Sb       4.23039653       4.76192281      22.87035324       0.00658470       0.00121713      -0.00367269
Sb       5.61073229       2.23601828      23.20394127       0.00724294       0.00543276       0.01965729
Sb      -0.01220524       4.98285821      22.05863196      -0.00474012       0.00086005      -0.00955973
Cr       1.61677155       3.56666720       2.84728439       0.00255951      -0.00204828      -0.03934427
61
Properties=species:S:1:pos:R:3:forces:R:3 repair_mode=unwrap repair_image_index=4 migrant_element=Cr energy=-199.7476524003544 mlff_rel_energy_eV=0.7185299029828229 mlff_fmax_eV_A=1.7717059842682235 calculator_label=/home/ycao73/.cache/mace/20231203mace128L1_epoch199model neb_image=4 neb_protocol=mlff_pre_neb pbc="F F F"
Te       2.10710960       1.13425048       3.64861162       0.17295699       0.79169819      -0.31586660
Te       4.28548284       4.90730371       3.64861162      -0.92957367       0.01504171      -0.53575605
Te       6.32132606       1.21654029       4.21566554      -1.29328638       0.11192899       0.01974333
Te      -0.07126502       4.90730450       3.64861163      -0.00440278       0.51272774       0.21335903
Te      -0.02766651       0.01597327       6.76777276       0.27824729       0.83159328       0.31911955
Te       2.10710848       3.64961994       6.81409457      -0.25728829       0.54568128      -0.19073697
Te       4.24188433       0.01597277       6.76777258       0.26166987       0.98009283      -0.34631434
Te      -2.10710848       3.61767340       6.76777258       0.13870160       0.98487249       0.57587158
Te       0.01726803      -0.00996970       0.01915004       0.27143680       0.89979536       0.63235494
Te       2.10710891       3.64961970      -0.32428345      -0.09509245       0.15636656       0.68430748
Te       4.19694979      -0.00996970       0.01915004      -0.25958680       0.82684796       0.65971884
Te      -2.10710891       3.66955910       0.01915004       0.56713828       0.86352630       1.32284007
Te       0.00903879       2.43829860      13.86706574      -0.60222302      -0.58742674       0.11137377
Te       2.10710870       6.07226226      13.86706574      -0.20426884      -0.71057445      -0.11214975
Te       4.20517903       2.43829835      13.86706613       0.04643192      -0.91415204      -0.27897600
Te      -2.10710870       6.08269937      13.85564805       0.34466795      -1.42886489      -0.72269420
Te       2.10710913       1.20064149      17.18457284      -0.16375017      -0.83740792      -0.19212905
Te       4.22798636       4.87410861      17.18457284       0.62790141      -0.44493623       0.28200966
Te       6.32132652       1.21654002      17.16476326      -0.65826224       0.38088609       0.75347786
Te      -0.01376853       4.87410886      17.18457246       0.43514002      -0.26910942       0.01781803
Te       2.10710868       1.21049506      10.34893359       0.16205799      -0.82937806       0.12791779
Te       4.21945269       4.86918222      10.34893359      -0.58870961       0.23960213      -0.69513326
Te       6.32132698       1.21653976      10.34253598      -1.18601662      -0.28640964       0.45800963
Te      -0.00523487       4.86918195      10.34893401      -0.63521554       0.68671874      -0.31318749
Te      -0.02352793       0.01358386      24.21928783       0.60438205       0.66293738      -0.28665792
Te       2.10710934       3.64961945      24.21350115       0.63195623       0.00545384       0.41844379
Te       4.23774576       0.01358436      24.21928802       0.67903991       0.57126544      -0.52069486
Te      -2.10710934       3.62245172      24.21928802       0.81599566       0.39554731      -0.00447527
Te      -0.04848459       2.40508799      27.54273495       0.65265745       0.23960959       0.42396948
Te       2.10710823       6.13868430      27.54273495       0.11205718      -0.78388707       0.64384616
Te       4.26270242       2.40508720      27.54273494       0.32879466      -0.18235730       0.21158604
Te      -2.10710823       6.08269910      27.22259082       1.16455215      -0.91976525       0.56821075
Te       0.01296630       2.44056563      20.69074500      -0.16854282      -0.30997978      -0.03508684
Te       2.10710915       6.06772743      20.69074500       0.57402878      -0.37314038       0.65716946
Te       4.20125152       2.44056590      20.69074458       1.01161554      -0.13459878       0.17128131
Te      -2.10710915       6.08269963      20.69580375       0.75541485      -0.45661502       0.46943413
Sb      -0.00583960       2.42970661       8.42373455      -0.33370657      -0.62854508      -0.58444301
Sb       2.10711038       6.08944332       8.42373455       0.21478726      -1.13289083       0.54477021
Sb       4.22005742       2.42970830       8.42373494       0.53449749      -0.78815817       0.44396304
Sb      -2.10711038       6.08270034       8.34217953       0.56691973      -1.30906711      -0.33806643
Sb      -0.11823573       2.36481380       2.02204818      -0.33660198      -1.06826100      -1.30327712
Sb       2.10711114       6.21922763       2.02204818       0.19109749      -0.89643389      -0.02566167
Sb       4.33245356       2.36481637       2.02204847       0.47768710      -1.41149027       0.01964618
Sb      -2.10711114       6.08270078       1.95492345       0.58761952      -1.41497402      -0.73328610
Sb       0.00027821      -0.00016063      18.77953867       0.74848483       0.82619574       0.20639802
Sb       2.10710819       3.64962011      18.78218146      -0.93787349       1.14568761      -0.26718398
Sb       4.21393961      -0.00016146      18.77953892       0.27071637       0.55456705      -0.33215179
Sb       6.32132747       3.64994137      18.77953892      -0.86657242      -0.35001258      -0.86278147
Sb      -0.00014456       0.00008346      12.27074799       0.44644922       1.04239765       0.01306399
Sb       2.10710964       3.64961928      12.20739149       0.76263827       0.83269343       0.37054378
Sb       4.21436239       0.00008430      12.27074774       0.38976641       1.68395636      -0.38899256
Sb      -2.10710964       3.64945235      12.27074774       0.50015876       1.13708319       0.59677358
Sb       2.10710669       1.15010466      29.03381549      -0.30142271       0.87970442      -0.55816647
Sb       4.27175132       4.89937915      29.03381549      -0.88361321      -0.23637579      -0.43998515
Sb       6.32132897       1.21653861      29.18787885      -0.89744002       0.50002477      -0.38524571
Sb      -0.05753350       4.89937657      29.03381521      -0.22864248       0.07261766      -1.57348730
Sb       2.10710745       1.21441909      22.61367564      -1.04561198      -0.63781776       0.50580535
Sb       4.21605377       4.86722127      22.61367564      -0.97534335      -0.10239216      -0.51413369
Sb       6.32132821       1.21653905      22.58644052      -1.10126427      -0.17131913       0.38408379
Sb      -0.00183594       4.86721958      22.61367526      -1.33692718       0.05560787      -0.68235678
Cr       2.10710940       3.64961942       2.14592841      -0.03642820       0.18361179       0.71216723
