
     Program PWSCF v.7.3.1 starts on 14Sep2026 at  6:33: 2 

     This program is part of the open-source Quantum ESPRESSO suite
     for quantum simulation of materials; please cite
         "P. Giannozzi et al., J. Phys.:Condens. Matter 21 395502 (2009);
         "P. Giannozzi et al., J. Phys.:Condens. Matter 29 465901 (2017);
         "P. Giannozzi et al., J. Chem. Phys. 152 154105 (2020);
          URL http://www.quantum-espresso.org", 
     in publications or presentations arising from this work. More details at
     http://www.quantum-espresso.org/quote

     Parallel version (MPI), running on     4 processors

     MPI processes distributed on     1 nodes
     161700 MiB available memory on the printing compute node when the environment starts
 
     Reading input from scf.in

     Current dimensions of program PWSCF are:
     Max number of different atomic species (ntypx) = 10
     Max number of k-points (npk) =  40000
     Max angular momentum in pseudopotentials (lmaxx) =  4

     Fixed quantization axis for GGA:     0.000000    0.000000    1.000000
     Message from routine setup:
     using ibrav=0 with symmetry is DISCOURAGED, use correct ibrav instead
 
     K-points division:     npool     =       4
     Subspace diagonalization in iterative solution of the eigenvalue problem:
     a serial algorithm will be used

 
     G-vector sticks info
     --------------------
     sticks:   dense  smooth     PW     G-vecs:    dense   smooth      PW
     Sum        3481    3481    931               615191   615191   84659
 
     Using Slab Decomposition
 


     bravais-lattice index     =            0
     lattice parameter (alat)  =      15.9274  a.u.
     unit-cell volume          =   12884.0056 (a.u.)^3
     number of atoms/cell      =           61
     number of atomic types    =            3
     number of electrons       =       950.00
     number of Kohn-Sham states=         1140
     kinetic-energy cutoff     =      50.0000  Ry
     charge density cutoff     =     200.0000  Ry
     scf convergence threshold =      1.0E-06
     mixing beta               =       0.2000
     number of iterations used =            8  local-TF  mixing
     Exchange-correlation= PBE
                           (   1   4   3   4   0   0   0)
     Noncollinear calculation with spin-orbit


     celldm(1)=  15.927435  celldm(2)=   0.000000  celldm(3)=   0.000000
     celldm(4)=   0.000000  celldm(5)=   0.000000  celldm(6)=   0.000000

     crystal axes: (cart. coord. in units of alat)
               a(1) = (   1.000000   0.000000   0.000000 )  
               a(2) = (  -0.500000   0.866025   0.000000 )  
               a(3) = (   0.000000   0.000000   3.681993 )  

     reciprocal axes: (cart. coord. in units 2 pi/alat)
               b(1) = (  1.000000  0.577351  0.000000 )  
               b(2) = (  0.000000  1.154701  0.000000 )  
               b(3) = (  0.000000  0.000000  0.271592 )  


     PseudoPot. # 1 for Cr read from file:
     /data/pclancy3/yi/ONCVPseudoPack/SG15_v1.2/UPF/PBE/Cr_PBE_FR.SG15v1.2.UPF
     MD5 check sum: 19291ff833b3d067f23df56d5404fde6
     Pseudo is Norm-conserving, Zval = 14.0
     Generated using ONCVPSP code by D. R. Hamann
     Using radial grid of 1490 points, 10 beta functions with: 
                l(1) =   0
                l(2) =   0
                l(3) =   1
                l(4) =   1
                l(5) =   1
                l(6) =   1
                l(7) =   2
                l(8) =   2
                l(9) =   2
               l(10) =   2

     PseudoPot. # 2 for Sb read from file:
     /data/pclancy3/yi/ONCVPseudoPack/SG15_v1.2/UPF/PBE/Sb_PBE_FR.SG15v1.2.UPF
     MD5 check sum: 0e999992813bf262e14e71941f404476
     Pseudo is Norm-conserving, Zval = 15.0
     Generated using ONCVPSP code by D. R. Hamann
     Using radial grid of 1468 points, 10 beta functions with: 
                l(1) =   0
                l(2) =   0
                l(3) =   1
                l(4) =   1
                l(5) =   1
                l(6) =   1
                l(7) =   2
                l(8) =   2
                l(9) =   2
               l(10) =   2

     PseudoPot. # 3 for Te read from file:
     /data/pclancy3/yi/ONCVPseudoPack/SG15_v1.2/UPF/PBE/Te_PBE_FR.SG15v1.2.UPF
     MD5 check sum: 7c59b7da87cf03000ce4d32f994025eb
     Pseudo is Norm-conserving, Zval = 16.0
     Generated using ONCVPSP code by D. R. Hamann
     Using radial grid of 1324 points, 10 beta functions with: 
                l(1) =   0
                l(2) =   0
                l(3) =   1
                l(4) =   1
                l(5) =   1
                l(6) =   1
                l(7) =   2
                l(8) =   2
                l(9) =   2
               l(10) =   2

     atomic species   valence    mass     pseudopotential
     Cr               14.00    51.99610     Cr( 1.00)
     Sb               15.00   121.76000     Sb( 1.00)
     Te               16.00   127.60000     Te( 1.00)

      2 Sym. Ops. (no inversion) found


                                    s                        frac. trans.

      isym =  1     identity                                     

 Time Reversal            0
 cryst.   s( 1) = (     1          0          0      )
                  (     0          1          0      )
                  (     0          0          1      )

 cart.    s( 1) = (  1.0000000  0.0000000  0.0000000 )
                  (  0.0000000  1.0000000  0.0000000 )
                  (  0.0000000  0.0000000  1.0000000 )


      isym =  2     inv. 180 deg rotation - cryst. axis [1,1,0]  

 Time Reversal            1
 cryst.   s( 2) = (     0         -1          0      )
                  (    -1          0          0      )
                  (     0          0          1      )

 cart.    s( 2) = (  0.5000000 -0.8660258  0.0000000 )
                  ( -0.8660250 -0.5000000  0.0000000 )
                  (  0.0000000  0.0000000  1.0000000 )


   Cartesian axes

     site n.     atom                  positions (alat units)
         1        Te     tau(   1) = (   0.2504815   0.1441053   0.4093658  )
         2        Te     tau(   2) = (   0.0004419  -0.2889755   0.4093658  )
         3        Te     tau(   3) = (  -0.2507454   0.1447679   0.4082255  )
         4        Te     tau(   4) = (   0.4997474  -0.2885289   0.4077285  )
         5        Te     tau(   5) = (  -0.0075286   0.0043467   0.8158063  )
         6        Te     tau(   6) = (  -0.2516027  -0.4320870   0.8194250  )
         7        Te     tau(   7) = (  -0.4975853  -0.0036749   0.8188690  )
         8        Te     tau(   8) = (  -0.2456101   0.4327590   0.8188690  )
         9        Te     tau(   9) = (  -0.0000973   0.0000562  -0.0006477  )
        10        Te     tau(  10) = (  -0.2504636  -0.4327446  -0.0002762  )
        11        Te     tau(  11) = (  -0.4997389  -0.0002934  -0.0003157  )
        12        Te     tau(  12) = (   0.2503846  -0.4330917  -0.0003157  )
        13        Te     tau(  13) = (   0.0012591   0.2845182   1.6375071  )
        14        Te     tau(  14) = (  -0.2457704  -0.1433491   1.6375071  )
        15        Te     tau(  15) = (  -0.5131659   0.2962765   1.6707890  )
        16        Te     tau(  16) = (   0.2496631  -0.1441427   1.6344640  )
        17        Te     tau(  17) = (   0.2301269   0.1081313  -1.6733153  )
        18        Te     tau(  18) = (   0.0214190  -0.2533610  -1.6733153  )
        19        Te     tau(  19) = (  -0.2362759   0.1364139  -1.6761777  )
        20        Te     tau(  20) = (   0.5183383  -0.2992624  -1.6343251  )
        21        Te     tau(  21) = (   0.2526529   0.1448342   1.2291853  )
        22        Te     tau(  22) = (   0.0008963  -0.2912206   1.2291853  )
        23        Te     tau(  23) = (  -0.2505505   0.1446554   1.2288248  )
        24        Te     tau(  24) = (   0.4947890  -0.2856661   1.2286713  )
        25        Te     tau(  25) = (   0.0033030  -0.0019070  -0.8113510  )
        26        Te     tau(  26) = (  -0.2580132  -0.4283858  -0.8144953  )
        27        Te     tau(  27) = (   0.4955535  -0.0040821  -0.8147187  )
        28        Te     tau(  28) = (   0.2513120  -0.4271205  -0.8147187  )
        29        Te     tau(  29) = (   0.0003259   0.2876286  -0.4108425  )
        30        Te     tau(  30) = (  -0.2489307  -0.1440961  -0.4108425  )
        31        Te     tau(  31) = (  -0.5001361   0.2887537  -0.4099728  )
        32        Te     tau(  32) = (   0.2489158  -0.1437112  -0.4105963  )
        33        Te     tau(  33) = (  -0.0037063   0.2885125  -1.2167747  )
        34        Te     tau(  34) = (  -0.2517123  -0.1410461  -1.2167747  )
        35        Te     tau(  35) = (  -0.4979601   0.2874974  -1.2137279  )
        36        Te     tau(  36) = (   0.2437722  -0.1407415  -1.2137520  )
        37        Sb     tau(  37) = (   0.0001056   0.2880253   1.0115668  )
        38        Sb     tau(  38) = (  -0.2493844  -0.1441037   1.0115668  )
        39        Sb     tau(  39) = (  -0.4992037   0.2882154   1.0017430  )
        40        Sb     tau(  40) = (   0.2490895  -0.1438115   1.0063009  )
        41        Sb     tau(  41) = (   0.0000623   0.2887855   0.2214169  )
        42        Sb     tau(  42) = (  -0.2500644  -0.1444463   0.2214169  )
        43        Sb     tau(  43) = (  -0.5000633   0.2887117   0.2203568  )
        44        Sb     tau(  44) = (   0.2500394  -0.1443599   0.2210172  )
        45        Sb     tau(  45) = (  -0.0183947   0.0106202  -1.4080993  )
        46        Sb     tau(  46) = (  -0.2006258  -0.4615185  -1.5093979  )
        47        Sb     tau(  47) = (  -0.5240701   0.0010812  -1.4777104  )
        48        Sb     tau(  48) = (  -0.2629714   0.4533175  -1.4777104  )
        49        Sb     tau(  49) = (   0.0008175  -0.0004720   1.4407252  )
        50        Sb     tau(  50) = (  -0.2505524  -0.4326934   1.4548600  )
        51        Sb     tau(  51) = (   0.5003117   0.0009334   1.4598474  )
        52        Sb     tau(  52) = (   0.2493475  -0.4337489   1.4598474  )
        53        Sb     tau(  53) = (   0.2494076   0.1439838  -0.2204439  )
        54        Sb     tau(  54) = (   0.0000101  -0.2879848  -0.2204439  )
        55        Sb     tau(  55) = (  -0.2493998   0.1439911  -0.2208655  )
        56        Sb     tau(  56) = (   0.5000492  -0.2887031  -0.2231034  )
        57        Sb     tau(  57) = (   0.2476694   0.1473121  -1.0058866  )
        58        Sb     tau(  58) = (  -0.0037413  -0.2881436  -1.0058866  )
        59        Sb     tau(  59) = (  -0.2491205   0.1438298  -1.0053241  )
        60        Sb     tau(  60) = (   0.4936530  -0.2850103  -0.9889676  )
        61        Cr     tau(  61) = (   0.0096321  -0.5829110   1.9789930  )

     --------------------------------------------
     DFT-D3 Dispersion Correction (3-body terms):
     --------------------------------------------
       Reference C6 values for interpolation: 

         atom   Coordination number   C6
         Cr         0.000          1381.48
         Cr         1.827           571.38
         Cr        10.619           306.69
         Sb         0.000           985.88
         Sb         0.975           946.94
         Sb         1.952           896.11
         Sb         2.932           834.76
         Te         0.000           851.07
         Te         0.981           850.20
         Te         1.964           837.16

       Values used:

         atom   Coordination number  R0_AB[au]  C6      C8
         Te         3.088            3.676    837.16  84978.06
         Te         3.088            3.676    837.16  84978.06
         Te         3.104            3.676    837.16  84978.06
         Te         3.110            3.676    837.16  84978.06
         Te         3.053            3.676    837.16  84978.06
         Te         3.079            3.676    837.16  84978.06
         Te         3.097            3.676    837.16  84978.06
         Te         3.097            3.676    837.16  84978.06
         Te         5.131            3.676    837.16  84978.05
         Te         5.110            3.676    837.16  84978.05
         Te         5.109            3.676    837.16  84978.05
         Te         5.109            3.676    837.16  84978.05
         Te         3.196            3.676    837.16  84978.06
         Te         3.196            3.676    837.16  84978.06
         Te         3.908            3.676    837.16  84978.05
         Te         3.283            3.676    837.16  84978.06
         Te         4.085            3.676    837.16  84978.05
         Te         4.085            3.676    837.16  84978.05
         Te         3.629            3.676    837.16  84978.06
         Te         3.084            3.676    837.16  84978.06
         Te         5.058            3.676    837.16  84978.05
         Te         5.058            3.676    837.16  84978.05
         Te         5.063            3.676    837.16  84978.05
         Te         4.997            3.676    837.16  84978.05
         Te         3.087            3.676    837.16  84978.06
         Te         3.119            3.676    837.16  84978.06
         Te         3.123            3.676    837.16  84978.06
         Te         3.123            3.676    837.16  84978.06
         Te         3.099            3.676    837.16  84978.06
         Te         3.099            3.676    837.16  84978.06
         Te         3.077            3.676    837.16  84978.06
         Te         3.106            3.676    837.16  84978.06
         Te         4.286            3.676    837.16  84978.05
         Te         4.286            3.676    837.16  84978.05
         Te         4.615            3.676    837.16  84978.05
         Te         4.958            3.676    837.16  84978.05
         Sb         5.442            3.794    834.76  89580.53
         Sb         5.442            3.794    834.76  89580.53
         Sb         5.361            3.794    834.76  89580.53
         Sb         5.388            3.794    834.76  89580.53
         Sb         5.424            3.794    834.76  89580.53
         Sb         5.424            3.794    834.76  89580.53
         Sb         5.429            3.794    834.76  89580.53
         Sb         5.426            3.794    834.76  89580.53
         Sb         5.172            3.794    834.76  89580.53
         Sb         5.171            3.794    834.76  89580.53
         Sb         5.200            3.794    834.76  89580.53
         Sb         5.200            3.794    834.76  89580.53
         Sb         5.511            3.794    834.76  89580.53
         Sb         5.320            3.794    834.76  89580.53
         Sb         5.228            3.794    834.76  89580.53
         Sb         5.228            3.794    834.76  89580.53
         Sb         5.431            3.794    834.76  89580.53
         Sb         5.431            3.794    834.76  89580.53
         Sb         5.428            3.794    834.76  89580.53
         Sb         5.399            3.794    834.76  89580.53
         Sb         5.543            3.794    834.76  89580.53
         Sb         5.543            3.794    834.76  89580.53
         Sb         5.535            3.794    834.76  89580.53
         Sb         5.379            3.794    834.76  89580.53
         Cr         5.919            3.252    571.38  52732.00

         Molecular C6 ( Ry / a.u.^6 ) =   3092416.24


   Crystallographic axes

     site n.     atom                  positions (cryst. coord.)
         1        Te     tau(   1) = (  0.3336807  0.1663985  0.1111805  )
         2        Te     tau(   2) = ( -0.1663983 -0.3336804  0.1111805  )
         3        Te     tau(   3) = ( -0.1671635  0.1671637  0.1108708  )
         4        Te     tau(   4) = (  0.3331651 -0.3331646  0.1107358  )
         5        Te     tau(   5) = ( -0.0050191  0.0050191  0.2215665  )
         6        Te     tau(   6) = ( -0.5010683 -0.4989313  0.2225493  )
         7        Te     tau(   7) = ( -0.4997070 -0.0042434  0.2223983  )
         8        Te     tau(   8) = (  0.0042435  0.4997072  0.2223983  )
         9        Te     tau(   9) = ( -0.0000648  0.0000648 -0.0001759  )
        10        Te     tau(  10) = ( -0.5003090 -0.4996907 -0.0000750  )
        11        Te     tau(  11) = ( -0.4999083 -0.0003388 -0.0000857  )
        12        Te     tau(  12) = (  0.0003389 -0.5000915 -0.0000857  )
        13        Te     tau(  13) = (  0.1655259  0.3285335  0.4447339  )
        14        Te     tau(  14) = ( -0.3285331 -0.1655254  0.4447339  )
        15        Te     tau(  15) = ( -0.3421105  0.3421108  0.4537730  )
        16        Te     tau(  16) = (  0.1664423 -0.1664417  0.4439074  )
        17        Te     tau(  17) = (  0.2925565  0.1248593 -0.4544591  )
        18        Te     tau(  18) = ( -0.1248591 -0.2925562 -0.4544591  )
        19        Te     tau(  19) = ( -0.1575172  0.1575173 -0.4552365  )
        20        Te     tau(  20) = (  0.3455590 -0.3455586 -0.4438697  )
        21        Te     tau(  21) = (  0.3362731  0.1672402  0.3338369  )
        22        Te     tau(  22) = ( -0.1672400 -0.3362727  0.3338369  )
        23        Te     tau(  23) = ( -0.1670336  0.1670338  0.3337390  )
        24        Te     tau(  24) = (  0.3298595 -0.3298590  0.3336974  )
        25        Te     tau(  25) = (  0.0022020 -0.0022020 -0.2203565  )
        26        Te     tau(  26) = ( -0.5053420 -0.4946576 -0.2212104  )
        27        Te     tau(  27) = (  0.4931967 -0.0047136 -0.2212711  )
        28        Te     tau(  28) = (  0.0047137 -0.4931965 -0.2212711  )
        29        Te     tau(  29) = (  0.1663884  0.3321251 -0.1115815  )
        30        Te     tau(  30) = ( -0.3321247 -0.1663880 -0.1115815  )
        31        Te     tau(  31) = ( -0.3334240  0.3334242 -0.1113453  )
        32        Te     tau(  32) = (  0.1659440 -0.1659434 -0.1115147  )
        33        Te     tau(  33) = (  0.1628665  0.3331457 -0.3304663  )
        34        Te     tau(  34) = ( -0.3331454 -0.1628661 -0.3304663  )
        35        Te     tau(  35) = ( -0.3319733  0.3319736 -0.3296388  )
        36        Te     tau(  36) = (  0.1625150 -0.1625144 -0.3296454  )
        37        Sb     tau(  37) = (  0.1663972  0.3325832  0.2747335  )
        38        Sb     tau(  38) = ( -0.3325828 -0.1663967  0.2747335  )
        39        Sb     tau(  39) = ( -0.3328024  0.3328026  0.2720654  )
        40        Sb     tau(  40) = (  0.1660599 -0.1660593  0.2733033  )
        41        Sb     tau(  41) = (  0.1667928  0.3334610  0.0601351  )
        42        Sb     tau(  42) = ( -0.3334606 -0.1667923  0.0601351  )
        43        Sb     tau(  43) = ( -0.3333755  0.3333757  0.0598472  )
        44        Sb     tau(  44) = (  0.1666931 -0.1666925  0.0600265  )
        45        Sb     tau(  45) = ( -0.0122631  0.0122631 -0.3824286  )
        46        Sb     tau(  46) = ( -0.4670837 -0.5329159 -0.4099405  )
        47        Sb     tau(  47) = ( -0.5234459  0.0012485 -0.4013344  )
        48        Sb     tau(  48) = ( -0.0012484  0.5234462 -0.4013344  )
        49        Sb     tau(  49) = (  0.0005450 -0.0005450  0.3912895  )
        50        Sb     tau(  50) = ( -0.5003681 -0.4996315  0.3951284  )
        51        Sb     tau(  51) = (  0.5008505  0.0010778  0.3964829  )
        52        Sb     tau(  52) = ( -0.0010776 -0.5008503  0.3964829  )
        53        Sb     tau(  53) = (  0.3325367  0.1662583 -0.0598708  )
        54        Sb     tau(  54) = ( -0.1662580 -0.3325364 -0.0598708  )
        55        Sb     tau(  55) = ( -0.1662665  0.1662666 -0.0599853  )
        56        Sb     tau(  56) = (  0.3333663 -0.3333658 -0.0605931  )
        57        Sb     tau(  57) = (  0.3327201  0.1701015 -0.2731908  )
        58        Sb     tau(  58) = ( -0.1701012 -0.3327198 -0.2731908  )
        59        Sb     tau(  59) = ( -0.1660803  0.1660804 -0.2730380  )
        60        Sb     tau(  60) = (  0.3291022 -0.3291017 -0.2685957  )
        61        Cr     tau(  61) = ( -0.3269119 -0.6730879  0.5374787  )

     number of k points=    10  Marzari-Vanderbilt smearing, width (Ry)=  0.0147
                       cart. coord. in units 2pi/alat
        k(    1) = (   0.0000000   0.0000000   0.0000000), wk =   0.0625000
        k(    2) = (   0.0000000   0.2886753   0.0000000), wk =   0.1250000
        k(    3) = (   0.0000000  -0.5773505   0.0000000), wk =   0.1250000
        k(    4) = (   0.2500000   0.4330129   0.0000000), wk =   0.0625000
        k(    5) = (  -0.2500000  -0.1443376   0.0000000), wk =   0.1250000
        k(    6) = (  -0.2500000   0.1443376   0.0000000), wk =   0.1250000
        k(    7) = (   0.5000000  -0.2886753   0.0000000), wk =   0.0625000
        k(    8) = (  -0.2500000  -0.4330129   0.0000000), wk =   0.0625000
        k(    9) = (  -0.2500000   0.4330129   0.0000000), wk =   0.1250000
        k(   10) = (   0.2500000  -0.4330129   0.0000000), wk =   0.1250000

                       cryst. coord.
        k(    1) = (   0.0000000   0.0000000   0.0000000), wk =   0.0625000
        k(    2) = (   0.0000000   0.2500000   0.0000000), wk =   0.1250000
        k(    3) = (   0.0000000  -0.5000000   0.0000000), wk =   0.1250000
        k(    4) = (   0.2500000   0.2500000   0.0000000), wk =   0.0625000
        k(    5) = (  -0.2500000   0.0000000   0.0000000), wk =   0.1250000
        k(    6) = (  -0.2500000   0.2500000   0.0000000), wk =   0.1250000
        k(    7) = (   0.5000000  -0.5000000   0.0000000), wk =   0.0625000
        k(    8) = (  -0.2500000  -0.2500000   0.0000000), wk =   0.0625000
        k(    9) = (  -0.2500000   0.5000000   0.0000000), wk =   0.1250000
        k(   10) = (   0.2500000  -0.5000000   0.0000000), wk =   0.1250000

     Dense  grid:   615191 G-vectors     FFT dimensions: (  72,  72, 270)

     Dynamical RAM for                 wfc:    2676.15 MB

     Dynamical RAM for     wfc (w. buffer):   10704.62 MB

     Dynamical RAM for           str. fact:      28.16 MB

     Dynamical RAM for           local pot:       0.00 MB

     Dynamical RAM for          nlocal pot:    2434.36 MB

     Dynamical RAM for                qrad:       8.93 MB

     Dynamical RAM for          rho,v,vnew:     240.79 MB

     Dynamical RAM for               rhoin:      80.26 MB

     Dynamical RAM for            rho*nmix:     600.77 MB

     Dynamical RAM for           G-vectors:      39.90 MB

     Dynamical RAM for          h,s,v(r/c):     237.96 MB

     Dynamical RAM for          <psi|beta>:      72.15 MB

     Dynamical RAM for                 psi:    5352.31 MB

     Dynamical RAM for                hpsi:    5352.31 MB

     Dynamical RAM for      wfcinit/wfcrot:    4043.99 MB

     Estimated static dynamical RAM per process >      13.34 GB

     Estimated max dynamical RAM per process >      24.68 GB

     Estimated total dynamical RAM >      96.97 GB
     Generating pointlists ...
     new r_m :   0.1215 (alat units)  1.9357 (a.u.) for type    1
     new r_m :   0.1281 (alat units)  2.0402 (a.u.) for type    2
     new r_m :   0.1215 (alat units)  1.9357 (a.u.) for type    3

     Initial potential from superposition of free atoms

     starting charge     949.9776, renormalised to     950.0000

 ==============================================================================
     atom number    1 relative position :    0.2505   0.1441   0.4094
     charge :    12.405941  (integrated on a sphere of radius 0.122)
     magnetization :          0.000000    0.000000   -0.000000
     magnetization/charge:    0.000000    0.000000   -0.000000
     polar coord.: r, theta, phi [deg] :     0.000000  180.000000  360.000000

 ==============================================================================

 ==============================================================================
     atom number    2 relative position :    0.0004  -0.2890   0.4094
     charge :    12.405941  (integrated on a sphere of radius 0.122)
     magnetization :          0.000000    0.000000   -0.000000
     magnetization/charge:    0.000000    0.000000   -0.000000
     polar coord.: r, theta, phi [deg] :     0.000000  180.000000  360.000000

 ==============================================================================

 ==============================================================================
     atom number    3 relative position :   -0.2507   0.1448   0.4082
     charge :    12.407275  (integrated on a sphere of radius 0.122)
     magnetization :          0.000000    0.000000   -0.000000
     magnetization/charge:    0.000000    0.000000   -0.000000
     polar coord.: r, theta, phi [deg] :     0.000000  360.000000  360.000000

 ==============================================================================

 ==============================================================================
     atom number    4 relative position :    0.4997  -0.2885   0.4077
     charge :    12.408730  (integrated on a sphere of radius 0.122)
     magnetization :          0.000000    0.000000    0.000000
     magnetization/charge:    0.000000    0.000000    0.000000
     polar coord.: r, theta, phi [deg] :     0.000000    0.000000  360.000000

 ==============================================================================

 ==============================================================================
     atom number    5 relative position :   -0.0075   0.0043   0.8158
     charge :    12.402014  (integrated on a sphere of radius 0.122)
     magnetization :          0.000000    0.000000   -0.000000
     magnetization/charge:    0.000000    0.000000   -0.000000
     polar coord.: r, theta, phi [deg] :     0.000000  360.000000  360.000000

 ==============================================================================

 ==============================================================================
     atom number    6 relative position :   -0.2516  -0.4321   0.8194
     charge :    12.404744  (integrated on a sphere of radius 0.122)
     magnetization :          0.000000    0.000000    0.000000
     magnetization/charge:    0.000000    0.000000    0.000000
     polar coord.: r, theta, phi [deg] :     0.000000    0.000000  360.000000

 ==============================================================================

 ==============================================================================
     atom number    7 relative position :   -0.4976  -0.0037   0.8189
     charge :    12.406574  (integrated on a sphere of radius 0.122)
     magnetization :          0.000000    0.000000    0.000000
     magnetization/charge:    0.000000    0.000000    0.000000
     polar coord.: r, theta, phi [deg] :     0.000000  360.000000  360.000000

 ==============================================================================

 ==============================================================================
     atom number    8 relative position :   -0.2456   0.4328   0.8189
     charge :    12.406574  (integrated on a sphere of radius 0.122)
     magnetization :          0.000000    0.000000    0.000000
     magnetization/charge:    0.000000    0.000000    0.000000
     polar coord.: r, theta, phi [deg] :     0.000000  360.000000  360.000000

 ==============================================================================

 ==============================================================================
     atom number    9 relative position :   -0.0001   0.0001  -0.0006
     charge :    12.429191  (integrated on a sphere of radius 0.122)
     magnetization :          0.000000    0.000000    0.000000
     magnetization/charge:    0.000000    0.000000    0.000000
     polar coord.: r, theta, phi [deg] :     0.000000    0.000000  360.000000

 ==============================================================================

 ==============================================================================
     atom number   10 relative position :   -0.2505  -0.4327  -0.0003
     charge :    12.427963  (integrated on a sphere of radius 0.122)
     magnetization :          0.000000    0.000000   -0.000000
     magnetization/charge:    0.000000    0.000000   -0.000000
     polar coord.: r, theta, phi [deg] :     0.000000  360.000000  360.000000

 ==============================================================================

 ==============================================================================
     atom number   11 relative position :   -0.4997  -0.0003  -0.0003
     charge :    12.427923  (integrated on a sphere of radius 0.122)
     magnetization :          0.000000    0.000000   -0.000000
     magnetization/charge:    0.000000    0.000000   -0.000000
     polar coord.: r, theta, phi [deg] :     0.000000  360.000000  360.000000

 ==============================================================================

 ==============================================================================
     atom number   12 relative position :    0.2504  -0.4331  -0.0003
     charge :    12.427923  (integrated on a sphere of radius 0.122)
     magnetization :          0.000000    0.000000   -0.000000
     magnetization/charge:    0.000000    0.000000   -0.000000
     polar coord.: r, theta, phi [deg] :     0.000000  360.000000  360.000000

 ==============================================================================

 ==============================================================================
     atom number   13 relative position :    0.0013   0.2845   1.6375
     charge :    12.410052  (integrated on a sphere of radius 0.122)
     magnetization :          0.000000    0.000000    0.000083
     magnetization/charge:    0.000000    0.000000    0.000007
     polar coord.: r, theta, phi [deg] :     0.000083    0.000000  360.000000

 ==============================================================================

 ==============================================================================
     atom number   14 relative position :   -0.2458  -0.1433   1.6375
     charge :    12.410052  (integrated on a sphere of radius 0.122)
     magnetization :          0.000000    0.000000    0.000083
     magnetization/charge:    0.000000    0.000000    0.000007
     polar coord.: r, theta, phi [deg] :     0.000083    0.000000  360.000000

 ==============================================================================

 ==============================================================================
     atom number   15 relative position :   -0.5132   0.2963   1.6708
     charge :    12.432805  (integrated on a sphere of radius 0.122)
     magnetization :          0.000000    0.000000    0.022517
     magnetization/charge:    0.000000    0.000000    0.001811
     polar coord.: r, theta, phi [deg] :     0.022517    0.000000  360.000000

 ==============================================================================

 ==============================================================================
     atom number   16 relative position :    0.2497  -0.1441   1.6345
     charge :    12.416331  (integrated on a sphere of radius 0.122)
     magnetization :          0.000000    0.000000    0.000079
     magnetization/charge:    0.000000    0.000000    0.000006
     polar coord.: r, theta, phi [deg] :     0.000079    0.000000  360.000000

 ==============================================================================

 ==============================================================================
     atom number   17 relative position :    0.2301   0.1081  -1.6733
     charge :    12.434983  (integrated on a sphere of radius 0.122)
     magnetization :          0.000000    0.000000    0.014553
     magnetization/charge:    0.000000    0.000000    0.001170
     polar coord.: r, theta, phi [deg] :     0.014553    0.000000  360.000000

 ==============================================================================

 ==============================================================================
     atom number   18 relative position :    0.0214  -0.2534  -1.6733
     charge :    12.434983  (integrated on a sphere of radius 0.122)
     magnetization :          0.000000    0.000000    0.014553
     magnetization/charge:    0.000000    0.000000    0.001170
     polar coord.: r, theta, phi [deg] :     0.014553    0.000000  360.000000

 ==============================================================================

 ==============================================================================
     atom number   19 relative position :   -0.2363   0.1364  -1.6762
     charge :    12.432390  (integrated on a sphere of radius 0.122)
     magnetization :          0.000000    0.000000    0.030185
     magnetization/charge:    0.000000    0.000000    0.002428
     polar coord.: r, theta, phi [deg] :     0.030185    0.000000  360.000000

 ==============================================================================

 ==============================================================================
     atom number   20 relative position :    0.5183  -0.2993  -1.6343
     charge :    12.408436  (integrated on a sphere of radius 0.122)
     magnetization :          0.000000    0.000000    0.000217
     magnetization/charge:    0.000000    0.000000    0.000018
     polar coord.: r, theta, phi [deg] :     0.000217    0.000000  360.000000

 ==============================================================================

 ==============================================================================
     atom number   21 relative position :    0.2527   0.1448   1.2292
     charge :    12.426305  (integrated on a sphere of radius 0.122)
     magnetization :          0.000000    0.000000   -0.000000
     magnetization/charge:    0.000000    0.000000   -0.000000
     polar coord.: r, theta, phi [deg] :     0.000000  180.000000  360.000000

 ==============================================================================

 ==============================================================================
     atom number   22 relative position :    0.0009  -0.2912   1.2292
     charge :    12.426305  (integrated on a sphere of radius 0.122)
     magnetization :          0.000000    0.000000   -0.000000
     magnetization/charge:    0.000000    0.000000   -0.000000
     polar coord.: r, theta, phi [deg] :     0.000000  180.000000  360.000000

 ==============================================================================

 ==============================================================================
     atom number   23 relative position :   -0.2506   0.1447   1.2288
     charge :    12.427273  (integrated on a sphere of radius 0.122)
     magnetization :          0.000000    0.000000   -0.000000
     magnetization/charge:    0.000000    0.000000   -0.000000
     polar coord.: r, theta, phi [deg] :     0.000000  180.000000  360.000000

 ==============================================================================

 ==============================================================================
     atom number   24 relative position :    0.4948  -0.2857   1.2287
     charge :    12.423417  (integrated on a sphere of radius 0.122)
     magnetization :          0.000000    0.000000   -0.000000
     magnetization/charge:    0.000000    0.000000   -0.000000
     polar coord.: r, theta, phi [deg] :     0.000000  360.000000  360.000000

 ==============================================================================

 ==============================================================================
     atom number   25 relative position :    0.0033  -0.0019  -0.8114
     charge :    12.402151  (integrated on a sphere of radius 0.122)
     magnetization :          0.000000    0.000000    0.000000
     magnetization/charge:    0.000000    0.000000    0.000000
     polar coord.: r, theta, phi [deg] :     0.000000  360.000000  360.000000

 ==============================================================================

 ==============================================================================
     atom number   26 relative position :   -0.2580  -0.4284  -0.8145
     charge :    12.409139  (integrated on a sphere of radius 0.122)
     magnetization :          0.000000    0.000000    0.000000
     magnetization/charge:    0.000000    0.000000    0.000000
     polar coord.: r, theta, phi [deg] :     0.000000    0.000000  360.000000

 ==============================================================================

 ==============================================================================
     atom number   27 relative position :    0.4956  -0.0041  -0.8147
     charge :    12.411287  (integrated on a sphere of radius 0.122)
     magnetization :          0.000000    0.000000   -0.000000
     magnetization/charge:    0.000000    0.000000   -0.000000
     polar coord.: r, theta, phi [deg] :     0.000000  180.000000  360.000000

 ==============================================================================

 ==============================================================================
     atom number   28 relative position :    0.2513  -0.4271  -0.8147
     charge :    12.411286  (integrated on a sphere of radius 0.122)
     magnetization :          0.000000    0.000000   -0.000000
     magnetization/charge:    0.000000    0.000000   -0.000000
     polar coord.: r, theta, phi [deg] :     0.000000  180.000000  360.000000

 ==============================================================================

 ==============================================================================
     atom number   29 relative position :    0.0003   0.2876  -0.4108
     charge :    12.405960  (integrated on a sphere of radius 0.122)
     magnetization :          0.000000    0.000000   -0.000000
     magnetization/charge:    0.000000    0.000000   -0.000000
     polar coord.: r, theta, phi [deg] :     0.000000  180.000000  360.000000

 ==============================================================================

 ==============================================================================
     atom number   30 relative position :   -0.2489  -0.1441  -0.4108
     charge :    12.405960  (integrated on a sphere of radius 0.122)
     magnetization :          0.000000    0.000000   -0.000000
     magnetization/charge:    0.000000    0.000000   -0.000000
     polar coord.: r, theta, phi [deg] :     0.000000  180.000000  360.000000

 ==============================================================================

 ==============================================================================
     atom number   31 relative position :   -0.5001   0.2888  -0.4100
     charge :    12.404380  (integrated on a sphere of radius 0.122)
     magnetization :          0.000000    0.000000   -0.000000
     magnetization/charge:    0.000000    0.000000   -0.000000
     polar coord.: r, theta, phi [deg] :     0.000000  180.000000  360.000000

 ==============================================================================

 ==============================================================================
     atom number   32 relative position :    0.2489  -0.1437  -0.4106
     charge :    12.405999  (integrated on a sphere of radius 0.122)
     magnetization :          0.000000    0.000000    0.000000
     magnetization/charge:    0.000000    0.000000    0.000000
     polar coord.: r, theta, phi [deg] :     0.000000  360.000000  360.000000

 ==============================================================================

 ==============================================================================
     atom number   33 relative position :   -0.0037   0.2885  -1.2168
     charge :    12.422333  (integrated on a sphere of radius 0.122)
     magnetization :          0.000000    0.000000    0.000006
     magnetization/charge:    0.000000    0.000000    0.000001
     polar coord.: r, theta, phi [deg] :     0.000006    0.000000  360.000000

 ==============================================================================

 ==============================================================================
     atom number   34 relative position :   -0.2517  -0.1410  -1.2168
     charge :    12.422333  (integrated on a sphere of radius 0.122)
     magnetization :          0.000000    0.000000    0.000006
     magnetization/charge:    0.000000    0.000000    0.000001
     polar coord.: r, theta, phi [deg] :     0.000006    0.000000  360.000000

 ==============================================================================

 ==============================================================================
     atom number   35 relative position :   -0.4980   0.2875  -1.2137
     charge :    12.417863  (integrated on a sphere of radius 0.122)
     magnetization :          0.000000    0.000000    0.000532
     magnetization/charge:    0.000000    0.000000    0.000043
     polar coord.: r, theta, phi [deg] :     0.000532    0.000000  360.000000

 ==============================================================================

 ==============================================================================
     atom number   36 relative position :    0.2438  -0.1407  -1.2138
     charge :    12.425870  (integrated on a sphere of radius 0.122)
     magnetization :          0.000000    0.000000    0.000006
     magnetization/charge:    0.000000    0.000000    0.000000
     polar coord.: r, theta, phi [deg] :     0.000006    0.000000  360.000000

 ==============================================================================

 ==============================================================================
     atom number   37 relative position :    0.0001   0.2880   1.0116
     charge :    11.945804  (integrated on a sphere of radius 0.128)
     magnetization :          0.000000    0.000000   -0.000000
     magnetization/charge:    0.000000    0.000000   -0.000000
     polar coord.: r, theta, phi [deg] :     0.000000  360.000000  360.000000

 ==============================================================================

 ==============================================================================
     atom number   38 relative position :   -0.2494  -0.1441   1.0116
     charge :    11.945804  (integrated on a sphere of radius 0.128)
     magnetization :          0.000000    0.000000   -0.000000
     magnetization/charge:    0.000000    0.000000   -0.000000
     polar coord.: r, theta, phi [deg] :     0.000000  360.000000  360.000000

 ==============================================================================

 ==============================================================================
     atom number   39 relative position :   -0.4992   0.2882   1.0017
     charge :    11.941815  (integrated on a sphere of radius 0.128)
     magnetization :          0.000000    0.000000    0.000000
     magnetization/charge:    0.000000    0.000000    0.000000
     polar coord.: r, theta, phi [deg] :     0.000000    0.000000  360.000000

 ==============================================================================

 ==============================================================================
     atom number   40 relative position :    0.2491  -0.1438   1.0063
     charge :    11.940072  (integrated on a sphere of radius 0.128)
     magnetization :          0.000000    0.000000    0.000000
     magnetization/charge:    0.000000    0.000000    0.000000
     polar coord.: r, theta, phi [deg] :     0.000000    0.000000  360.000000

 ==============================================================================

 ==============================================================================
     atom number   41 relative position :    0.0001   0.2888   0.2214
     charge :    11.945366  (integrated on a sphere of radius 0.128)
     magnetization :          0.000000    0.000000   -0.000000
     magnetization/charge:    0.000000    0.000000   -0.000000
     polar coord.: r, theta, phi [deg] :     0.000000  360.000000  360.000000

 ==============================================================================

 ==============================================================================
     atom number   42 relative position :   -0.2501  -0.1444   0.2214
     charge :    11.945366  (integrated on a sphere of radius 0.128)
     magnetization :          0.000000    0.000000   -0.000000
     magnetization/charge:    0.000000    0.000000   -0.000000
     polar coord.: r, theta, phi [deg] :     0.000000  360.000000  360.000000

 ==============================================================================

 ==============================================================================
     atom number   43 relative position :   -0.5001   0.2887   0.2204
     charge :    11.946026  (integrated on a sphere of radius 0.128)
     magnetization :          0.000000    0.000000   -0.000000
     magnetization/charge:    0.000000    0.000000   -0.000000
     polar coord.: r, theta, phi [deg] :     0.000000  180.000000  360.000000

 ==============================================================================

 ==============================================================================
     atom number   44 relative position :    0.2500  -0.1444   0.2210
     charge :    11.945818  (integrated on a sphere of radius 0.128)
     magnetization :          0.000000    0.000000   -0.000000
     magnetization/charge:    0.000000    0.000000   -0.000000
     polar coord.: r, theta, phi [deg] :     0.000000  360.000000  360.000000

 ==============================================================================

 ==============================================================================
     atom number   45 relative position :   -0.0184   0.0106  -1.4081
     charge :    11.936098  (integrated on a sphere of radius 0.128)
     magnetization :          0.000000    0.000000    0.000062
     magnetization/charge:    0.000000    0.000000    0.000005
     polar coord.: r, theta, phi [deg] :     0.000062    0.000000  360.000000

 ==============================================================================

 ==============================================================================
     atom number   46 relative position :   -0.2006  -0.4615  -1.5094
     charge :    11.961820  (integrated on a sphere of radius 0.128)
     magnetization :          0.000000    0.000000    0.027018
     magnetization/charge:    0.000000    0.000000    0.002259
     polar coord.: r, theta, phi [deg] :     0.027018    0.000000  360.000000

 ==============================================================================

 ==============================================================================
     atom number   47 relative position :   -0.5241   0.0011  -1.4777
     charge :    11.936893  (integrated on a sphere of radius 0.128)
     magnetization :          0.000000    0.000000    0.009463
     magnetization/charge:    0.000000    0.000000    0.000793
     polar coord.: r, theta, phi [deg] :     0.009463    0.000000  360.000000

 ==============================================================================

 ==============================================================================
     atom number   48 relative position :   -0.2630   0.4533  -1.4777
     charge :    11.936893  (integrated on a sphere of radius 0.128)
     magnetization :          0.000000    0.000000    0.009463
     magnetization/charge:    0.000000    0.000000    0.000793
     polar coord.: r, theta, phi [deg] :     0.009463    0.000000  360.000000

 ==============================================================================

 ==============================================================================
     atom number   49 relative position :    0.0008  -0.0005   1.4407
     charge :    11.947077  (integrated on a sphere of radius 0.128)
     magnetization :          0.000000    0.000000   -0.000000
     magnetization/charge:    0.000000    0.000000   -0.000000
     polar coord.: r, theta, phi [deg] :     0.000000  360.000000  360.000000

 ==============================================================================

 ==============================================================================
     atom number   50 relative position :   -0.2506  -0.4327   1.4549
     charge :    11.940004  (integrated on a sphere of radius 0.128)
     magnetization :          0.000000    0.000000    0.000054
     magnetization/charge:    0.000000    0.000000    0.000004
     polar coord.: r, theta, phi [deg] :     0.000054    0.000000  360.000000

 ==============================================================================

 ==============================================================================
     atom number   51 relative position :    0.5003   0.0009   1.4598
     charge :    11.935839  (integrated on a sphere of radius 0.128)
     magnetization :          0.000000    0.000000    0.000072
     magnetization/charge:    0.000000    0.000000    0.000006
     polar coord.: r, theta, phi [deg] :     0.000072    0.000000  360.000000

 ==============================================================================

 ==============================================================================
     atom number   52 relative position :    0.2493  -0.4337   1.4598
     charge :    11.935839  (integrated on a sphere of radius 0.128)
     magnetization :          0.000000    0.000000    0.000072
     magnetization/charge:    0.000000    0.000000    0.000006
     polar coord.: r, theta, phi [deg] :     0.000072    0.000000  360.000000

 ==============================================================================

 ==============================================================================
     atom number   53 relative position :    0.2494   0.1440  -0.2204
     charge :    11.944966  (integrated on a sphere of radius 0.128)
     magnetization :          0.000000    0.000000    0.000000
     magnetization/charge:    0.000000    0.000000    0.000000
     polar coord.: r, theta, phi [deg] :     0.000000  360.000000  360.000000

 ==============================================================================

 ==============================================================================
     atom number   54 relative position :    0.0000  -0.2880  -0.2204
     charge :    11.944966  (integrated on a sphere of radius 0.128)
     magnetization :          0.000000    0.000000    0.000000
     magnetization/charge:    0.000000    0.000000    0.000000
     polar coord.: r, theta, phi [deg] :     0.000000  360.000000  360.000000

 ==============================================================================

 ==============================================================================
     atom number   55 relative position :   -0.2494   0.1440  -0.2209
     charge :    11.944378  (integrated on a sphere of radius 0.128)
     magnetization :          0.000000    0.000000    0.000000
     magnetization/charge:    0.000000    0.000000    0.000000
     polar coord.: r, theta, phi [deg] :     0.000000  360.000000  360.000000

 ==============================================================================

 ==============================================================================
     atom number   56 relative position :    0.5000  -0.2887  -0.2231
     charge :    11.942155  (integrated on a sphere of radius 0.128)
     magnetization :          0.000000    0.000000    0.000000
     magnetization/charge:    0.000000    0.000000    0.000000
     polar coord.: r, theta, phi [deg] :     0.000000    0.000000  360.000000

 ==============================================================================

 ==============================================================================
     atom number   57 relative position :    0.2477   0.1473  -1.0059
     charge :    11.950100  (integrated on a sphere of radius 0.128)
     magnetization :          0.000000    0.000000    0.000000
     magnetization/charge:    0.000000    0.000000    0.000000
     polar coord.: r, theta, phi [deg] :     0.000000    0.000000  360.000000

 ==============================================================================

 ==============================================================================
     atom number   58 relative position :   -0.0037  -0.2881  -1.0059
     charge :    11.950100  (integrated on a sphere of radius 0.128)
     magnetization :          0.000000    0.000000    0.000000
     magnetization/charge:    0.000000    0.000000    0.000000
     polar coord.: r, theta, phi [deg] :     0.000000    0.000000  360.000000

 ==============================================================================

 ==============================================================================
     atom number   59 relative position :   -0.2491   0.1438  -1.0053
     charge :    11.945776  (integrated on a sphere of radius 0.128)
     magnetization :          0.000000    0.000000    0.000000
     magnetization/charge:    0.000000    0.000000    0.000000
     polar coord.: r, theta, phi [deg] :     0.000000    0.000000  360.000000

 ==============================================================================

 ==============================================================================
     atom number   60 relative position :    0.4937  -0.2850  -0.9890
     charge :    11.969907  (integrated on a sphere of radius 0.128)
     magnetization :          0.000000    0.000000   -0.000000
     magnetization/charge:    0.000000    0.000000   -0.000000
     polar coord.: r, theta, phi [deg] :     0.000000  360.000000  360.000000

 ==============================================================================

 ==============================================================================
     atom number   61 relative position :    0.0096  -0.5829   1.9790
     charge :    12.032094  (integrated on a sphere of radius 0.122)
     magnetization :          0.000000    0.000000    5.868714
     magnetization/charge:    0.000000    0.000000    0.487755
     polar coord.: r, theta, phi [deg] :     5.868714    0.000000  360.000000

 ==============================================================================
     Starting wfcs are 1100 randomized atomic wfcs +   40 random wfcs

     total cpu time spent up to now is      828.2 secs

     Self-consistent Calculation

     iteration #  1     ecut=    50.00 Ry     beta= 0.20
     Davidson diagonalization with overlap

---- Real-time Memory Report at c_bands before calling an iterative solver
         16574 MiB given to the printing process from OS
             0 MiB allocation reported by mallinfo(arena+hblkhd)
        111938 MiB available memory on the node where the printing process lives
------------------
     ethr =  1.00E-02,  avg # of iterations =  8.2

     Threshold (ethr) on eigenvalues was too large:
     Diagonalizing with lowered threshold

     Davidson diagonalization with overlap

---- Real-time Memory Report at c_bands before calling an iterative solver
         24853 MiB given to the printing process from OS
             0 MiB allocation reported by mallinfo(arena+hblkhd)
        111765 MiB available memory on the node where the printing process lives
------------------
     ethr =  2.82E-04,  avg # of iterations =  6.8

     total cpu time spent up to now is     7965.5 secs

     total energy              =   -9820.51943043 Ry
     estimated scf accuracy    <       2.58211351 Ry

     total magnetization       =     0.00    -0.00     3.98 Bohr mag/cell
     absolute magnetization    =     4.70 Bohr mag/cell

     iteration #  2     ecut=    50.00 Ry     beta= 0.20
     Davidson diagonalization with overlap

---- Real-time Memory Report at c_bands before calling an iterative solver
         24888 MiB given to the printing process from OS
             0 MiB allocation reported by mallinfo(arena+hblkhd)
        111598 MiB available memory on the node where the printing process lives
------------------
     ethr =  2.72E-04,  avg # of iterations =  1.0

     total cpu time spent up to now is    10236.3 secs

     total energy              =   -9820.41619193 Ry
     estimated scf accuracy    <       1.45625252 Ry

     total magnetization       =    -0.00     0.00     4.18 Bohr mag/cell
     absolute magnetization    =     4.86 Bohr mag/cell

     iteration #  3     ecut=    50.00 Ry     beta= 0.20
     Davidson diagonalization with overlap

---- Real-time Memory Report at c_bands before calling an iterative solver
         24969 MiB given to the printing process from OS
             0 MiB allocation reported by mallinfo(arena+hblkhd)
        111520 MiB available memory on the node where the printing process lives
------------------
     ethr =  1.53E-04,  avg # of iterations =  2.0

     total cpu time spent up to now is    12770.2 secs

     total energy              =   -9820.53401186 Ry
     estimated scf accuracy    <       0.19439497 Ry

     total magnetization       =    -0.01     0.01     4.39 Bohr mag/cell
     absolute magnetization    =     4.86 Bohr mag/cell

     iteration #  4     ecut=    50.00 Ry     beta= 0.20
     Davidson diagonalization with overlap

---- Real-time Memory Report at c_bands before calling an iterative solver
         25045 MiB given to the printing process from OS
             0 MiB allocation reported by mallinfo(arena+hblkhd)
        111445 MiB available memory on the node where the printing process lives
------------------
     c_bands:  1 eigenvalues not converged
     c_bands:  1 eigenvalues not converged
     ethr =  2.05E-05,  avg # of iterations = 19.7

     total cpu time spent up to now is    16806.3 secs

     total energy              =   -9820.52444862 Ry
     estimated scf accuracy    <       0.10175433 Ry

     total magnetization       =    -0.01     0.01     4.38 Bohr mag/cell
     absolute magnetization    =     4.88 Bohr mag/cell

     iteration #  5     ecut=    50.00 Ry     beta= 0.20
     Davidson diagonalization with overlap

---- Real-time Memory Report at c_bands before calling an iterative solver
         25123 MiB given to the printing process from OS
             0 MiB allocation reported by mallinfo(arena+hblkhd)
        111360 MiB available memory on the node where the printing process lives
------------------
     ethr =  1.07E-05,  avg # of iterations =  6.7

     total cpu time spent up to now is    19889.9 secs

     total energy              =   -9820.53779409 Ry
     estimated scf accuracy    <       0.01433762 Ry

     total magnetization       =    -0.02     0.01     4.30 Bohr mag/cell
     absolute magnetization    =     4.88 Bohr mag/cell

     iteration #  6     ecut=    50.00 Ry     beta= 0.20
     Davidson diagonalization with overlap

---- Real-time Memory Report at c_bands before calling an iterative solver
         25198 MiB given to the printing process from OS
             0 MiB allocation reported by mallinfo(arena+hblkhd)
        111285 MiB available memory on the node where the printing process lives
------------------
     c_bands:  2 eigenvalues not converged
     ethr =  1.51E-06,  avg # of iterations = 16.2

     total cpu time spent up to now is    25668.6 secs

     total energy              =   -9820.54047739 Ry
     estimated scf accuracy    <       0.01457496 Ry

     total magnetization       =    -0.02     0.01     4.33 Bohr mag/cell
     absolute magnetization    =     4.88 Bohr mag/cell

     iteration #  7     ecut=    50.00 Ry     beta= 0.20
     Davidson diagonalization with overlap

---- Real-time Memory Report at c_bands before calling an iterative solver
         25287 MiB given to the printing process from OS
             0 MiB allocation reported by mallinfo(arena+hblkhd)
        111201 MiB available memory on the node where the printing process lives
------------------
     ethr =  1.51E-06,  avg # of iterations =  2.0

     total cpu time spent up to now is    28174.3 secs

     total energy              =   -9820.54110964 Ry
     estimated scf accuracy    <       0.00590458 Ry

     total magnetization       =    -0.02     0.01     4.35 Bohr mag/cell
     absolute magnetization    =     4.93 Bohr mag/cell

     iteration #  8     ecut=    50.00 Ry     beta= 0.20
     Davidson diagonalization with overlap

---- Real-time Memory Report at c_bands before calling an iterative solver
         25362 MiB given to the printing process from OS
             0 MiB allocation reported by mallinfo(arena+hblkhd)
        111134 MiB available memory on the node where the printing process lives
------------------
     ethr =  6.22E-07,  avg # of iterations =  2.0

     total cpu time spent up to now is    30663.3 secs

     total energy              =   -9820.54031432 Ry
     estimated scf accuracy    <       0.00930906 Ry

     total magnetization       =    -0.02     0.01     4.38 Bohr mag/cell
     absolute magnetization    =     4.96 Bohr mag/cell

     iteration #  9     ecut=    50.00 Ry     beta= 0.20
     Davidson diagonalization with overlap

---- Real-time Memory Report at c_bands before calling an iterative solver
         25437 MiB given to the printing process from OS
             0 MiB allocation reported by mallinfo(arena+hblkhd)
        111062 MiB available memory on the node where the printing process lives
------------------
     ethr =  6.22E-07,  avg # of iterations =  2.7

     total cpu time spent up to now is    33252.5 secs

     total energy              =   -9820.54022467 Ry
     estimated scf accuracy    <       0.00342761 Ry

     total magnetization       =    -0.02     0.01     4.36 Bohr mag/cell
     absolute magnetization    =     5.00 Bohr mag/cell

     iteration # 10     ecut=    50.00 Ry     beta= 0.20
     Davidson diagonalization with overlap

---- Real-time Memory Report at c_bands before calling an iterative solver
         25513 MiB given to the printing process from OS
             0 MiB allocation reported by mallinfo(arena+hblkhd)
        110995 MiB available memory on the node where the printing process lives
------------------
     c_bands:  1 eigenvalues not converged
     ethr =  3.61E-07,  avg # of iterations =  9.7

     total cpu time spent up to now is    36334.2 secs

     total energy              =   -9820.54110553 Ry
     estimated scf accuracy    <       0.01243658 Ry

     total magnetization       =    -0.03     0.02     4.40 Bohr mag/cell
     absolute magnetization    =     5.08 Bohr mag/cell

     iteration # 11     ecut=    50.00 Ry     beta= 0.20
     Davidson diagonalization with overlap

---- Real-time Memory Report at c_bands before calling an iterative solver
         25588 MiB given to the printing process from OS
             0 MiB allocation reported by mallinfo(arena+hblkhd)
        110994 MiB available memory on the node where the printing process lives
------------------
     ethr =  3.61E-07,  avg # of iterations =  4.5

     total cpu time spent up to now is    39156.0 secs

     total energy              =   -9820.54215200 Ry
     estimated scf accuracy    <       0.00163837 Ry

     total magnetization       =    -0.03     0.02     4.39 Bohr mag/cell
     absolute magnetization    =     5.18 Bohr mag/cell

     iteration # 12     ecut=    50.00 Ry     beta= 0.20
     Davidson diagonalization with overlap

---- Real-time Memory Report at c_bands before calling an iterative solver
         25589 MiB given to the printing process from OS
             0 MiB allocation reported by mallinfo(arena+hblkhd)
        110991 MiB available memory on the node where the printing process lives
------------------
     c_bands:  2 eigenvalues not converged
     ethr =  1.72E-07,  avg # of iterations = 11.6

     total cpu time spent up to now is    42485.2 secs

     total energy              =   -9820.54380837 Ry
     estimated scf accuracy    <       0.00013791 Ry

     total magnetization       =    -0.03     0.02     4.38 Bohr mag/cell
     absolute magnetization    =     5.34 Bohr mag/cell

     iteration # 13     ecut=    50.00 Ry     beta= 0.20
     Davidson diagonalization with overlap

---- Real-time Memory Report at c_bands before calling an iterative solver
         25589 MiB given to the printing process from OS
             0 MiB allocation reported by mallinfo(arena+hblkhd)
        110979 MiB available memory on the node where the printing process lives
------------------
     ethr =  1.45E-08,  avg # of iterations =  5.6

     total cpu time spent up to now is    46461.8 secs

     total energy              =   -9820.54571844 Ry
     estimated scf accuracy    <       0.00011975 Ry

     total magnetization       =    -0.03     0.02     4.38 Bohr mag/cell
     absolute magnetization    =     5.53 Bohr mag/cell

     iteration # 14     ecut=    50.00 Ry     beta= 0.20
     Davidson diagonalization with overlap

---- Real-time Memory Report at c_bands before calling an iterative solver
         25589 MiB given to the printing process from OS
             0 MiB allocation reported by mallinfo(arena+hblkhd)
        111290 MiB available memory on the node where the printing process lives
------------------
     ethr =  1.26E-08,  avg # of iterations =  5.0

     total cpu time spent up to now is    50304.0 secs

     total energy              =   -9820.54755314 Ry
     estimated scf accuracy    <       0.00005326 Ry

     total magnetization       =    -0.03     0.02     4.37 Bohr mag/cell
     absolute magnetization    =     5.78 Bohr mag/cell

     iteration # 15     ecut=    50.00 Ry     beta= 0.20
     Davidson diagonalization with overlap

---- Real-time Memory Report at c_bands before calling an iterative solver
         25589 MiB given to the printing process from OS
             0 MiB allocation reported by mallinfo(arena+hblkhd)
        111293 MiB available memory on the node where the printing process lives
------------------
     ethr =  5.61E-09,  avg # of iterations =  6.2

     total cpu time spent up to now is    54384.7 secs

     total energy              =   -9820.54880922 Ry
     estimated scf accuracy    <       0.00004942 Ry

     total magnetization       =    -0.03     0.02     4.37 Bohr mag/cell
     absolute magnetization    =     5.91 Bohr mag/cell

     iteration # 16     ecut=    50.00 Ry     beta= 0.20
     Davidson diagonalization with overlap

---- Real-time Memory Report at c_bands before calling an iterative solver
         25589 MiB given to the printing process from OS
             0 MiB allocation reported by mallinfo(arena+hblkhd)
        111292 MiB available memory on the node where the printing process lives
------------------
     ethr =  5.20E-09,  avg # of iterations =  4.8

     total cpu time spent up to now is    58335.8 secs

     total energy              =   -9820.54918372 Ry
     estimated scf accuracy    <       0.00004888 Ry

     total magnetization       =    -0.03     0.02     4.37 Bohr mag/cell
     absolute magnetization    =     6.05 Bohr mag/cell

     iteration # 17     ecut=    50.00 Ry     beta= 0.20
     Davidson diagonalization with overlap

---- Real-time Memory Report at c_bands before calling an iterative solver
         25589 MiB given to the printing process from OS
             0 MiB allocation reported by mallinfo(arena+hblkhd)
        111288 MiB available memory on the node where the printing process lives
------------------
