61
Lattice="8.42843558953 0 0 -4.21421779477 7.29923593142 0 0 0 31.0334408416" Properties=species:S:1:pos:R:3:forces:R:3 energy=-133601.231885 ionic_step=0 pbc="T T T"
Te 2.1071095967 1.2155922533 3.4697881303 -0.000145010230283 0.000148352664669 -0.000252225240971
Te 4.2150388535 4.8666328255 3.4697881303 -0.000103615465965 -7.09624531173e-05 -0.000251453909959
Te 6.3213260584 1.2165402929 3.4546426597 0.00025531056502 -4.65369710661e-05 -0.00278784738823
Te -0.000821026 4.8666336141 3.4697881419 0.000201060283832 -0.000282050040108 -0.000540960149851
Te -0.3932879804 0.2270650272 7.5221637433 0.00399703730493 -0.00224328769365 0.00143827522731
Te 2.1071084831 3.6496199444 7.7224689782 1.079863417e-05 -4.47371987044e-05 -0.00215766995131
Te 4.6075058077 0.22706453 7.5221635544 -0.00406028644793 -0.00225974275525 0.00168330137884
Te -2.1071084829 3.19548989 7.5221635544 -2.41683717139e-05 0.00486529891427 0.0018673923804
Te 0 0 0 -0.000204916938893 0.000419604070607 -0.0132144429001
Te 2.1071089138 3.6496196957 0 -8.6903294035e-05 -9.59021558433e-05 -0.0137309775679
Te 4.2142178275 -0 0 0.00036818200313 0.000388750830121 -0.0133309138829
Te -2.1071089138 3.6496196957 -0 2.59681440755e-05 -0.000502393599244 -0.0131195691856
Te 0.5216608809 2.7342612382 13.6680733002 -0.00599272774369 -0.00335631834418 -0.0362139910202
Te 2.1071086966 5.4803369868 13.6680733002 3.0339019811e-05 0.00695123508145 -0.03611474643
Te 3.6925569467 2.7342609875 13.6680736886 0.0058621156923 -0.00328407033938 -0.0362965234385
Te -2.1071086966 6.0826993675 14.8009439732 -9.59021558433e-05 -0.000182291229204 -0.0282507696508
Te 2.107109131 1.8189024046 17.3653639252 -0.000239883944777 -0.00382451626855 -0.00161722402213
Te 3.6925569467 4.5649781531 17.3653639252 0.00341982459751 0.00211961762137 -0.0017318952326
Te 6.3213265241 1.216540024 16.2324932524 0.000145524450958 -3.5738336896e-05 -0.0208966426707
Te 0.521660881 4.5649784036 17.3653635368 -0.00322107830672 0.0017635198041 -0.00149226839816
Te 2.1071086783 0.6769060881 10.8032024964 0.000246054592874 -0.00701165601073 -0.0240079348633
Te 4.6815540807 5.1359767035 10.8032024964 0.00633725559578 0.00309972222747 -0.0240025355463
Te 6.3213269768 1.2165397626 11.3052863363 -6.06780396221e-05 0.00042911715309 -0.0213697256915
Te -0.4673362532 5.1359764316 10.8032029197 -0.00629714638315 0.00332340822099 -0.0240231043733
Te 0.3932879804 -0.2270650273 23.5112734821 6.78771290688e-05 -0.000366382230769 0.0358761480369
Te 2.1071093444 3.6496194471 23.3109682469 -0.000208259373279 0.000324216135438 0.0363438317406
Te 3.8209298472 -0.2270645299 23.5112736709 3.11103508232e-05 -0.000464341269311 0.0358944028708
Te -2.1071093443 4.1037495014 23.5112736709 0.000182548339541 0.000393121705857 0.0356642891189
Te -0.000821026 2.4326065659 27.5636490951 0.00115185431147 0.000529647295006 0.00585543082353
Te 2.1071082308 6.0836471382 27.5636490951 2.72536957625e-05 -0.00106906478283 0.00568882332491
Te 4.2150388535 2.4326057773 27.5636490835 -0.0011747371315 0.000457399290202 0.0059976128401
Te -2.1071082308 6.0826990986 27.5787945656 -2.62252544129e-05 0.000119042086208 0.00589682558785
Te -0.4673362533 2.1632626879 20.230234729 -0.00527153324734 -0.00272408402456 0.0322912586028
Te 2.1071091492 6.6223333036 20.230234729 6.27349223211e-05 0.00570399283481 0.0323097705471
Te 4.6815540806 2.1632629599 20.2302343057 0.00532372664582 -0.00272871201063 0.0323370242428
Te -2.1071091493 6.0826996289 19.7281508896 -3.98521022942e-05 -0.000257881668394 0.0213491568645
Sb -0.0034925528 2.4310616781 9.3841668248 -0.0019499247987 -0.000839722361888 -0.00863839311535
Sb 2.1071103789 6.0867331932 9.3841668248 -8.30466389743e-05 0.00199723310078 -0.00857103020695
Sb 4.2177103803 2.4310633699 9.3841672143 0.00198514891492 -0.000901943063535 -0.00862759448118
Sb -2.1071103789 6.0827003388 8.0356532782 -6.81342394061e-05 -0.000198232070121 -0.000688798593845
Sb 0.0003787553 2.4332958991 1.8868186351 -0.000833037493116 -0.000644318505478 -0.0126855669361
Sb 2.1071111417 6.0822634301 1.8868186351 0.000129326499703 0.000904257056571 -0.0126608843437
Sb 4.2138390723 2.4332984717 1.8868189232 0.000767988577759 -0.000523733757246 -0.0126446863924
Sb -2.1071111417 6.0827007792 1.8920937532 -0.000115185431147 2.57110337382e-05 -0.0129372779564
Sb -0.066743715 0.0385345198 17.916008674 -0.000218543786774 6.7362908394e-05 0.0039438154651
Sb 2.107108188 3.6496201148 19.6536304807 -5.99067086099e-05 0.000197974959784 0.0228121146842
Sb 4.2809615425 0.0385336817 17.9160089192 0.000289506239892 7.63617702023e-05 0.00413690532847
Sb 6.3213274671 3.5725510753 17.9160089192 4.88509641025e-06 -0.000394921478218 0.00414667552129
Sb 0.066743715 -0.0385345198 13.1174285511 -0.00210470522181 0.00117833667622 -0.0328985532197
Sb 2.1071096396 3.6496192767 11.3798067447 6.09351499594e-05 -0.000223685993522 -0.0233422761999
Sb 4.1474741126 -0.0385336817 13.117428306 0.0020874788292 0.00109451870623 -0.0331361231714
Sb -2.1071096396 3.7266883162 13.1174283059 -6.1963591309e-05 -0.00242326492982 -0.0331942301077
Sb 2.1071066858 1.2169759614 29.1466185903 1.38839582186e-05 8.22753079621e-05 -0.00624161055028
Sb 4.2138390722 4.8659434924 29.1466185903 -2.4939702726e-05 0.000151437988718 -0.00617373342121
Sb 6.3213289693 1.2165386123 29.1413434722 -1.7483502942e-05 1.13128548448e-05 -0.005461794897
Sb 0.0003787553 4.8659409197 29.1466183022 9.05028387583e-05 4.73083020782e-05 -0.00631257300339
Sb 2.1071074486 1.2125061983 21.6492704006 -4.9879405452e-05 0.00133260287865 0.0403714651757
Sb 4.2177103803 4.8681777133 21.6492704006 -0.0011747371315 -0.000685199049122 0.0404542547043
Sb 6.3213282064 1.2165390527 22.9977839475 -6.45346946828e-05 -5.29647295006e-05 0.0325409127404
Sb -0.0034925528 4.8681760215 21.6492700114 0.00113025704313 -0.000755904391902 0.0405918087348
Cr 2.1071089138 3.6496196957 15.5167186127 9.82161488798e-05 6.42775843454e-05 -0.0188934960322
