
     Program PWSCF v.7.3.1 starts on 13Sep2026 at 12:56: 3 

     This program is part of the open-source Quantum ESPRESSO suite
     for quantum simulation of materials; please cite
         "P. Giannozzi et al., J. Phys.:Condens. Matter 21 395502 (2009);
         "P. Giannozzi et al., J. Phys.:Condens. Matter 29 465901 (2017);
         "P. Giannozzi et al., J. Chem. Phys. 152 154105 (2020);
          URL http://www.quantum-espresso.org", 
     in publications or presentations arising from this work. More details at
     http://www.quantum-espresso.org/quote

     Parallel version (MPI), running on     2 processors

     MPI processes distributed on     1 nodes
     148257 MiB available memory on the printing compute node when the environment starts
 
     Reading input from relax.in

     Current dimensions of program PWSCF are:
     Max number of different atomic species (ntypx) = 10
     Max number of k-points (npk) =  40000
     Max angular momentum in pseudopotentials (lmaxx) =  4
 
     R & G space division:  proc/nbgrp/npool/nimage =       2
     Subspace diagonalization in iterative solution of the eigenvalue problem:
     a serial algorithm will be used

 
     Parallelization info
     --------------------
     sticks:   dense  smooth     PW     G-vecs:    dense   smooth      PW
     Min        5037    5037   1294              1603625  1603625  211258
     Max        5038    5038   1295              1603634  1603634  211277
     Sum       10075   10075   2589              3207259  3207259  422535
 
     Using Slab Decomposition
 


     bravais-lattice index     =            0
     lattice parameter (alat)  =      32.3306  a.u.
     unit-cell volume          =   40541.4587 (a.u.)^3
     number of atoms/cell      =           81
     number of atomic types    =            3
     number of electrons       =      1262.00
     number of Kohn-Sham states=          757
     kinetic-energy cutoff     =      70.0000  Ry
     charge density cutoff     =     280.0000  Ry
     scf convergence threshold =      1.0E-06
     mixing beta               =       0.4000
     number of iterations used =            8  plain     mixing
     energy convergence thresh.=      1.0E-04
     force convergence thresh. =      1.0E-03
     Exchange-correlation= PBE
                           (   1   4   3   4   0   0   0)
     nstep                     =          200


     celldm(1)=  32.330568  celldm(2)=   0.000000  celldm(3)=   0.000000
     celldm(4)=   0.000000  celldm(5)=   0.000000  celldm(6)=   0.000000

     crystal axes: (cart. coord. in units of alat)
               a(1) = (   1.000000   0.000000   0.000000 )  
               a(2) = (  -0.249533   0.432744   0.000000 )  
               a(3) = (   0.005235   0.003019   2.772225 )  

     reciprocal axes: (cart. coord. in units 2 pi/alat)
               b(1) = (  1.000000  0.576629 -0.002516 )  
               b(2) = (  0.000000  2.310836 -0.002516 )  
               b(3) = (  0.000000  0.000000  0.360721 )  


     PseudoPot. # 1 for Sb read from file:
     /data/pclancy3/yi/ONCVPseudoPack/SG15_v1.2/UPF/PBE/Sb_PBE_FR.SG15v1.2.UPF
     MD5 check sum: 0e999992813bf262e14e71941f404476
     Pseudo is Norm-conserving, Zval = 15.0
     Generated using ONCVPSP code by D. R. Hamann
     Using radial grid of 1468 points,  6 beta functions with: 
                l(1) =   0
                l(2) =   0
                l(3) =   1
                l(4) =   1
                l(5) =   2
                l(6) =   2

     PseudoPot. # 2 for Te read from file:
     /data/pclancy3/yi/ONCVPseudoPack/SG15_v1.2/UPF/PBE/Te_PBE_FR.SG15v1.2.UPF
     MD5 check sum: 7c59b7da87cf03000ce4d32f994025eb
     Pseudo is Norm-conserving, Zval = 16.0
     Generated using ONCVPSP code by D. R. Hamann
     Using radial grid of 1324 points,  6 beta functions with: 
                l(1) =   0
                l(2) =   0
                l(3) =   1
                l(4) =   1
                l(5) =   2
                l(6) =   2

     PseudoPot. # 3 for Cr read from file:
     /data/pclancy3/yi/ONCVPseudoPack/SG15_v1.2/UPF/PBE/Cr_PBE_FR.SG15v1.2.UPF
     MD5 check sum: 19291ff833b3d067f23df56d5404fde6
     Pseudo is Norm-conserving, Zval = 14.0
     Generated using ONCVPSP code by D. R. Hamann
     Using radial grid of 1490 points,  6 beta functions with: 
                l(1) =   0
                l(2) =   0
                l(3) =   1
                l(4) =   1
                l(5) =   2
                l(6) =   2

     atomic species   valence    mass     pseudopotential
     Sb               15.00   121.76000     Sb( 1.00)
     Te               16.00   127.60000     Te( 1.00)
     Cr               14.00    51.99610     Cr( 1.00)

     Starting magnetic structure 
     atomic species   magnetization
     Sb              0.500
     Te              0.000
     Cr              0.000

     No symmetry found


                                    s                        frac. trans.

      isym =  1     identity                                     

 cryst.   s( 1) = (     1          0          0      )
                  (     0          1          0      )
                  (     0          0          1      )

 cart.    s( 1) = (  1.0000000  0.0000000  0.0000000 )
                  (  0.0000000  1.0000000  0.0000000 )
                  (  0.0000000  0.0000000  1.0000000 )


   Cartesian axes

     site n.     atom                  positions (alat units)
         1        Te     tau(   1) = (   0.0006660   0.0004846   0.8647961  )
         2        Te     tau(   2) = (   0.1265569   0.2172989   0.8657362  )
         3        Te     tau(   3) = (   0.2518275   0.0002325   0.8656167  )
         4        Te     tau(   4) = (  -0.1234077   0.2168318   0.8643847  )
         5        Te     tau(   5) = (   0.0021407   0.1446048   1.3002207  )
         6        Te     tau(   6) = (   0.1267516   0.3612367   1.2968788  )
         7        Te     tau(   7) = (   0.2505828   0.1446886   1.2996521  )
         8        Te     tau(   8) = (  -0.1230729   0.3617504   1.3000876  )
         9        Te     tau(   9) = (   0.1258299   0.0725291   1.4681112  )
        10        Te     tau(  10) = (   0.2483922   0.2912718   1.4683897  )
        11        Te     tau(  11) = (   0.3754917   0.0693798   1.4671475  )
        12        Te     tau(  12) = (   0.0072816   0.2913388   1.4679531  )
        13        Te     tau(  13) = (   0.1254146   0.0724928   1.0827385  )
        14        Te     tau(  14) = (   0.2523486   0.2889651   1.0840843  )
        15        Te     tau(  15) = (   0.3765439   0.0735121   1.0841388  )
        16        Te     tau(  16) = (   0.0005054   0.2888863   1.0833890  )
        17        Te     tau(  17) = (   0.0014002   0.0005098   1.9069830  )
        18        Te     tau(  18) = (   0.1266113   0.2169601   1.9074117  )
        19        Te     tau(  19) = (   0.2516736   0.0011503   1.9080750  )
        20        Te     tau(  20) = (  -0.1264223   0.2160524   1.9085689  )
        21        Te     tau(  21) = (   0.0003837   0.1451384   1.6880913  )
        22        Te     tau(  22) = (   0.1272787   0.3614930   1.6976697  )
        23        Te     tau(  23) = (   0.2539165   0.1450212   1.6898836  )
        24        Te     tau(  24) = (  -0.1248989   0.3597751   1.6884304  )
        25        Sb     tau(  25) = (   0.0010477   0.1446471   0.9634330  )
        26        Sb     tau(  26) = (   0.1265584   0.3611051   0.9651007  )
        27        Sb     tau(  27) = (   0.2511938   0.1445122   0.9639427  )
        28        Sb     tau(  28) = (  -0.1239456   0.3608975   0.9632807  )
        29        Sb     tau(  29) = (   0.0001201   0.0004313   1.5697306  )
        30        Sb     tau(  30) = (   0.1257093   0.2070227   1.5806298  )
        31        Sb     tau(  31) = (   0.2405637   0.0051586   1.5802963  )
        32        Sb     tau(  32) = (   0.3752708   0.2167758   1.5690261  )
        33        Sb     tau(  33) = (   0.0013179   0.0004766   1.1989377  )
        34        Sb     tau(  34) = (   0.1266056   0.2170608   1.1977636  )
        35        Sb     tau(  35) = (   0.2508409   0.0013239   1.1971662  )
        36        Sb     tau(  36) = (  -0.1235663   0.2167918   1.1991663  )
        37        Sb     tau(  37) = (   0.1267610   0.0726977   1.8097869  )
        38        Sb     tau(  38) = (   0.2547475   0.2896280   1.8127159  )
        39        Sb     tau(  39) = (   0.3791367   0.0750473   1.8131276  )
        40        Sb     tau(  40) = (  -0.0012011   0.2881834   1.8109824  )
        41        Te     tau(  41) = (   0.5014041   0.0006987   0.8664828  )
        42        Te     tau(  42) = (   0.6265664   0.2175676   0.8660245  )
        43        Te     tau(  43) = (   0.7518655   0.0007028   0.8660315  )
        44        Te     tau(  44) = (   0.3766782   0.2170995   0.8661633  )
        45        Te     tau(  45) = (   0.5018212   0.1448680   1.3009694  )
        46        Te     tau(  46) = (   0.6265578   0.3614159   1.3013396  )
        47        Te     tau(  47) = (   0.7513526   0.1452608   1.3018316  )
        48        Te     tau(  48) = (   0.3764391   0.3618047   1.3010343  )
        49        Te     tau(  49) = (   0.6276885   0.0743961   1.4692787  )
        50        Te     tau(  50) = (   0.7528997   0.2902084   1.4693984  )
        51        Te     tau(  51) = (   0.8774910   0.0745608   1.4691993  )
        52        Te     tau(  52) = (   0.5009080   0.2891350   1.4699600  )
        53        Te     tau(  53) = (   0.6275218   0.0735364   1.0840768  )
        54        Te     tau(  54) = (   0.7517605   0.2891819   1.0848444  )
        55        Te     tau(  55) = (   0.8763278   0.0733778   1.0850023  )
        56        Te     tau(  56) = (   0.5016207   0.2893911   1.0851653  )
        57        Te     tau(  57) = (   0.5051429   0.0019013   1.9083231  )
        58        Te     tau(  58) = (   0.6268020   0.2156921   1.9083268  )
        59        Te     tau(  59) = (   0.7500079   0.0032317   1.9078696  )
        60        Te     tau(  60) = (   0.3799524   0.2186667   1.9116520  )
        61        Te     tau(  61) = (   0.5003075   0.1490989   1.6882668  )
        62        Te     tau(  62) = (   0.6263896   0.3621597   1.6877683  )
        63        Te     tau(  63) = (   0.7540350   0.1466851   1.6859278  )
        64        Te     tau(  64) = (   0.3778947   0.3600458   1.6876333  )
        65        Sb     tau(  65) = (   0.5018884   0.1451823   0.9645203  )
        66        Sb     tau(  66) = (   0.6267219   0.3614619   0.9652288  )
        67        Sb     tau(  67) = (   0.7518890   0.1452404   0.9641725  )
        68        Sb     tau(  68) = (   0.3770248   0.3614674   0.9646344  )
        69        Sb     tau(  69) = (   0.5125701   0.0090333   1.5817727  )
        70        Sb     tau(  70) = (   0.6282420   0.2190973   1.5708913  )
        71        Sb     tau(  71) = (   0.7533457   0.0019340   1.5706385  )
        72        Sb     tau(  72) = (  -0.1215376   0.2182471   1.5704237  )
        73        Sb     tau(  73) = (   0.5020513   0.0011841   1.1978646  )
        74        Sb     tau(  74) = (   0.6263461   0.2171722   1.1999100  )
        75        Sb     tau(  75) = (   0.7512870   0.0008233   1.2001331  )
        76        Sb     tau(  76) = (   0.3767207   0.2172991   1.1999608  )
        77        Sb     tau(  77) = (   0.6272753   0.0739348   1.8052077  )
        78        Sb     tau(  78) = (   0.7495527   0.2886538   1.8101042  )
        79        Sb     tau(  79) = (   0.8751763   0.0727427   1.8102670  )
        80        Sb     tau(  80) = (   0.5040845   0.2911882   1.8119193  )
        81        Cr     tau(  81) = (   0.1284300   0.3634553   1.5413343  )

     --------------------------------------------
     DFT-D3 Dispersion Correction (3-body terms):
     --------------------------------------------
       Reference C6 values for interpolation: 

         atom   Coordination number   C6
         Cr         0.000          1381.48
         Cr         1.827           571.38
         Cr        10.619           306.69
         Sb         0.000           985.88
         Sb         0.975           946.94
         Sb         1.952           896.11
         Sb         2.932           834.76
         Te         0.000           851.07
         Te         0.981           850.20
         Te         1.964           837.16

       Values used:

         atom   Coordination number  R0_AB[au]  C6      C8
         Te         2.758            3.676    837.16  84978.11
         Te         2.764            3.676    837.16  84978.11
         Te         2.762            3.676    837.16  84978.11
         Te         2.760            3.676    837.16  84978.11
         Te         3.024            3.676    837.16  84978.06
         Te         3.092            3.676    837.16  84978.06
         Te         3.023            3.676    837.16  84978.06
         Te         3.015            3.676    837.16  84978.06
         Te         3.073            3.676    837.16  84978.06
         Te         3.502            3.676    837.16  84978.06
         Te         3.490            3.676    837.16  84978.06
         Te         3.595            3.676    837.16  84978.06
         Te         4.270            3.676    837.16  84978.05
         Te         4.258            3.676    837.16  84978.05
         Te         4.261            3.676    837.16  84978.05
         Te         4.254            3.676    837.16  84978.05
         Te         2.777            3.676    837.16  84978.10
         Te         2.755            3.676    837.16  84978.11
         Te         2.752            3.676    837.16  84978.11
         Te         2.788            3.676    837.16  84978.10
         Te         4.228            3.676    837.16  84978.05
         Te         4.601            3.676    837.16  84978.05
         Te         4.305            3.676    837.16  84978.05
         Te         4.248            3.676    837.16  84978.05
         Sb         4.718            3.794    834.76  89580.53
         Sb         4.711            3.794    834.76  89580.53
         Sb         4.711            3.794    834.76  89580.53
         Sb         4.710            3.794    834.76  89580.53
         Sb         4.799            3.794    834.76  89580.53
         Sb         5.530            3.794    834.76  89580.53
         Sb         5.485            3.794    834.76  89580.53
         Sb         4.698            3.794    834.76  89580.53
         Sb         4.863            3.794    834.76  89580.53
         Sb         4.861            3.794    834.76  89580.53
         Sb         4.867            3.794    834.76  89580.53
         Sb         4.863            3.794    834.76  89580.53
         Sb         4.610            3.794    834.76  89580.53
         Sb         4.665            3.794    834.76  89580.53
         Sb         4.674            3.794    834.76  89580.53
         Sb         4.687            3.794    834.76  89580.53
         Te         2.764            3.676    837.16  84978.11
         Te         2.765            3.676    837.16  84978.11
         Te         2.765            3.676    837.16  84978.11
         Te         2.763            3.676    837.16  84978.11
         Te         3.022            3.676    837.16  84978.06
         Te         3.014            3.676    837.16  84978.06
         Te         3.027            3.676    837.16  84978.06
         Te         3.018            3.676    837.16  84978.06
         Te         3.048            3.676    837.16  84978.06
         Te         3.052            3.676    837.16  84978.06
         Te         3.056            3.676    837.16  84978.06
         Te         3.003            3.676    837.16  84978.06
         Te         4.257            3.676    837.16  84978.05
         Te         4.252            3.676    837.16  84978.05
         Te         4.251            3.676    837.16  84978.05
         Te         4.243            3.676    837.16  84978.05
         Te         2.784            3.676    837.16  84978.10
         Te         2.801            3.676    837.16  84978.09
         Te         2.802            3.676    837.16  84978.09
         Te         2.764            3.676    837.16  84978.11
         Te         4.243            3.676    837.16  84978.05
         Te         4.173            3.676    837.16  84978.05
         Te         4.161            3.676    837.16  84978.05
         Te         4.203            3.676    837.16  84978.05
         Sb         4.708            3.794    834.76  89580.53
         Sb         4.706            3.794    834.76  89580.53
         Sb         4.714            3.794    834.76  89580.53
         Sb         4.712            3.794    834.76  89580.53
         Sb         5.390            3.794    834.76  89580.53
         Sb         4.787            3.794    834.76  89580.53
         Sb         4.783            3.794    834.76  89580.53
         Sb         4.809            3.794    834.76  89580.53
         Sb         4.861            3.794    834.76  89580.53
         Sb         4.850            3.794    834.76  89580.53
         Sb         4.844            3.794    834.76  89580.53
         Sb         4.847            3.794    834.76  89580.53
         Sb         4.675            3.794    834.76  89580.53
         Sb         4.688            3.794    834.76  89580.53
         Sb         4.671            3.794    834.76  89580.53
         Sb         4.669            3.794    834.76  89580.53
         Cr         6.458            3.252    306.69  28303.74

         Molecular C6 ( Ry / a.u.^6 ) =   5432393.42


   Crystallographic axes

     site n.     atom                  positions (cryst. coord.)
         1        Te     tau(   1) = ( -0.0012307 -0.0010563  0.3119502  )
         2        Te     tau(   2) = (  0.2496793  0.4999636  0.3122893  )
         3        Te     tau(   3) = (  0.2497834 -0.0016409  0.3122462  )
         4        Te     tau(   4) = ( -0.0005513  0.4988875  0.3118018  )
         5        Te     tau(   5) = (  0.0822522  0.3308861  0.4690170  )
         6        Te     tau(   6) = (  0.3317877  0.8314953  0.4678115  )
         7        Te     tau(   7) = (  0.3307441  0.3310813  0.4688119  )
         8        Te     tau(   8) = (  0.0822514  0.8326743  0.4689690  )
         9        Te     tau(   9) = (  0.1639580  0.1639086  0.5295787  )
        10        Te     tau(  10) = (  0.4126530  0.6693863  0.5296791  )
        11        Te     tau(  11) = (  0.4118062  0.1566336  0.5292311  )
        12        Te     tau(  12) = (  0.1715821  0.6695424  0.5295216  )
        13        Te     tau(  13) = (  0.1644915  0.1647944  0.3905666  )
        14        Te     tau(  14) = (  0.4162464  0.6650231  0.3910521  )
        15        Te     tau(  15) = (  0.4162050  0.1671463  0.3910717  )
        16        Te     tau(  16) = (  0.1643594  0.6648427  0.3908013  )
        17        Te     tau(  17) = ( -0.0031045 -0.0036207  0.6878890  )
        18        Te     tau(  18) = (  0.2469171  0.4965595  0.6880436  )
        19        Te     tau(  19) = (  0.2475355 -0.0021433  0.6882829  )
        20        Te     tau(  20) = ( -0.0066429  0.4944591  0.6884611  )
        21        Te     tau(  21) = (  0.0798269  0.3311433  0.6089301  )
        22        Te     tau(  22) = (  0.3314541  0.8310791  0.6123853  )
        23        Te     tau(  23) = (  0.3332876  0.3308680  0.6095767  )
        24        Te     tau(  24) = (  0.0783092  0.8271326  0.6090525  )
        25        Sb     tau(  25) = (  0.0820311  0.3318314  0.3475306  )
        26        Sb     tau(  26) = (  0.3323535  0.8320261  0.3481322  )
        27        Sb     tau(  27) = (  0.3320982  0.3315184  0.3477144  )
        28        Sb     tau(  28) = (  0.0817345  0.8315510  0.3474757  )
        29        Sb     tau(  29) = ( -0.0035812 -0.0029534  0.5662349  )
        30        Sb     tau(  30) = (  0.2411072  0.4744180  0.5701665  )
        31        Sb     tau(  31) = (  0.2395617  0.0079440  0.5700462  )
        32        Sb     tau(  32) = (  0.4963218  0.4969851  0.5659808  )
        33        Sb     tau(  33) = ( -0.0014242 -0.0019156  0.4324821  )
        34        Sb     tau(  34) = (  0.2487552  0.4985780  0.4320586  )
        35        Sb     tau(  35) = (  0.2485918  0.0000469  0.4318431  )
        36        Sb     tau(  36) = ( -0.0015753  0.4979529  0.4325646  )
        37        Sb     tau(  37) = (  0.1641265  0.1634383  0.6528283  )
        38        Sb     tau(  38) = (  0.4171940  0.6647214  0.6538848  )
        39        Sb     tau(  39) = (  0.4178486  0.1688594  0.6540334  )
        40        Sb     tau(  40) = (  0.1604168  0.6613875  0.6532596  )
        41        Te     tau(  41) = (  0.4996266 -0.0005659  0.3125586  )
        42        Te     tau(  42) = (  0.7498430  0.5005838  0.3123933  )
        43        Te     tau(  43) = (  0.7500915 -0.0005551  0.3123958  )
        44        Te     tau(  44) = (  0.4996845  0.4995017  0.3124434  )
        45        Te     tau(  45) = (  0.5820826  0.3314925  0.4692871  )
        46        Te     tau(  46) = (  0.8316860  0.8318982  0.4694206  )
        47        Te     tau(  47) = (  0.8318384  0.3323981  0.4695981  )
        48        Te     tau(  48) = (  0.5817924  0.8327975  0.4693105  )
        49        Te     tau(  49) = (  0.6668902  0.1682201  0.5299998  )
        50        Te     tau(  50) = (  0.9165448  0.6669265  0.5300430  )
        51        Te     tau(  51) = (  0.9167879  0.1686007  0.5299712  )
        52        Te     tau(  52) = (  0.6639327  0.6644446  0.5302456  )
        53        Te     tau(  53) = (  0.6671971  0.1672026  0.3910494  )
        54        Te     tau(  54) = (  0.9157814  0.6655222  0.3913263  )
        55        Te     tau(  55) = (  0.9159093  0.1668338  0.3913832  )
        56        Te     tau(  56) = (  0.6657613  0.6660047  0.3914420  )
        57        Te     tau(  57) = (  0.5014372 -0.0004085  0.6883724  )
        58        Te     tau(  58) = (  0.7463743  0.4936271  0.6883737  )
        59        Te     tau(  59) = (  0.7470705  0.0026670  0.6882088  )
        60        Te     tau(  60) = (  0.5012315  0.5004925  0.6895732  )
        61        Te     tau(  61) = (  0.5820340  0.3402948  0.6089934  )
        62        Te     tau(  62) = (  0.8309744  0.8326447  0.6088136  )
        63        Te     tau(  63) = (  0.8343755  0.3347228  0.6081497  )
        64        Te     tau(  64) = (  0.5812609  0.8277600  0.6087649  )
        65        Sb     tau(  65) = (  0.5831776  0.3330653  0.3479228  )
        66        Sb     tau(  66) = (  0.8327225  0.8328503  0.3481784  )
        67        Sb     tau(  67) = (  0.8332126  0.3332005  0.3477973  )
        68        Sb     tau(  68) = (  0.5830300  0.8328645  0.3479640  )
        69        Sb     tau(  69) = (  0.5137987  0.0168943  0.5705788  )
        70        Sb     tau(  70) = (  0.7506270  0.5023451  0.5666536  )
        71        Sb     tau(  71) = (  0.7505086  0.0005169  0.5665624  )
        72        Sb     tau(  72) = (  0.0003583  0.5003814  0.5664850  )
        73        Sb     tau(  73) = (  0.4997199 -0.0002779  0.4320950  )
        74        Sb     tau(  74) = (  0.7485545  0.4988300  0.4328329  )
        75        Sb     tau(  75) = (  0.7487418 -0.0011174  0.4329133  )
        76        Sb     tau(  76) = (  0.4990022  0.4991230  0.4328512  )
        77        Sb     tau(  77) = (  0.6653657  0.1663087  0.6511765  )
        78        Sb     tau(  78) = (  0.9114440  0.6624767  0.6529428  )
        79        Sb     tau(  79) = (  0.9125665  0.1635411  0.6530015  )
        80        Sb     tau(  80) = (  0.6674326  0.6683288  0.6535975  )
        81        Cr     tau(  81) = (  0.3341303  0.8360070  0.5559918  )

     number of k points=     4  Marzari-Vanderbilt smearing, width (Ry)=  0.0147
                       cart. coord. in units 2pi/alat
        k(    1) = (   0.2500000   0.7218663   0.0889221), wk =   0.2500000
        k(    2) = (   0.2500000   0.7218663  -0.0914385), wk =   0.2500000
        k(    3) = (   0.2500000  -0.4335517   0.0901803), wk =   0.2500000
        k(    4) = (   0.2500000  -0.4335517  -0.0901803), wk =   0.2500000

                       cryst. coord.
        k(    1) = (   0.2500000   0.2500000   0.2500000), wk =   0.2500000
        k(    2) = (   0.2500000   0.2500000  -0.2500000), wk =   0.2500000
        k(    3) = (   0.2500000  -0.2500000   0.2500000), wk =   0.2500000
        k(    4) = (   0.2500000  -0.2500000  -0.2500000), wk =   0.2500000

     Dense  grid:  3207259 G-vectors     FFT dimensions: ( 180,  90, 480)

     Dynamical RAM for                 wfc:    2315.69 MB

     Dynamical RAM for     wfc (w. buffer):   20841.21 MB

     Dynamical RAM for           str. fact:      73.41 MB

     Dynamical RAM for           local pot:       0.00 MB

     Dynamical RAM for          nlocal pot:    4460.07 MB

     Dynamical RAM for                qrad:       4.03 MB

     Dynamical RAM for          rho,v,vnew:     324.80 MB

     Dynamical RAM for               rhoin:     108.27 MB

     Dynamical RAM for            rho*nmix:     783.02 MB

     Dynamical RAM for           G-vectors:     104.00 MB

     Dynamical RAM for          h,s,v(r/c):     104.93 MB

     Dynamical RAM for          <psi|beta>:      16.84 MB

     Dynamical RAM for                 psi:    4631.38 MB

     Dynamical RAM for                hpsi:    4631.38 MB

     Dynamical RAM for      wfcinit/wfcrot:    4644.50 MB

     Estimated static dynamical RAM per process >      25.58 GB

     Estimated max dynamical RAM per process >      35.51 GB

     Estimated total dynamical RAM >      71.01 GB
     Generating pointlists ...
     new r_m :   0.0664 (alat units)  2.1458 (a.u.) for type    1
     new r_m :   0.0645 (alat units)  2.0852 (a.u.) for type    2
     new r_m :   0.0645 (alat units)  2.0852 (a.u.) for type    3

     Initial potential from superposition of free atoms

     starting charge    1261.9703, renormalised to    1262.0000

     negative rho (up, down):  1.731E-05 9.916E-06
     Starting wfcs are  730 randomized atomic wfcs +   27 random wfcs

     total cpu time spent up to now is     1189.8 secs

     Self-consistent Calculation

     iteration #  1     ecut=    70.00 Ry     beta= 0.40
     Davidson diagonalization with overlap

---- Real-time Memory Report at c_bands before calling an iterative solver
         28609 MiB given to the printing process from OS
             0 MiB allocation reported by mallinfo(arena+hblkhd)
         95557 MiB available memory on the node where the printing process lives
------------------
     ethr =  1.00E-02,  avg # of iterations =  7.6

     total cpu time spent up to now is     5562.0 secs

     total energy              =  -13021.21122538 Ry
     estimated scf accuracy    <      26.03780069 Ry

     total magnetization       =     4.61 Bohr mag/cell
     absolute magnetization    =    32.59 Bohr mag/cell

     iteration #  2     ecut=    70.00 Ry     beta= 0.40
     Davidson diagonalization with overlap

---- Real-time Memory Report at c_bands before calling an iterative solver
         35806 MiB given to the printing process from OS
             0 MiB allocation reported by mallinfo(arena+hblkhd)
         95311 MiB available memory on the node where the printing process lives
------------------
     ethr =  2.06E-03,  avg # of iterations =  9.1

     total cpu time spent up to now is    10034.9 secs

     total energy              =  -13003.96202058 Ry
     estimated scf accuracy    <     854.72213625 Ry

     total magnetization       =    12.27 Bohr mag/cell
     absolute magnetization    =    21.06 Bohr mag/cell

     iteration #  3     ecut=    70.00 Ry     beta= 0.40
     Davidson diagonalization with overlap

---- Real-time Memory Report at c_bands before calling an iterative solver
         35919 MiB given to the printing process from OS
             0 MiB allocation reported by mallinfo(arena+hblkhd)
         95117 MiB available memory on the node where the printing process lives
------------------
     ethr =  2.06E-03,  avg # of iterations =  7.5

     total cpu time spent up to now is    15227.7 secs

     total energy              =  -12997.71020596 Ry
     estimated scf accuracy    <    2407.81700548 Ry

     total magnetization       =    15.40 Bohr mag/cell
     absolute magnetization    =    19.43 Bohr mag/cell

     iteration #  4     ecut=    70.00 Ry     beta= 0.40
     Davidson diagonalization with overlap

---- Real-time Memory Report at c_bands before calling an iterative solver
         36017 MiB given to the printing process from OS
             0 MiB allocation reported by mallinfo(arena+hblkhd)
         94915 MiB available memory on the node where the printing process lives
------------------
     ethr =  2.06E-03,  avg # of iterations =  8.0

     total cpu time spent up to now is    20169.0 secs

     total energy              =  -13020.04268746 Ry
     estimated scf accuracy    <     484.09020398 Ry

     total magnetization       =    25.30 Bohr mag/cell
     absolute magnetization    =    28.01 Bohr mag/cell

     iteration #  5     ecut=    70.00 Ry     beta= 0.40
     Davidson diagonalization with overlap

---- Real-time Memory Report at c_bands before calling an iterative solver
         36117 MiB given to the printing process from OS
             0 MiB allocation reported by mallinfo(arena+hblkhd)
         94716 MiB available memory on the node where the printing process lives
------------------
     ethr =  2.06E-03,  avg # of iterations =  6.0

     total cpu time spent up to now is    24366.8 secs

     total energy              =  -13030.81460395 Ry
     estimated scf accuracy    <      45.49124933 Ry

     total magnetization       =    11.43 Bohr mag/cell
     absolute magnetization    =    23.44 Bohr mag/cell

     iteration #  6     ecut=    70.00 Ry     beta= 0.40
     Davidson diagonalization with overlap

---- Real-time Memory Report at c_bands before calling an iterative solver
         36215 MiB given to the printing process from OS
             0 MiB allocation reported by mallinfo(arena+hblkhd)
         94518 MiB available memory on the node where the printing process lives
------------------
     ethr =  2.06E-03,  avg # of iterations =  3.0

     total cpu time spent up to now is    28025.2 secs

     total energy              =  -13032.67715514 Ry
     estimated scf accuracy    <      12.84525371 Ry

     total magnetization       =     5.96 Bohr mag/cell
     absolute magnetization    =    21.31 Bohr mag/cell

     iteration #  7     ecut=    70.00 Ry     beta= 0.40
     Davidson diagonalization with overlap

---- Real-time Memory Report at c_bands before calling an iterative solver
         36313 MiB given to the printing process from OS
             0 MiB allocation reported by mallinfo(arena+hblkhd)
         94319 MiB available memory on the node where the printing process lives
------------------
     ethr =  1.02E-03,  avg # of iterations =  6.1

     total cpu time spent up to now is    32646.6 secs

     total energy              =  -13037.97992374 Ry
     estimated scf accuracy    <      24.20852895 Ry

     total magnetization       =     3.77 Bohr mag/cell
     absolute magnetization    =    17.15 Bohr mag/cell

     iteration #  8     ecut=    70.00 Ry     beta= 0.40
     Davidson diagonalization with overlap

---- Real-time Memory Report at c_bands before calling an iterative solver
         36410 MiB given to the printing process from OS
             0 MiB allocation reported by mallinfo(arena+hblkhd)
         94119 MiB available memory on the node where the printing process lives
------------------
     ethr =  1.02E-03,  avg # of iterations =  2.2

     total cpu time spent up to now is    36278.7 secs

     total energy              =  -13037.33603774 Ry
     estimated scf accuracy    <      21.92756199 Ry

     total magnetization       =     0.13 Bohr mag/cell
     absolute magnetization    =     8.13 Bohr mag/cell

     iteration #  9     ecut=    70.00 Ry     beta= 0.40
     Davidson diagonalization with overlap

---- Real-time Memory Report at c_bands before calling an iterative solver
         36508 MiB given to the printing process from OS
             0 MiB allocation reported by mallinfo(arena+hblkhd)
         93922 MiB available memory on the node where the printing process lives
------------------
     ethr =  1.02E-03,  avg # of iterations =  1.8

     total cpu time spent up to now is    39783.2 secs

     total energy              =  -13037.29214803 Ry
     estimated scf accuracy    <       7.32328969 Ry

     total magnetization       =    -0.11 Bohr mag/cell
     absolute magnetization    =     6.30 Bohr mag/cell

     iteration # 10     ecut=    70.00 Ry     beta= 0.40
     Davidson diagonalization with overlap

---- Real-time Memory Report at c_bands before calling an iterative solver
         36606 MiB given to the printing process from OS
             0 MiB allocation reported by mallinfo(arena+hblkhd)
         93727 MiB available memory on the node where the printing process lives
------------------
     ethr =  5.80E-04,  avg # of iterations =  2.0

     total cpu time spent up to now is    43393.4 secs

     total energy              =  -13037.68879126 Ry
     estimated scf accuracy    <       0.85471679 Ry

     total magnetization       =     0.53 Bohr mag/cell
     absolute magnetization    =     4.71 Bohr mag/cell

     iteration # 11     ecut=    70.00 Ry     beta= 0.40
     Davidson diagonalization with overlap

---- Real-time Memory Report at c_bands before calling an iterative solver
         36704 MiB given to the printing process from OS
             0 MiB allocation reported by mallinfo(arena+hblkhd)
         93738 MiB available memory on the node where the printing process lives
------------------
     ethr =  6.77E-05,  avg # of iterations = 17.4

     total cpu time spent up to now is    47768.9 secs

     total energy              =  -13037.48924671 Ry
     estimated scf accuracy    <       4.39074366 Ry

     total magnetization       =     1.11 Bohr mag/cell
     absolute magnetization    =     4.10 Bohr mag/cell

     iteration # 12     ecut=    70.00 Ry     beta= 0.40
     Davidson diagonalization with overlap

---- Real-time Memory Report at c_bands before calling an iterative solver
         36704 MiB given to the printing process from OS
             0 MiB allocation reported by mallinfo(arena+hblkhd)
         93734 MiB available memory on the node where the printing process lives
------------------
     ethr =  6.77E-05,  avg # of iterations =  3.0

     total cpu time spent up to now is    51460.3 secs

     total energy              =  -13037.66784828 Ry
     estimated scf accuracy    <       0.35904128 Ry

     total magnetization       =     0.28 Bohr mag/cell
     absolute magnetization    =     3.29 Bohr mag/cell

     iteration # 13     ecut=    70.00 Ry     beta= 0.40
     Davidson diagonalization with overlap

---- Real-time Memory Report at c_bands before calling an iterative solver
         36718 MiB given to the printing process from OS
             0 MiB allocation reported by mallinfo(arena+hblkhd)
         93728 MiB available memory on the node where the printing process lives
------------------
     ethr =  2.85E-05,  avg # of iterations =  3.6

     total cpu time spent up to now is    55120.2 secs

     total energy              =  -13037.67456935 Ry
     estimated scf accuracy    <       0.14194290 Ry

     total magnetization       =     0.32 Bohr mag/cell
     absolute magnetization    =     2.66 Bohr mag/cell

     iteration # 14     ecut=    70.00 Ry     beta= 0.40
     Davidson diagonalization with overlap

---- Real-time Memory Report at c_bands before calling an iterative solver
         36718 MiB given to the printing process from OS
             0 MiB allocation reported by mallinfo(arena+hblkhd)
         93727 MiB available memory on the node where the printing process lives
------------------
     c_bands:  1 eigenvalues not converged
     ethr =  1.12E-05,  avg # of iterations = 12.5

     total cpu time spent up to now is    59334.5 secs

     total energy              =  -13037.67785590 Ry
     estimated scf accuracy    <       0.07983953 Ry

     total magnetization       =     0.33 Bohr mag/cell
     absolute magnetization    =     2.50 Bohr mag/cell

     iteration # 15     ecut=    70.00 Ry     beta= 0.40
     Davidson diagonalization with overlap

---- Real-time Memory Report at c_bands before calling an iterative solver
         36718 MiB given to the printing process from OS
             0 MiB allocation reported by mallinfo(arena+hblkhd)
         93724 MiB available memory on the node where the printing process lives
------------------
     c_bands:  3 eigenvalues not converged
     c_bands:  1 eigenvalues not converged
     c_bands:  1 eigenvalues not converged
     c_bands:  1 eigenvalues not converged
     c_bands:  1 eigenvalues not converged
     c_bands:  1 eigenvalues not converged
     ethr =  6.33E-06,  avg # of iterations = 19.6

     total cpu time spent up to now is    63650.7 secs

     total energy              =  -13037.67722177 Ry
     estimated scf accuracy    <       0.04729988 Ry

     total magnetization       =     0.48 Bohr mag/cell
     absolute magnetization    =     2.21 Bohr mag/cell

     iteration # 16     ecut=    70.00 Ry     beta= 0.40
     Davidson diagonalization with overlap

---- Real-time Memory Report at c_bands before calling an iterative solver
         36718 MiB given to the printing process from OS
             0 MiB allocation reported by mallinfo(arena+hblkhd)
         93723 MiB available memory on the node where the printing process lives
------------------
     c_bands:  1 eigenvalues not converged
     c_bands:  1 eigenvalues not converged
     c_bands:  1 eigenvalues not converged
     c_bands:  1 eigenvalues not converged
     c_bands:  1 eigenvalues not converged
     c_bands:  1 eigenvalues not converged
     c_bands:  1 eigenvalues not converged
     ethr =  3.75E-06,  avg # of iterations = 20.0

     total cpu time spent up to now is    68291.5 secs

     total energy              =  -13037.68156865 Ry
     estimated scf accuracy    <       0.07467338 Ry

     total magnetization       =     0.61 Bohr mag/cell
     absolute magnetization    =     2.20 Bohr mag/cell

     iteration # 17     ecut=    70.00 Ry     beta= 0.40
     Davidson diagonalization with overlap

---- Real-time Memory Report at c_bands before calling an iterative solver
         36718 MiB given to the printing process from OS
             0 MiB allocation reported by mallinfo(arena+hblkhd)
         93720 MiB available memory on the node where the printing process lives
------------------
     c_bands:  1 eigenvalues not converged
     c_bands:  1 eigenvalues not converged
     ethr =  3.75E-06,  avg # of iterations = 11.2

     total cpu time spent up to now is    72169.2 secs

     total energy              =  -13037.68628407 Ry
     estimated scf accuracy    <       0.00710767 Ry

     total magnetization       =     0.86 Bohr mag/cell
     absolute magnetization    =     1.85 Bohr mag/cell

     iteration # 18     ecut=    70.00 Ry     beta= 0.40
     Davidson diagonalization with overlap

---- Real-time Memory Report at c_bands before calling an iterative solver
         36718 MiB given to the printing process from OS
             0 MiB allocation reported by mallinfo(arena+hblkhd)
         93711 MiB available memory on the node where the printing process lives
------------------
     ethr =  5.63E-07,  avg # of iterations =  8.4

     total cpu time spent up to now is    76466.6 secs

     total energy              =  -13037.68784880 Ry
     estimated scf accuracy    <       0.00587084 Ry

     total magnetization       =     1.18 Bohr mag/cell
     absolute magnetization    =     1.91 Bohr mag/cell

     iteration # 19     ecut=    70.00 Ry     beta= 0.40
     Davidson diagonalization with overlap

---- Real-time Memory Report at c_bands before calling an iterative solver
         36718 MiB given to the printing process from OS
             0 MiB allocation reported by mallinfo(arena+hblkhd)
         93709 MiB available memory on the node where the printing process lives
------------------
     ethr =  4.65E-07,  avg # of iterations =  1.1

     total cpu time spent up to now is    79765.6 secs

     total energy              =  -13037.68786285 Ry
     estimated scf accuracy    <       0.00736715 Ry

     total magnetization       =     1.30 Bohr mag/cell
     absolute magnetization    =     2.09 Bohr mag/cell

     iteration # 20     ecut=    70.00 Ry     beta= 0.40
     Davidson diagonalization with overlap

---- Real-time Memory Report at c_bands before calling an iterative solver
         36718 MiB given to the printing process from OS
             0 MiB allocation reported by mallinfo(arena+hblkhd)
         93707 MiB available memory on the node where the printing process lives
------------------
     ethr =  4.65E-07,  avg # of iterations =  1.0

     total cpu time spent up to now is    83022.6 secs

     total energy              =  -13037.68849512 Ry
     estimated scf accuracy    <       0.00738875 Ry

     total magnetization       =     1.28 Bohr mag/cell
     absolute magnetization    =     2.06 Bohr mag/cell

     iteration # 21     ecut=    70.00 Ry     beta= 0.40
     Davidson diagonalization with overlap

---- Real-time Memory Report at c_bands before calling an iterative solver
         36718 MiB given to the printing process from OS
             0 MiB allocation reported by mallinfo(arena+hblkhd)
         93707 MiB available memory on the node where the printing process lives
------------------

     Maximum CPU time exceeded

     max_seconds     =   84600.00
     elapsed seconds =   84865.53
     Calculation stopped in k-point loop, point #     5
     Calculation stopped in scf loop at iteration #    20

     Writing config to output data dir ./out/mb_spc02_s42.save/ :
     XML data file, charge density
 
     init_run     :   1138.17s CPU   1189.67s WALL (       1 calls)
     electrons    :  78112.63s CPU  83688.63s WALL (       1 calls)

     Called by init_run:
     wfcinit      :   1127.20s CPU   1178.04s WALL (       1 calls)
     wfcinit:atom :      5.07s CPU      8.15s WALL (       8 calls)
     wfcinit:wfcr :   1107.84s CPU   1151.43s WALL (       8 calls)
     potinit      :      3.01s CPU      3.55s WALL (       1 calls)
     hinit0       :      7.00s CPU      7.11s WALL (       1 calls)

     Called by electrons:
     c_bands      :  72337.41s CPU  77535.30s WALL (      21 calls)
     sum_band     :   5698.79s CPU   6069.67s WALL (      20 calls)
     v_of_rho     :     58.99s CPU     68.10s WALL (      21 calls)
     v_h          :      2.24s CPU      2.91s WALL (      21 calls)
     v_xc         :     56.75s CPU     65.19s WALL (      21 calls)
     mix_rho      :     20.83s CPU     25.00s WALL (      20 calls)
     energy_dftd3 :      0.49s CPU      0.49s WALL (       1 calls)

     Called by c_bands:
     init_us_2    :    462.33s CPU    465.32s WALL (     333 calls)
     cegterg      :  69940.85s CPU  75114.49s WALL (     165 calls)

     Called by sum_band:
     sum_band:wei :      0.14s CPU      0.14s WALL (      20 calls)
     sum_band:loo :   5691.93s CPU   6061.37s WALL (      20 calls)
     sum_band:buf :     61.78s CPU     62.45s WALL (     160 calls)
     sum_band:ini :    222.25s CPU    223.35s WALL (     160 calls)

     Called by *egterg:
     cdiaghg      :   1409.85s CPU   1421.36s WALL (    1380 calls)
     cegterg:over :  10336.62s CPU  10666.87s WALL (    1215 calls)
     cegterg:upda :   5824.75s CPU   6314.95s WALL (    1215 calls)
     cegterg:last :   9479.80s CPU   9850.03s WALL (     308 calls)
     h_psi        :  39544.93s CPU  43348.01s WALL (    1388 calls)
     g_psi        :     72.30s CPU     87.38s WALL (    1215 calls)

     Called by h_psi:
     h_psi:calbec :   8849.40s CPU   8967.01s WALL (    1388 calls)
     vloc_psi     :  21405.94s CPU  24616.71s WALL (    1388 calls)
     add_vuspsi   :   9178.21s CPU   9355.24s WALL (    1388 calls)

     General routines
     calbec       :   8849.39s CPU   8967.00s WALL (    1388 calls)
     fft          :     23.74s CPU     28.14s WALL (     398 calls)
     ffts         :      2.21s CPU      2.73s WALL (      40 calls)
     fftw         :  19975.24s CPU  23373.26s WALL (  686834 calls)
     davcio       :      0.01s CPU      5.18s WALL (      26 calls)
 
     Parallel routines
 
     PWSCF        :     22h 0m CPU     23h34m WALL

 
   This run was terminated on:  12:30:50  14Sep2026            

=------------------------------------------------------------------------------=
   JOB DONE.
=------------------------------------------------------------------------------=
