81
Properties=species:S:1:pos:R:3 pbc="F F F"
Te      12.84081358       7.40463942      14.96868747
Te       2.14552710       3.70298084      14.96986418
Te       0.01122249       7.40607420      14.96936901
Te      14.97406358       3.70181886      14.96900129
Te       0.06647544       2.49959481      22.33825089
Te       2.20989303       6.20666153      22.34919696
Te       4.33724583       2.50148438      22.33599875
Te      -2.07251037       6.20904493      22.33659992
Te       2.19122998       1.26482655      25.09529319
Te       4.30195234       4.95780431      25.07505792
Te       6.44761112       1.24339253      25.08930852
Te       0.02055186       4.94351522      25.08400449
Te       2.17891553       1.25641944      18.64504139
Te       4.32353089       4.95997050      18.64539596
Te       6.45929302       1.25775797      18.64438948
Te       0.04441040       4.95854686      18.64882603
Te       0.06913629       0.03827408      32.46392129
Te       2.22713855       3.72848233      32.46799086
Te       4.33348687       0.05414367      32.47435174
Te      -2.04109426       3.75810355      32.46720087
Te       0.05517824       2.49900207      28.79067964
Te       2.20912856       6.21259456      28.78131660
Te       4.22951225       2.43445904      28.73366244
Te      -2.08789913       6.19439260      28.79700555
Sb       0.03109314       2.48082852      16.69362979
Sb       2.17693384       6.18845021      16.69303657
Sb       4.30827743       2.48384819      16.69146667
Sb      -2.10647213       6.18758272      16.69449842
Sb       0.03248215       0.01926433      26.80152750
Sb       2.17201732       3.72809854      26.81623827
Sb       4.31144754       0.00914245      26.81584916
Sb       6.46553960       3.73570274      26.73515724
Sb      12.88111020       7.42824474      20.60390050
Sb       2.17732431       3.72010890      20.60471585
Sb       4.30916229       0.02000922      20.60261386
Sb      15.01029085       3.72214120      20.60581147
Sb       2.19121967       1.26374335      30.73178075
Sb       4.26263617       5.02609766      30.78293459
Sb       6.48251755       1.17394226      30.79937410
Sb       0.06001467       4.96682191      30.72891573
Te       4.28468948       7.40352373      14.96842717
Te      10.69883693       3.70393250      14.96916169
Te       8.56379636       7.40363349      14.96784827
Te       6.42063255       3.70222551      14.96733188
Te       8.61739614       2.50482127      22.33357693
Te      10.75409144       6.20074910      22.34321548
Te      12.89640292       2.50420861      22.33731170
Te       6.48444635       6.20339416      22.33360391
Te      10.72641385       1.25149763      25.09583578
Te      12.87679535       4.97448843      25.09175532
Te      15.02206781       1.24759051      25.09171326
Te       8.61573383       4.96849686      25.09244966
Te      10.73336227       1.25664199      18.64244411
Te      12.87803835       4.95918151      18.64277540
Te      15.01143470       1.25755807      18.64407632
Te       8.60441818       4.96153378      18.63870860
Te       8.70454065       0.08290127      32.50467181
Te      10.77207326       3.73731878      32.48022415
Te      12.90513365       0.05172908      32.47849457
Te       6.54082292       3.77271123      32.50747580
Te       8.69295724       2.45792691      28.74732669
Te      10.75855335       6.20343320      28.78475239
Te      12.88164319       2.49524947      28.79139925
Te       6.49232133       6.29456247      28.75651212
Sb       8.58348957       2.48521001      16.69724763
Sb      10.72117876       6.18240244      16.69739596
Sb      12.86326450       2.48441257      16.69392575
Sb       6.45027525       6.18374727      16.69558475
Sb       8.59089000       0.01436816      26.79973988
Sb      10.74666046       3.73031417      26.82585252
Sb      12.88540961       0.03178935      26.82613979
Sb      -2.07777953       3.73387889      26.81083386
Sb       8.59230580       0.02146013      20.60374011
Sb      10.73302661       3.72517829      20.60625569
Sb      12.87017078       0.01977262      20.60681925
Sb       6.45613997       3.72322949      20.60380417
Sb      10.76639653       1.27873752      30.75661568
Sb      12.90709362       4.97586504      30.74384437
Sb      15.04305045       1.27552710      30.74230258
Sb       8.73024779       5.03268497      30.77096020
V        6.40491084       3.68885250      29.67835696
81
Properties=species:S:1:pos:R:3 pbc="F F F"
Te      12.84052987       7.40388413      14.96780146
Te       2.14518755       3.70291091      14.96832419
Te       0.01093410       7.40549481      14.96780465
Te      14.97442914       3.70183066      14.96865311
Te       0.06256815       2.50085197      22.33951768
Te       2.20622191       6.20436159      22.34215951
Te       4.33747370       2.50063308      22.33613282
Te      -2.07322490       6.20579126      22.33896057
Te       2.18056721       1.26169074      25.09203058
Te       4.30155925       4.96132266      25.07516928
Te       6.45004134       1.23901888      25.07761935
Te       0.01114699       4.94240889      25.05296664
Te       2.17806049       1.25567579      18.64445460
Te       4.32219088       4.95921826      18.64507071
Te       6.45777853       1.25664083      18.64443295
Te       0.04389788       4.95783886      18.64698824
Te       0.07223414       0.04076239      32.46780114
Te       2.19936403       3.74704971      32.47708098
Te       4.33789253       0.02267470      32.48204704
Te      -2.04658802       3.75326296      32.46054757
Te       0.05052942       2.49805895      28.78561944
Te       2.18986733       6.20602470      28.76927188
Te       4.21201410       2.42811652      28.65758438
Te      -2.08484984       6.19517475      28.78851867
Sb       0.03086257       2.48211622      16.69297435
Sb       2.17613908       6.18787816      16.69218152
Sb       4.30861952       2.48402940      16.69102992
Sb      -2.10519617       6.18722855      16.69406332
Sb       0.03827176       0.02271317      26.80588196
Sb       2.15208815       3.74559947      26.79204701
Sb       4.31351824      -0.00818305      26.79048415
Sb       6.47594299       3.73307168      26.74919118
Sb      12.87981807       7.42732845      20.60370547
Sb       2.17859111       3.72229975      20.60514995
Sb       4.31171520       0.02029772      20.60344186
Sb      15.01191062       3.72354290      20.60641455
Sb       2.18034608       1.25766658      30.75016205
Sb       4.19655403       5.14459959      30.75698233
Sb       6.55794595       1.05984409      30.77830592
Sb       0.04752967       4.95937663      30.74719699
Te       4.28337693       7.40265083      14.96772028
Te      10.69767980       3.70281670      14.96865506
Te       8.56272653       7.40352354      14.96798504
Te       6.42003073       3.70187474      14.96751239
Te       8.61681834       2.50298622      22.33362256
Te      10.75602078       6.20186378      22.34046287
Te      12.89519556       2.50356437      22.33654836
Te       6.48266340       6.20348955      22.33359299
Te      10.72652187       1.25185972      25.09499515
Te      12.88013083       4.96401246      25.08295751
Te      15.01028339       1.25385498      25.08894272
Te       8.60332263       4.96127634      25.09196238
Te      10.73413377       1.25695538      18.64169083
Te      12.87697572       4.95916188      18.64251189
Te      15.01124950       1.25703613      18.64385657
Te       8.60104336       4.95966691      18.64039356
Te       8.69694858       0.07224526      32.53047672
Te      10.78401866       3.74797795      32.47050221
Te      12.92275123       0.04909807      32.47205050
Te       6.61378278       3.82918984      32.65305709
Te       8.65629005       2.48550532      28.76149303
Te      10.75281375       6.19967570      28.78873184
Te      12.88595073       2.49739139      28.78767917
Te       6.48951192       6.23870128      28.76650888
Sb       8.58448020       2.48413603      16.69632919
Sb      10.72461722       6.18407343      16.69627285
Sb      12.86123798       2.48340515      16.69428612
Sb       6.45054866       6.18540915      16.69572244
Sb       8.60607590       0.02862681      26.80136825
Sb      10.74496310       3.72554718      26.82742796
Sb      12.87427830       0.03013573      26.83422168
Sb      -2.07774204       3.73565449      26.80488403
Sb       8.59239517       0.02158543      20.60320605
Sb      10.73496603       3.72463985      20.60636041
Sb      12.87025791       0.02148428      20.60631608
Sb       6.45767294       3.72379687      20.60398824
Sb      10.78356177       1.27965968      30.73524114
Sb      12.90401782       4.97105093      30.74388145
Sb      15.03730170       1.27318068      30.74172086
Sb       8.69055534       5.00799717      30.75841559
V        5.92897716       3.41652719      30.19636875
81
Properties=species:S:1:pos:R:3 pbc="F F F"
Te      12.84024617       7.40312885      14.96691544
Te       2.14484800       3.70284099      14.96678419
Te       0.01064571       7.40491543      14.96624030
Te      14.97479470       3.70184246      14.96830493
Te       0.05866086       2.50210913      22.34078448
Te       2.20255078       6.20206164      22.33512206
Te       4.33770157       2.49978179      22.33626690
Te      -2.07393942       6.20253760      22.34132122
Te       2.16990445       1.25855493      25.08876797
Te       4.30116616       4.96484101      25.07528065
Te       6.45247157       1.23464522      25.06593019
Te       0.00174212       4.94130257      25.02192879
Te       2.17720546       1.25493215      18.64386781
Te       4.32085088       4.95846601      18.64474546
Te       6.45626404       1.25552369      18.64447642
Te       0.04338536       4.95713087      18.64515046
Te       0.07533198       0.04325071      32.47168099
Te       2.17158950       3.76561708      32.48617109
Te       4.34229819      -0.00879426      32.48974233
Te      -2.05208178       3.74842236      32.45389427
Te       0.04588061       2.49711582      28.78055925
Te       2.17060611       6.19945483      28.75722716
Te       4.19451596       2.42177400      28.58150631
Te      -2.08180056       6.19595689      28.78003179
Sb       0.03063201       2.48340391      16.69231892
Sb       2.17534432       6.18730611      16.69132647
Sb       4.30896160       2.48421061      16.69059317
Sb      -2.10392020       6.18687439      16.69362822
Sb       0.04406136       0.02616201      26.81023642
Sb       2.13215897       3.76310040      26.76785574
Sb       4.31558895      -0.02550856      26.76511914
Sb       6.48634638       3.73044061      26.76322511
Sb      12.87852595       7.42641216      20.60351043
Sb       2.17985792       3.72449060      20.60558406
Sb       4.31426811       0.02058621      20.60426987
Sb      15.01353039       3.72494460      20.60701762
Sb       2.16947249       1.25158981      30.76854336
Sb       4.13047188       5.26310152      30.73103007
Sb       6.63337435       0.94574592      30.75723774
Sb       0.03504468       4.95193134      30.76547824
Te       4.28206438       7.40177792      14.96701340
Te      10.69652268       3.70170090      14.96814842
Te       8.56165670       7.40341359      14.96812181
Te       6.41942890       3.70152398      14.96769290
Te       8.61624054       2.50115117      22.33366818
Te      10.75795013       6.20297846      22.33771026
Te      12.89398820       2.50292014      22.33578502
Te       6.48088046       6.20358493      22.33358208
Te      10.72662989       1.25222182      25.09415451
Te      12.88346631       4.95353649      25.07415970
Te      14.99849897       1.26011944      25.08617219
Te       8.59091143       4.95405582      25.09147509
Te      10.73490526       1.25726877      18.64093754
Te      12.87591308       4.95914225      18.64224838
Te      15.01106430       1.25651418      18.64363683
Te       8.59766855       4.95780004      18.64207852
Te       8.68935651       0.06158925      32.55628163
Te      10.79596405       3.75863712      32.46078027
Te      12.94036881       0.04646707      32.46560643
Te       6.68674265       3.88566845      32.79863839
Te       8.61962286       2.51308373      28.77565937
Te      10.74707414       6.19591820      28.79271128
Te      12.89025827       2.49953331      28.78395910
Te       6.48670251       6.18284008      28.77650564
Sb       8.58547084       2.48306204      16.69541075
Sb      10.72805567       6.18574441      16.69514974
Sb      12.85921146       2.48239773      16.69464649
Sb       6.45082206       6.18707104      16.69586014
Sb       8.62126179       0.04288547      26.80299662
Sb      10.74326574       3.72078018      26.82900339
Sb      12.86314699       0.02848211      26.84230356
Sb      -2.07770454       3.73743009      26.79893420
Sb       8.59248454       0.02171072      20.60267198
Sb      10.73690545       3.72410141      20.60646513
Sb      12.87034505       0.02319593      20.60581292
Sb       6.45920591       3.72436424      20.60417232
Sb      10.80072701       1.28058183      30.71386661
Sb      12.90094202       4.96623683      30.74391853
Sb      15.03155294       1.27083425      30.74113915
Sb       8.65086290       4.98330937      30.74587098
V        5.45304347       3.14420188      30.71438054
81
Properties=species:S:1:pos:R:3 pbc="F F F"
Te      12.84065145       7.40385067      14.96760082
Te       2.14401411       3.70151168      14.96674185
Te       0.00876314       7.40495270      14.96647023
Te      14.97489377       3.70211238      14.96847747
Te       0.06077187       2.50081382      22.34262466
Te       2.20319510       6.20277098      22.33629756
Te       4.33822048       2.50081374      22.33731411
Te      -2.07414990       6.20424985      22.34289298
Te       2.16717597       1.25332319      25.07820666
Te       4.30501137       4.96319063      25.07998733
Te       6.45252592       1.23925159      25.07531179
Te       0.01913512       4.94752676      25.05420025
Te       2.17839373       1.25587171      18.64371983
Te       4.32060057       4.95969199      18.64312907
Te       6.45703332       1.25481778      18.64299455
Te       0.04340524       4.95742554      18.64560804
Te       0.07803529       0.04490277      32.47945676
Te       2.18102401       3.76310313      32.52090468
Te       4.34715130       0.00160473      32.52268893
Te      -2.04293769       3.75417784      32.45585153
Te       0.03486136       2.50588294      28.77243089
Te       2.16907529       6.19100855      28.76372014
Te       4.25534497       2.45530965      28.66918045
Te      -2.08131380       6.18027812      28.77216620
Sb       0.03153850       2.48357160      16.69346031
Sb       2.17696825       6.18812028      16.69336601
Sb       4.30820705       2.48401387      16.68998250
Sb      -2.10359390       6.18720179      16.69411578
Sb       0.03456930       0.02031172      26.79463819
Sb       2.15132514       3.75315404      26.78539882
Sb       4.32127134      -0.01103910      26.78403032
Sb       6.48335575       3.73361556      26.78285385
Sb      12.87802152       7.42600257      20.60321314
Sb       2.17991868       3.72424621      20.60639668
Sb       4.31468612       0.02090950      20.60573945
Sb      15.01335247       3.72466985      20.60596513
Sb       2.12388410       1.22500053      30.70359672
Sb       4.23983094       5.19335820      30.71010669
Sb       6.62321670       1.07165699      30.72321027
Sb       0.03572015       4.95280232      30.72432363
Te       4.28281020       7.40225245      14.96710305
Te      10.69660372       3.70212535      14.96824448
Te       8.56224365       7.40326520      14.96823132
Te       6.42051916       3.70221738      14.96803682
Te       8.61579832       2.50359373      22.33542082
Te      10.75848846       6.20349015      22.33631066
Te      12.89315195       2.50217943      22.33599392
Te       6.48277161       6.20235318      22.33537773
Te      10.72162684       1.24955012      25.08724288
Te      12.87422716       4.95240835      25.08105652
Te      14.99870773       1.25535328      25.08706302
Te       8.59090726       4.95393115      25.09635725
Te      10.73381516       1.25670964      18.64339901
Te      12.87619015       4.95930946      18.64397834
Te      15.01141459       1.25646100      18.64467266
Te       8.59717325       4.95746194      18.64119681
Te       8.68884853       0.06943940      32.54315595
Te      10.78745937       3.75573435      32.46144904
Te      12.92854337       0.04597665      32.46386129
Te       6.62544628       3.83538518      32.68206321
Te       8.61562685       2.50976023      28.77945386
Te      10.75131760       6.19896551      28.78854049
Te      12.89460755       2.50240526      28.77760518
Te       6.48492193       6.19027105      28.77987669
Sb       8.58392720       2.48343295      16.69664510
Sb      10.72794030       6.18587869      16.69353580
Sb      12.86117055       2.48350491      16.69313577
Sb       6.44986224       6.18539740      16.69686950
Sb       8.61308514       0.03603491      26.80686154
Sb      10.74698509       3.72357329      26.82542320
Sb      12.87139448       0.03140456      26.83207437
Sb      -2.07115802       3.73979927      26.82417238
Sb       8.59242197       0.02182778      20.60324998
Sb      10.73613026       3.72520715      20.60641174
Sb      12.87113557       0.02211615      20.60608571
Sb       6.45943752       3.72460904      20.60507797
Sb      10.77939165       1.27566976      30.72566883
Sb      12.89517119       4.96505492      30.74651492
Sb      15.02679899       1.26811780      30.74512339
Sb       8.64776236       4.98405113      30.73039003
V        4.91879636       2.83623709      31.11933083
81
Properties=species:S:1:pos:R:3 pbc="F F F"
Te      12.84105674       7.40457250      14.96828621
Te       2.14318023       3.70018237      14.96669951
Te       0.00688058       7.40498997      14.96670017
Te      14.97499284       3.70238230      14.96865000
Te       0.06288288       2.49951852      22.34446484
Te       2.20383942       6.20348033      22.33747306
Te       4.33873940       2.50184570      22.33836132
Te      -2.07436039       6.20596209      22.34446473
Te       2.16444750       1.24809146      25.06764535
Te       4.30885658       4.96154026      25.08469402
Te       6.45258027       1.24385796      25.08469339
Te       0.03652812       4.95375095      25.08647171
Te       2.17958200       1.25681128      18.64357184
Te       4.32035027       4.96091797      18.64151267
Te       6.45780260       1.25411188      18.64151268
Te       0.04342512       4.95772022      18.64606562
Te       0.08073860       0.04655483      32.48723252
Te       2.19045851       3.76058918      32.55563827
Te       4.35200440       0.01200373      32.55563553
Te      -2.03379361       3.75993332      32.45780879
Te       0.02384212       2.51465005      28.76430252
Te       2.16754447       6.18256226      28.77021311
Te       4.31617398       2.48884530      28.75685459
Te      -2.08082703       6.16459934      28.76430060
Sb       0.03244499       2.48373928      16.69460170
Sb       2.17859217       6.18893446      16.69540555
Sb       4.30745249       2.48381713      16.68937183
Sb      -2.10326760       6.18752919      16.69460335
Sb       0.02507723       0.01446143      26.77903996
Sb       2.17049130       3.74320768      26.80294189
Sb       4.32695374       0.00343036      26.80294151
Sb       6.48036512       3.73679052      26.80248260
Sb      12.87751710       7.42559299      20.60291584
Sb       2.17997945       3.72400183      20.60720931
Sb       4.31510414       0.02123279      20.60720903
Sb      15.01317454       3.72439510      20.60491263
Sb       2.07829571       1.19841125      30.63865008
Sb       4.34919000       5.12361489      30.68918332
Sb       6.61305906       1.19756806      30.68918280
Sb       0.03639562       4.95367331      30.68316902
Te       4.28355602       7.40272697      14.96719269
Te      10.69668477       3.70254981      14.96834054
Te       8.56283061       7.40311682      14.96834082
Te       6.42160942       3.70291079      14.96838073
Te       8.61535611       2.50603629      22.33717346
Te      10.75902680       6.20400184      22.33491105
Te      12.89231571       2.50143871      22.33620281
Te       6.48466277       6.20112142      22.33717339
Te      10.71662378       1.24687842      25.08033124
Te      12.86498801       4.95128021      25.08795334
Te      14.99891649       1.25058712      25.08795385
Te       8.59090309       4.95380648      25.10123940
Te      10.73272507       1.25615051      18.64586049
Te      12.87646723       4.95947666      18.64570831
Te      15.01176488       1.25640782      18.64570848
Te       8.59667796       4.95712383      18.64031511
Te       8.68834055       0.07728955      32.53003026
Te      10.77895469       3.75283159      32.46211782
Te      12.91671793       0.04548623      32.46211616
Te       6.56414990       3.78510191      32.56548804
Te       8.61163085       2.50643673      28.78324836
Te      10.75556106       6.20201282      28.78436969
Te      12.89895682       2.50527720      28.77125126
Te       6.48314134       6.19770201      28.78324774
Sb       8.58238357       2.48380387      16.69787945
Sb      10.72782494       6.18601296      16.69192186
Sb      12.86312965       2.48461208      16.69162505
Sb       6.44890242       6.18372377      16.69787885
Sb       8.60490850       0.02918435      26.81072646
Sb      10.75070444       3.72636640      26.82184301
Sb      12.87964196       0.03432700      26.82184518
Sb      -2.06461151       3.74216845      26.84941056
Sb       8.59235940       0.02194485      20.60382797
Sb      10.73535507       3.72631289      20.60635836
Sb      12.87192609       0.02103636      20.60635850
Sb       6.45966913       3.72485384      20.60598361
Sb      10.75805628       1.27075768      30.73747104
Sb      12.88940036       4.96387302      30.74911130
Sb      15.02204503       1.26540135      30.74910763
Sb       8.64466182       4.98479290      30.71490909
V        4.38454926       2.52827231      31.52428112
