61
Lattice="8.669586889484 0.0 0.0 -4.334793444742 7.508078985966 0.0 0.0 0.0 31.073177673002" Properties=species:S:1:pos:R:3:forces:R:3 branch_id=tetradymite__Bi2Te3__Cr1__ingap_1-7__reused_path_s42 image_index=0 system_id=tetradymite__Bi2Te3__Cr1__ingap_1-7__reused_path_s42 mapping_role=material_transfer_reused_path energy=-224.0849406296275 mlff_rel_energy_eV=0.0 mlff_fmax_eV_A=1.4843128236182923 calculator_label=/home/ycao73/.cache/mace/20231203mace128L1_epoch199model neb_image=0 neb_protocol=mlff_pre_neb pbc="T T T"
Te       2.16739745       1.24924995       3.47721850      -0.00000292       0.00976073       1.25053232
Te       4.33661000       5.00643632       3.47721850      -0.00844588      -0.00487572       1.25052497
Te       6.50218952       1.25134749       3.46781351       0.00000269       0.00000845       1.29253866
Te      -0.00181653       5.00643713       3.47721851       0.00844575      -0.00487894       1.25050017
Te      -0.02760729       0.01593909       6.88148363       0.08292320      -0.04786933      -1.38098456
Te       2.16739629       3.75404152       6.93221801       0.00000203      -0.00000454      -1.21011854
Te       4.36240077       0.01593857       6.88148344      -0.08292311      -0.04786709      -1.38096592
Te      -2.16739629       3.72216336       6.88148344      -0.00000177       0.09574685      -1.38095711
Te       0.00000000       0.00000000       0.00000000       0.00000004       0.00000760      -0.00001098
Te       2.16739674       3.75404128       0.00000000      -0.00000001      -0.00000171      -0.00001056
Te       4.33479348       0.00000000       0.00000000      -0.00000006       0.00000759      -0.00001099
Te      -2.16739674       3.75404128       0.00000000       0.00000012      -0.00000171      -0.00001057
Te       0.05102108       2.53215149      13.96547985      -0.22399856      -0.12932294       1.22926815
Te       2.16739652       6.19782123      13.96547985       0.00000056       0.25864716       1.22927446
Te       4.28377240       2.53215124      13.96548024       0.22399986      -0.12932310       1.22927249
Te      -2.16739652       6.25673533      13.91232491      -0.00000010      -0.00000647       1.48431282
Te       2.16739696       1.31026132      17.10769420      -0.00000060      -0.25864896      -1.22926825
Te       4.28377240       4.97593106      17.10769420       0.22399919       0.12931896      -1.22927355
Te       6.50218999       1.25134722      17.16084913       0.00000015       0.00000270      -1.48430392
Te       0.05102108       4.97593132      17.10769382      -0.22400051       0.12931910      -1.22927796
Te       2.16739650       1.23417327      10.40182580       0.00000111      -0.07869813       0.00684016
Te       4.34966632       5.01397549      10.40182580       0.06816065       0.03934384       0.00683940
Te       6.50219046       1.25134695      10.40442474      -0.00000161       0.00000804       0.25476354
Te      -0.01487284       5.01397521      10.40182622      -0.06816131       0.03934549       0.00683868
Te       0.02760729      -0.01593909      24.19169042      -0.08292294       0.04788563       1.38098461
Te       2.16739718       3.75404102      24.14095605      -0.00000205       0.00000286       1.21011898
Te       4.30718618      -0.01593857      24.19169061       0.08292289       0.04788335       1.38096595
Te      -2.16739718       3.78591919      24.19169061       0.00000203      -0.09574860       1.38095753
Te      -0.00181653       2.50164622      27.59595556       0.00844598       0.00487115      -1.25052129
Te       2.16739604       6.25883259      27.59595556       0.00000282      -0.00976000      -1.25052893
Te       4.33661000       2.50164541      27.59595555      -0.00844578       0.00487436      -1.25049649
Te      -2.16739604       6.25673505      27.60536055      -0.00000272      -0.00000769      -1.29253521
Te      -0.01487284       2.49410706      20.67134826      -0.06816076      -0.03934980      -0.00684046
Te       2.16739698       6.27390928      20.67134826      -0.00000118       0.07869739      -0.00683916
Te       4.34966632       2.49410733      20.67134783       0.06816140      -0.03935147      -0.00683970
Te      -2.16739698       6.25673560      20.66874932       0.00000159      -0.00000786      -0.25476349
Bi      -0.03105023       2.48476558       8.47818076       0.16970596       0.09799613       0.50389752
Bi       2.16739825       6.29259004       8.47818076      -0.00001294      -0.19597506       0.50390263
Bi       4.36584370       2.48476731       8.47818114      -0.16970584       0.09798102       0.50388703
Bi      -2.16739825       6.25673633       8.41377811       0.00001273      -0.00001430       0.56688838
Bi       0.00025797       2.50284047       1.88393550       0.02179026       0.01261035      -0.29794153
Bi       2.16739903       6.25643890       1.88393550      -0.00002132      -0.02518565      -0.29794112
Bi       4.33453551       2.50284312       1.88393579      -0.02179016       0.01258568      -0.29795843
Bi      -2.16739903       6.25673678       1.88288669       0.00002153      -0.00002442      -0.28623818
Bi      -0.05167120       0.02983240      18.78189831       0.14554646      -0.08402206       0.38597757
Bi       2.16739599       3.75404170      18.73689157       0.00000604      -0.00000757       0.94193170
Bi       4.38646469       0.02983154      18.78189855      -0.14554631      -0.08401502       0.38598189
Bi       6.50219097       3.69437691      18.78189855      -0.00000612       0.16805464       0.38598309
Bi       0.05167120      -0.02983240      12.29127574      -0.14554784       0.08403859      -0.38598090
Bi       2.16739749       3.75404084      12.33628248      -0.00000601       0.00000184      -0.94192984
Bi       4.28312227      -0.02983154      12.29127549       0.14554768       0.08403156      -0.38598514
Bi      -2.16739749       3.81370565      12.29127549       0.00000610      -0.16805995      -0.38598110
Bi       2.16739445       1.25164364      29.18923855       0.00002130       0.02518463       0.29795032
Bi       4.33453551       5.00524207      29.18923855      -0.02179026      -0.01261171       0.29794692
Bi       6.50219251       1.25134577      29.19028735      -0.00002156       0.00002342       0.28624738
Bi       0.00025797       5.00523943      29.18923826       0.02179018      -0.01258706       0.29796387
Bi       2.16739523       1.21549250      22.59499330       0.00001294       0.19597333      -0.50389810
Bi       4.36584370       5.02331697      22.59499330      -0.16970599      -0.09800632      -0.50390239
Bi       6.50219173       1.25134622      22.65939594      -0.00001276       0.00001290      -0.56688453
Bi      -0.03105023       5.02331523      22.59499291       0.16970572      -0.09799129      -0.50389171
Cr       2.16739674       3.75404128      15.53658702       0.00000001      -0.00000084      -0.00000058
61
Lattice="8.669586889484 0.0 0.0 -4.334793444742 7.508078985966 0.0 0.0 0.0 31.073177673002" Properties=species:S:1:pos:R:3:forces:R:3 branch_id=tetradymite__Bi2Te3__Cr1__ingap_1-7__reused_path_s42 image_index=1 system_id=tetradymite__Bi2Te3__Cr1__ingap_1-7__reused_path_s42 mapping_role=material_transfer_reused_path energy=-228.49005959708305 mlff_rel_energy_eV=-4.405118967455536 mlff_fmax_eV_A=0.0871236707673401 calculator_label=/home/ycao73/.cache/mace/20231203mace128L1_epoch199model neb_image=1 neb_protocol=mlff_pre_neb pbc="T T T"
Te       2.14858939       1.25903332       3.82306873      -0.00019288       0.00223287      -0.06497775
Te       4.31873469       5.01783355       3.82306881      -0.00203041      -0.00094957      -0.06497802
Te       6.49384431       1.25616713       3.80013839      -0.00661583       0.00381937      -0.05673875
Te       0.00780836       5.00088006       3.80297869      -0.01103295       0.00636989      -0.05283073
Te      -0.08044631       0.04644664       6.41705961       0.01440850      -0.00831883       0.07850106
Te       2.14118637       3.76917266       6.47649186      -0.00975018       0.00562945       0.07815061
Te       4.29851362       0.01683792       6.40485906       0.00421827       0.01225226       0.08615419
Te      -2.20011763       3.77704103       6.40485891      -0.00850184      -0.00977922       0.08615463
Te       0.00235546      -0.00135827      -0.02448882      -0.00827312       0.00477623       0.00562693
Te       2.16329686       3.75640802      -0.01516251      -0.00816198       0.00471237      -0.00267105
Te       4.32596852       0.01159636      -0.00183171      -0.00410116       0.00051280      -0.00786039
Te      -2.18185045       3.75588626      -0.00183170      -0.00249495       0.00329520      -0.00786038
Te      -0.04504125       2.54227663      14.14615766       0.00015592       0.00710187      -0.02849280
Te       2.11059762       6.27595052      14.14615769      -0.00607255      -0.00368587      -0.02849256
Te       4.23113631       2.56254160      14.15320229       0.00034781      -0.00020094      -0.03904670
Te      -2.21372518       6.28348206      14.19031174      -0.00910286       0.00525570      -0.04553273
Te       2.08450844       1.32583069      16.88633816       0.00047941       0.00616674       0.02618537
Te       4.22884467       5.03992846      16.88633856      -0.00510092      -0.00349825       0.02618512
Te       6.41078195       1.30412197      16.83632493       0.01456547      -0.00840945       0.05873785
Te      -0.06982210       5.04569859      16.88692354       0.01017709      -0.00587538       0.02612988
Te       2.12109932       1.26754331      10.26557564      -0.00112240      -0.00369992       0.03004669
Te       4.29761905       5.03738470      10.26557558       0.00264304       0.00282196       0.03004659
Te       6.46376994       1.27352978      10.35382512      -0.00660437       0.00381300       0.00169072
Te      -0.09407423       5.05970127      10.27099776       0.00759397      -0.00438432       0.03368629
Te      -0.07052547       0.04072016      24.62830876       0.01608194      -0.00928541      -0.07406519
Te       2.10904553       3.78773084      24.56516196      -0.00421190       0.00243169      -0.07868991
Te       4.26316586       0.01870183      24.62135277      -0.00707428       0.00887186      -0.07410167
Te      -2.21940469       3.80672310      24.62135264      -0.01122090       0.00169029      -0.07410192
Te      -0.00948845       2.52080417      27.24343389      -0.00483304      -0.00135446       0.04729704
Te       2.14696862       6.25589535      27.24343393      -0.00124356       0.00486322       0.04729687
Te       4.32730746       2.50701599      27.22200954      -0.00674835       0.00389617       0.06182990
Te      -2.17620690       6.26181975      27.23870971      -0.00869680       0.00502159       0.05560755
Te      -0.09970285       2.53040158      20.76338817       0.00230871      -0.00426887      -0.02775077
Te       2.09355033       6.32922542      20.76338783       0.00485123       0.00013531      -0.02775067
Te       4.26360981       2.54379235      20.76222331       0.01685720      -0.00973253      -0.01610276
Te      -2.24417833       6.30106385      20.68758911       0.00167127      -0.00096464      -0.01258541
Bi      -0.06241014       2.53392543       8.20548052      -0.00311259      -0.01083183       0.04939566
Bi       2.10914455       6.29516658       8.20547990       0.00782443       0.00811192       0.04939602
Bi       4.33833752       2.50064829       8.19377131      -0.01877051       0.01083707       0.05016060
Bi      -2.23516293       6.29585833       8.13308644       0.01610144      -0.00929582       0.05863456
Bi      -0.00323613       2.50136440       2.03059115      -0.00691606       0.00516400      -0.02642286
Bi       2.16693088       6.26020204       2.03059100      -0.00793019       0.00340754      -0.02642264
Bi       4.31751697       2.51266949       2.06086098      -0.00224931       0.00129859      -0.04200542
Bi      -2.17132935       6.25900478       2.06015609      -0.00476473       0.00275097      -0.03664597
Bi      -0.15581469       0.08996081      18.68411138       0.01723624      -0.00995138       0.01099382
Bi       2.07345099       3.80827994      18.79098217       0.00904407      -0.00522146      -0.01504475
Bi       4.31673982       0.09484046      18.70353080       0.00267878      -0.01479366       0.00559616
Bi       6.41102997       3.72225592      18.70353113       0.01415110       0.00507691       0.00559627
Bi       0.02650197      -0.01529868      12.32932456      -0.00376920       0.00217569      -0.00259933
Bi       2.09346759       3.79672419      12.24563549       0.00897322      -0.00518052       0.00355492
Bi       4.21441792       0.00713677      12.33744157       0.00066611      -0.00027671       0.00389048
Bi      -2.23376338       3.85472199      12.33744063       0.00057238      -0.00043864       0.00389085
Bi       2.16494399       1.25947197      28.99343349      -0.00867954       0.00342755       0.03661637
Bi       4.32653123       5.00344915      28.99343368      -0.00730806       0.00580308       0.03661646
Bi       6.49400769       1.25607182      29.00142340      -0.00245971       0.00142019       0.02821169
Bi      -0.01320856       5.01301320      29.02452305      -0.00379431       0.00219069       0.01894942
Bi       2.09666337       1.25408349      22.84638422      -0.00190806       0.00881861      -0.05577489
Bi       4.29705824       5.06527718      22.84638411      -0.00859132      -0.00275703      -0.05577476
Bi       6.42217437       1.29754536      22.88527492       0.01158490      -0.00668862      -0.03895884
Bi      -0.07737361       5.05005964      22.82337982      -0.00846814       0.00488890      -0.04576317
Cr       2.06833325       3.81123521      15.52443855       0.03671649      -0.02119823      -0.01078777
61
Lattice="8.669586889484 0.0 0.0 -4.334793444742 7.508078985966 0.0 0.0 0.0 31.073177673002" Properties=species:S:1:pos:R:3:forces:R:3 branch_id=tetradymite__Bi2Te3__Cr1__ingap_1-7__reused_path_s42 image_index=2 system_id=tetradymite__Bi2Te3__Cr1__ingap_1-7__reused_path_s42 mapping_role=material_transfer_reused_path energy=-227.4845711073293 mlff_rel_energy_eV=-3.399630477701777 mlff_fmax_eV_A=0.41967092229193725 calculator_label=/home/ycao73/.cache/mace/20231203mace128L1_epoch199model neb_image=2 neb_protocol=mlff_pre_neb pbc="T T T"
Te       2.15538113       1.24878680       3.80995665       0.00192348      -0.00127884      -0.00288276
Te       4.33100428       5.01707494       3.80995668       0.00206928      -0.00102639      -0.00288293
Te       6.50641691       1.24890829       3.79057006      -0.00167455       0.00096683       0.00007915
Te       0.02176725       4.99282086       3.78598720       0.00113140      -0.00065324       0.00016848
Te      -0.04831320       0.02789454       6.45786584       0.02420464      -0.01397446       0.02564780
Te       2.27777061       3.69031617       6.50957681       0.00711977      -0.00411054       0.01753414
Te       4.34126582      -0.04769162       6.42236531       0.00857900      -0.00944866       0.02480110
Te      -2.12285719       3.77228158       6.42236521       0.01247232      -0.00270535       0.02480123
Te       0.00835892      -0.00482447      -0.02513638      -0.00090614       0.00052316       0.00452273
Te       2.17316099       3.75071298      -0.01000770      -0.00471380       0.00272150      -0.00124353
Te       4.32962029       0.01379404       0.00353951      -0.00031667      -0.00005183      -0.00121122
Te      -2.18192790       3.75162489       0.00353953      -0.00011348       0.00030013      -0.00121120
Te      -0.13150843       2.22527952      14.16874967       0.02431482      -0.01841772       0.01272226
Te       2.34189147       6.50933078      14.16874914       0.02810771      -0.01184831       0.01272248
Te       4.22686847       2.56500562      14.10410918       0.04117708      -0.02377351       0.00681192
Te      -1.73537510       6.00730720      14.22000235      -0.04858257       0.02804906      -0.00501889
Te       2.13484136       1.29336229      16.92347370       0.00703798       0.00039266       0.01875541
Te       4.28212966       5.01257306      16.92347403       0.00317900      -0.00629145       0.01875528
Te       6.40608093       1.30683592      16.95752372       0.00941604      -0.00543634       0.01784599
Te      -0.05162055       5.03518954      17.22265849       0.01842303      -0.01063661      -0.03447934
Te       2.25329059       1.28650376      10.26769682       0.01233694      -0.00918014       0.01190588
Te       4.34729445       4.91342375      10.26769687       0.01411877      -0.00609411       0.01190589
Te       6.71831069       1.12657110      10.37118117      -0.01094652       0.00632012      -0.00829981
Te      -0.06528456       5.04307957      10.25393789       0.03432239      -0.01981606       0.01971983
Te      -0.06873433       0.03968565      24.70938853       0.01143261      -0.00660070      -0.00833965
Te       2.11625549       3.78356803      24.58855828      -0.00673592       0.00388895      -0.01004481
Te       4.28581739       0.00266823      24.58057567      -0.00067257       0.00743726      -0.00388292
Te      -2.19419363       3.79512297      24.58057546      -0.00677727      -0.00313621      -0.00388298
Te      -0.00927090       2.52760126      27.27316598      -0.00269778      -0.00035802      -0.00058787
Te       2.14119095       6.25230855      27.27316600      -0.00103890       0.00251539      -0.00058796
Te       4.33591414       2.50204690      27.23516922      -0.00275251       0.00158912       0.00484218
Te      -2.16198266       6.25360751      27.26023721      -0.00355042       0.00204991       0.00082083
Te      -0.05730349       2.51191093      20.75858697       0.00704496       0.00166877      -0.00141947
Te       2.13076326       6.30175187      20.75858662       0.00207723      -0.00693552      -0.00141940
Te       4.25771435       2.54719578      20.92435904       0.01262462      -0.00728885      -0.00729957
Te      -2.23293952       6.29457509      20.76583096      -0.00067882       0.00039186      -0.00145729
Bi       0.02101659       2.54044799       8.22015125       0.01635587      -0.01111456       0.00910106
Bi       2.14520915       6.21965614       8.22015114       0.01780347      -0.00860711       0.00910130
Bi       4.48702204       2.41480543       8.20667753       0.00794585      -0.00458756       0.00190026
Bi      -2.19525854       6.27281980       8.17670021       0.01637172      -0.00945223       0.03595382
Bi       0.00337402       2.49576560       2.02182216      -0.00142734      -0.00142153      -0.00800081
Bi       2.17508460       6.25727689       2.02182207       0.00051744       0.00194685      -0.00800075
Bi       4.32636276       2.50756232       2.06226261      -0.00133249       0.00076930      -0.01523771
Bi      -2.16538191       6.25557106       2.04926889       0.00307122      -0.00177321      -0.01248022
Bi      -0.05251963       0.03032348      18.65179568       0.01417490      -0.00818388       0.01335810
Bi       2.20931618       3.72983827      18.78371381       0.00789619      -0.00455885       0.00072187
Bi       4.27616015       0.19877856      18.81743623      -0.00304219      -0.01770289       0.00185673
Bi       6.30072678       3.70542963      18.81743672       0.01381007       0.01148599       0.00185676
Bi       0.39131210      -0.22592169      12.21658075      -0.01798612       0.01038420      -0.04037952
Bi       2.09835784       3.79390095      12.30305113       0.03262074      -0.01883360       0.03157497
Bi       4.42315153       0.07240362      12.32919380       0.00949390      -0.02495437       0.02059258
Bi      -2.18591969       3.64132041      12.32919382       0.02635806       0.00425530       0.02059287
Bi       2.17229138       1.25682235      29.00314253      -0.00433303       0.00192909       0.01593993
Bi       4.33249960       4.99841099      29.00314265      -0.00383709       0.00278803       0.01593994
Bi       6.49341168       1.25641600      29.01910398      -0.00053889       0.00031122       0.01479826
Bi      -0.01162019       5.01209622      29.05630513      -0.00304773       0.00175958       0.00839557
Bi       2.06057521       1.24303798      22.88809493       0.00031568       0.00734229      -0.01758003
Bi       4.28857964       5.10205281      22.88809464      -0.00620083      -0.00394468      -0.01757997
Bi       6.48397240       1.26186616      22.87209557       0.01243528      -0.00717950      -0.00942740
Bi      -0.03360025       5.02478699      22.77956232      -0.00955720       0.00551767      -0.00973129
Cr       0.89286626       4.48989129      14.87456630      -0.31882259       0.18407258      -0.20147734
61
Lattice="8.669586889484 0.0 0.0 -4.334793444742 7.508078985966 0.0 0.0 0.0 31.073177673002" Properties=species:S:1:pos:R:3:forces:R:3 branch_id=tetradymite__Bi2Te3__Cr1__ingap_1-7__reused_path_s42 image_index=3 system_id=tetradymite__Bi2Te3__Cr1__ingap_1-7__reused_path_s42 mapping_role=material_transfer_reused_path energy=-228.14892995136242 mlff_rel_energy_eV=-4.063989321734908 mlff_fmax_eV_A=0.03252314804097673 calculator_label=/home/ycao73/.cache/mace/20231203mace128L1_epoch199model neb_image=3 neb_protocol=mlff_pre_neb pbc="T T T"
Te       2.16719265       1.24235857       3.81754655       0.00193613       0.00030157       0.01178005
Te       4.34247701       5.01005999       3.81754654       0.00070693      -0.00182756       0.01177987
Te       6.51567185       1.24356495       3.81529159       0.00124929      -0.00072124       0.01292749
Te       0.01023345       4.99947991       3.79760096      -0.00103608       0.00059813       0.01019854
Te       0.02513628      -0.01451158       6.55249828       0.00083083      -0.00047957       0.01297061
Te       2.17426026       3.75007777       6.49242703      -0.00795135       0.00459064       0.00637582
Te       4.36428991      -0.04240600       6.48971765      -0.00262644      -0.00089291      -0.00144975
Te      -2.11592304       3.74969912       6.48971739      -0.00053993       0.00272100      -0.00144955
Te       0.00613885      -0.00354274      -0.00777459       0.00042353      -0.00024444       0.00299044
Te       2.17588869       3.74913815       0.00529612       0.00121373      -0.00070078       0.00099570
Te       4.33928019       0.00329634       0.00645245       0.00143901      -0.00162826       0.00140806
Te      -2.16800671       3.74850798       0.00645247       0.00212968      -0.00043208       0.00140809
Te       0.03236443       2.36056313      14.26653574      -0.00889112       0.00657363      -0.00288994
Te       2.30666865       6.29977174      14.26653551      -0.01013850       0.00441311      -0.00288988
Te       4.36431457       2.48565102      14.23074822      -0.00530121       0.00306069       0.02541354
Te      -2.26876258       6.31525791      14.27200102       0.02621169      -0.01513334      -0.01190314
Te       2.18612091       1.24801567      16.97124646       0.00002912       0.00017978      -0.01653730
Te       4.34704080       4.99083705      16.97124642      -0.00014108      -0.00011512      -0.01653742
Te       6.50529089       1.24955706      16.96603934       0.00060043      -0.00034659      -0.01559631
Te       0.01218054       4.99835443      16.90701203       0.00069931      -0.00040379       0.01747650
Te       2.21659629       1.24478111      10.32520219       0.00488604       0.00606459       0.00663900
Te       4.36508030       4.96606267      10.32520251      -0.00280894      -0.00726372       0.00663893
Te       6.50676967       1.24870407      10.32541395      -0.00980440       0.00566070       0.00817060
Te       0.02918383       4.98853821      10.37656888      -0.00319492       0.00184452      -0.00689331
Te       0.00791748      -0.00456906      24.59165230       0.00035666      -0.00020594       0.00449049
Te       2.16786634       3.75377046      24.58032871       0.00728131      -0.00420383       0.00255831
Te       4.34273674      -0.00542808      24.58193970      -0.00031002       0.00276460       0.00503190
Te      -2.15872234       3.74987766      24.58193969      -0.00254927      -0.00111382       0.00503183
Te       0.00296694       2.50620003      27.27151629       0.00175711      -0.00216345      -0.01468769
Te       2.16584384       6.25241087      27.27151630       0.00275208      -0.00043996      -0.01468779
Te       4.33855858       2.50052012      27.25772100       0.00146394      -0.00084527      -0.01142454
Te      -2.15974431       6.25231523      27.27037770       0.00014832      -0.00008557      -0.01379737
Te       0.00981671       2.49883521      20.76709532      -0.00079599       0.00421277      -0.00501747
Te       2.17564734       6.25016214      20.76709535      -0.00404634      -0.00141711      -0.00501742
Te       4.34509347       2.49674774      20.75170545      -0.00013025       0.00007523      -0.00927319
Te      -2.16148714       6.25332207      20.76367795       0.00754913      -0.00435857      -0.00189388
Bi       0.02892936       2.50490602       8.29460674       0.00115756      -0.00776020      -0.01914290
Bi       2.17994599       6.23057428       8.29460681       0.00729937       0.00287754      -0.01914263
Bi       4.36746130       2.48383357       8.16867717      -0.01293408       0.00746751      -0.01533673
Bi      -2.12303825       6.23112323       8.28581961      -0.00984721       0.00568525      -0.00757853
Bi       0.00643742       2.49146713       2.04350545       0.00119133       0.00072924       0.00759064
Bi       2.18033888       6.25677317       2.04350531      -0.00003580      -0.00139643       0.00759079
Bi       4.33891213       2.50031691       2.06795047       0.00238148      -0.00137487       0.00999042
Bi      -2.16513869       6.25543064       2.04594786       0.00060598      -0.00034998       0.00766812
Bi       0.00638355      -0.00368436      18.72326361       0.00393790      -0.00227347       0.00609818
Bi       2.20019490       3.73510469      18.72808849      -0.00075913       0.00043825      -0.00883914
Bi       4.34722181       0.01744497      18.72873076      -0.00181418       0.00128407      -0.00898346
Bi       6.49329741       3.73455542      18.72873084      -0.00201907       0.00092911      -0.00898340
Bi       0.02426834      -0.01400932      12.07511741       0.00447858      -0.00258579       0.02442903
Bi       2.21310175       3.72765332      12.44930642      -0.01377661       0.00795404       0.00965687
Bi       4.35945089      -0.00106477      12.45494655      -0.00280614      -0.00503652       0.00744196
Bi      -2.15414425       3.73322055      12.45494679       0.00295864       0.00494852       0.00744208
Bi       2.17423004       1.25172659      29.02380940      -0.00023827      -0.00236688      -0.00200610
Bi       4.33788200       4.99927999      29.02380946       0.00193074       0.00138973      -0.00200601
Bi       6.50206000       1.25142288      29.02560915       0.00332050      -0.00191698      -0.00295862
Bi       0.00234181       5.00403524      29.04294160       0.00121801      -0.00070336      -0.00709745
Bi       2.17049390       1.24499576      22.83089335       0.00042100       0.00109880      -0.00592092
Bi       4.34184345       5.00588173      22.83089333      -0.00074100      -0.00091405      -0.00592084
Bi       6.51580645       1.24348691      22.82881042      -0.00066398       0.00038344      -0.00466406
Bi       0.00202511       5.00421862      22.81054946       0.00562375      -0.00324699       0.01169674
Cr       0.01286216       4.99796248      14.15805458       0.00571222      -0.00329799       0.01663611
61
Lattice="8.669586889484 0.0 0.0 -4.334793444742 7.508078985966 0.0 0.0 0.0 31.073177673002" Properties=species:S:1:pos:R:3:forces:R:3 branch_id=tetradymite__Bi2Te3__Cr1__ingap_1-7__reused_path_s42 image_index=4 system_id=tetradymite__Bi2Te3__Cr1__ingap_1-7__reused_path_s42 mapping_role=material_transfer_reused_path energy=-224.7994996468269 mlff_rel_energy_eV=-0.7145590171993774 mlff_fmax_eV_A=1.3380726569034624 calculator_label=/home/ycao73/.cache/mace/20231203mace128L1_epoch199model neb_image=4 neb_protocol=mlff_pre_neb pbc="T T T"
Te       2.16110135       1.24771244       3.52495313       0.01427909       0.00825369       1.11664984
Te       4.33479348       5.01265766       3.52495313      -0.00000011      -0.01649107       1.11664274
Te       6.50848561       1.24771244       3.52495313      -0.01427926       0.00825364       1.11664997
Te       0.00000000       5.00538836       3.51818557       0.00000001      -0.00000286       1.09532513
Te       0.00000000       0.00000000       6.81430336       0.00000001       0.00000618      -1.05029335
Te       2.18389641       3.74451518       6.78221183      -0.36239298       0.20922433      -1.27095227
Te       4.33479348       0.01905219       6.78221183      -0.00000008      -0.41845002      -1.27095949
Te      -2.18389641       3.74451518       6.78221183       0.36239321       0.20922442      -1.27095245
Te       0.00000000       0.00000000       0.01305794       0.00000007       0.00000713      -0.06207254
Te       2.16864507       3.75332055       0.00156126       0.01500777      -0.00866647       0.00087259
Te       4.33479348       0.00144146       0.00156126      -0.00000009       0.01733656       0.00087217
Te      -2.16864507       3.75332055       0.00156126      -0.01500765      -0.00866645       0.00087260
Te       0.00000000       2.35426736      14.24203686       0.00000005      -0.02454954       0.35972964
Te       2.29593815       6.33094887      14.24203686       0.02126500       0.01227281       0.35973193
Te       4.33479348       2.50269418      13.81801103      -0.00000015       0.00000332       1.11850513
Te      -2.29593815       6.33094887      14.24203686      -0.02126485       0.01227284       0.35973186
Te       2.16830324       1.25187046      17.19725855      -0.01307720      -0.00754713      -1.10149192
Te       4.33479348       5.00434163      17.19725855      -0.00000008       0.01509132      -1.10149926
Te       6.50128372       1.25187046      17.19725855       0.01307703      -0.00754711      -1.10149204
Te       0.00000000       5.00538836      16.96030023       0.00000012      -0.00000814      -0.09780723
Te       2.13611185       1.23328474      10.29466250       0.44333579       0.25596763       0.37609792
Te       4.33479348       5.04151307      10.29466250      -0.00000007      -0.51193254       0.37609343
Te       6.53347511       1.23328474      10.29466250      -0.44333609       0.25596770       0.37609788
Te       0.00000000       5.00538836      10.28138029       0.00000005      -0.00000582       0.33972603
Te       0.00000000       0.00000000      24.27587282       0.00000013       0.00000783       0.90123058
Te       2.17744008       3.74824275      24.22539972       0.00466966      -0.00269432       1.13634784
Te       4.33479348       0.01159705      24.22539972      -0.00000008       0.00540144       1.13635544
Te      -2.17744008       3.74824275      24.22539972      -0.00466956      -0.00269435       1.13634798
Te       0.00000000       2.50659620      27.56110809       0.00000014      -0.01573096      -1.18486224
Te       2.16401749       6.25478444      27.56110809       0.01362195       0.00785559      -1.18486956
Te       4.33479348       2.50269418      27.57665428      -0.00000007      -0.00000168      -1.28255418
Te      -2.16401749       6.25478444      27.56110809      -0.01362184       0.00785567      -1.18486969
Te       0.00000000       2.49942374      20.71460143       0.00000014       0.14551104      -0.13566190
Te       2.17022902       6.25837068      20.71460143      -0.12601553      -0.07276223      -0.13566172
Te       4.33479348       2.50269418      20.75286115      -0.00000010       0.00000099      -0.48287758
Te      -2.17022902       6.25837068      20.71460143       0.12601565      -0.07276217      -0.13566174
Bi       0.00000000       2.50189333       8.44616721       0.00000013      -0.10246960       0.10815202
Bi       2.16809030       6.25713588       8.44616721       0.08874214       0.05122764       0.10815534
Bi       4.33479348       2.50269418       8.20720571      -0.00000024       0.00000153       1.00914228
Bi      -2.16809030       6.25713588       8.44616721      -0.08874202       0.05122781       0.10815532
Bi       0.00000000       2.49615035       1.90717768       0.00000017       0.04291776      -0.28205526
Bi       2.17306386       6.26000737       1.90717768      -0.03716366      -0.02146797      -0.28205491
Bi       4.33479348       2.50269418       1.92335457      -0.00000009       0.00000498      -0.30300605
Bi      -2.17306386       6.26000737       1.90717768       0.03716380      -0.02146783      -0.28205496
Bi       0.00000000       0.00000000      18.84333576       0.00000012       0.00001110       0.26322003
Bi       2.16408197       3.75595506      18.74872235      -0.07428131       0.04288163       0.41130407
Bi       4.33479348      -0.00382757      18.74872235      -0.00000005      -0.08576309       0.41130327
Bi       6.50550498       3.75595506      18.74872235       0.07428125       0.04288163       0.41130414
Bi       0.00000000       0.00000000      11.89561598       0.00000018       0.00000802       0.55515634
Bi       2.03509956       3.83042310      12.49915850      -0.01789171       0.01032924      -0.38390868
Bi       4.33479348      -0.15276365      12.49915850      -0.00000011      -0.02065440      -0.38391242
Bi      -2.03509956       3.83042310      12.49915850       0.01789181       0.01032934      -0.38390872
Bi       2.16943848       1.25252589      29.15782371      -0.04554363      -0.02628388       0.39400991
Bi       4.33479348       5.00303076      29.15782371      -0.00000019       0.05258331       0.39400694
Bi       6.50014847       1.25252589      29.15782371       0.04554354      -0.02628400       0.39400991
Bi       0.00000000       5.00538836      29.16113455       0.00000008      -0.00000599       0.37741501
Bi       2.16074172       1.24750482      22.60727926      -0.06702066      -0.03868778      -0.15038957
Bi       4.33479348       5.01307291      22.60727926      -0.00000016       0.07737905      -0.15039203
Bi       6.50884523       1.24750482      22.60727926       0.06702058      -0.03868779      -0.15038964
Bi       0.00000000       5.00538836      22.66191640       0.00000004      -0.00001107      -0.33360687
Cr       0.00000000       5.00538836      14.36954061      -0.00000002      -0.00000096      -0.22899702
