
     Program PWSCF v.7.3.1 starts on 13Sep2026 at 19:51:46 

     This program is part of the open-source Quantum ESPRESSO suite
     for quantum simulation of materials; please cite
         "P. Giannozzi et al., J. Phys.:Condens. Matter 21 395502 (2009);
         "P. Giannozzi et al., J. Phys.:Condens. Matter 29 465901 (2017);
         "P. Giannozzi et al., J. Chem. Phys. 152 154105 (2020);
          URL http://www.quantum-espresso.org", 
     in publications or presentations arising from this work. More details at
     http://www.quantum-espresso.org/quote

     Parallel version (MPI), running on     5 processors

     MPI processes distributed on     1 nodes
     155549 MiB available memory on the printing compute node when the environment starts
 
     Reading input from scf.in

     Current dimensions of program PWSCF are:
     Max number of different atomic species (ntypx) = 10
     Max number of k-points (npk) =  40000
     Max angular momentum in pseudopotentials (lmaxx) =  4
     Message from routine setup:
     using ibrav=0 with symmetry is DISCOURAGED, use correct ibrav instead
 
     K-points division:     npool     =       5
     Subspace diagonalization in iterative solution of the eigenvalue problem:
     a serial algorithm will be used

 
     G-vector sticks info
     --------------------
     sticks:   dense  smooth     PW     G-vecs:    dense   smooth      PW
     Sum        3481    3481    931               615191   615191   85127
 
     Using Slab Decomposition
 


     bravais-lattice index     =            0
     lattice parameter (alat)  =      15.9274  a.u.
     unit-cell volume          =   12884.0056 (a.u.)^3
     number of atoms/cell      =           61
     number of atomic types    =            3
     number of electrons       =       950.00
     number of Kohn-Sham states=          570
     kinetic-energy cutoff     =      50.0000  Ry
     charge density cutoff     =     200.0000  Ry
     scf convergence threshold =      1.0E-06
     mixing beta               =       0.2000
     number of iterations used =            8  local-TF  mixing
     Exchange-correlation= PBE
                           (   1   4   3   4   0   0   0)

     celldm(1)=  15.927435  celldm(2)=   0.000000  celldm(3)=   0.000000
     celldm(4)=   0.000000  celldm(5)=   0.000000  celldm(6)=   0.000000

     crystal axes: (cart. coord. in units of alat)
               a(1) = (   1.000000   0.000000   0.000000 )  
               a(2) = (  -0.500000   0.866025   0.000000 )  
               a(3) = (   0.000000   0.000000   3.681993 )  

     reciprocal axes: (cart. coord. in units 2 pi/alat)
               b(1) = (  1.000000  0.577351  0.000000 )  
               b(2) = (  0.000000  1.154701  0.000000 )  
               b(3) = (  0.000000  0.000000  0.271592 )  


     PseudoPot. # 1 for Cr read from file:
     /data/pclancy3/yi/ONCVPseudoPack/SG15_v1.2/UPF/PBE/Cr_PBE_FR.SG15v1.2.UPF
     MD5 check sum: 19291ff833b3d067f23df56d5404fde6
     Pseudo is Norm-conserving, Zval = 14.0
     Generated using ONCVPSP code by D. R. Hamann
     Using radial grid of 1490 points,  6 beta functions with: 
                l(1) =   0
                l(2) =   0
                l(3) =   1
                l(4) =   1
                l(5) =   2
                l(6) =   2

     PseudoPot. # 2 for Sb read from file:
     /data/pclancy3/yi/ONCVPseudoPack/SG15_v1.2/UPF/PBE/Sb_PBE_FR.SG15v1.2.UPF
     MD5 check sum: 0e999992813bf262e14e71941f404476
     Pseudo is Norm-conserving, Zval = 15.0
     Generated using ONCVPSP code by D. R. Hamann
     Using radial grid of 1468 points,  6 beta functions with: 
                l(1) =   0
                l(2) =   0
                l(3) =   1
                l(4) =   1
                l(5) =   2
                l(6) =   2

     PseudoPot. # 3 for Te read from file:
     /data/pclancy3/yi/ONCVPseudoPack/SG15_v1.2/UPF/PBE/Te_PBE_FR.SG15v1.2.UPF
     MD5 check sum: 7c59b7da87cf03000ce4d32f994025eb
     Pseudo is Norm-conserving, Zval = 16.0
     Generated using ONCVPSP code by D. R. Hamann
     Using radial grid of 1324 points,  6 beta functions with: 
                l(1) =   0
                l(2) =   0
                l(3) =   1
                l(4) =   1
                l(5) =   2
                l(6) =   2

     atomic species   valence    mass     pseudopotential
     Cr               14.00    51.99610     Cr( 1.00)
     Sb               15.00   121.76000     Sb( 1.00)
     Te               16.00   127.60000     Te( 1.00)

      2 Sym. Ops. (no inversion) found


                                    s                        frac. trans.

      isym =  1     identity                                     

 cryst.   s( 1) = (     1          0          0      )
                  (     0          1          0      )
                  (     0          0          1      )

 cart.    s( 1) = (  1.0000000  0.0000000  0.0000000 )
                  (  0.0000000  1.0000000  0.0000000 )
                  (  0.0000000  0.0000000  1.0000000 )


      isym =  2     inv. 180 deg rotation - cryst. axis [1,1,0]  

 cryst.   s( 2) = (     0         -1          0      )
                  (    -1          0          0      )
                  (     0          0          1      )

 cart.    s( 2) = (  0.5000000 -0.8660258  0.0000000 )
                  ( -0.8660250 -0.5000000  0.0000000 )
                  (  0.0000000  0.0000000  1.0000000 )


   Cartesian axes

     site n.     atom                  positions (alat units)
         1        Te     tau(   1) = (   0.2504815   0.1441053   0.4093658  )
         2        Te     tau(   2) = (   0.0004419  -0.2889755   0.4093658  )
         3        Te     tau(   3) = (  -0.2507454   0.1447679   0.4082255  )
         4        Te     tau(   4) = (   0.4997474  -0.2885289   0.4077285  )
         5        Te     tau(   5) = (  -0.0075286   0.0043467   0.8158063  )
         6        Te     tau(   6) = (  -0.2516027  -0.4320870   0.8194250  )
         7        Te     tau(   7) = (  -0.4975853  -0.0036749   0.8188690  )
         8        Te     tau(   8) = (  -0.2456101   0.4327590   0.8188690  )
         9        Te     tau(   9) = (  -0.0000973   0.0000562  -0.0006477  )
        10        Te     tau(  10) = (  -0.2504636  -0.4327446  -0.0002762  )
        11        Te     tau(  11) = (  -0.4997389  -0.0002934  -0.0003157  )
        12        Te     tau(  12) = (   0.2503846  -0.4330917  -0.0003157  )
        13        Te     tau(  13) = (   0.0012591   0.2845182   1.6375071  )
        14        Te     tau(  14) = (  -0.2457704  -0.1433491   1.6375071  )
        15        Te     tau(  15) = (  -0.5131659   0.2962765   1.6707890  )
        16        Te     tau(  16) = (   0.2496631  -0.1441427   1.6344640  )
        17        Te     tau(  17) = (   0.2301269   0.1081313  -1.6733153  )
        18        Te     tau(  18) = (   0.0214190  -0.2533610  -1.6733153  )
        19        Te     tau(  19) = (  -0.2362759   0.1364139  -1.6761777  )
        20        Te     tau(  20) = (   0.5183383  -0.2992624  -1.6343251  )
        21        Te     tau(  21) = (   0.2526529   0.1448342   1.2291853  )
        22        Te     tau(  22) = (   0.0008963  -0.2912206   1.2291853  )
        23        Te     tau(  23) = (  -0.2505505   0.1446554   1.2288248  )
        24        Te     tau(  24) = (   0.4947890  -0.2856661   1.2286713  )
        25        Te     tau(  25) = (   0.0033030  -0.0019070  -0.8113510  )
        26        Te     tau(  26) = (  -0.2580132  -0.4283858  -0.8144953  )
        27        Te     tau(  27) = (   0.4955535  -0.0040821  -0.8147187  )
        28        Te     tau(  28) = (   0.2513120  -0.4271205  -0.8147187  )
        29        Te     tau(  29) = (   0.0003259   0.2876286  -0.4108425  )
        30        Te     tau(  30) = (  -0.2489307  -0.1440961  -0.4108425  )
        31        Te     tau(  31) = (  -0.5001361   0.2887537  -0.4099728  )
        32        Te     tau(  32) = (   0.2489158  -0.1437112  -0.4105963  )
        33        Te     tau(  33) = (  -0.0037063   0.2885125  -1.2167747  )
        34        Te     tau(  34) = (  -0.2517123  -0.1410461  -1.2167747  )
        35        Te     tau(  35) = (  -0.4979601   0.2874974  -1.2137279  )
        36        Te     tau(  36) = (   0.2437722  -0.1407415  -1.2137520  )
        37        Sb     tau(  37) = (   0.0001056   0.2880253   1.0115668  )
        38        Sb     tau(  38) = (  -0.2493844  -0.1441037   1.0115668  )
        39        Sb     tau(  39) = (  -0.4992037   0.2882154   1.0017430  )
        40        Sb     tau(  40) = (   0.2490895  -0.1438115   1.0063009  )
        41        Sb     tau(  41) = (   0.0000623   0.2887855   0.2214169  )
        42        Sb     tau(  42) = (  -0.2500644  -0.1444463   0.2214169  )
        43        Sb     tau(  43) = (  -0.5000633   0.2887117   0.2203568  )
        44        Sb     tau(  44) = (   0.2500394  -0.1443599   0.2210172  )
        45        Sb     tau(  45) = (  -0.0183947   0.0106202  -1.4080993  )
        46        Sb     tau(  46) = (  -0.2006258  -0.4615185  -1.5093979  )
        47        Sb     tau(  47) = (  -0.5240701   0.0010812  -1.4777104  )
        48        Sb     tau(  48) = (  -0.2629714   0.4533175  -1.4777104  )
        49        Sb     tau(  49) = (   0.0008175  -0.0004720   1.4407252  )
        50        Sb     tau(  50) = (  -0.2505524  -0.4326934   1.4548600  )
        51        Sb     tau(  51) = (   0.5003117   0.0009334   1.4598474  )
        52        Sb     tau(  52) = (   0.2493475  -0.4337489   1.4598474  )
        53        Sb     tau(  53) = (   0.2494076   0.1439838  -0.2204439  )
        54        Sb     tau(  54) = (   0.0000101  -0.2879848  -0.2204439  )
        55        Sb     tau(  55) = (  -0.2493998   0.1439911  -0.2208655  )
        56        Sb     tau(  56) = (   0.5000492  -0.2887031  -0.2231034  )
        57        Sb     tau(  57) = (   0.2476694   0.1473121  -1.0058866  )
        58        Sb     tau(  58) = (  -0.0037413  -0.2881436  -1.0058866  )
        59        Sb     tau(  59) = (  -0.2491205   0.1438298  -1.0053241  )
        60        Sb     tau(  60) = (   0.4936530  -0.2850103  -0.9889676  )
        61        Cr     tau(  61) = (   0.0096321  -0.5829110   1.9789930  )

     --------------------------------------------
     DFT-D3 Dispersion Correction (3-body terms):
     --------------------------------------------
       Reference C6 values for interpolation: 

         atom   Coordination number   C6
         Cr         0.000          1381.48
         Cr         1.827           571.38
         Cr        10.619           306.69
         Sb         0.000           985.88
         Sb         0.975           946.94
         Sb         1.952           896.11
         Sb         2.932           834.76
         Te         0.000           851.07
         Te         0.981           850.20
         Te         1.964           837.16

       Values used:

         atom   Coordination number  R0_AB[au]  C6      C8
         Te         3.088            3.676    837.16  84978.06
         Te         3.088            3.676    837.16  84978.06
         Te         3.104            3.676    837.16  84978.06
         Te         3.110            3.676    837.16  84978.06
         Te         3.053            3.676    837.16  84978.06
         Te         3.079            3.676    837.16  84978.06
         Te         3.097            3.676    837.16  84978.06
         Te         3.097            3.676    837.16  84978.06
         Te         5.131            3.676    837.16  84978.05
         Te         5.110            3.676    837.16  84978.05
         Te         5.109            3.676    837.16  84978.05
         Te         5.109            3.676    837.16  84978.05
         Te         3.196            3.676    837.16  84978.06
         Te         3.196            3.676    837.16  84978.06
         Te         3.908            3.676    837.16  84978.05
         Te         3.283            3.676    837.16  84978.06
         Te         4.085            3.676    837.16  84978.05
         Te         4.085            3.676    837.16  84978.05
         Te         3.629            3.676    837.16  84978.06
         Te         3.084            3.676    837.16  84978.06
         Te         5.058            3.676    837.16  84978.05
         Te         5.058            3.676    837.16  84978.05
         Te         5.063            3.676    837.16  84978.05
         Te         4.997            3.676    837.16  84978.05
         Te         3.087            3.676    837.16  84978.06
         Te         3.119            3.676    837.16  84978.06
         Te         3.123            3.676    837.16  84978.06
         Te         3.123            3.676    837.16  84978.06
         Te         3.099            3.676    837.16  84978.06
         Te         3.099            3.676    837.16  84978.06
         Te         3.077            3.676    837.16  84978.06
         Te         3.106            3.676    837.16  84978.06
         Te         4.286            3.676    837.16  84978.05
         Te         4.286            3.676    837.16  84978.05
         Te         4.615            3.676    837.16  84978.05
         Te         4.958            3.676    837.16  84978.05
         Sb         5.442            3.794    834.76  89580.53
         Sb         5.442            3.794    834.76  89580.53
         Sb         5.361            3.794    834.76  89580.53
         Sb         5.388            3.794    834.76  89580.53
         Sb         5.424            3.794    834.76  89580.53
         Sb         5.424            3.794    834.76  89580.53
         Sb         5.429            3.794    834.76  89580.53
         Sb         5.426            3.794    834.76  89580.53
         Sb         5.172            3.794    834.76  89580.53
         Sb         5.171            3.794    834.76  89580.53
         Sb         5.200            3.794    834.76  89580.53
         Sb         5.200            3.794    834.76  89580.53
         Sb         5.511            3.794    834.76  89580.53
         Sb         5.320            3.794    834.76  89580.53
         Sb         5.228            3.794    834.76  89580.53
         Sb         5.228            3.794    834.76  89580.53
         Sb         5.431            3.794    834.76  89580.53
         Sb         5.431            3.794    834.76  89580.53
         Sb         5.428            3.794    834.76  89580.53
         Sb         5.399            3.794    834.76  89580.53
         Sb         5.543            3.794    834.76  89580.53
         Sb         5.543            3.794    834.76  89580.53
         Sb         5.535            3.794    834.76  89580.53
         Sb         5.379            3.794    834.76  89580.53
         Cr         5.919            3.252    571.38  52732.00

         Molecular C6 ( Ry / a.u.^6 ) =   3092416.24


   Crystallographic axes

     site n.     atom                  positions (cryst. coord.)
         1        Te     tau(   1) = (  0.3336807  0.1663985  0.1111805  )
         2        Te     tau(   2) = ( -0.1663983 -0.3336804  0.1111805  )
         3        Te     tau(   3) = ( -0.1671635  0.1671637  0.1108708  )
         4        Te     tau(   4) = (  0.3331651 -0.3331646  0.1107358  )
         5        Te     tau(   5) = ( -0.0050191  0.0050191  0.2215665  )
         6        Te     tau(   6) = ( -0.5010683 -0.4989313  0.2225493  )
         7        Te     tau(   7) = ( -0.4997070 -0.0042434  0.2223983  )
         8        Te     tau(   8) = (  0.0042435  0.4997072  0.2223983  )
         9        Te     tau(   9) = ( -0.0000648  0.0000648 -0.0001759  )
        10        Te     tau(  10) = ( -0.5003090 -0.4996907 -0.0000750  )
        11        Te     tau(  11) = ( -0.4999083 -0.0003388 -0.0000857  )
        12        Te     tau(  12) = (  0.0003389 -0.5000915 -0.0000857  )
        13        Te     tau(  13) = (  0.1655259  0.3285335  0.4447339  )
        14        Te     tau(  14) = ( -0.3285331 -0.1655254  0.4447339  )
        15        Te     tau(  15) = ( -0.3421105  0.3421108  0.4537730  )
        16        Te     tau(  16) = (  0.1664423 -0.1664417  0.4439074  )
        17        Te     tau(  17) = (  0.2925565  0.1248593 -0.4544591  )
        18        Te     tau(  18) = ( -0.1248591 -0.2925562 -0.4544591  )
        19        Te     tau(  19) = ( -0.1575172  0.1575173 -0.4552365  )
        20        Te     tau(  20) = (  0.3455590 -0.3455586 -0.4438697  )
        21        Te     tau(  21) = (  0.3362731  0.1672402  0.3338369  )
        22        Te     tau(  22) = ( -0.1672400 -0.3362727  0.3338369  )
        23        Te     tau(  23) = ( -0.1670336  0.1670338  0.3337390  )
        24        Te     tau(  24) = (  0.3298595 -0.3298590  0.3336974  )
        25        Te     tau(  25) = (  0.0022020 -0.0022020 -0.2203565  )
        26        Te     tau(  26) = ( -0.5053420 -0.4946576 -0.2212104  )
        27        Te     tau(  27) = (  0.4931967 -0.0047136 -0.2212711  )
        28        Te     tau(  28) = (  0.0047137 -0.4931965 -0.2212711  )
        29        Te     tau(  29) = (  0.1663884  0.3321251 -0.1115815  )
        30        Te     tau(  30) = ( -0.3321247 -0.1663880 -0.1115815  )
        31        Te     tau(  31) = ( -0.3334240  0.3334242 -0.1113453  )
        32        Te     tau(  32) = (  0.1659440 -0.1659434 -0.1115147  )
        33        Te     tau(  33) = (  0.1628665  0.3331457 -0.3304663  )
        34        Te     tau(  34) = ( -0.3331454 -0.1628661 -0.3304663  )
        35        Te     tau(  35) = ( -0.3319733  0.3319736 -0.3296388  )
        36        Te     tau(  36) = (  0.1625150 -0.1625144 -0.3296454  )
        37        Sb     tau(  37) = (  0.1663972  0.3325832  0.2747335  )
        38        Sb     tau(  38) = ( -0.3325828 -0.1663967  0.2747335  )
        39        Sb     tau(  39) = ( -0.3328024  0.3328026  0.2720654  )
        40        Sb     tau(  40) = (  0.1660599 -0.1660593  0.2733033  )
        41        Sb     tau(  41) = (  0.1667928  0.3334610  0.0601351  )
        42        Sb     tau(  42) = ( -0.3334606 -0.1667923  0.0601351  )
        43        Sb     tau(  43) = ( -0.3333755  0.3333757  0.0598472  )
        44        Sb     tau(  44) = (  0.1666931 -0.1666925  0.0600265  )
        45        Sb     tau(  45) = ( -0.0122631  0.0122631 -0.3824286  )
        46        Sb     tau(  46) = ( -0.4670837 -0.5329159 -0.4099405  )
        47        Sb     tau(  47) = ( -0.5234459  0.0012485 -0.4013344  )
        48        Sb     tau(  48) = ( -0.0012484  0.5234462 -0.4013344  )
        49        Sb     tau(  49) = (  0.0005450 -0.0005450  0.3912895  )
        50        Sb     tau(  50) = ( -0.5003681 -0.4996315  0.3951284  )
        51        Sb     tau(  51) = (  0.5008505  0.0010778  0.3964829  )
        52        Sb     tau(  52) = ( -0.0010776 -0.5008503  0.3964829  )
        53        Sb     tau(  53) = (  0.3325367  0.1662583 -0.0598708  )
        54        Sb     tau(  54) = ( -0.1662580 -0.3325364 -0.0598708  )
        55        Sb     tau(  55) = ( -0.1662665  0.1662666 -0.0599853  )
        56        Sb     tau(  56) = (  0.3333663 -0.3333658 -0.0605931  )
        57        Sb     tau(  57) = (  0.3327201  0.1701015 -0.2731908  )
        58        Sb     tau(  58) = ( -0.1701012 -0.3327198 -0.2731908  )
        59        Sb     tau(  59) = ( -0.1660803  0.1660804 -0.2730380  )
        60        Sb     tau(  60) = (  0.3291022 -0.3291017 -0.2685957  )
        61        Cr     tau(  61) = ( -0.3269119 -0.6730879  0.5374787  )

     number of k points=     9  Marzari-Vanderbilt smearing, width (Ry)=  0.0147
                       cart. coord. in units 2pi/alat
        k(    1) = (   0.0000000   0.0000000   0.0000000), wk =   0.0800000
        k(    2) = (   0.0000000   0.2309402   0.0000000), wk =   0.3200000
        k(    3) = (   0.0000000   0.4618804   0.0000000), wk =   0.3200000
        k(    4) = (   0.2000000   0.3464103   0.0000000), wk =   0.1600000
        k(    5) = (   0.2000000   0.5773505   0.0000000), wk =   0.3200000
        k(    6) = (  -0.2000000   0.1154701   0.0000000), wk =   0.1600000
        k(    7) = (  -0.4000000   0.2309402   0.0000000), wk =   0.1600000
        k(    8) = (  -0.2000000   0.3464103   0.0000000), wk =   0.3200000
        k(    9) = (  -0.4000000   0.4618804   0.0000000), wk =   0.1600000

                       cryst. coord.
        k(    1) = (   0.0000000   0.0000000   0.0000000), wk =   0.0800000
        k(    2) = (   0.0000000   0.2000000   0.0000000), wk =   0.3200000
        k(    3) = (   0.0000000   0.4000000   0.0000000), wk =   0.3200000
        k(    4) = (   0.2000000   0.2000000   0.0000000), wk =   0.1600000
        k(    5) = (   0.2000000   0.4000000   0.0000000), wk =   0.3200000
        k(    6) = (  -0.2000000   0.2000000   0.0000000), wk =   0.1600000
        k(    7) = (  -0.4000000   0.4000000   0.0000000), wk =   0.1600000
        k(    8) = (  -0.2000000   0.4000000   0.0000000), wk =   0.3200000
        k(    9) = (  -0.4000000   0.6000000   0.0000000), wk =   0.1600000

     Dense  grid:   615191 G-vectors     FFT dimensions: (  72,  72, 270)

     Dynamical RAM for                 wfc:     669.04 MB

     Dynamical RAM for     wfc (w. buffer):    2007.12 MB

     Dynamical RAM for           str. fact:      28.16 MB

     Dynamical RAM for           local pot:       0.00 MB

     Dynamical RAM for          nlocal pot:    1288.78 MB

     Dynamical RAM for                qrad:       3.41 MB

     Dynamical RAM for          rho,v,vnew:      60.20 MB

     Dynamical RAM for               rhoin:      20.07 MB

     Dynamical RAM for            rho*nmix:     150.19 MB

     Dynamical RAM for           G-vectors:      39.90 MB

     Dynamical RAM for          h,s,v(r/c):      59.49 MB

     Dynamical RAM for          <psi|beta>:       9.55 MB

     Dynamical RAM for                 psi:    1338.08 MB

     Dynamical RAM for                hpsi:    1338.08 MB

     Dynamical RAM for      wfcinit/wfcrot:    1345.52 MB

     Estimated static dynamical RAM per process >       3.46 GB

     Estimated max dynamical RAM per process >       6.28 GB

     Estimated total dynamical RAM >      30.83 GB

     Initial potential from superposition of free atoms

     starting charge     949.9776, renormalised to     950.0000
     Starting wfcs are  550 randomized atomic wfcs +   20 random wfcs

     total cpu time spent up to now is       75.7 secs

     Self-consistent Calculation

     iteration #  1     ecut=    50.00 Ry     beta= 0.20
     Davidson diagonalization with overlap

---- Real-time Memory Report at c_bands before calling an iterative solver
          4453 MiB given to the printing process from OS
             0 MiB allocation reported by mallinfo(arena+hblkhd)
        138671 MiB available memory on the node where the printing process lives
------------------
     ethr =  1.00E-02,  avg # of iterations =  6.8

     total cpu time spent up to now is      346.0 secs

     total energy              =   -9819.10770573 Ry
     estimated scf accuracy    <      14.87757213 Ry

     iteration #  2     ecut=    50.00 Ry     beta= 0.20
     Davidson diagonalization with overlap

---- Real-time Memory Report at c_bands before calling an iterative solver
          6532 MiB given to the printing process from OS
             0 MiB allocation reported by mallinfo(arena+hblkhd)
        138451 MiB available memory on the node where the printing process lives
------------------
     ethr =  1.57E-03,  avg # of iterations =  2.0

     total cpu time spent up to now is      565.7 secs

     total energy              =   -9819.64929875 Ry
     estimated scf accuracy    <       0.72707192 Ry

     iteration #  3     ecut=    50.00 Ry     beta= 0.20
     Davidson diagonalization with overlap

---- Real-time Memory Report at c_bands before calling an iterative solver
          6673 MiB given to the printing process from OS
             0 MiB allocation reported by mallinfo(arena+hblkhd)
        138424 MiB available memory on the node where the printing process lives
------------------
     ethr =  7.65E-05,  avg # of iterations = 17.0

     total cpu time spent up to now is     1003.1 secs

     total energy              =   -9820.02724071 Ry
     estimated scf accuracy    <       0.48557331 Ry

     iteration #  4     ecut=    50.00 Ry     beta= 0.20
     Davidson diagonalization with overlap

---- Real-time Memory Report at c_bands before calling an iterative solver
          6692 MiB given to the printing process from OS
             0 MiB allocation reported by mallinfo(arena+hblkhd)
        138408 MiB available memory on the node where the printing process lives
------------------
     ethr =  5.11E-05,  avg # of iterations =  2.0

     total cpu time spent up to now is     1224.0 secs

     total energy              =   -9820.02345008 Ry
     estimated scf accuracy    <       0.15283223 Ry

     iteration #  5     ecut=    50.00 Ry     beta= 0.20
     Davidson diagonalization with overlap

---- Real-time Memory Report at c_bands before calling an iterative solver
          6711 MiB given to the printing process from OS
             0 MiB allocation reported by mallinfo(arena+hblkhd)
        138387 MiB available memory on the node where the printing process lives
------------------
     c_bands:  1 eigenvalues not converged
     ethr =  1.61E-05,  avg # of iterations = 12.7

     total cpu time spent up to now is     1547.6 secs

     total energy              =   -9820.04540372 Ry
     estimated scf accuracy    <       0.03933371 Ry

     iteration #  6     ecut=    50.00 Ry     beta= 0.20
     Davidson diagonalization with overlap

---- Real-time Memory Report at c_bands before calling an iterative solver
          6730 MiB given to the printing process from OS
             0 MiB allocation reported by mallinfo(arena+hblkhd)
        138371 MiB available memory on the node where the printing process lives
------------------
     ethr =  4.14E-06,  avg # of iterations = 10.2

     total cpu time spent up to now is     1813.1 secs

     total energy              =   -9820.04506901 Ry
     estimated scf accuracy    <       0.03078044 Ry

     iteration #  7     ecut=    50.00 Ry     beta= 0.20
     Davidson diagonalization with overlap

---- Real-time Memory Report at c_bands before calling an iterative solver
          6749 MiB given to the printing process from OS
             0 MiB allocation reported by mallinfo(arena+hblkhd)
        138351 MiB available memory on the node where the printing process lives
------------------
     ethr =  3.24E-06,  avg # of iterations =  4.9

     total cpu time spent up to now is     2057.4 secs

     total energy              =   -9820.04519547 Ry
     estimated scf accuracy    <       0.01957852 Ry

     iteration #  8     ecut=    50.00 Ry     beta= 0.20
     Davidson diagonalization with overlap

---- Real-time Memory Report at c_bands before calling an iterative solver
          6768 MiB given to the printing process from OS
             0 MiB allocation reported by mallinfo(arena+hblkhd)
        138330 MiB available memory on the node where the printing process lives
------------------
     ethr =  2.06E-06,  avg # of iterations =  9.2

     total cpu time spent up to now is     2335.5 secs

     total energy              =   -9820.04567462 Ry
     estimated scf accuracy    <       0.01160525 Ry

     iteration #  9     ecut=    50.00 Ry     beta= 0.20
     Davidson diagonalization with overlap

---- Real-time Memory Report at c_bands before calling an iterative solver
          6787 MiB given to the printing process from OS
             0 MiB allocation reported by mallinfo(arena+hblkhd)
        138314 MiB available memory on the node where the printing process lives
------------------
     ethr =  1.22E-06,  avg # of iterations =  4.0

     total cpu time spent up to now is     2569.7 secs

     total energy              =   -9820.04488019 Ry
     estimated scf accuracy    <       0.00723813 Ry

     iteration # 10     ecut=    50.00 Ry     beta= 0.20
     Davidson diagonalization with overlap

---- Real-time Memory Report at c_bands before calling an iterative solver
          6806 MiB given to the printing process from OS
             0 MiB allocation reported by mallinfo(arena+hblkhd)
        138297 MiB available memory on the node where the printing process lives
------------------
     c_bands:  2 eigenvalues not converged
     ethr =  7.62E-07,  avg # of iterations = 14.7

     total cpu time spent up to now is     2854.0 secs

     total energy              =   -9820.04528032 Ry
     estimated scf accuracy    <       0.00322536 Ry

     iteration # 11     ecut=    50.00 Ry     beta= 0.20
     Davidson diagonalization with overlap

---- Real-time Memory Report at c_bands before calling an iterative solver
          6825 MiB given to the printing process from OS
             0 MiB allocation reported by mallinfo(arena+hblkhd)
        138293 MiB available memory on the node where the printing process lives
------------------
     ethr =  3.40E-07,  avg # of iterations =  3.7

     total cpu time spent up to now is     3086.9 secs

     total energy              =   -9820.04530054 Ry
     estimated scf accuracy    <       0.00106556 Ry

     iteration # 12     ecut=    50.00 Ry     beta= 0.20
     Davidson diagonalization with overlap

---- Real-time Memory Report at c_bands before calling an iterative solver
          6825 MiB given to the printing process from OS
             0 MiB allocation reported by mallinfo(arena+hblkhd)
        138293 MiB available memory on the node where the printing process lives
------------------
     ethr =  1.12E-07,  avg # of iterations =  5.8

     total cpu time spent up to now is     3333.1 secs

     total energy              =   -9820.04544839 Ry
     estimated scf accuracy    <       0.00052894 Ry

     iteration # 13     ecut=    50.00 Ry     beta= 0.20
     Davidson diagonalization with overlap

---- Real-time Memory Report at c_bands before calling an iterative solver
          6825 MiB given to the printing process from OS
             0 MiB allocation reported by mallinfo(arena+hblkhd)
        138293 MiB available memory on the node where the printing process lives
------------------
     ethr =  5.57E-08,  avg # of iterations =  2.3

     total cpu time spent up to now is     3555.4 secs

     total energy              =   -9820.04541332 Ry
     estimated scf accuracy    <       0.00039333 Ry

     iteration # 14     ecut=    50.00 Ry     beta= 0.20
     Davidson diagonalization with overlap

---- Real-time Memory Report at c_bands before calling an iterative solver
          6825 MiB given to the printing process from OS
             0 MiB allocation reported by mallinfo(arena+hblkhd)
        138297 MiB available memory on the node where the printing process lives
------------------
     ethr =  4.14E-08,  avg # of iterations =  4.0

     total cpu time spent up to now is     3787.9 secs

     total energy              =   -9820.04543760 Ry
     estimated scf accuracy    <       0.00016497 Ry

     iteration # 15     ecut=    50.00 Ry     beta= 0.20
     Davidson diagonalization with overlap

---- Real-time Memory Report at c_bands before calling an iterative solver
          6825 MiB given to the printing process from OS
             0 MiB allocation reported by mallinfo(arena+hblkhd)
        138294 MiB available memory on the node where the printing process lives
------------------
     ethr =  1.74E-08,  avg # of iterations =  5.0

     total cpu time spent up to now is     4020.6 secs

     total energy              =   -9820.04543564 Ry
     estimated scf accuracy    <       0.00013439 Ry

     iteration # 16     ecut=    50.00 Ry     beta= 0.20
     Davidson diagonalization with overlap

---- Real-time Memory Report at c_bands before calling an iterative solver
          6825 MiB given to the printing process from OS
             0 MiB allocation reported by mallinfo(arena+hblkhd)
        138299 MiB available memory on the node where the printing process lives
------------------
     ethr =  1.41E-08,  avg # of iterations =  2.0

     total cpu time spent up to now is     4239.7 secs

     total energy              =   -9820.04543975 Ry
     estimated scf accuracy    <       0.00006324 Ry

     iteration # 17     ecut=    50.00 Ry     beta= 0.20
     Davidson diagonalization with overlap

---- Real-time Memory Report at c_bands before calling an iterative solver
          6825 MiB given to the printing process from OS
             0 MiB allocation reported by mallinfo(arena+hblkhd)
        138296 MiB available memory on the node where the printing process lives
------------------
     ethr =  6.66E-09,  avg # of iterations =  5.2

     total cpu time spent up to now is     4480.2 secs

     total energy              =   -9820.04544057 Ry
     estimated scf accuracy    <       0.00004258 Ry

     iteration # 18     ecut=    50.00 Ry     beta= 0.20
     Davidson diagonalization with overlap

---- Real-time Memory Report at c_bands before calling an iterative solver
          6826 MiB given to the printing process from OS
             0 MiB allocation reported by mallinfo(arena+hblkhd)
        138295 MiB available memory on the node where the printing process lives
------------------
     ethr =  4.48E-09,  avg # of iterations =  2.0

     total cpu time spent up to now is     4698.7 secs

     total energy              =   -9820.04543913 Ry
     estimated scf accuracy    <       0.00002407 Ry

     iteration # 19     ecut=    50.00 Ry     beta= 0.20
     Davidson diagonalization with overlap

---- Real-time Memory Report at c_bands before calling an iterative solver
          6826 MiB given to the printing process from OS
             0 MiB allocation reported by mallinfo(arena+hblkhd)
        138291 MiB available memory on the node where the printing process lives
------------------
     ethr =  2.53E-09,  avg # of iterations =  2.0

     total cpu time spent up to now is     4917.0 secs

     total energy              =   -9820.04543789 Ry
     estimated scf accuracy    <       0.00001116 Ry

     iteration # 20     ecut=    50.00 Ry     beta= 0.20
     Davidson diagonalization with overlap

---- Real-time Memory Report at c_bands before calling an iterative solver
          6826 MiB given to the printing process from OS
             0 MiB allocation reported by mallinfo(arena+hblkhd)
        138296 MiB available memory on the node where the printing process lives
------------------
     ethr =  1.17E-09,  avg # of iterations =  3.1

     total cpu time spent up to now is     5153.4 secs

     total energy              =   -9820.04543841 Ry
     estimated scf accuracy    <       0.00000444 Ry

     iteration # 21     ecut=    50.00 Ry     beta= 0.20
     Davidson diagonalization with overlap

---- Real-time Memory Report at c_bands before calling an iterative solver
          6826 MiB given to the printing process from OS
             0 MiB allocation reported by mallinfo(arena+hblkhd)
        138294 MiB available memory on the node where the printing process lives
------------------
     ethr =  4.67E-10,  avg # of iterations =  3.4

     total cpu time spent up to now is     5390.0 secs

     total energy              =   -9820.04543886 Ry
     estimated scf accuracy    <       0.00000131 Ry

     iteration # 22     ecut=    50.00 Ry     beta= 0.20
     Davidson diagonalization with overlap

---- Real-time Memory Report at c_bands before calling an iterative solver
          6826 MiB given to the printing process from OS
             0 MiB allocation reported by mallinfo(arena+hblkhd)
        138295 MiB available memory on the node where the printing process lives
------------------
     ethr =  1.37E-10,  avg # of iterations =  8.2

     total cpu time spent up to now is     5682.8 secs

     End of self-consistent calculation

          k = 0.0000 0.0000 0.0000 ( 76781 PWs)   bands (ev):

   -60.1760 -31.6449 -31.5694 -31.4194 -26.0802 -26.0743 -26.0653 -26.0591
   -26.0553 -26.0174 -26.0110 -26.0033 -26.0005 -25.9644 -25.9638 -25.9611
   -25.9592 -25.9586 -25.9561 -25.9534 -25.9475 -25.9469 -25.9360 -25.9355
   -25.9342 -25.9311 -25.9277 -25.9270 -25.9228 -25.9223 -25.9213 -25.9120
   -25.9100 -25.9097 -25.9092 -25.9076 -25.8975 -25.8905 -25.8903 -25.8860
   -25.8857 -25.8760 -25.8741 -25.8740 -25.8734 -25.8731 -25.8731 -25.8720
   -25.8713 -25.8710 -25.8708 -25.8707 -25.8705 -25.8660 -25.8658 -25.8627
   -25.8621 -25.8574 -25.8548 -25.8545 -25.8541 -25.8491 -25.8403 -25.8362
   -25.8358 -25.8348 -25.8346 -25.8345 -25.8342 -25.8303 -25.8212 -25.8207
   -25.8193 -25.8184 -25.8177 -25.8111 -25.8042 -25.8032 -25.8022 -25.8014
   -25.8014 -25.7821 -25.7809 -25.7765 -25.7753 -25.7700 -25.7697 -25.7662
   -25.7538 -25.7519 -25.7293 -25.7285 -25.7110 -25.7073 -25.7063 -25.7036
   -25.6978 -25.6977 -25.6943 -25.6863 -25.6849 -25.6838 -25.6827 -25.6827
   -25.6811 -25.6808 -25.6774 -25.6771 -25.6728 -25.6722 -25.6721 -25.6714
   -25.6712 -25.6668 -25.6665 -25.6630 -25.6629 -25.6624 -25.6602 -25.6599
   -25.6596 -25.6591 -25.6585 -25.6582 -25.6577 -25.6573 -25.6573 -25.6558
   -25.6548 -25.6538 -25.6537 -25.6528 -25.6527 -25.6488 -25.6487 -25.6460
   -25.6407 -25.6406 -25.6397 -25.6397 -25.6394 -25.6393 -25.6370 -25.6369
   -25.6355 -25.6332 -25.6331 -25.6323 -25.6300 -25.6298 -25.6287 -25.6285
   -25.6274 -25.6273 -25.6266 -25.6265 -25.6256 -25.6239 -25.6233 -25.6227
   -25.6226 -25.6211 -25.6202 -25.6198 -25.6193 -25.6131 -25.6124 -25.6107
   -25.6093 -25.6092 -25.5972 -25.5942 -25.5791 -25.5481 -25.5380 -25.5298
   -25.5216 -25.5198 -25.5193 -25.4910 -25.4824 -25.4810 -25.4799 -25.4697
   -18.6763 -18.6753 -18.6731 -18.6708 -18.6641 -18.6603 -18.6593 -18.6585
   -18.6582 -18.6576 -18.6561 -18.6557 -18.6554 -18.6525 -18.6511 -18.6490
   -18.6480 -18.6463 -18.6451 -18.6442 -18.6434 -18.6410 -18.6406 -18.6404
   -18.6398 -18.6388 -18.6385 -18.6367 -18.6361 -18.6347 -18.6337 -18.6330
   -18.6327 -18.6312 -18.6294 -18.6268 -18.6256 -18.6252 -18.6244 -18.6212
   -18.6193 -18.6172 -18.6070 -18.5931 -18.5896 -18.5895 -18.5767 -18.5766
   -18.5747 -18.5697 -18.4865 -18.4839 -18.4822 -18.4809 -18.4792 -18.4754
   -18.4713 -18.4705 -18.4674 -18.4671 -18.4662 -18.4649 -18.4634 -18.4628
   -18.4608 -18.4591 -18.4590 -18.4583 -18.4580 -18.4579 -18.4571 -18.4562
   -18.4558 -18.4548 -18.4547 -18.4539 -18.4535 -18.4530 -18.4504 -18.4499
   -18.4485 -18.4483 -18.4446 -18.4431 -18.4415 -18.4408 -18.4405 -18.4396
   -18.4390 -18.4385 -18.4380 -18.4372 -18.4367 -18.4359 -18.4355 -18.4355
   -18.4350 -18.4323 -18.4318 -18.4290 -18.4288 -18.4272 -18.4269 -18.4240
   -18.4134 -18.4104 -18.3973 -18.3963 -18.3951 -18.3911 -18.3874 -18.3783
   -18.3711 -18.3620 -18.3614 -18.2267 -18.2164 -18.1110 -18.0627 -18.0492
    -2.6203  -2.4432  -2.4045  -1.9720  -1.8000  -1.7150  -0.8209  -0.6596
    -0.6540  -0.6463  -0.5920  -0.5826  -0.5777  -0.5423  -0.4747  -0.4614
    -0.4540  -0.4486  -0.4069  -0.3934  -0.3919  -0.3878  -0.3767  -0.3621
    -0.3518  -0.3219  -0.3212  -0.3161  -0.2929  -0.2690  -0.2578  -0.2202
    -0.2189  -0.2122  -0.1354  -0.1084   1.1122   1.2477   1.2534   1.3952
     1.4013   1.4061   1.4309   1.5089   1.6053   1.9103   1.9957   2.0010
     2.0351   2.1535   2.1548   2.1981   2.2000   2.2050   2.3909   2.5690
     2.7916   4.1374   4.3713   4.6620   5.0512   5.1167   5.1219   5.2886
     5.2908   5.2934   5.3996   5.4333   5.4711   6.3390   6.5978   6.6345
     6.7608   6.8278   6.8546   6.8605   6.9684   6.9888   7.0029   7.0234
     7.0252   7.0282   7.0374   7.0678   7.1083   7.1163   7.1465   7.1689
     7.1752   7.1808   7.1841   7.1937   7.2181   7.2827   7.4038   7.4045
     7.6928   7.7382   7.7573   7.8185   7.8390   7.9100   7.9867   7.9909
     7.9928   8.0665   8.0921   8.1605   8.1765   8.3076   8.3260   8.3392
     8.4638   8.5855   8.7242   8.7436   8.7650   8.8002   8.8122   8.8644
     8.8959   8.9175   8.9327   8.9442   8.9444   9.0112   9.0192   9.0655
     9.0729   9.0931   9.1591   9.1722   9.1735   9.2011   9.2041   9.2238
     9.2725   9.3094   9.3533   9.4238   9.4331   9.4395   9.4399   9.5244
     9.5756   9.5845   9.6402   9.6695   9.6748   9.7356   9.7459   9.7741
     9.7749   9.8332   9.8345   9.8636   9.8993   9.9334   9.9443  10.0190
    10.0799  10.1116  10.1342  10.1656  10.2069  10.5624  10.6638  10.7281
    10.7699  10.8813  10.9333  11.2498  11.3602  11.4250  11.4557  11.5280
    11.5921  11.6484  11.7462  11.7843  11.7916  11.8356  11.8369  11.8647
    11.8736  11.9406  12.0561  12.0729  12.0999  12.2660  12.3164  12.4758
    12.4818  12.4884  12.5326  12.5711  12.5906  12.7275  12.7338  12.7532
    12.8266  12.8558  12.8689  12.9087  12.9549  12.9698  13.0151  13.0357
    13.0507  13.1344  13.1825  13.2073  13.2123  13.2864  13.3016  13.3176
    13.3393  13.4423  13.6647  13.6918  13.7396  13.8048  13.8683  13.9212
    13.9614  14.0280  14.0507  14.1418  14.1577  14.1723  14.2153  14.2598
    14.2606  14.3206  14.3641  14.3752  14.4394  14.4685  14.5218  14.7585
    14.7764  14.8559  14.9142  14.9462  14.9915  15.2578  15.3584  15.4297
    15.4546  15.4669  15.5150  15.7094  15.8403  16.0186  16.0776  16.1391
    16.2101  16.2472  16.2515  16.3227  16.3349  16.3944  16.4871  16.5029
    16.5281  16.5449

     occupation numbers 
     1.0000   1.0000   1.0000   1.0000   1.0000   1.0000   1.0000   1.0000
     1.0000   1.0000   1.0000   1.0000   1.0000   1.0000   1.0000   1.0000
     1.0000   1.0000   1.0000   1.0000   1.0000   1.0000   1.0000   1.0000
     1.0000   1.0000   1.0000   1.0000   1.0000   1.0000   1.0000   1.0000
     1.0000   1.0000   1.0000   1.0000   1.0000   1.0000   1.0000   1.0000
     1.0000   1.0000   1.0000   1.0000   1.0000   1.0000   1.0000   1.0000
     1.0000   1.0000   1.0000   1.0000   1.0000   1.0000   1.0000   1.0000
     1.0000   1.0000   1.0000   1.0000   1.0000   1.0000   1.0000   1.0000
     1.0000   1.0000   1.0000   1.0000   1.0000   1.0000   1.0000   1.0000
     1.0000   1.0000   1.0000   1.0000   1.0000   1.0000   1.0000   1.0000
     1.0000   1.0000   1.0000   1.0000   1.0000   1.0000   1.0000   1.0000
     1.0000   1.0000   1.0000   1.0000   1.0000   1.0000   1.0000   1.0000
     1.0000   1.0000   1.0000   1.0000   1.0000   1.0000   1.0000   1.0000
     1.0000   1.0000   1.0000   1.0000   1.0000   1.0000   1.0000   1.0000
     1.0000   1.0000   1.0000   1.0000   1.0000   1.0000   1.0000   1.0000
     1.0000   1.0000   1.0000   1.0000   1.0000   1.0000   1.0000   1.0000
     1.0000   1.0000   1.0000   1.0000   1.0000   1.0000   1.0000   1.0000
     1.0000   1.0000   1.0000   1.0000   1.0000   1.0000   1.0000   1.0000
     1.0000   1.0000   1.0000   1.0000   1.0000   1.0000   1.0000   1.0000
     1.0000   1.0000   1.0000   1.0000   1.0000   1.0000   1.0000   1.0000
     1.0000   1.0000   1.0000   1.0000   1.0000   1.0000   1.0000   1.0000
     1.0000   1.0000   1.0000   1.0000   1.0000   1.0000   1.0000   1.0000
     1.0000   1.0000   1.0000   1.0000   1.0000   1.0000   1.0000   1.0000
     1.0000   1.0000   1.0000   1.0000   1.0000   1.0000   1.0000   1.0000
     1.0000   1.0000   1.0000   1.0000   1.0000   1.0000   1.0000   1.0000
     1.0000   1.0000   1.0000   1.0000   1.0000   1.0000   1.0000   1.0000
     1.0000   1.0000   1.0000   1.0000   1.0000   1.0000   1.0000   1.0000
     1.0000   1.0000   1.0000   1.0000   1.0000   1.0000   1.0000   1.0000
     1.0000   1.0000   1.0000   1.0000   1.0000   1.0000   1.0000   1.0000
     1.0000   1.0000   1.0000   1.0000   1.0000   1.0000   1.0000   1.0000
     1.0000   1.0000   1.0000   1.0000   1.0000   1.0000   1.0000   1.0000
     1.0000   1.0000   1.0000   1.0000   1.0000   1.0000   1.0000   1.0000
     1.0000   1.0000   1.0000   1.0000   1.0000   1.0000   1.0000   1.0000
     1.0000   1.0000   1.0000   1.0000   1.0000   1.0000   1.0000   1.0000
     1.0000   1.0000   1.0000   1.0000   1.0000   1.0000   1.0000   1.0000
     1.0000   1.0000   1.0000   1.0000   1.0000   1.0000   1.0000   1.0000
     1.0000   1.0000   1.0000   1.0000   1.0000   1.0000   1.0000   1.0000
     1.0000   1.0000   1.0000   1.0000   1.0000   1.0000   1.0000   1.0000
     1.0000   1.0000   1.0000   1.0000   1.0000   1.0000   1.0000   1.0000
     1.0000   1.0000   1.0000   1.0000   1.0000   1.0000   1.0000   1.0000
     1.0000   1.0000   1.0000   1.0000   1.0000   1.0000   1.0000   1.0000
     1.0000   1.0000   1.0000   1.0000   1.0000   1.0000   1.0000   1.0000
     1.0000   1.0000   1.0000   1.0000   1.0000   1.0000   1.0000   1.0000
     1.0000   1.0000   1.0000   1.0000   1.0000   1.0000   1.0000   1.0000
     1.0000   1.0000   1.0000   1.0000   1.0000   1.0000   1.0000   1.0000
     1.0000   1.0000   1.0000   1.0000   1.0000   1.0000   1.0000   1.0000
     1.0000   1.0000   1.0000   1.0000   1.0000   1.0000   1.0000   1.0000
     1.0000   1.0000   1.0000   1.0000   1.0000   1.0000   1.0000   1.0000
     1.0000   1.0000   1.0000   1.0000   1.0000   1.0000   1.0000   1.0000
     1.0000   1.0000   1.0000   1.0000   1.0000   1.0000   1.0000   1.0000
     1.0000   1.0000   1.0000   1.0000   1.0000   1.0000   1.0000   1.0000
     1.0000   1.0000   1.0000   1.0000   1.0000   1.0000   1.0000   1.0000
     1.0000   1.0000   1.0000   1.0000   1.0000   1.0000   1.0000   1.0000
     1.0000   1.0000   1.0000   1.0000   1.0000   1.0000   1.0000   1.0000
     1.0000   1.0000   1.0000   1.0000   1.0000   1.0000   1.0000   1.0000
     1.0000   1.0000   1.0000   1.0000   1.0000   1.0000   1.0000   1.0000
     1.0000   1.0000   1.0000   1.0000   1.0000   1.0000   1.0000   1.0000
     1.0000   1.0000   1.0000   1.0000   1.0000   1.0000   1.0000   1.0000
     1.0000   1.0000   1.0000   1.0000   1.0000   1.0004   1.0040   1.0125
     1.0233   1.0705   1.0833   0.2959   0.0747   0.0256   0.0143   0.0031
     0.0006   0.0001   0.0000   0.0000   0.0000   0.0000   0.0000   0.0000
     0.0000   0.0000   0.0000   0.0000   0.0000   0.0000   0.0000   0.0000
     0.0000   0.0000   0.0000   0.0000   0.0000   0.0000   0.0000   0.0000
     0.0000   0.0000   0.0000   0.0000   0.0000   0.0000   0.0000   0.0000
     0.0000   0.0000   0.0000   0.0000   0.0000   0.0000   0.0000   0.0000
     0.0000   0.0000   0.0000   0.0000   0.0000   0.0000   0.0000   0.0000
     0.0000   0.0000   0.0000   0.0000   0.0000   0.0000   0.0000   0.0000
     0.0000   0.0000   0.0000   0.0000   0.0000   0.0000   0.0000   0.0000
     0.0000   0.0000   0.0000   0.0000   0.0000   0.0000   0.0000   0.0000
     0.0000   0.0000   0.0000   0.0000   0.0000   0.0000   0.0000   0.0000
     0.0000   0.0000   0.0000   0.0000   0.0000   0.0000   0.0000   0.0000
     0.0000   0.0000

          k = 0.0000 0.2309 0.0000 ( 76885 PWs)   bands (ev):

   -60.1760 -31.6449 -31.5694 -31.4194 -26.0802 -26.0743 -26.0653 -26.0591
   -26.0553 -26.0174 -26.0109 -26.0032 -26.0006 -25.9644 -25.9638 -25.9611
   -25.9592 -25.9586 -25.9559 -25.9535 -25.9475 -25.9468 -25.9360 -25.9355
   -25.9342 -25.9311 -25.9277 -25.9270 -25.9227 -25.9224 -25.9213 -25.9120
   -25.9100 -25.9097 -25.9091 -25.9078 -25.8975 -25.8905 -25.8903 -25.8860
   -25.8857 -25.8760 -25.8741 -25.8739 -25.8734 -25.8732 -25.8730 -25.8719
   -25.8714 -25.8711 -25.8709 -25.8707 -25.8704 -25.8660 -25.8659 -25.8627
   -25.8621 -25.8574 -25.8548 -25.8545 -25.8542 -25.8491 -25.8403 -25.8362
   -25.8357 -25.8348 -25.8347 -25.8346 -25.8344 -25.8303 -25.8212 -25.8207
   -25.8193 -25.8185 -25.8177 -25.8111 -25.8042 -25.8032 -25.8022 -25.8014
   -25.8014 -25.7821 -25.7808 -25.7765 -25.7753 -25.7700 -25.7698 -25.7662
   -25.7536 -25.7520 -25.7293 -25.7284 -25.7110 -25.7072 -25.7063 -25.7036
   -25.6977 -25.6976 -25.6943 -25.6863 -25.6848 -25.6839 -25.6827 -25.6827
   -25.6811 -25.6808 -25.6774 -25.6771 -25.6727 -25.6722 -25.6721 -25.6715
   -25.6712 -25.6667 -25.6665 -25.6630 -25.6630 -25.6624 -25.6601 -25.6598
   -25.6595 -25.6591 -25.6586 -25.6582 -25.6578 -25.6574 -25.6573 -25.6558
   -25.6548 -25.6538 -25.6537 -25.6528 -25.6527 -25.6489 -25.6487 -25.6460
   -25.6407 -25.6406 -25.6398 -25.6396 -25.6394 -25.6392 -25.6371 -25.6368
   -25.6355 -25.6332 -25.6331 -25.6323 -25.6300 -25.6298 -25.6287 -25.6285
   -25.6275 -25.6272 -25.6266 -25.6265 -25.6256 -25.6238 -25.6234 -25.6226
   -25.6225 -25.6209 -25.6202 -25.6199 -25.6194 -25.6131 -25.6125 -25.6107
   -25.6093 -25.6092 -25.5972 -25.5942 -25.5791 -25.5481 -25.5380 -25.5298
   -25.5216 -25.5198 -25.5193 -25.4910 -25.4824 -25.4810 -25.4800 -25.4697
   -18.6762 -18.6752 -18.6729 -18.6704 -18.6643 -18.6600 -18.6591 -18.6584
   -18.6581 -18.6575 -18.6561 -18.6559 -18.6556 -18.6522 -18.6512 -18.6492
   -18.6480 -18.6466 -18.6451 -18.6439 -18.6434 -18.6409 -18.6408 -18.6402
   -18.6399 -18.6389 -18.6387 -18.6366 -18.6366 -18.6347 -18.6338 -18.6330
   -18.6327 -18.6315 -18.6294 -18.6267 -18.6255 -18.6254 -18.6245 -18.6212
   -18.6192 -18.6175 -18.6070 -18.5931 -18.5896 -18.5895 -18.5767 -18.5766
   -18.5747 -18.5697 -18.4860 -18.4834 -18.4819 -18.4812 -18.4791 -18.4758
   -18.4715 -18.4707 -18.4672 -18.4669 -18.4662 -18.4651 -18.4635 -18.4629
   -18.4606 -18.4591 -18.4585 -18.4578 -18.4577 -18.4575 -18.4570 -18.4563
   -18.4560 -18.4550 -18.4546 -18.4542 -18.4532 -18.4531 -18.4509 -18.4500
   -18.4489 -18.4487 -18.4444 -18.4432 -18.4412 -18.4406 -18.4403 -18.4393
   -18.4392 -18.4385 -18.4381 -18.4372 -18.4367 -18.4362 -18.4356 -18.4356
   -18.4348 -18.4325 -18.4319 -18.4289 -18.4288 -18.4273 -18.4267 -18.4243
   -18.4133 -18.4105 -18.3971 -18.3960 -18.3952 -18.3915 -18.3875 -18.3783
   -18.3711 -18.3620 -18.3615 -18.2267 -18.2164 -18.1110 -18.0627 -18.0492
    -2.5228  -2.3449  -2.3102  -1.8831  -1.7150  -1.6249  -1.1746  -1.0389
    -0.9757  -0.8538  -0.8043  -0.7685  -0.7023  -0.6477  -0.6013  -0.5970
    -0.5867  -0.5364  -0.5193  -0.4882  -0.4576  -0.4092  -0.3241  -0.3023
    -0.2847  -0.2595  -0.2545  -0.2391  -0.2245  -0.1931  -0.1118  -0.0752
    -0.0668  -0.0413  -0.0089   0.0256   1.2173   1.3274   1.4681   1.4798
     1.4972   1.5190   1.5994   1.7186   1.8196   1.8804   1.9536   2.0262
     2.1199   2.1333   2.1454   2.2215   2.3384   2.4349   2.4587   2.6003
     2.7827   4.0073   4.1972   4.4473   5.1669   5.2224   5.2791   5.3977
     5.4018   5.4681   5.4875   5.5387   5.5900   6.3508   6.5112   6.5463
     6.5910   6.6088   6.6408   6.7394   6.7936   6.8092   6.8192   6.8292
     6.8425   6.8754   6.9031   6.9271   6.9961   7.0762   7.1126   7.1677
     7.2129   7.2485   7.2772   7.2956   7.3299   7.3748   7.4173   7.5255
     7.5571   7.5938   7.7482   7.7642   7.8345   7.8588   7.9055   7.9497
     7.9904   8.0190   8.0321   8.0707   8.1038   8.1341   8.1788   8.2526
     8.2635   8.3146   8.3341   8.3917   8.3987   8.4450   8.4783   8.4850
     8.5670   8.5812   8.6338   8.7564   8.7882   8.7969   8.8221   8.8618
     8.9102   8.9337   8.9849   9.0264   9.0769   9.1068   9.1545   9.1989
     9.2899   9.3260   9.3560   9.4141   9.4359   9.4962   9.5207   9.5524
     9.5942   9.6157   9.6683   9.7054   9.7281   9.8175   9.8498   9.9051
     9.9164   9.9667  10.0578  10.0955  10.1540  10.1974  10.2354  10.2919
    10.3342  10.4254  10.4670  10.4776  10.5260  10.6148  10.7228  10.7969
    10.8741  10.9574  11.0583  11.2870  11.3991  11.5055  11.7114  11.7791
    11.8328  11.8555  11.9379  11.9909  12.0304  12.0675  12.0960  12.1533
    12.1855  12.2564  12.2729  12.3079  12.3359  12.4059  12.4123  12.4805
    12.5053  12.5571  12.5730  12.6029  12.6574  12.6971  12.7182  12.7655
    12.7880  12.8113  12.8358  12.9007  12.9510  12.9982  13.0519  13.0967
    13.1319  13.1695  13.3672  13.4008  13.4382  13.4680  13.5286  13.5737
    13.6745  13.7031  13.7846  13.8812  13.9094  13.9556  14.0228  14.0645
    14.1101  14.1496  14.1990  14.2116  14.2712  14.3274  14.3408  14.3891
    14.4518  14.4858  14.5461  14.5779  14.6290  14.6828  14.7164  14.7412
    14.7947  14.8325  14.8832  14.9156  14.9678  15.1365  15.1781  15.2419
    15.4764  15.5850  15.7113  15.7647  15.7984  15.8580  15.9812  16.0583
    16.1194  16.1394  16.1514  16.1859  16.2645  16.3142  16.3599  16.3911
    16.4669  16.4971

     occupation numbers 
     1.0000   1.0000   1.0000   1.0000   1.0000   1.0000   1.0000   1.0000
     1.0000   1.0000   1.0000   1.0000   1.0000   1.0000   1.0000   1.0000
     1.0000   1.0000   1.0000   1.0000   1.0000   1.0000   1.0000   1.0000
     1.0000   1.0000   1.0000   1.0000   1.0000   1.0000   1.0000   1.0000
     1.0000   1.0000   1.0000   1.0000   1.0000   1.0000   1.0000   1.0000
     1.0000   1.0000   1.0000   1.0000   1.0000   1.0000   1.0000   1.0000
     1.0000   1.0000   1.0000   1.0000   1.0000   1.0000   1.0000   1.0000
     1.0000   1.0000   1.0000   1.0000   1.0000   1.0000   1.0000   1.0000
     1.0000   1.0000   1.0000   1.0000   1.0000   1.0000   1.0000   1.0000
     1.0000   1.0000   1.0000   1.0000   1.0000   1.0000   1.0000   1.0000
     1.0000   1.0000   1.0000   1.0000   1.0000   1.0000   1.0000   1.0000
     1.0000   1.0000   1.0000   1.0000   1.0000   1.0000   1.0000   1.0000
     1.0000   1.0000   1.0000   1.0000   1.0000   1.0000   1.0000   1.0000
     1.0000   1.0000   1.0000   1.0000   1.0000   1.0000   1.0000   1.0000
     1.0000   1.0000   1.0000   1.0000   1.0000   1.0000   1.0000   1.0000
     1.0000   1.0000   1.0000   1.0000   1.0000   1.0000   1.0000   1.0000
     1.0000   1.0000   1.0000   1.0000   1.0000   1.0000   1.0000   1.0000
     1.0000   1.0000   1.0000   1.0000   1.0000   1.0000   1.0000   1.0000
     1.0000   1.0000   1.0000   1.0000   1.0000   1.0000   1.0000   1.0000
     1.0000   1.0000   1.0000   1.0000   1.0000   1.0000   1.0000   1.0000
     1.0000   1.0000   1.0000   1.0000   1.0000   1.0000   1.0000   1.0000
     1.0000   1.0000   1.0000   1.0000   1.0000   1.0000   1.0000   1.0000
     1.0000   1.0000   1.0000   1.0000   1.0000   1.0000   1.0000   1.0000
     1.0000   1.0000   1.0000   1.0000   1.0000   1.0000   1.0000   1.0000
     1.0000   1.0000   1.0000   1.0000   1.0000   1.0000   1.0000   1.0000
     1.0000   1.0000   1.0000   1.0000   1.0000   1.0000   1.0000   1.0000
     1.0000   1.0000   1.0000   1.0000   1.0000   1.0000   1.0000   1.0000
     1.0000   1.0000   1.0000   1.0000   1.0000   1.0000   1.0000   1.0000
     1.0000   1.0000   1.0000   1.0000   1.0000   1.0000   1.0000   1.0000
     1.0000   1.0000   1.0000   1.0000   1.0000   1.0000   1.0000   1.0000
     1.0000   1.0000   1.0000   1.0000   1.0000   1.0000   1.0000   1.0000
     1.0000   1.0000   1.0000   1.0000   1.0000   1.0000   1.0000   1.0000
     1.0000   1.0000   1.0000   1.0000   1.0000   1.0000   1.0000   1.0000
     1.0000   1.0000   1.0000   1.0000   1.0000   1.0000   1.0000   1.0000
     1.0000   1.0000   1.0000   1.0000   1.0000   1.0000   1.0000   1.0000
     1.0000   1.0000   1.0000   1.0000   1.0000   1.0000   1.0000   1.0000
     1.0000   1.0000   1.0000   1.0000   1.0000   1.0000   1.0000   1.0000
     1.0000   1.0000   1.0000   1.0000   1.0000   1.0000   1.0000   1.0000
     1.0000   1.0000   1.0000   1.0000   1.0000   1.0000   1.0000   1.0000
     1.0000   1.0000   1.0000   1.0000   1.0000   1.0000   1.0000   1.0000
     1.0000   1.0000   1.0000   1.0000   1.0000   1.0000   1.0000   1.0000
     1.0000   1.0000   1.0000   1.0000   1.0000   1.0000   1.0000   1.0000
     1.0000   1.0000   1.0000   1.0000   1.0000   1.0000   1.0000   1.0000
     1.0000   1.0000   1.0000   1.0000   1.0000   1.0000   1.0000   1.0000
     1.0000   1.0000   1.0000   1.0000   1.0000   1.0000   1.0000   1.0000
     1.0000   1.0000   1.0000   1.0000   1.0000   1.0000   1.0000   1.0000
     1.0000   1.0000   1.0000   1.0000   1.0000   1.0000   1.0000   1.0000
     1.0000   1.0000   1.0000   1.0000   1.0000   1.0000   1.0000   1.0000
     1.0000   1.0000   1.0000   1.0000   1.0000   1.0000   1.0000   1.0000
     1.0000   1.0000   1.0000   1.0000   1.0000   1.0000   1.0000   1.0000
     1.0000   1.0000   1.0000   1.0000   1.0000   1.0000   1.0000   1.0000
     1.0000   1.0000   1.0000   1.0000   1.0000   1.0000   1.0000   1.0000
     1.0000   1.0000   1.0000   1.0000   1.0000   1.0000   1.0000   1.0000
     1.0000   1.0000   1.0000   1.0000   1.0000   1.0000   1.0000   1.0000
     1.0000   1.0000   1.0000   1.0000   1.0000   1.0000   1.0000   1.0000
     1.0000   1.0000   1.0000   1.0000   1.0000   1.0000   1.0000   1.0000
     1.0000   1.0000   1.0000   1.0000   1.0000   1.0000   1.0000   1.0000
     1.0000   1.0000   1.0000   1.0000   1.0000   1.0000   1.0000   1.0000
     1.0000   1.0000   1.0000   1.0000   1.0002   1.0014   1.0115   1.0329
     1.0675   1.0797   0.9445   0.1979   0.0402   0.0051   0.0000   0.0000
     0.0000   0.0000   0.0000   0.0000   0.0000   0.0000   0.0000   0.0000
     0.0000   0.0000   0.0000   0.0000   0.0000   0.0000   0.0000   0.0000
     0.0000   0.0000   0.0000   0.0000   0.0000   0.0000   0.0000   0.0000
     0.0000   0.0000   0.0000   0.0000   0.0000   0.0000   0.0000   0.0000
     0.0000   0.0000   0.0000   0.0000   0.0000   0.0000   0.0000   0.0000
     0.0000   0.0000   0.0000   0.0000   0.0000   0.0000   0.0000   0.0000
     0.0000   0.0000   0.0000   0.0000   0.0000   0.0000   0.0000   0.0000
     0.0000   0.0000   0.0000   0.0000   0.0000   0.0000   0.0000   0.0000
     0.0000   0.0000   0.0000   0.0000   0.0000   0.0000   0.0000   0.0000
     0.0000   0.0000   0.0000   0.0000   0.0000   0.0000   0.0000   0.0000
     0.0000   0.0000   0.0000   0.0000   0.0000   0.0000   0.0000   0.0000
     0.0000   0.0000

          k = 0.0000 0.4619 0.0000 ( 76897 PWs)   bands (ev):

   -60.1760 -31.6449 -31.5694 -31.4194 -26.0802 -26.0743 -26.0653 -26.0591
   -26.0553 -26.0175 -26.0108 -26.0031 -26.0008 -25.9644 -25.9638 -25.9611
   -25.9592 -25.9586 -25.9556 -25.9538 -25.9475 -25.9468 -25.9360 -25.9355
   -25.9342 -25.9311 -25.9276 -25.9270 -25.9227 -25.9225 -25.9213 -25.9120
   -25.9099 -25.9097 -25.9087 -25.9082 -25.8975 -25.8905 -25.8904 -25.8859
   -25.8857 -25.8760 -25.8740 -25.8738 -25.8736 -25.8732 -25.8729 -25.8718
   -25.8715 -25.8713 -25.8708 -25.8707 -25.8703 -25.8660 -25.8659 -25.8627
   -25.8621 -25.8574 -25.8548 -25.8544 -25.8542 -25.8491 -25.8403 -25.8362
   -25.8353 -25.8348 -25.8347 -25.8347 -25.8346 -25.8303 -25.8212 -25.8206
   -25.8193 -25.8185 -25.8178 -25.8111 -25.8042 -25.8032 -25.8022 -25.8014
   -25.8013 -25.7821 -25.7808 -25.7765 -25.7753 -25.7700 -25.7699 -25.7662
   -25.7533 -25.7524 -25.7294 -25.7283 -25.7110 -25.7070 -25.7065 -25.7036
   -25.6977 -25.6976 -25.6943 -25.6863 -25.6846 -25.6841 -25.6827 -25.6827
   -25.6810 -25.6809 -25.6773 -25.6772 -25.6724 -25.6722 -25.6721 -25.6718
   -25.6712 -25.6667 -25.6665 -25.6630 -25.6630 -25.6624 -25.6601 -25.6595
   -25.6593 -25.6591 -25.6588 -25.6581 -25.6579 -25.6575 -25.6572 -25.6559
   -25.6548 -25.6538 -25.6537 -25.6528 -25.6527 -25.6489 -25.6487 -25.6460
   -25.6407 -25.6407 -25.6399 -25.6396 -25.6395 -25.6392 -25.6371 -25.6368
   -25.6355 -25.6331 -25.6331 -25.6323 -25.6300 -25.6298 -25.6288 -25.6285
   -25.6275 -25.6272 -25.6266 -25.6265 -25.6256 -25.6237 -25.6235 -25.6226
   -25.6224 -25.6205 -25.6203 -25.6201 -25.6198 -25.6129 -25.6127 -25.6107
   -25.6093 -25.6092 -25.5972 -25.5942 -25.5791 -25.5481 -25.5380 -25.5298
   -25.5216 -25.5199 -25.5193 -25.4910 -25.4824 -25.4810 -25.4800 -25.4697
   -18.6759 -18.6749 -18.6725 -18.6695 -18.6649 -18.6592 -18.6588 -18.6584
   -18.6579 -18.6575 -18.6569 -18.6559 -18.6558 -18.6515 -18.6513 -18.6496
   -18.6479 -18.6472 -18.6450 -18.6435 -18.6429 -18.6417 -18.6405 -18.6401
   -18.6395 -18.6392 -18.6387 -18.6377 -18.6365 -18.6345 -18.6341 -18.6330
   -18.6326 -18.6320 -18.6294 -18.6263 -18.6258 -18.6252 -18.6249 -18.6211
   -18.6187 -18.6181 -18.6070 -18.5931 -18.5896 -18.5895 -18.5767 -18.5766
   -18.5747 -18.5696 -18.4846 -18.4827 -18.4819 -18.4813 -18.4788 -18.4766
   -18.4718 -18.4710 -18.4667 -18.4666 -18.4663 -18.4658 -18.4637 -18.4630
   -18.4601 -18.4596 -18.4572 -18.4570 -18.4569 -18.4568 -18.4565 -18.4563
   -18.4561 -18.4558 -18.4552 -18.4545 -18.4532 -18.4523 -18.4519 -18.4501
   -18.4497 -18.4495 -18.4440 -18.4435 -18.4407 -18.4403 -18.4400 -18.4397
   -18.4387 -18.4385 -18.4384 -18.4372 -18.4371 -18.4367 -18.4359 -18.4357
   -18.4341 -18.4331 -18.4321 -18.4291 -18.4282 -18.4277 -18.4262 -18.4252
   -18.4129 -18.4109 -18.3968 -18.3955 -18.3952 -18.3924 -18.3875 -18.3783
   -18.3711 -18.3620 -18.3615 -18.2268 -18.2164 -18.1110 -18.0627 -18.0492
    -2.2360  -2.0579  -2.0374  -1.7728  -1.6224  -1.5833  -1.5639  -1.4537
    -1.3618  -1.2186  -1.0770  -0.9635  -0.9541  -0.8662  -0.8170  -0.7306
    -0.7258  -0.6434  -0.5656  -0.4967  -0.4294  -0.3769  -0.3203  -0.2869
    -0.2774  -0.2565  -0.2064  -0.1609  -0.1048  -0.0935  -0.0624   0.0012
     0.0441   0.1039   0.1250   0.1339   1.3969   1.5208   1.6552   1.6662
     1.6715   1.7070   1.7362   1.8080   1.9114   1.9616   1.9663   2.0116
     2.0635   2.2511   2.3055   2.3844   2.5735   2.6813   2.8363   2.9986
     3.0744   3.5551   3.6806   3.8439   5.4612   5.4987   5.6494   5.6870
     5.7033   5.7644   5.7978   5.9278   5.9821   6.0060   6.0186   6.1860
     6.1906   6.2620   6.3303   6.5099   6.6017   6.6679   6.6986   6.7589
     6.7775   6.8401   6.8704   6.8981   6.9136   6.9337   6.9647   7.0412
     7.0809   7.1069   7.1560   7.1888   7.3194   7.3485   7.3725   7.3909
     7.4155   7.4725   7.5395   7.5637   7.5957   7.6399   7.6718   7.6904
     7.7031   7.7284   7.7998   7.8472   7.8655   7.9440   7.9843   8.0092
     8.0192   8.0527   8.0949   8.1198   8.1517   8.1897   8.2576   8.3284
     8.3443   8.4304   8.4628   8.4850   8.5360   8.6009   8.6759   8.7021
     8.7745   8.8654   8.9587   9.0195   9.0632   9.1250   9.2468   9.3155
     9.4016   9.4774   9.4952   9.5418   9.5709   9.6084   9.6310   9.6531
     9.6704   9.7108   9.7393   9.7658   9.8290   9.8606   9.8750   9.9308
     9.9710  10.0384  10.1113  10.1941  10.2299  10.2878  10.3157  10.3637
    10.4503  10.4789  10.5500  10.5950  10.6581  10.7663  10.7887  10.8938
    11.0113  11.0594  11.1266  11.3383  11.4057  11.8113  11.8832  11.9829
    12.0497  12.1395  12.1765  12.2125  12.2457  12.2960  12.3821  12.4327
    12.4531  12.4817  12.5127  12.5245  12.5815  12.6426  12.7079  12.7183
    12.7765  12.7935  12.8804  12.9507  12.9888  13.0193  13.0496  13.0962
    13.1359  13.1504  13.2124  13.2502  13.3005  13.3402  13.3850  13.4505
    13.4902  13.5163  13.6236  13.6301  13.6957  13.7661  13.8322  13.8549
    13.9108  14.0328  14.0409  14.0995  14.1229  14.1737  14.2102  14.2779
    14.3154  14.3644  14.3892  14.4145  14.4681  14.4774  14.5384  14.5472
    14.6320  14.7320  14.7664  14.8210  14.8537  14.8816  14.9545  15.0187
    15.0304  15.0518  15.0743  15.0940  15.1342  15.1821  15.2198  15.3517
    15.3905  15.4091  15.5087  15.5736  15.6531  15.6752  15.7381  15.8695
    15.9075  16.0206  16.0969  16.1310  16.2071  16.2898  16.3064  16.3549
    16.3732  16.4591

     occupation numbers 
     1.0000   1.0000   1.0000   1.0000   1.0000   1.0000   1.0000   1.0000
     1.0000   1.0000   1.0000   1.0000   1.0000   1.0000   1.0000   1.0000
     1.0000   1.0000   1.0000   1.0000   1.0000   1.0000   1.0000   1.0000
     1.0000   1.0000   1.0000   1.0000   1.0000   1.0000   1.0000   1.0000
     1.0000   1.0000   1.0000   1.0000   1.0000   1.0000   1.0000   1.0000
     1.0000   1.0000   1.0000   1.0000   1.0000   1.0000   1.0000   1.0000
     1.0000   1.0000   1.0000   1.0000   1.0000   1.0000   1.0000   1.0000
     1.0000   1.0000   1.0000   1.0000   1.0000   1.0000   1.0000   1.0000
     1.0000   1.0000   1.0000   1.0000   1.0000   1.0000   1.0000   1.0000
     1.0000   1.0000   1.0000   1.0000   1.0000   1.0000   1.0000   1.0000
     1.0000   1.0000   1.0000   1.0000   1.0000   1.0000   1.0000   1.0000
     1.0000   1.0000   1.0000   1.0000   1.0000   1.0000   1.0000   1.0000
     1.0000   1.0000   1.0000   1.0000   1.0000   1.0000   1.0000   1.0000
     1.0000   1.0000   1.0000   1.0000   1.0000   1.0000   1.0000   1.0000
     1.0000   1.0000   1.0000   1.0000   1.0000   1.0000   1.0000   1.0000
     1.0000   1.0000   1.0000   1.0000   1.0000   1.0000   1.0000   1.0000
     1.0000   1.0000   1.0000   1.0000   1.0000   1.0000   1.0000   1.0000
     1.0000   1.0000   1.0000   1.0000   1.0000   1.0000   1.0000   1.0000
     1.0000   1.0000   1.0000   1.0000   1.0000   1.0000   1.0000   1.0000
     1.0000   1.0000   1.0000   1.0000   1.0000   1.0000   1.0000   1.0000
     1.0000   1.0000   1.0000   1.0000   1.0000   1.0000   1.0000   1.0000
     1.0000   1.0000   1.0000   1.0000   1.0000   1.0000   1.0000   1.0000
     1.0000   1.0000   1.0000   1.0000   1.0000   1.0000   1.0000   1.0000
     1.0000   1.0000   1.0000   1.0000   1.0000   1.0000   1.0000   1.0000
     1.0000   1.0000   1.0000   1.0000   1.0000   1.0000   1.0000   1.0000
     1.0000   1.0000   1.0000   1.0000   1.0000   1.0000   1.0000   1.0000
     1.0000   1.0000   1.0000   1.0000   1.0000   1.0000   1.0000   1.0000
     1.0000   1.0000   1.0000   1.0000   1.0000   1.0000   1.0000   1.0000
     1.0000   1.0000   1.0000   1.0000   1.0000   1.0000   1.0000   1.0000
     1.0000   1.0000   1.0000   1.0000   1.0000   1.0000   1.0000   1.0000
     1.0000   1.0000   1.0000   1.0000   1.0000   1.0000   1.0000   1.0000
     1.0000   1.0000   1.0000   1.0000   1.0000   1.0000   1.0000   1.0000
     1.0000   1.0000   1.0000   1.0000   1.0000   1.0000   1.0000   1.0000
     1.0000   1.0000   1.0000   1.0000   1.0000   1.0000   1.0000   1.0000
     1.0000   1.0000   1.0000   1.0000   1.0000   1.0000   1.0000   1.0000
     1.0000   1.0000   1.0000   1.0000   1.0000   1.0000   1.0000   1.0000
     1.0000   1.0000   1.0000   1.0000   1.0000   1.0000   1.0000   1.0000
     1.0000   1.0000   1.0000   1.0000   1.0000   1.0000   1.0000   1.0000
     1.0000   1.0000   1.0000   1.0000   1.0000   1.0000   1.0000   1.0000
     1.0000   1.0000   1.0000   1.0000   1.0000   1.0000   1.0000   1.0000
     1.0000   1.0000   1.0000   1.0000   1.0000   1.0000   1.0000   1.0000
     1.0000   1.0000   1.0000   1.0000   1.0000   1.0000   1.0000   1.0000
     1.0000   1.0000   1.0000   1.0000   1.0000   1.0000   1.0000   1.0000
     1.0000   1.0000   1.0000   1.0000   1.0000   1.0000   1.0000   1.0000
     1.0000   1.0000   1.0000   1.0000   1.0000   1.0000   1.0000   1.0000
     1.0000   1.0000   1.0000   1.0000   1.0000   1.0000   1.0000   1.0000
     1.0000   1.0000   1.0000   1.0000   1.0000   1.0000   1.0000   1.0000
     1.0000   1.0000   1.0000   1.0000   1.0000   1.0000   1.0000   1.0000
     1.0000   1.0000   1.0000   1.0000   1.0000   1.0000   1.0000   1.0000
     1.0000   1.0000   1.0000   1.0000   1.0000   1.0000   1.0000   1.0000
     1.0000   1.0000   1.0000   1.0000   1.0000   1.0000   1.0000   1.0000
     1.0000   1.0000   1.0000   1.0000   1.0000   1.0000   1.0000   1.0000
     1.0000   1.0000   1.0000   1.0000   1.0000   1.0000   1.0000   1.0000
     1.0000   1.0000   1.0000   1.0000   1.0000   1.0000   1.0000   1.0000
     1.0000   1.0000   1.0000   1.0000   1.0000   1.0000   1.0000   1.0000
     1.0000   1.0000   1.0000   1.0000   1.0000   1.0000   1.0000   1.0000
     1.0000   1.0000   1.0000   1.0000   1.0000   1.0000   1.0000   1.0000
     1.0000   1.0000   1.0000   1.0000   1.0000   1.0000   1.0000   1.0000
     1.0000   1.0000   1.0003   1.0009   1.0035   1.0221   1.0297   1.0753
     1.0351   0.9420   0.7330   0.1026   0.0360   0.0000   0.0000   0.0000
     0.0000   0.0000   0.0000   0.0000   0.0000   0.0000   0.0000   0.0000
     0.0000   0.0000   0.0000   0.0000   0.0000   0.0000   0.0000   0.0000
     0.0000   0.0000   0.0000   0.0000   0.0000   0.0000   0.0000   0.0000
     0.0000   0.0000   0.0000   0.0000   0.0000   0.0000   0.0000   0.0000
     0.0000   0.0000   0.0000   0.0000   0.0000   0.0000   0.0000   0.0000
     0.0000   0.0000   0.0000   0.0000   0.0000   0.0000   0.0000   0.0000
     0.0000   0.0000   0.0000   0.0000   0.0000   0.0000   0.0000   0.0000
     0.0000   0.0000   0.0000   0.0000   0.0000   0.0000   0.0000   0.0000
     0.0000   0.0000   0.0000   0.0000   0.0000   0.0000   0.0000   0.0000
     0.0000   0.0000   0.0000   0.0000   0.0000   0.0000   0.0000   0.0000
     0.0000   0.0000   0.0000   0.0000   0.0000   0.0000   0.0000   0.0000
     0.0000   0.0000

          k = 0.2000 0.3464 0.0000 ( 76958 PWs)   bands (ev):

   -60.1760 -31.6449 -31.5694 -31.4194 -26.0802 -26.0743 -26.0653 -26.0591
   -26.0553 -26.0175 -26.0108 -26.0031 -26.0008 -25.9644 -25.9638 -25.9611
   -25.9592 -25.9586 -25.9556 -25.9538 -25.9475 -25.9468 -25.9360 -25.9355
   -25.9342 -25.9311 -25.9276 -25.9270 -25.9227 -25.9225 -25.9213 -25.9120
   -25.9099 -25.9097 -25.9087 -25.9082 -25.8975 -25.8905 -25.8904 -25.8859
   -25.8857 -25.8760 -25.8740 -25.8738 -25.8736 -25.8732 -25.8729 -25.8718
   -25.8715 -25.8713 -25.8708 -25.8706 -25.8704 -25.8660 -25.8659 -25.8627
   -25.8621 -25.8574 -25.8548 -25.8544 -25.8542 -25.8491 -25.8403 -25.8362
   -25.8353 -25.8348 -25.8347 -25.8347 -25.8346 -25.8303 -25.8212 -25.8207
   -25.8193 -25.8185 -25.8177 -25.8111 -25.8042 -25.8032 -25.8022 -25.8014
   -25.8013 -25.7821 -25.7808 -25.7765 -25.7753 -25.7700 -25.7698 -25.7662
   -25.7533 -25.7524 -25.7294 -25.7283 -25.7110 -25.7070 -25.7065 -25.7036
   -25.6977 -25.6976 -25.6943 -25.6863 -25.6846 -25.6841 -25.6827 -25.6827
   -25.6810 -25.6809 -25.6773 -25.6772 -25.6724 -25.6722 -25.6721 -25.6718
   -25.6712 -25.6667 -25.6665 -25.6630 -25.6630 -25.6624 -25.6601 -25.6595
   -25.6594 -25.6592 -25.6588 -25.6580 -25.6579 -25.6573 -25.6573 -25.6559
   -25.6548 -25.6538 -25.6537 -25.6528 -25.6527 -25.6489 -25.6487 -25.6460
   -25.6407 -25.6407 -25.6399 -25.6396 -25.6395 -25.6392 -25.6371 -25.6368
   -25.6355 -25.6331 -25.6331 -25.6323 -25.6300 -25.6298 -25.6288 -25.6285
   -25.6275 -25.6272 -25.6266 -25.6265 -25.6256 -25.6237 -25.6235 -25.6226
   -25.6225 -25.6205 -25.6202 -25.6201 -25.6198 -25.6129 -25.6126 -25.6107
   -25.6093 -25.6092 -25.5972 -25.5942 -25.5791 -25.5481 -25.5380 -25.5298
   -25.5216 -25.5199 -25.5193 -25.4910 -25.4824 -25.4810 -25.4800 -25.4697
   -18.6760 -18.6750 -18.6726 -18.6696 -18.6649 -18.6591 -18.6590 -18.6584
   -18.6580 -18.6575 -18.6568 -18.6559 -18.6558 -18.6517 -18.6514 -18.6495
   -18.6476 -18.6473 -18.6450 -18.6436 -18.6430 -18.6416 -18.6405 -18.6401
   -18.6394 -18.6393 -18.6387 -18.6376 -18.6365 -18.6344 -18.6341 -18.6329
   -18.6325 -18.6321 -18.6294 -18.6263 -18.6258 -18.6252 -18.6248 -18.6212
   -18.6187 -18.6181 -18.6070 -18.5931 -18.5896 -18.5895 -18.5767 -18.5766
   -18.5747 -18.5697 -18.4849 -18.4826 -18.4819 -18.4817 -18.4787 -18.4764
   -18.4717 -18.4710 -18.4667 -18.4666 -18.4664 -18.4656 -18.4636 -18.4630
   -18.4603 -18.4595 -18.4575 -18.4571 -18.4570 -18.4569 -18.4564 -18.4564
   -18.4563 -18.4558 -18.4549 -18.4545 -18.4532 -18.4525 -18.4516 -18.4501
   -18.4495 -18.4493 -18.4440 -18.4435 -18.4408 -18.4403 -18.4402 -18.4396
   -18.4386 -18.4384 -18.4384 -18.4372 -18.4371 -18.4367 -18.4358 -18.4357
   -18.4343 -18.4329 -18.4320 -18.4291 -18.4282 -18.4277 -18.4262 -18.4252
   -18.4129 -18.4109 -18.3968 -18.3955 -18.3952 -18.3924 -18.3875 -18.3783
   -18.3711 -18.3620 -18.3615 -18.2268 -18.2164 -18.1110 -18.0627 -18.0492
    -2.3303  -2.1513  -2.1259  -1.7101  -1.5536  -1.4499  -1.4385  -1.3871
    -1.2587  -1.2317  -1.2196  -1.2067  -0.9470  -0.9089  -0.8204  -0.6724
    -0.6546  -0.5577  -0.4987  -0.4173  -0.3915  -0.3274  -0.2457  -0.2266
    -0.2168  -0.2087  -0.1876  -0.1550  -0.1121  -0.1005  -0.0618  -0.0208
    -0.0113   0.0410   0.0717   0.0861   1.1471   1.3484   1.4146   1.5003
     1.7079   1.7263   1.7661   1.8181   1.9138   2.0033   2.0086   2.1061
     2.2938   2.3908   2.4331   2.4950   2.5266   2.5893   2.6012   2.6544
     2.7523   3.7081   3.8519   4.0317   5.3249   5.5099   5.5250   5.5506
     5.6558   5.6997   5.7192   5.7753   5.8149   6.1132   6.2138   6.2936
     6.3089   6.4125   6.4544   6.4884   6.5216   6.6426   6.7267   6.8043
     6.8299   6.9008   6.9405   6.9909   7.0166   7.0800   7.1603   7.1890
     7.2162   7.2342   7.2479   7.2780   7.2877   7.2920   7.3296   7.3595
     7.4099   7.4412   7.4595   7.4735   7.5224   7.5815   7.5992   7.6310
     7.6475   7.6803   7.7584   7.7873   7.8543   7.9148   7.9998   8.0150
     8.0492   8.0945   8.1338   8.1463   8.2320   8.3102   8.3677   8.4043
     8.4565   8.4811   8.5733   8.6981   8.7049   8.7391   8.7693   8.7977
     8.8352   8.9330   8.9518   9.0060   9.0604   9.0997   9.1586   9.1997
     9.2463   9.2734   9.3089   9.3561   9.3771   9.4757   9.5002   9.5845
     9.6563   9.6940   9.7387   9.7860   9.8084   9.8440   9.9352   9.9652
    10.1084  10.1865  10.2145  10.2661  10.3232  10.3734  10.3955  10.4832
    10.5472  10.5617  10.6405  10.6615  10.6917  10.6955  10.7502  10.9397
    10.9792  11.0710  11.1531  11.3183  11.3791  11.5829  11.8360  11.9316
    12.0101  12.0581  12.1388  12.1647  12.2337  12.2592  12.2692  12.2958
    12.3627  12.4524  12.4702  12.5137  12.5786  12.5940  12.6489  12.6754
    12.6926  12.7340  12.7408  12.7551  12.8041  12.8434  12.8988  12.9820
    13.0147  13.1032  13.1157  13.1348  13.1556  13.2798  13.3367  13.3595
    13.4075  13.4796  13.5363  13.5646  13.6828  13.7786  13.8144  13.8679
    13.8770  13.9282  13.9974  14.0168  14.1159  14.1490  14.1877  14.2110
    14.2320  14.3136  14.3537  14.3630  14.4397  14.5021  14.5321  14.5576
    14.5687  14.5959  14.6414  14.7401  14.7813  14.8357  14.8746  14.9481
    14.9899  15.0398  15.1043  15.1629  15.2416  15.2733  15.3274  15.3958
    15.4036  15.4493  15.4707  15.5157  15.5623  15.6011  15.6550  15.7680
    15.8434  15.9607  15.9878  16.0598  16.1195  16.1955  16.2724  16.3362
    16.3913  16.4555

     occupation numbers 
     1.0000   1.0000   1.0000   1.0000   1.0000   1.0000   1.0000   1.0000
     1.0000   1.0000   1.0000   1.0000   1.0000   1.0000   1.0000   1.0000
     1.0000   1.0000   1.0000   1.0000   1.0000   1.0000   1.0000   1.0000
     1.0000   1.0000   1.0000   1.0000   1.0000   1.0000   1.0000   1.0000
     1.0000   1.0000   1.0000   1.0000   1.0000   1.0000   1.0000   1.0000
     1.0000   1.0000   1.0000   1.0000   1.0000   1.0000   1.0000   1.0000
     1.0000   1.0000   1.0000   1.0000   1.0000   1.0000   1.0000   1.0000
     1.0000   1.0000   1.0000   1.0000   1.0000   1.0000   1.0000   1.0000
     1.0000   1.0000   1.0000   1.0000   1.0000   1.0000   1.0000   1.0000
     1.0000   1.0000   1.0000   1.0000   1.0000   1.0000   1.0000   1.0000
     1.0000   1.0000   1.0000   1.0000   1.0000   1.0000   1.0000   1.0000
     1.0000   1.0000   1.0000   1.0000   1.0000   1.0000   1.0000   1.0000
     1.0000   1.0000   1.0000   1.0000   1.0000   1.0000   1.0000   1.0000
     1.0000   1.0000   1.0000   1.0000   1.0000   1.0000   1.0000   1.0000
     1.0000   1.0000   1.0000   1.0000   1.0000   1.0000   1.0000   1.0000
     1.0000   1.0000   1.0000   1.0000   1.0000   1.0000   1.0000   1.0000
     1.0000   1.0000   1.0000   1.0000   1.0000   1.0000   1.0000   1.0000
     1.0000   1.0000   1.0000   1.0000   1.0000   1.0000   1.0000   1.0000
     1.0000   1.0000   1.0000   1.0000   1.0000   1.0000   1.0000   1.0000
     1.0000   1.0000   1.0000   1.0000   1.0000   1.0000   1.0000   1.0000
     1.0000   1.0000   1.0000   1.0000   1.0000   1.0000   1.0000   1.0000
     1.0000   1.0000   1.0000   1.0000   1.0000   1.0000   1.0000   1.0000
     1.0000   1.0000   1.0000   1.0000   1.0000   1.0000   1.0000   1.0000
     1.0000   1.0000   1.0000   1.0000   1.0000   1.0000   1.0000   1.0000
     1.0000   1.0000   1.0000   1.0000   1.0000   1.0000   1.0000   1.0000
     1.0000   1.0000   1.0000   1.0000   1.0000   1.0000   1.0000   1.0000
     1.0000   1.0000   1.0000   1.0000   1.0000   1.0000   1.0000   1.0000
     1.0000   1.0000   1.0000   1.0000   1.0000   1.0000   1.0000   1.0000
     1.0000   1.0000   1.0000   1.0000   1.0000   1.0000   1.0000   1.0000
     1.0000   1.0000   1.0000   1.0000   1.0000   1.0000   1.0000   1.0000
     1.0000   1.0000   1.0000   1.0000   1.0000   1.0000   1.0000   1.0000
     1.0000   1.0000   1.0000   1.0000   1.0000   1.0000   1.0000   1.0000
     1.0000   1.0000   1.0000   1.0000   1.0000   1.0000   1.0000   1.0000
     1.0000   1.0000   1.0000   1.0000   1.0000   1.0000   1.0000   1.0000
     1.0000   1.0000   1.0000   1.0000   1.0000   1.0000   1.0000   1.0000
     1.0000   1.0000   1.0000   1.0000   1.0000   1.0000   1.0000   1.0000
     1.0000   1.0000   1.0000   1.0000   1.0000   1.0000   1.0000   1.0000
     1.0000   1.0000   1.0000   1.0000   1.0000   1.0000   1.0000   1.0000
     1.0000   1.0000   1.0000   1.0000   1.0000   1.0000   1.0000   1.0000
     1.0000   1.0000   1.0000   1.0000   1.0000   1.0000   1.0000   1.0000
     1.0000   1.0000   1.0000   1.0000   1.0000   1.0000   1.0000   1.0000
     1.0000   1.0000   1.0000   1.0000   1.0000   1.0000   1.0000   1.0000
     1.0000   1.0000   1.0000   1.0000   1.0000   1.0000   1.0000   1.0000
     1.0000   1.0000   1.0000   1.0000   1.0000   1.0000   1.0000   1.0000
     1.0000   1.0000   1.0000   1.0000   1.0000   1.0000   1.0000   1.0000
     1.0000   1.0000   1.0000   1.0000   1.0000   1.0000   1.0000   1.0000
     1.0000   1.0000   1.0000   1.0000   1.0000   1.0000   1.0000   1.0000
     1.0000   1.0000   1.0000   1.0000   1.0000   1.0000   1.0000   1.0000
     1.0000   1.0000   1.0000   1.0000   1.0000   1.0000   1.0000   1.0000
     1.0000   1.0000   1.0000   1.0000   1.0000   1.0000   1.0000   1.0000
     1.0000   1.0000   1.0000   1.0000   1.0000   1.0000   1.0000   1.0000
     1.0000   1.0000   1.0000   1.0000   1.0000   1.0000   1.0000   1.0000
     1.0000   1.0000   1.0000   1.0000   1.0000   1.0000   1.0000   1.0000
     1.0000   1.0000   1.0000   1.0000   1.0000   1.0000   1.0000   1.0000
     1.0000   1.0000   1.0000   1.0000   1.0000   1.0000   1.0000   1.0000
     1.0000   1.0000   1.0000   1.0000   1.0000   1.0000   1.0000   1.0000
     1.0000   1.0000   1.0000   1.0000   1.0000   1.0000   1.0000   1.0000
     1.0000   1.0000   1.0000   1.0000   1.0000   1.0000   1.0000   1.0000
     1.0003   1.0004   1.0025   1.0038   1.0067   1.0072   1.0176   1.0831
     1.0685   0.9117   0.6352   0.1345   0.0558   0.0008   0.0000   0.0000
     0.0000   0.0000   0.0000   0.0000   0.0000   0.0000   0.0000   0.0000
     0.0000   0.0000   0.0000   0.0000   0.0000   0.0000   0.0000   0.0000
     0.0000   0.0000   0.0000   0.0000   0.0000   0.0000   0.0000   0.0000
     0.0000   0.0000   0.0000   0.0000   0.0000   0.0000   0.0000   0.0000
     0.0000   0.0000   0.0000   0.0000   0.0000   0.0000   0.0000   0.0000
     0.0000   0.0000   0.0000   0.0000   0.0000   0.0000   0.0000   0.0000
     0.0000   0.0000   0.0000   0.0000   0.0000   0.0000   0.0000   0.0000
     0.0000   0.0000   0.0000   0.0000   0.0000   0.0000   0.0000   0.0000
     0.0000   0.0000   0.0000   0.0000   0.0000   0.0000   0.0000   0.0000
     0.0000   0.0000   0.0000   0.0000   0.0000   0.0000   0.0000   0.0000
     0.0000   0.0000   0.0000   0.0000   0.0000   0.0000   0.0000   0.0000
     0.0000   0.0000

          k = 0.2000 0.5774 0.0000 ( 76936 PWs)   bands (ev):

   -60.1760 -31.6449 -31.5694 -31.4194 -26.0802 -26.0743 -26.0653 -26.0591
   -26.0553 -26.0175 -26.0108 -26.0031 -26.0008 -25.9644 -25.9638 -25.9611
   -25.9592 -25.9586 -25.9556 -25.9538 -25.9475 -25.9468 -25.9360 -25.9355
   -25.9342 -25.9311 -25.9276 -25.9270 -25.9227 -25.9225 -25.9213 -25.9120
   -25.9099 -25.9097 -25.9087 -25.9082 -25.8975 -25.8905 -25.8904 -25.8859
   -25.8857 -25.8760 -25.8740 -25.8738 -25.8736 -25.8732 -25.8729 -25.8718
   -25.8715 -25.8713 -25.8708 -25.8706 -25.8704 -25.8660 -25.8659 -25.8627
   -25.8621 -25.8574 -25.8548 -25.8544 -25.8542 -25.8491 -25.8403 -25.8362
   -25.8353 -25.8348 -25.8347 -25.8347 -25.8346 -25.8303 -25.8212 -25.8206
   -25.8193 -25.8185 -25.8178 -25.8111 -25.8042 -25.8032 -25.8022 -25.8014
   -25.8013 -25.7821 -25.7808 -25.7765 -25.7753 -25.7700 -25.7699 -25.7662
   -25.7533 -25.7524 -25.7294 -25.7283 -25.7110 -25.7070 -25.7065 -25.7036
   -25.6977 -25.6976 -25.6943 -25.6863 -25.6846 -25.6841 -25.6827 -25.6826
   -25.6810 -25.6809 -25.6773 -25.6772 -25.6724 -25.6722 -25.6721 -25.6718
   -25.6712 -25.6667 -25.6664 -25.6631 -25.6630 -25.6624 -25.6601 -25.6595
   -25.6593 -25.6591 -25.6589 -25.6581 -25.6578 -25.6574 -25.6573 -25.6559
   -25.6548 -25.6538 -25.6537 -25.6528 -25.6527 -25.6489 -25.6487 -25.6460
   -25.6407 -25.6407 -25.6399 -25.6396 -25.6395 -25.6392 -25.6371 -25.6368
   -25.6354 -25.6331 -25.6331 -25.6323 -25.6300 -25.6298 -25.6288 -25.6285
   -25.6275 -25.6272 -25.6266 -25.6265 -25.6256 -25.6237 -25.6235 -25.6226
   -25.6224 -25.6205 -25.6203 -25.6201 -25.6200 -25.6129 -25.6127 -25.6107
   -25.6093 -25.6092 -25.5972 -25.5942 -25.5791 -25.5481 -25.5380 -25.5298
   -25.5216 -25.5199 -25.5193 -25.4910 -25.4824 -25.4810 -25.4800 -25.4697
   -18.6759 -18.6749 -18.6723 -18.6694 -18.6649 -18.6592 -18.6587 -18.6584
   -18.6579 -18.6574 -18.6571 -18.6558 -18.6557 -18.6513 -18.6512 -18.6496
   -18.6482 -18.6472 -18.6450 -18.6435 -18.6429 -18.6419 -18.6405 -18.6401
   -18.6396 -18.6390 -18.6388 -18.6379 -18.6364 -18.6346 -18.6341 -18.6330
   -18.6327 -18.6320 -18.6294 -18.6264 -18.6258 -18.6253 -18.6249 -18.6211
   -18.6188 -18.6181 -18.6070 -18.5931 -18.5896 -18.5895 -18.5767 -18.5766
   -18.5747 -18.5696 -18.4840 -18.4829 -18.4820 -18.4807 -18.4788 -18.4771
   -18.4719 -18.4711 -18.4667 -18.4664 -18.4661 -18.4660 -18.4637 -18.4631
   -18.4600 -18.4597 -18.4570 -18.4569 -18.4568 -18.4566 -18.4564 -18.4563
   -18.4557 -18.4557 -18.4553 -18.4545 -18.4533 -18.4526 -18.4522 -18.4502
   -18.4499 -18.4497 -18.4440 -18.4435 -18.4404 -18.4403 -18.4400 -18.4397
   -18.4388 -18.4387 -18.4383 -18.4372 -18.4371 -18.4367 -18.4359 -18.4358
   -18.4337 -18.4334 -18.4322 -18.4292 -18.4282 -18.4276 -18.4261 -18.4252
   -18.4129 -18.4109 -18.3968 -18.3955 -18.3952 -18.3924 -18.3875 -18.3783
   -18.3712 -18.3620 -18.3615 -18.2268 -18.2164 -18.1110 -18.0627 -18.0492
    -1.9878  -1.9200  -1.8577  -1.7685  -1.7606  -1.6643  -1.5118  -1.4276
    -1.3549  -1.3138  -1.3080  -1.1930  -1.1555  -1.1162  -1.0941  -0.9458
    -0.7361  -0.6795  -0.4156  -0.3607  -0.3227  -0.2743  -0.2176  -0.2068
    -0.1823  -0.1508  -0.1022  -0.0880  -0.0617  -0.0475  -0.0209   0.0269
     0.0425   0.0847   0.1120   0.1294   1.1951   1.2096   1.3680   1.3759
     1.4063   1.6095   1.9167   2.0195   2.1545   2.1778   2.2925   2.3170
     2.3966   2.4832   2.4971   2.5679   2.5971   2.6244   3.0223   3.1221
     3.1748   3.2829   3.3128   3.3420   5.4982   5.6825   5.7035   5.7781
     5.9040   5.9338   5.9961   6.0383   6.1095   6.1412   6.1817   6.2204
     6.2495   6.2808   6.3011   6.4098   6.4180   6.4322   6.4609   6.4878
     6.6017   6.6864   6.7334   6.7967   6.8063   6.8714   6.9206   6.9808
     6.9976   7.0200   7.0323   7.0832   7.1619   7.2522   7.3137   7.3839
     7.4409   7.5080   7.5385   7.5586   7.5943   7.6219   7.6958   7.7145
     7.7375   7.7632   7.8026   7.8094   7.8327   7.8568   7.8838   7.8955
     7.9239   7.9630   7.9937   8.0059   8.0376   8.0962   8.1281   8.1762
     8.2211   8.2539   8.3176   8.3656   8.5400   8.5546   8.6452   8.7196
     8.7444   8.8717   8.9321   9.0263   9.0688   9.2095   9.2317   9.2326
     9.3159   9.3375   9.4365   9.4708   9.5218   9.6032   9.6742   9.7340
     9.8174   9.8316   9.8776   9.9121   9.9661  10.0123  10.0494  10.0927
    10.1269  10.1420  10.1918  10.2374  10.2950  10.3452  10.3868  10.4319
    10.4766  10.5281  10.5457  10.6200  10.6723  10.7678  10.8903  10.8944
    10.9438  11.0531  11.1790  11.3700  11.4485  11.9025  11.9520  12.0298
    12.1719  12.1880  12.2245  12.3309  12.3565  12.3822  12.4472  12.4779
    12.5319  12.5680  12.6075  12.6300  12.6720  12.6928  12.7440  12.7953
    12.8029  12.8242  12.8821  12.9135  12.9407  13.0003  13.0369  13.0985
    13.1841  13.2316  13.2740  13.3297  13.3476  13.3890  13.4395  13.4968
    13.5612  13.5782  13.6620  13.6976  13.7442  13.7529  13.8167  13.8666
    13.9777  14.1294  14.1648  14.2280  14.2879  14.3444  14.4245  14.4801
    14.5114  14.5395  14.5760  14.6323  14.6542  14.6917  14.7420  14.7903
    14.8000  14.8432  14.9068  14.9258  14.9702  14.9831  15.0313  15.0388
    15.0513  15.0819  15.1143  15.1952  15.2352  15.2577  15.3383  15.3850
    15.4009  15.4865  15.5612  15.5736  15.6199  15.6370  15.6837  15.7075
    15.7258  15.7615  15.8360  15.8986  15.9460  16.0380  16.0707  16.0974
    16.1465  16.2205

     occupation numbers 
     1.0000   1.0000   1.0000   1.0000   1.0000   1.0000   1.0000   1.0000
     1.0000   1.0000   1.0000   1.0000   1.0000   1.0000   1.0000   1.0000
     1.0000   1.0000   1.0000   1.0000   1.0000   1.0000   1.0000   1.0000
     1.0000   1.0000   1.0000   1.0000   1.0000   1.0000   1.0000   1.0000
     1.0000   1.0000   1.0000   1.0000   1.0000   1.0000   1.0000   1.0000
     1.0000   1.0000   1.0000   1.0000   1.0000   1.0000   1.0000   1.0000
     1.0000   1.0000   1.0000   1.0000   1.0000   1.0000   1.0000   1.0000
     1.0000   1.0000   1.0000   1.0000   1.0000   1.0000   1.0000   1.0000
     1.0000   1.0000   1.0000   1.0000   1.0000   1.0000   1.0000   1.0000
     1.0000   1.0000   1.0000   1.0000   1.0000   1.0000   1.0000   1.0000
     1.0000   1.0000   1.0000   1.0000   1.0000   1.0000   1.0000   1.0000
     1.0000   1.0000   1.0000   1.0000   1.0000   1.0000   1.0000   1.0000
     1.0000   1.0000   1.0000   1.0000   1.0000   1.0000   1.0000   1.0000
     1.0000   1.0000   1.0000   1.0000   1.0000   1.0000   1.0000   1.0000
     1.0000   1.0000   1.0000   1.0000   1.0000   1.0000   1.0000   1.0000
     1.0000   1.0000   1.0000   1.0000   1.0000   1.0000   1.0000   1.0000
     1.0000   1.0000   1.0000   1.0000   1.0000   1.0000   1.0000   1.0000
     1.0000   1.0000   1.0000   1.0000   1.0000   1.0000   1.0000   1.0000
     1.0000   1.0000   1.0000   1.0000   1.0000   1.0000   1.0000   1.0000
     1.0000   1.0000   1.0000   1.0000   1.0000   1.0000   1.0000   1.0000
     1.0000   1.0000   1.0000   1.0000   1.0000   1.0000   1.0000   1.0000
     1.0000   1.0000   1.0000   1.0000   1.0000   1.0000   1.0000   1.0000
     1.0000   1.0000   1.0000   1.0000   1.0000   1.0000   1.0000   1.0000
     1.0000   1.0000   1.0000   1.0000   1.0000   1.0000   1.0000   1.0000
     1.0000   1.0000   1.0000   1.0000   1.0000   1.0000   1.0000   1.0000
     1.0000   1.0000   1.0000   1.0000   1.0000   1.0000   1.0000   1.0000
     1.0000   1.0000   1.0000   1.0000   1.0000   1.0000   1.0000   1.0000
     1.0000   1.0000   1.0000   1.0000   1.0000   1.0000   1.0000   1.0000
     1.0000   1.0000   1.0000   1.0000   1.0000   1.0000   1.0000   1.0000
     1.0000   1.0000   1.0000   1.0000   1.0000   1.0000   1.0000   1.0000
     1.0000   1.0000   1.0000   1.0000   1.0000   1.0000   1.0000   1.0000
     1.0000   1.0000   1.0000   1.0000   1.0000   1.0000   1.0000   1.0000
     1.0000   1.0000   1.0000   1.0000   1.0000   1.0000   1.0000   1.0000
     1.0000   1.0000   1.0000   1.0000   1.0000   1.0000   1.0000   1.0000
     1.0000   1.0000   1.0000   1.0000   1.0000   1.0000   1.0000   1.0000
     1.0000   1.0000   1.0000   1.0000   1.0000   1.0000   1.0000   1.0000
     1.0000   1.0000   1.0000   1.0000   1.0000   1.0000   1.0000   1.0000
     1.0000   1.0000   1.0000   1.0000   1.0000   1.0000   1.0000   1.0000
     1.0000   1.0000   1.0000   1.0000   1.0000   1.0000   1.0000   1.0000
     1.0000   1.0000   1.0000   1.0000   1.0000   1.0000   1.0000   1.0000
     1.0000   1.0000   1.0000   1.0000   1.0000   1.0000   1.0000   1.0000
     1.0000   1.0000   1.0000   1.0000   1.0000   1.0000   1.0000   1.0000
     1.0000   1.0000   1.0000   1.0000   1.0000   1.0000   1.0000   1.0000
     1.0000   1.0000   1.0000   1.0000   1.0000   1.0000   1.0000   1.0000
     1.0000   1.0000   1.0000   1.0000   1.0000   1.0000   1.0000   1.0000
     1.0000   1.0000   1.0000   1.0000   1.0000   1.0000   1.0000   1.0000
     1.0000   1.0000   1.0000   1.0000   1.0000   1.0000   1.0000   1.0000
     1.0000   1.0000   1.0000   1.0000   1.0000   1.0000   1.0000   1.0000
     1.0000   1.0000   1.0000   1.0000   1.0000   1.0000   1.0000   1.0000
     1.0000   1.0000   1.0000   1.0000   1.0000   1.0000   1.0000   1.0000
     1.0000   1.0000   1.0000   1.0000   1.0000   1.0000   1.0000   1.0000
     1.0000   1.0000   1.0000   1.0000   1.0000   1.0000   1.0000   1.0000
     1.0000   1.0000   1.0000   1.0000   1.0000   1.0000   1.0000   1.0000
     1.0000   1.0000   1.0000   1.0000   1.0000   1.0000   1.0000   1.0000
     1.0000   1.0000   1.0000   1.0000   1.0000   1.0000   1.0000   1.0000
     1.0000   1.0000   1.0000   1.0000   1.0000   1.0000   1.0000   1.0000
     1.0000   1.0000   1.0000   1.0000   1.0000   1.0000   1.0000   1.0000
     1.0000   1.0000   1.0000   1.0000   1.0000   1.0000   1.0000   1.0000
     1.0000   1.0002   1.0003   1.0016   1.0047   1.0226   1.0741   1.0755
     1.0827   0.9572   0.5375   0.0643   0.0165   0.0000   0.0000   0.0000
     0.0000   0.0000   0.0000   0.0000   0.0000   0.0000   0.0000   0.0000
     0.0000   0.0000   0.0000   0.0000   0.0000   0.0000   0.0000   0.0000
     0.0000   0.0000   0.0000   0.0000   0.0000   0.0000   0.0000   0.0000
     0.0000   0.0000   0.0000   0.0000   0.0000   0.0000   0.0000   0.0000
     0.0000   0.0000   0.0000   0.0000   0.0000   0.0000   0.0000   0.0000
     0.0000   0.0000   0.0000   0.0000   0.0000   0.0000   0.0000   0.0000
     0.0000   0.0000   0.0000   0.0000   0.0000   0.0000   0.0000   0.0000
     0.0000   0.0000   0.0000   0.0000   0.0000   0.0000   0.0000   0.0000
     0.0000   0.0000   0.0000   0.0000   0.0000   0.0000   0.0000   0.0000
     0.0000   0.0000   0.0000   0.0000   0.0000   0.0000   0.0000   0.0000
     0.0000   0.0000   0.0000   0.0000   0.0000   0.0000   0.0000   0.0000
     0.0000   0.0000

          k =-0.2000 0.1155 0.0000 ( 76885 PWs)   bands (ev):

   -60.1760 -31.6449 -31.5694 -31.4194 -26.0802 -26.0743 -26.0653 -26.0591
   -26.0553 -26.0174 -26.0110 -26.0033 -26.0005 -25.9644 -25.9638 -25.9611
   -25.9592 -25.9586 -25.9561 -25.9534 -25.9475 -25.9469 -25.9360 -25.9355
   -25.9342 -25.9311 -25.9277 -25.9270 -25.9228 -25.9223 -25.9213 -25.9120
   -25.9100 -25.9097 -25.9092 -25.9076 -25.8975 -25.8905 -25.8903 -25.8860
   -25.8857 -25.8760 -25.8741 -25.8740 -25.8734 -25.8732 -25.8731 -25.8720
   -25.8713 -25.8710 -25.8709 -25.8705 -25.8705 -25.8660 -25.8659 -25.8627
   -25.8621 -25.8574 -25.8548 -25.8545 -25.8541 -25.8491 -25.8403 -25.8362
   -25.8358 -25.8348 -25.8347 -25.8345 -25.8342 -25.8303 -25.8212 -25.8207
   -25.8193 -25.8185 -25.8177 -25.8111 -25.8042 -25.8032 -25.8022 -25.8014
   -25.8014 -25.7821 -25.7808 -25.7765 -25.7753 -25.7700 -25.7698 -25.7662
   -25.7538 -25.7519 -25.7293 -25.7285 -25.7110 -25.7073 -25.7063 -25.7036
   -25.6977 -25.6977 -25.6943 -25.6863 -25.6849 -25.6838 -25.6827 -25.6827
   -25.6811 -25.6808 -25.6774 -25.6771 -25.6728 -25.6722 -25.6721 -25.6714
   -25.6712 -25.6668 -25.6665 -25.6630 -25.6630 -25.6624 -25.6601 -25.6599
   -25.6595 -25.6591 -25.6585 -25.6582 -25.6577 -25.6574 -25.6573 -25.6558
   -25.6548 -25.6538 -25.6537 -25.6528 -25.6527 -25.6489 -25.6487 -25.6460
   -25.6407 -25.6406 -25.6397 -25.6397 -25.6394 -25.6393 -25.6370 -25.6369
   -25.6355 -25.6332 -25.6331 -25.6323 -25.6300 -25.6298 -25.6287 -25.6286
   -25.6274 -25.6273 -25.6266 -25.6265 -25.6256 -25.6239 -25.6233 -25.6226
   -25.6225 -25.6211 -25.6203 -25.6199 -25.6193 -25.6131 -25.6124 -25.6107
   -25.6093 -25.6092 -25.5972 -25.5942 -25.5791 -25.5481 -25.5380 -25.5298
   -25.5216 -25.5198 -25.5193 -25.4910 -25.4824 -25.4810 -25.4800 -25.4697
   -18.6762 -18.6752 -18.6729 -18.6705 -18.6639 -18.6605 -18.6591 -18.6585
   -18.6582 -18.6575 -18.6559 -18.6559 -18.6554 -18.6521 -18.6511 -18.6491
   -18.6484 -18.6465 -18.6451 -18.6443 -18.6434 -18.6410 -18.6406 -18.6405
   -18.6399 -18.6389 -18.6386 -18.6366 -18.6363 -18.6348 -18.6337 -18.6332
   -18.6328 -18.6312 -18.6294 -18.6268 -18.6256 -18.6253 -18.6244 -18.6212
   -18.6194 -18.6173 -18.6070 -18.5931 -18.5896 -18.5895 -18.5767 -18.5766
   -18.5747 -18.5697 -18.4861 -18.4836 -18.4815 -18.4807 -18.4796 -18.4759
   -18.4715 -18.4706 -18.4673 -18.4671 -18.4660 -18.4650 -18.4636 -18.4630
   -18.4607 -18.4590 -18.4585 -18.4581 -18.4579 -18.4573 -18.4571 -18.4563
   -18.4559 -18.4547 -18.4547 -18.4538 -18.4535 -18.4530 -18.4509 -18.4500
   -18.4488 -18.4487 -18.4446 -18.4431 -18.4413 -18.4407 -18.4402 -18.4396
   -18.4390 -18.4387 -18.4382 -18.4372 -18.4367 -18.4359 -18.4356 -18.4355
   -18.4348 -18.4324 -18.4320 -18.4290 -18.4289 -18.4272 -18.4269 -18.4240
   -18.4134 -18.4104 -18.3973 -18.3963 -18.3951 -18.3911 -18.3875 -18.3783
   -18.3711 -18.3620 -18.3615 -18.2268 -18.2164 -18.1110 -18.0627 -18.0492
    -2.5227  -2.3449  -2.3100  -1.8848  -1.7207  -1.6260  -1.1723  -1.0322
    -0.9750  -0.8061  -0.8041  -0.7547  -0.6913  -0.6847  -0.6030  -0.5924
    -0.5709  -0.5109  -0.5041  -0.4895  -0.4799  -0.4747  -0.3545  -0.3061
    -0.2954  -0.2805  -0.2468  -0.2466  -0.2100  -0.1658  -0.1169  -0.0754
    -0.0660  -0.0456   0.0026   0.0190   1.2242   1.3249   1.4773   1.4788
     1.5063   1.5303   1.6589   1.7167   1.7509   1.8929   1.9449   2.0526
     2.1206   2.1358   2.1381   2.2170   2.3101   2.4364   2.4604   2.6052
     2.7811   4.0076   4.1935   4.4477   5.1745   5.2202   5.2736   5.3971
     5.3993   5.4593   5.4866   5.5363   5.6147   6.3713   6.5296   6.5311
     6.6056   6.6117   6.6359   6.7381   6.7754   6.7822   6.8121   6.8204
     6.8362   6.8390   6.9094   6.9524   6.9912   7.0797   7.1240   7.1637
     7.2138   7.2484   7.2772   7.2906   7.3152   7.4285   7.4432   7.5066
     7.5810   7.5860   7.6944   7.8079   7.8216   7.8490   7.9005   7.9665
     7.9785   8.0207   8.0334   8.0839   8.0855   8.1238   8.2065   8.2458
     8.2718   8.2810   8.3692   8.3780   8.3999   8.4240   8.4784   8.4821
     8.5674   8.5821   8.6315   8.6918   8.7891   8.7950   8.8448   8.8585
     8.9483   8.9589   8.9846   9.0567   9.0785   9.0924   9.1559   9.1760
     9.2629   9.3352   9.3452   9.4227   9.4288   9.4946   9.5277   9.5808
     9.5926   9.6688   9.6729   9.7171   9.7601   9.7677   9.8299   9.8900
     9.9100   9.9563  10.0036  10.0494  10.1244  10.2092  10.2233  10.3163
    10.3498  10.4098  10.4693  10.4782  10.5176  10.6553  10.7205  10.7353
    10.9321  11.0147  11.0517  11.2984  11.4666  11.4879  11.7227  11.7904
    11.8073  11.8378  11.9852  11.9981  12.0425  12.0752  12.0839  12.1478
    12.1571  12.2596  12.2801  12.3135  12.3154  12.3879  12.4603  12.5063
    12.5160  12.5407  12.5907  12.5962  12.6378  12.6723  12.7341  12.7774
    12.8008  12.8410  12.8473  12.8792  12.9197  13.0455  13.0696  13.1100
    13.1363  13.1610  13.3203  13.3568  13.3922  13.4893  13.5015  13.5539
    13.6553  13.6927  13.8216  13.8549  13.9004  13.9435  14.0156  14.1167
    14.1347  14.1721  14.2018  14.2038  14.2687  14.3043  14.3457  14.3921
    14.4647  14.4720  14.5438  14.5981  14.6278  14.6601  14.7083  14.7821
    14.8018  14.8310  14.8493  14.9596  14.9694  15.0883  15.1860  15.2699
    15.3891  15.5993  15.7395  15.7615  15.7806  15.9046  15.9490  16.0391
    16.1070  16.1208  16.1582  16.1609  16.3018  16.3059  16.3461  16.4333
    16.4456  16.4979

     occupation numbers 
     1.0000   1.0000   1.0000   1.0000   1.0000   1.0000   1.0000   1.0000
     1.0000   1.0000   1.0000   1.0000   1.0000   1.0000   1.0000   1.0000
     1.0000   1.0000   1.0000   1.0000   1.0000   1.0000   1.0000   1.0000
     1.0000   1.0000   1.0000   1.0000   1.0000   1.0000   1.0000   1.0000
     1.0000   1.0000   1.0000   1.0000   1.0000   1.0000   1.0000   1.0000
     1.0000   1.0000   1.0000   1.0000   1.0000   1.0000   1.0000   1.0000
     1.0000   1.0000   1.0000   1.0000   1.0000   1.0000   1.0000   1.0000
     1.0000   1.0000   1.0000   1.0000   1.0000   1.0000   1.0000   1.0000
     1.0000   1.0000   1.0000   1.0000   1.0000   1.0000   1.0000   1.0000
     1.0000   1.0000   1.0000   1.0000   1.0000   1.0000   1.0000   1.0000
     1.0000   1.0000   1.0000   1.0000   1.0000   1.0000   1.0000   1.0000
     1.0000   1.0000   1.0000   1.0000   1.0000   1.0000   1.0000   1.0000
     1.0000   1.0000   1.0000   1.0000   1.0000   1.0000   1.0000   1.0000
     1.0000   1.0000   1.0000   1.0000   1.0000   1.0000   1.0000   1.0000
     1.0000   1.0000   1.0000   1.0000   1.0000   1.0000   1.0000   1.0000
     1.0000   1.0000   1.0000   1.0000   1.0000   1.0000   1.0000   1.0000
     1.0000   1.0000   1.0000   1.0000   1.0000   1.0000   1.0000   1.0000
     1.0000   1.0000   1.0000   1.0000   1.0000   1.0000   1.0000   1.0000
     1.0000   1.0000   1.0000   1.0000   1.0000   1.0000   1.0000   1.0000
     1.0000   1.0000   1.0000   1.0000   1.0000   1.0000   1.0000   1.0000
     1.0000   1.0000   1.0000   1.0000   1.0000   1.0000   1.0000   1.0000
     1.0000   1.0000   1.0000   1.0000   1.0000   1.0000   1.0000   1.0000
     1.0000   1.0000   1.0000   1.0000   1.0000   1.0000   1.0000   1.0000
     1.0000   1.0000   1.0000   1.0000   1.0000   1.0000   1.0000   1.0000
     1.0000   1.0000   1.0000   1.0000   1.0000   1.0000   1.0000   1.0000
     1.0000   1.0000   1.0000   1.0000   1.0000   1.0000   1.0000   1.0000
     1.0000   1.0000   1.0000   1.0000   1.0000   1.0000   1.0000   1.0000
     1.0000   1.0000   1.0000   1.0000   1.0000   1.0000   1.0000   1.0000
     1.0000   1.0000   1.0000   1.0000   1.0000   1.0000   1.0000   1.0000
     1.0000   1.0000   1.0000   1.0000   1.0000   1.0000   1.0000   1.0000
     1.0000   1.0000   1.0000   1.0000   1.0000   1.0000   1.0000   1.0000
     1.0000   1.0000   1.0000   1.0000   1.0000   1.0000   1.0000   1.0000
     1.0000   1.0000   1.0000   1.0000   1.0000   1.0000   1.0000   1.0000
     1.0000   1.0000   1.0000   1.0000   1.0000   1.0000   1.0000   1.0000
     1.0000   1.0000   1.0000   1.0000   1.0000   1.0000   1.0000   1.0000
     1.0000   1.0000   1.0000   1.0000   1.0000   1.0000   1.0000   1.0000
     1.0000   1.0000   1.0000   1.0000   1.0000   1.0000   1.0000   1.0000
     1.0000   1.0000   1.0000   1.0000   1.0000   1.0000   1.0000   1.0000
     1.0000   1.0000   1.0000   1.0000   1.0000   1.0000   1.0000   1.0000
     1.0000   1.0000   1.0000   1.0000   1.0000   1.0000   1.0000   1.0000
     1.0000   1.0000   1.0000   1.0000   1.0000   1.0000   1.0000   1.0000
     1.0000   1.0000   1.0000   1.0000   1.0000   1.0000   1.0000   1.0000
     1.0000   1.0000   1.0000   1.0000   1.0000   1.0000   1.0000   1.0000
     1.0000   1.0000   1.0000   1.0000   1.0000   1.0000   1.0000   1.0000
     1.0000   1.0000   1.0000   1.0000   1.0000   1.0000   1.0000   1.0000
     1.0000   1.0000   1.0000   1.0000   1.0000   1.0000   1.0000   1.0000
     1.0000   1.0000   1.0000   1.0000   1.0000   1.0000   1.0000   1.0000
     1.0000   1.0000   1.0000   1.0000   1.0000   1.0000   1.0000   1.0000
     1.0000   1.0000   1.0000   1.0000   1.0000   1.0000   1.0000   1.0000
     1.0000   1.0000   1.0000   1.0000   1.0000   1.0000   1.0000   1.0000
     1.0000   1.0000   1.0000   1.0000   1.0000   1.0000   1.0000   1.0000
     1.0000   1.0000   1.0000   1.0000   1.0000   1.0000   1.0000   1.0000
     1.0000   1.0000   1.0000   1.0000   1.0000   1.0000   1.0000   1.0000
     1.0000   1.0000   1.0000   1.0000   1.0000   1.0000   1.0000   1.0000
     1.0000   1.0000   1.0000   1.0000   1.0000   1.0000   1.0000   1.0000
     1.0000   1.0000   1.0000   1.0000   1.0000   1.0000   1.0000   1.0000
     1.0000   1.0000   1.0000   1.0000   1.0000   1.0000   1.0000   1.0000
     1.0000   1.0000   1.0000   1.0000   1.0000   1.0000   1.0000   1.0000
     1.0000   1.0000   1.0000   1.0000   1.0001   1.0033   1.0110   1.0140
     1.0833   1.0302   0.9604   0.1729   0.0116   0.0075   0.0000   0.0000
     0.0000   0.0000   0.0000   0.0000   0.0000   0.0000   0.0000   0.0000
     0.0000   0.0000   0.0000   0.0000   0.0000   0.0000   0.0000   0.0000
     0.0000   0.0000   0.0000   0.0000   0.0000   0.0000   0.0000   0.0000
     0.0000   0.0000   0.0000   0.0000   0.0000   0.0000   0.0000   0.0000
     0.0000   0.0000   0.0000   0.0000   0.0000   0.0000   0.0000   0.0000
     0.0000   0.0000   0.0000   0.0000   0.0000   0.0000   0.0000   0.0000
     0.0000   0.0000   0.0000   0.0000   0.0000   0.0000   0.0000   0.0000
     0.0000   0.0000   0.0000   0.0000   0.0000   0.0000   0.0000   0.0000
     0.0000   0.0000   0.0000   0.0000   0.0000   0.0000   0.0000   0.0000
     0.0000   0.0000   0.0000   0.0000   0.0000   0.0000   0.0000   0.0000
     0.0000   0.0000   0.0000   0.0000   0.0000   0.0000   0.0000   0.0000
     0.0000   0.0000

          k =-0.4000 0.2309 0.0000 ( 76897 PWs)   bands (ev):

   -60.1760 -31.6449 -31.5694 -31.4194 -26.0802 -26.0743 -26.0653 -26.0591
   -26.0553 -26.0174 -26.0110 -26.0033 -26.0005 -25.9644 -25.9638 -25.9611
   -25.9592 -25.9585 -25.9561 -25.9534 -25.9475 -25.9468 -25.9360 -25.9355
   -25.9342 -25.9311 -25.9277 -25.9270 -25.9228 -25.9224 -25.9213 -25.9120
   -25.9100 -25.9097 -25.9092 -25.9076 -25.8975 -25.8905 -25.8903 -25.8860
   -25.8857 -25.8759 -25.8741 -25.8739 -25.8734 -25.8732 -25.8731 -25.8720
   -25.8713 -25.8712 -25.8708 -25.8706 -25.8704 -25.8660 -25.8660 -25.8627
   -25.8621 -25.8574 -25.8548 -25.8545 -25.8541 -25.8491 -25.8403 -25.8362
   -25.8358 -25.8348 -25.8347 -25.8345 -25.8342 -25.8303 -25.8212 -25.8206
   -25.8193 -25.8185 -25.8178 -25.8111 -25.8042 -25.8032 -25.8022 -25.8014
   -25.8014 -25.7821 -25.7808 -25.7765 -25.7753 -25.7701 -25.7698 -25.7662
   -25.7538 -25.7519 -25.7293 -25.7285 -25.7110 -25.7072 -25.7062 -25.7036
   -25.6977 -25.6976 -25.6943 -25.6863 -25.6849 -25.6839 -25.6827 -25.6826
   -25.6811 -25.6808 -25.6774 -25.6771 -25.6728 -25.6723 -25.6721 -25.6714
   -25.6712 -25.6668 -25.6664 -25.6630 -25.6630 -25.6624 -25.6601 -25.6598
   -25.6593 -25.6590 -25.6584 -25.6583 -25.6577 -25.6575 -25.6573 -25.6558
   -25.6549 -25.6538 -25.6537 -25.6528 -25.6527 -25.6489 -25.6487 -25.6460
   -25.6407 -25.6406 -25.6397 -25.6397 -25.6394 -25.6393 -25.6370 -25.6369
   -25.6354 -25.6332 -25.6330 -25.6323 -25.6300 -25.6298 -25.6287 -25.6286
   -25.6274 -25.6273 -25.6266 -25.6265 -25.6256 -25.6239 -25.6233 -25.6224
   -25.6224 -25.6211 -25.6204 -25.6201 -25.6194 -25.6131 -25.6125 -25.6108
   -25.6093 -25.6092 -25.5972 -25.5942 -25.5791 -25.5481 -25.5380 -25.5298
   -25.5215 -25.5199 -25.5193 -25.4910 -25.4824 -25.4810 -25.4800 -25.4697
   -18.6760 -18.6750 -18.6724 -18.6701 -18.6636 -18.6608 -18.6588 -18.6584
   -18.6581 -18.6573 -18.6563 -18.6555 -18.6552 -18.6515 -18.6509 -18.6493
   -18.6488 -18.6467 -18.6450 -18.6444 -18.6433 -18.6411 -18.6409 -18.6407
   -18.6398 -18.6390 -18.6387 -18.6367 -18.6364 -18.6350 -18.6338 -18.6335
   -18.6329 -18.6313 -18.6294 -18.6270 -18.6257 -18.6253 -18.6245 -18.6211
   -18.6194 -18.6173 -18.6069 -18.5931 -18.5896 -18.5895 -18.5767 -18.5766
   -18.5747 -18.5696 -18.4852 -18.4830 -18.4804 -18.4804 -18.4799 -18.4773
   -18.4719 -18.4707 -18.4670 -18.4670 -18.4657 -18.4652 -18.4638 -18.4633
   -18.4604 -18.4591 -18.4581 -18.4577 -18.4574 -18.4569 -18.4565 -18.4561
   -18.4559 -18.4547 -18.4547 -18.4546 -18.4530 -18.4528 -18.4521 -18.4501
   -18.4495 -18.4494 -18.4446 -18.4431 -18.4409 -18.4405 -18.4396 -18.4395
   -18.4392 -18.4391 -18.4388 -18.4372 -18.4367 -18.4359 -18.4358 -18.4356
   -18.4342 -18.4326 -18.4325 -18.4291 -18.4290 -18.4271 -18.4269 -18.4240
   -18.4134 -18.4104 -18.3973 -18.3963 -18.3951 -18.3911 -18.3876 -18.3783
   -18.3712 -18.3620 -18.3615 -18.2268 -18.2164 -18.1110 -18.0627 -18.0492
    -2.2350  -2.0560  -2.0348  -1.7788  -1.6716  -1.5840  -1.5732  -1.4270
    -1.3606  -1.1871  -0.9821  -0.9381  -0.9331  -0.8989  -0.7597  -0.7384
    -0.7267  -0.7237  -0.5667  -0.5195  -0.5045  -0.4344  -0.3013  -0.2792
    -0.2652  -0.2597  -0.1981  -0.1638  -0.1083  -0.1039  -0.0705  -0.0015
     0.0335   0.1121   0.1264   0.1657   1.4187   1.5098   1.6538   1.6639
     1.6730   1.7277   1.7744   1.7934   1.9604   1.9621   1.9718   2.0444
     2.0536   2.1890   2.3045   2.3885   2.5592   2.6705   2.8345   2.9960
     3.0760   3.5522   3.6668   3.8435   5.4722   5.4997   5.6532   5.6867
     5.7065   5.7601   5.8117   5.9491   5.9920   6.0015   6.0277   6.1438
     6.1908   6.2051   6.3366   6.5499   6.6065   6.6257   6.7102   6.7608
     6.7752   6.8315   6.8823   6.8912   6.9194   6.9219   7.0007   7.0020
     7.1023   7.1116   7.1447   7.2720   7.3250   7.3388   7.3781   7.3834
     7.4207   7.4473   7.5540   7.5640   7.6217   7.6423   7.6790   7.6875
     7.7137   7.7243   7.7977   7.8414   7.8451   7.9260   7.9684   7.9847
     8.0100   8.0250   8.0757   8.1164   8.1603   8.1604   8.2946   8.3378
     8.3400   8.4390   8.4599   8.4863   8.5457   8.6728   8.6870   8.7043
     8.7522   8.8280   8.9323   8.9585   9.0596   9.1397   9.2918   9.3062
     9.4081   9.4273   9.4791   9.5421   9.5532   9.6054   9.6408   9.6759
     9.6920   9.7252   9.7306   9.7938   9.8119   9.8644   9.8795   9.8955
     9.9481  10.0128  10.0873  10.1845  10.2375  10.2377  10.3089  10.3758
    10.4620  10.4776  10.5686  10.5942  10.6246  10.7430  10.7622  10.8765
    11.0522  11.1111  11.1991  11.3636  11.4831  11.8392  11.8708  12.0468
    12.1027  12.1605  12.1832  12.2285  12.2296  12.3419  12.3686  12.4326
    12.4493  12.4896  12.5274  12.5567  12.5918  12.6438  12.6955  12.6998
    12.7496  12.8255  12.8805  12.8967  13.0007  13.0091  13.0420  13.0888
    13.1250  13.1874  13.2478  13.2480  13.3031  13.3276  13.3910  13.4564
    13.4969  13.5267  13.6240  13.6405  13.6958  13.7686  13.7720  13.8086
    13.8578  14.0301  14.0669  14.0917  14.1389  14.1959  14.2302  14.2645
    14.3198  14.3344  14.3890  14.4161  14.4338  14.4841  14.5331  14.5547
    14.6153  14.7577  14.7581  14.8182  14.8502  14.8592  14.9709  14.9998
    15.0315  15.0437  15.0643  15.0888  15.1202  15.1760  15.2160  15.2846
    15.2946  15.4052  15.5395  15.6065  15.7040  15.7072  15.7533  15.9058
    15.9108  15.9743  16.1092  16.1112  16.1757  16.2572  16.3039  16.3266
    16.3788  16.4346

     occupation numbers 
     1.0000   1.0000   1.0000   1.0000   1.0000   1.0000   1.0000   1.0000
     1.0000   1.0000   1.0000   1.0000   1.0000   1.0000   1.0000   1.0000
     1.0000   1.0000   1.0000   1.0000   1.0000   1.0000   1.0000   1.0000
     1.0000   1.0000   1.0000   1.0000   1.0000   1.0000   1.0000   1.0000
     1.0000   1.0000   1.0000   1.0000   1.0000   1.0000   1.0000   1.0000
     1.0000   1.0000   1.0000   1.0000   1.0000   1.0000   1.0000   1.0000
     1.0000   1.0000   1.0000   1.0000   1.0000   1.0000   1.0000   1.0000
     1.0000   1.0000   1.0000   1.0000   1.0000   1.0000   1.0000   1.0000
     1.0000   1.0000   1.0000   1.0000   1.0000   1.0000   1.0000   1.0000
     1.0000   1.0000   1.0000   1.0000   1.0000   1.0000   1.0000   1.0000
     1.0000   1.0000   1.0000   1.0000   1.0000   1.0000   1.0000   1.0000
     1.0000   1.0000   1.0000   1.0000   1.0000   1.0000   1.0000   1.0000
     1.0000   1.0000   1.0000   1.0000   1.0000   1.0000   1.0000   1.0000
     1.0000   1.0000   1.0000   1.0000   1.0000   1.0000   1.0000   1.0000
     1.0000   1.0000   1.0000   1.0000   1.0000   1.0000   1.0000   1.0000
     1.0000   1.0000   1.0000   1.0000   1.0000   1.0000   1.0000   1.0000
     1.0000   1.0000   1.0000   1.0000   1.0000   1.0000   1.0000   1.0000
     1.0000   1.0000   1.0000   1.0000   1.0000   1.0000   1.0000   1.0000
     1.0000   1.0000   1.0000   1.0000   1.0000   1.0000   1.0000   1.0000
     1.0000   1.0000   1.0000   1.0000   1.0000   1.0000   1.0000   1.0000
     1.0000   1.0000   1.0000   1.0000   1.0000   1.0000   1.0000   1.0000
     1.0000   1.0000   1.0000   1.0000   1.0000   1.0000   1.0000   1.0000
     1.0000   1.0000   1.0000   1.0000   1.0000   1.0000   1.0000   1.0000
     1.0000   1.0000   1.0000   1.0000   1.0000   1.0000   1.0000   1.0000
     1.0000   1.0000   1.0000   1.0000   1.0000   1.0000   1.0000   1.0000
     1.0000   1.0000   1.0000   1.0000   1.0000   1.0000   1.0000   1.0000
     1.0000   1.0000   1.0000   1.0000   1.0000   1.0000   1.0000   1.0000
     1.0000   1.0000   1.0000   1.0000   1.0000   1.0000   1.0000   1.0000
     1.0000   1.0000   1.0000   1.0000   1.0000   1.0000   1.0000   1.0000
     1.0000   1.0000   1.0000   1.0000   1.0000   1.0000   1.0000   1.0000
     1.0000   1.0000   1.0000   1.0000   1.0000   1.0000   1.0000   1.0000
     1.0000   1.0000   1.0000   1.0000   1.0000   1.0000   1.0000   1.0000
     1.0000   1.0000   1.0000   1.0000   1.0000   1.0000   1.0000   1.0000
     1.0000   1.0000   1.0000   1.0000   1.0000   1.0000   1.0000   1.0000
     1.0000   1.0000   1.0000   1.0000   1.0000   1.0000   1.0000   1.0000
     1.0000   1.0000   1.0000   1.0000   1.0000   1.0000   1.0000   1.0000
     1.0000   1.0000   1.0000   1.0000   1.0000   1.0000   1.0000   1.0000
     1.0000   1.0000   1.0000   1.0000   1.0000   1.0000   1.0000   1.0000
     1.0000   1.0000   1.0000   1.0000   1.0000   1.0000   1.0000   1.0000
     1.0000   1.0000   1.0000   1.0000   1.0000   1.0000   1.0000   1.0000
     1.0000   1.0000   1.0000   1.0000   1.0000   1.0000   1.0000   1.0000
     1.0000   1.0000   1.0000   1.0000   1.0000   1.0000   1.0000   1.0000
     1.0000   1.0000   1.0000   1.0000   1.0000   1.0000   1.0000   1.0000
     1.0000   1.0000   1.0000   1.0000   1.0000   1.0000   1.0000   1.0000
     1.0000   1.0000   1.0000   1.0000   1.0000   1.0000   1.0000   1.0000
     1.0000   1.0000   1.0000   1.0000   1.0000   1.0000   1.0000   1.0000
     1.0000   1.0000   1.0000   1.0000   1.0000   1.0000   1.0000   1.0000
     1.0000   1.0000   1.0000   1.0000   1.0000   1.0000   1.0000   1.0000
     1.0000   1.0000   1.0000   1.0000   1.0000   1.0000   1.0000   1.0000
     1.0000   1.0000   1.0000   1.0000   1.0000   1.0000   1.0000   1.0000
     1.0000   1.0000   1.0000   1.0000   1.0000   1.0000   1.0000   1.0000
     1.0000   1.0000   1.0000   1.0000   1.0000   1.0000   1.0000   1.0000
     1.0000   1.0000   1.0000   1.0000   1.0000   1.0000   1.0000   1.0000
     1.0000   1.0000   1.0000   1.0000   1.0000   1.0000   1.0000   1.0000
     1.0000   1.0000   1.0000   1.0000   1.0000   1.0000   1.0000   1.0000
     1.0000   1.0000   1.0000   1.0000   1.0000   1.0000   1.0000   1.0000
     1.0000   1.0000   1.0000   1.0000   1.0000   1.0000   1.0000   1.0000
     1.0000   1.0000   1.0000   1.0000   1.0000   1.0000   1.0000   1.0000
     1.0000   1.0000   1.0005   1.0009   1.0018   1.0158   1.0209   1.0685
     0.9591   0.7872   0.4637   0.0710   0.0083   0.0000   0.0000   0.0000
     0.0000   0.0000   0.0000   0.0000   0.0000   0.0000   0.0000   0.0000
     0.0000   0.0000   0.0000   0.0000   0.0000   0.0000   0.0000   0.0000
     0.0000   0.0000   0.0000   0.0000   0.0000   0.0000   0.0000   0.0000
     0.0000   0.0000   0.0000   0.0000   0.0000   0.0000   0.0000   0.0000
     0.0000   0.0000   0.0000   0.0000   0.0000   0.0000   0.0000   0.0000
     0.0000   0.0000   0.0000   0.0000   0.0000   0.0000   0.0000   0.0000
     0.0000   0.0000   0.0000   0.0000   0.0000   0.0000   0.0000   0.0000
     0.0000   0.0000   0.0000   0.0000   0.0000   0.0000   0.0000   0.0000
     0.0000   0.0000   0.0000   0.0000   0.0000   0.0000   0.0000   0.0000
     0.0000   0.0000   0.0000   0.0000   0.0000   0.0000   0.0000   0.0000
     0.0000   0.0000   0.0000   0.0000   0.0000   0.0000   0.0000   0.0000
     0.0000   0.0000

          k =-0.2000 0.3464 0.0000 ( 76958 PWs)   bands (ev):

   -60.1760 -31.6449 -31.5694 -31.4194 -26.0802 -26.0743 -26.0653 -26.0591
   -26.0553 -26.0174 -26.0109 -26.0032 -26.0006 -25.9644 -25.9638 -25.9611
   -25.9592 -25.9586 -25.9559 -25.9535 -25.9475 -25.9468 -25.9360 -25.9355
   -25.9342 -25.9311 -25.9277 -25.9270 -25.9227 -25.9224 -25.9213 -25.9120
   -25.9099 -25.9097 -25.9090 -25.9078 -25.8975 -25.8905 -25.8903 -25.8860
   -25.8857 -25.8760 -25.8740 -25.8739 -25.8734 -25.8732 -25.8730 -25.8719
   -25.8714 -25.8712 -25.8709 -25.8706 -25.8704 -25.8660 -25.8659 -25.8627
   -25.8621 -25.8574 -25.8548 -25.8545 -25.8542 -25.8491 -25.8403 -25.8362
   -25.8357 -25.8348 -25.8347 -25.8345 -25.8344 -25.8303 -25.8212 -25.8206
   -25.8193 -25.8185 -25.8178 -25.8111 -25.8042 -25.8032 -25.8022 -25.8014
   -25.8014 -25.7821 -25.7808 -25.7765 -25.7753 -25.7700 -25.7698 -25.7662
   -25.7536 -25.7520 -25.7293 -25.7284 -25.7110 -25.7072 -25.7063 -25.7036
   -25.6977 -25.6976 -25.6943 -25.6863 -25.6848 -25.6839 -25.6827 -25.6827
   -25.6811 -25.6808 -25.6774 -25.6771 -25.6727 -25.6722 -25.6721 -25.6715
   -25.6712 -25.6667 -25.6664 -25.6630 -25.6630 -25.6624 -25.6601 -25.6598
   -25.6594 -25.6590 -25.6586 -25.6582 -25.6577 -25.6575 -25.6573 -25.6558
   -25.6548 -25.6538 -25.6537 -25.6528 -25.6527 -25.6489 -25.6487 -25.6460
   -25.6407 -25.6406 -25.6398 -25.6396 -25.6394 -25.6392 -25.6371 -25.6368
   -25.6354 -25.6332 -25.6331 -25.6323 -25.6300 -25.6298 -25.6287 -25.6285
   -25.6275 -25.6272 -25.6266 -25.6265 -25.6256 -25.6238 -25.6234 -25.6225
   -25.6224 -25.6209 -25.6204 -25.6200 -25.6195 -25.6130 -25.6125 -25.6107
   -25.6093 -25.6092 -25.5972 -25.5942 -25.5791 -25.5481 -25.5380 -25.5298
   -25.5215 -25.5199 -25.5193 -25.4910 -25.4824 -25.4810 -25.4800 -25.4697
   -18.6760 -18.6750 -18.6725 -18.6700 -18.6642 -18.6602 -18.6589 -18.6584
   -18.6581 -18.6574 -18.6564 -18.6557 -18.6555 -18.6517 -18.6511 -18.6492
   -18.6485 -18.6468 -18.6450 -18.6439 -18.6434 -18.6410 -18.6408 -18.6404
   -18.6398 -18.6390 -18.6388 -18.6369 -18.6365 -18.6348 -18.6339 -18.6332
   -18.6328 -18.6315 -18.6294 -18.6268 -18.6256 -18.6254 -18.6246 -18.6212
   -18.6192 -18.6175 -18.6070 -18.5931 -18.5896 -18.5895 -18.5767 -18.5766
   -18.5747 -18.5696 -18.4852 -18.4830 -18.4813 -18.4807 -18.4794 -18.4767
   -18.4718 -18.4708 -18.4670 -18.4669 -18.4660 -18.4654 -18.4637 -18.4631
   -18.4604 -18.4592 -18.4577 -18.4576 -18.4575 -18.4570 -18.4565 -18.4562
   -18.4561 -18.4550 -18.4546 -18.4546 -18.4531 -18.4528 -18.4518 -18.4501
   -18.4494 -18.4493 -18.4444 -18.4432 -18.4409 -18.4405 -18.4399 -18.4394
   -18.4392 -18.4388 -18.4385 -18.4372 -18.4367 -18.4362 -18.4358 -18.4357
   -18.4343 -18.4327 -18.4322 -18.4291 -18.4288 -18.4273 -18.4267 -18.4243
   -18.4132 -18.4105 -18.3971 -18.3960 -18.3952 -18.3915 -18.3875 -18.3783
   -18.3712 -18.3620 -18.3615 -18.2268 -18.2164 -18.1110 -18.0627 -18.0492
    -2.3300  -2.1510  -2.1251  -1.7178  -1.5766  -1.4525  -1.4454  -1.3720
    -1.2945  -1.2256  -1.2198  -1.1117  -0.9391  -0.8804  -0.8017  -0.6841
    -0.6621  -0.6365  -0.4935  -0.4150  -0.3927  -0.3550  -0.2492  -0.2222
    -0.2168  -0.1997  -0.1817  -0.1622  -0.1417  -0.1024  -0.0547  -0.0211
    -0.0067   0.0440   0.0674   0.0910   1.1598   1.3494   1.4618   1.5073
     1.7088   1.7334   1.7393   1.8299   1.9080   2.0032   2.0087   2.1149
     2.2951   2.3887   2.4229   2.4662   2.4970   2.5905   2.5991   2.6863
     2.7669   3.7066   3.8404   4.0318   5.3287   5.5037   5.5230   5.5470
     5.6121   5.7027   5.7318   5.7995   5.8497   6.1079   6.2521   6.2864
     6.3073   6.4371   6.4708   6.4890   6.5071   6.6516   6.7268   6.8015
     6.8221   6.8516   6.9329   6.9591   7.0286   7.0982   7.1273   7.1717
     7.2032   7.2215   7.2403   7.2725   7.2909   7.2982   7.3292   7.3758
     7.4047   7.4445   7.4522   7.4690   7.5217   7.5743   7.6074   7.6309
     7.6588   7.6719   7.7136   7.8063   7.8596   7.9356   8.0076   8.0249
     8.0599   8.0998   8.1482   8.1601   8.2745   8.3210   8.3588   8.4184
     8.4540   8.4770   8.5547   8.6410   8.6989   8.7379   8.7564   8.8352
     8.8761   8.9149   8.9537   8.9993   9.0709   9.0980   9.1522   9.2009
     9.2286   9.2729   9.2989   9.3404   9.3685   9.4518   9.5211   9.6018
     9.6435   9.6830   9.7507   9.7838   9.7995   9.8639   9.9375   9.9529
    10.1279  10.1797  10.2108  10.2417  10.3234  10.3650  10.4051  10.4710
    10.5275  10.5648  10.6205  10.6442  10.6837  10.7122  10.8064  10.8864
    10.9708  11.0830  11.1315  11.3172  11.4731  11.6182  11.8435  11.8939
    12.0266  12.0558  12.1504  12.1935  12.2091  12.2499  12.2977  12.3243
    12.3882  12.4231  12.4865  12.5449  12.5851  12.6077  12.6494  12.6887
    12.7158  12.7411  12.7490  12.7815  12.8075  12.8513  12.8755  12.9321
    13.0543  13.0697  13.1149  13.1657  13.1898  13.2372  13.3312  13.3602
    13.3943  13.4641  13.5132  13.5565  13.6873  13.7481  13.8451  13.8751
    13.9157  13.9540  13.9758  14.0416  14.0923  14.1496  14.1604  14.1931
    14.2539  14.2723  14.3317  14.3614  14.4102  14.4699  14.5034  14.5521
    14.5549  14.5869  14.6359  14.7458  14.8278  14.8783  14.8963  14.9305
    14.9923  15.0896  15.1120  15.1600  15.2421  15.2652  15.3061  15.3450
    15.4027  15.4404  15.4706  15.5055  15.5866  15.6222  15.6515  15.7660
    15.8505  15.9312  15.9687  16.0681  16.1160  16.1967  16.2365  16.3211
    16.3912  16.4768

     occupation numbers 
     1.0000   1.0000   1.0000   1.0000   1.0000   1.0000   1.0000   1.0000
     1.0000   1.0000   1.0000   1.0000   1.0000   1.0000   1.0000   1.0000
     1.0000   1.0000   1.0000   1.0000   1.0000   1.0000   1.0000   1.0000
     1.0000   1.0000   1.0000   1.0000   1.0000   1.0000   1.0000   1.0000
     1.0000   1.0000   1.0000   1.0000   1.0000   1.0000   1.0000   1.0000
     1.0000   1.0000   1.0000   1.0000   1.0000   1.0000   1.0000   1.0000
     1.0000   1.0000   1.0000   1.0000   1.0000   1.0000   1.0000   1.0000
     1.0000   1.0000   1.0000   1.0000   1.0000   1.0000   1.0000   1.0000
     1.0000   1.0000   1.0000   1.0000   1.0000   1.0000   1.0000   1.0000
     1.0000   1.0000   1.0000   1.0000   1.0000   1.0000   1.0000   1.0000
     1.0000   1.0000   1.0000   1.0000   1.0000   1.0000   1.0000   1.0000
     1.0000   1.0000   1.0000   1.0000   1.0000   1.0000   1.0000   1.0000
     1.0000   1.0000   1.0000   1.0000   1.0000   1.0000   1.0000   1.0000
     1.0000   1.0000   1.0000   1.0000   1.0000   1.0000   1.0000   1.0000
     1.0000   1.0000   1.0000   1.0000   1.0000   1.0000   1.0000   1.0000
     1.0000   1.0000   1.0000   1.0000   1.0000   1.0000   1.0000   1.0000
     1.0000   1.0000   1.0000   1.0000   1.0000   1.0000   1.0000   1.0000
     1.0000   1.0000   1.0000   1.0000   1.0000   1.0000   1.0000   1.0000
     1.0000   1.0000   1.0000   1.0000   1.0000   1.0000   1.0000   1.0000
     1.0000   1.0000   1.0000   1.0000   1.0000   1.0000   1.0000   1.0000
     1.0000   1.0000   1.0000   1.0000   1.0000   1.0000   1.0000   1.0000
     1.0000   1.0000   1.0000   1.0000   1.0000   1.0000   1.0000   1.0000
     1.0000   1.0000   1.0000   1.0000   1.0000   1.0000   1.0000   1.0000
     1.0000   1.0000   1.0000   1.0000   1.0000   1.0000   1.0000   1.0000
     1.0000   1.0000   1.0000   1.0000   1.0000   1.0000   1.0000   1.0000
     1.0000   1.0000   1.0000   1.0000   1.0000   1.0000   1.0000   1.0000
     1.0000   1.0000   1.0000   1.0000   1.0000   1.0000   1.0000   1.0000
     1.0000   1.0000   1.0000   1.0000   1.0000   1.0000   1.0000   1.0000
     1.0000   1.0000   1.0000   1.0000   1.0000   1.0000   1.0000   1.0000
     1.0000   1.0000   1.0000   1.0000   1.0000   1.0000   1.0000   1.0000
     1.0000   1.0000   1.0000   1.0000   1.0000   1.0000   1.0000   1.0000
     1.0000   1.0000   1.0000   1.0000   1.0000   1.0000   1.0000   1.0000
     1.0000   1.0000   1.0000   1.0000   1.0000   1.0000   1.0000   1.0000
     1.0000   1.0000   1.0000   1.0000   1.0000   1.0000   1.0000   1.0000
     1.0000   1.0000   1.0000   1.0000   1.0000   1.0000   1.0000   1.0000
     1.0000   1.0000   1.0000   1.0000   1.0000   1.0000   1.0000   1.0000
     1.0000   1.0000   1.0000   1.0000   1.0000   1.0000   1.0000   1.0000
     1.0000   1.0000   1.0000   1.0000   1.0000   1.0000   1.0000   1.0000
     1.0000   1.0000   1.0000   1.0000   1.0000   1.0000   1.0000   1.0000
     1.0000   1.0000   1.0000   1.0000   1.0000   1.0000   1.0000   1.0000
     1.0000   1.0000   1.0000   1.0000   1.0000   1.0000   1.0000   1.0000
     1.0000   1.0000   1.0000   1.0000   1.0000   1.0000   1.0000   1.0000
     1.0000   1.0000   1.0000   1.0000   1.0000   1.0000   1.0000   1.0000
     1.0000   1.0000   1.0000   1.0000   1.0000   1.0000   1.0000   1.0000
     1.0000   1.0000   1.0000   1.0000   1.0000   1.0000   1.0000   1.0000
     1.0000   1.0000   1.0000   1.0000   1.0000   1.0000   1.0000   1.0000
     1.0000   1.0000   1.0000   1.0000   1.0000   1.0000   1.0000   1.0000
     1.0000   1.0000   1.0000   1.0000   1.0000   1.0000   1.0000   1.0000
     1.0000   1.0000   1.0000   1.0000   1.0000   1.0000   1.0000   1.0000
     1.0000   1.0000   1.0000   1.0000   1.0000   1.0000   1.0000   1.0000
     1.0000   1.0000   1.0000   1.0000   1.0000   1.0000   1.0000   1.0000
     1.0000   1.0000   1.0000   1.0000   1.0000   1.0000   1.0000   1.0000
     1.0000   1.0000   1.0000   1.0000   1.0000   1.0000   1.0000   1.0000
     1.0000   1.0000   1.0000   1.0000   1.0000   1.0000   1.0000   1.0000
     1.0000   1.0000   1.0000   1.0000   1.0000   1.0000   1.0000   1.0000
     1.0000   1.0000   1.0000   1.0000   1.0000   1.0000   1.0000   1.0000
     1.0000   1.0000   1.0000   1.0000   1.0000   1.0000   1.0000   1.0000
     1.0000   1.0000   1.0000   1.0000   1.0000   1.0000   1.0000   1.0000
     1.0002   1.0004   1.0016   1.0027   1.0058   1.0096   1.0367   1.0726
     1.0738   0.8774   0.7152   0.1365   0.0101   0.0003   0.0000   0.0000
     0.0000   0.0000   0.0000   0.0000   0.0000   0.0000   0.0000   0.0000
     0.0000   0.0000   0.0000   0.0000   0.0000   0.0000   0.0000   0.0000
     0.0000   0.0000   0.0000   0.0000   0.0000   0.0000   0.0000   0.0000
     0.0000   0.0000   0.0000   0.0000   0.0000   0.0000   0.0000   0.0000
     0.0000   0.0000   0.0000   0.0000   0.0000   0.0000   0.0000   0.0000
     0.0000   0.0000   0.0000   0.0000   0.0000   0.0000   0.0000   0.0000
     0.0000   0.0000   0.0000   0.0000   0.0000   0.0000   0.0000   0.0000
     0.0000   0.0000   0.0000   0.0000   0.0000   0.0000   0.0000   0.0000
     0.0000   0.0000   0.0000   0.0000   0.0000   0.0000   0.0000   0.0000
     0.0000   0.0000   0.0000   0.0000   0.0000   0.0000   0.0000   0.0000
     0.0000   0.0000   0.0000   0.0000   0.0000   0.0000   0.0000   0.0000
     0.0000   0.0000

          k =-0.4000 0.4619 0.0000 ( 76936 PWs)   bands (ev):

   -60.1760 -31.6449 -31.5694 -31.4194 -26.0802 -26.0743 -26.0653 -26.0591
   -26.0553 -26.0174 -26.0109 -26.0032 -26.0006 -25.9644 -25.9638 -25.9611
   -25.9592 -25.9585 -25.9559 -25.9535 -25.9475 -25.9468 -25.9360 -25.9355
   -25.9342 -25.9311 -25.9276 -25.9270 -25.9227 -25.9224 -25.9213 -25.9120
   -25.9099 -25.9097 -25.9090 -25.9078 -25.8975 -25.8905 -25.8903 -25.8859
   -25.8857 -25.8759 -25.8740 -25.8739 -25.8734 -25.8732 -25.8730 -25.8719
   -25.8714 -25.8712 -25.8708 -25.8706 -25.8704 -25.8660 -25.8659 -25.8627
   -25.8621 -25.8574 -25.8548 -25.8545 -25.8542 -25.8491 -25.8403 -25.8362
   -25.8357 -25.8348 -25.8347 -25.8345 -25.8344 -25.8303 -25.8212 -25.8206
   -25.8193 -25.8185 -25.8178 -25.8111 -25.8042 -25.8032 -25.8022 -25.8014
   -25.8014 -25.7821 -25.7808 -25.7765 -25.7753 -25.7700 -25.7698 -25.7662
   -25.7536 -25.7520 -25.7293 -25.7284 -25.7110 -25.7072 -25.7063 -25.7036
   -25.6977 -25.6976 -25.6943 -25.6863 -25.6848 -25.6839 -25.6827 -25.6826
   -25.6811 -25.6808 -25.6774 -25.6771 -25.6727 -25.6722 -25.6721 -25.6715
   -25.6712 -25.6667 -25.6664 -25.6630 -25.6630 -25.6624 -25.6601 -25.6597
   -25.6592 -25.6591 -25.6586 -25.6582 -25.6578 -25.6575 -25.6573 -25.6558
   -25.6548 -25.6538 -25.6537 -25.6528 -25.6527 -25.6489 -25.6487 -25.6460
   -25.6407 -25.6406 -25.6398 -25.6396 -25.6394 -25.6392 -25.6371 -25.6368
   -25.6354 -25.6332 -25.6330 -25.6323 -25.6300 -25.6298 -25.6287 -25.6285
   -25.6275 -25.6272 -25.6266 -25.6265 -25.6256 -25.6238 -25.6234 -25.6224
   -25.6224 -25.6209 -25.6204 -25.6201 -25.6196 -25.6130 -25.6125 -25.6108
   -25.6093 -25.6092 -25.5972 -25.5942 -25.5791 -25.5481 -25.5380 -25.5298
   -25.5215 -25.5199 -25.5193 -25.4910 -25.4824 -25.4810 -25.4800 -25.4697
   -18.6759 -18.6750 -18.6723 -18.6697 -18.6640 -18.6603 -18.6588 -18.6584
   -18.6581 -18.6573 -18.6567 -18.6555 -18.6553 -18.6513 -18.6510 -18.6493
   -18.6489 -18.6469 -18.6450 -18.6440 -18.6434 -18.6411 -18.6408 -18.6405
   -18.6397 -18.6391 -18.6389 -18.6371 -18.6363 -18.6349 -18.6339 -18.6334
   -18.6328 -18.6315 -18.6294 -18.6268 -18.6256 -18.6255 -18.6246 -18.6211
   -18.6193 -18.6175 -18.6069 -18.5931 -18.5896 -18.5895 -18.5767 -18.5766
   -18.5747 -18.5696 -18.4846 -18.4827 -18.4816 -18.4796 -18.4795 -18.4777
   -18.4720 -18.4709 -18.4669 -18.4668 -18.4658 -18.4655 -18.4638 -18.4633
   -18.4602 -18.4593 -18.4578 -18.4575 -18.4569 -18.4567 -18.4565 -18.4562
   -18.4553 -18.4550 -18.4550 -18.4546 -18.4531 -18.4528 -18.4524 -18.4501
   -18.4498 -18.4497 -18.4444 -18.4432 -18.4406 -18.4404 -18.4396 -18.4393
   -18.4392 -18.4391 -18.4389 -18.4372 -18.4367 -18.4362 -18.4359 -18.4358
   -18.4339 -18.4329 -18.4325 -18.4292 -18.4288 -18.4272 -18.4267 -18.4243
   -18.4132 -18.4105 -18.3971 -18.3960 -18.3952 -18.3915 -18.3876 -18.3783
   -18.3712 -18.3620 -18.3615 -18.2268 -18.2164 -18.1110 -18.0627 -18.0492
    -1.9737  -1.9396  -1.8257  -1.7726  -1.7604  -1.7309  -1.5052  -1.4211
    -1.3529  -1.3093  -1.2684  -1.2469  -1.1261  -1.1017  -0.9907  -0.9484
    -0.8000  -0.7174  -0.4235  -0.3652  -0.3252  -0.2761  -0.2411  -0.2079
    -0.1596  -0.1465  -0.1091  -0.0899  -0.0708  -0.0557  -0.0401   0.0281
     0.0455   0.0838   0.1194   0.1534   1.1987   1.2161   1.3673   1.3688
     1.4065   1.6427   1.9134   2.0685   2.1479   2.1768   2.2819   2.2958
     2.4102   2.4563   2.4928   2.5176   2.5938   2.6950   3.0335   3.1175
     3.1812   3.2578   3.3128   3.3293   5.4978   5.6769   5.6942   5.7829
     5.9256   5.9432   5.9998   6.0453   6.1338   6.1680   6.1884   6.2171
     6.2375   6.2863   6.2879   6.3474   6.4129   6.4270   6.4654   6.4809
     6.6122   6.6463   6.7476   6.7779   6.8111   6.8647   6.9525   6.9740
     6.9888   7.0006   7.0559   7.1056   7.2062   7.2534   7.3235   7.3597
     7.4620   7.4861   7.5273   7.5541   7.5856   7.6251   7.6861   7.7113
     7.7648   7.7705   7.7950   7.8117   7.8457   7.8490   7.8659   7.9061
     7.9303   7.9651   7.9832   7.9992   8.0391   8.0722   8.1250   8.1563
     8.2222   8.2937   8.3069   8.3418   8.5406   8.5670   8.6382   8.7163
     8.7853   8.9104   8.9426   9.0166   9.1198   9.1495   9.2114   9.2470
     9.2831   9.3102   9.4066   9.4716   9.4772   9.5946   9.6583   9.7640
     9.8065   9.8459   9.8574   9.9125   9.9931  10.0182  10.0376  10.0721
    10.0917  10.1549  10.1985  10.2175  10.3112  10.3875  10.3999  10.4243
    10.4998  10.5261  10.5650  10.6335  10.6712  10.7657  10.8672  10.8904
    10.9030  11.0736  11.1682  11.3732  11.5363  11.9251  11.9520  12.0736
    12.1091  12.1474  12.2183  12.3306  12.3536  12.4369  12.4495  12.4885
    12.5121  12.5969  12.6039  12.6720  12.7088  12.7165  12.7299  12.7680
    12.8074  12.8472  12.8850  12.8979  12.9428  13.0202  13.0817  13.1303
    13.1780  13.2725  13.2909  13.3072  13.3421  13.4073  13.4218  13.5144
    13.5383  13.5753  13.6218  13.6795  13.7349  13.7537  13.7637  13.8650
    14.0007  14.1386  14.1571  14.1849  14.2981  14.3201  14.4376  14.4989
    14.5325  14.5612  14.5894  14.6190  14.6342  14.6918  14.7479  14.7841
    14.7923  14.8570  14.8751  14.9254  14.9451  15.0164  15.0337  15.0386
    15.0478  15.0683  15.0930  15.1508  15.2254  15.2761  15.3059  15.3491
    15.4049  15.4348  15.5145  15.5894  15.6009  15.6595  15.6887  15.7158
    15.7423  15.7837  15.8026  15.9116  15.9403  16.0200  16.0411  16.0919
    16.2172  16.2298

     occupation numbers 
     1.0000   1.0000   1.0000   1.0000   1.0000   1.0000   1.0000   1.0000
     1.0000   1.0000   1.0000   1.0000   1.0000   1.0000   1.0000   1.0000
     1.0000   1.0000   1.0000   1.0000   1.0000   1.0000   1.0000   1.0000
     1.0000   1.0000   1.0000   1.0000   1.0000   1.0000   1.0000   1.0000
     1.0000   1.0000   1.0000   1.0000   1.0000   1.0000   1.0000   1.0000
     1.0000   1.0000   1.0000   1.0000   1.0000   1.0000   1.0000   1.0000
     1.0000   1.0000   1.0000   1.0000   1.0000   1.0000   1.0000   1.0000
     1.0000   1.0000   1.0000   1.0000   1.0000   1.0000   1.0000   1.0000
     1.0000   1.0000   1.0000   1.0000   1.0000   1.0000   1.0000   1.0000
     1.0000   1.0000   1.0000   1.0000   1.0000   1.0000   1.0000   1.0000
     1.0000   1.0000   1.0000   1.0000   1.0000   1.0000   1.0000   1.0000
     1.0000   1.0000   1.0000   1.0000   1.0000   1.0000   1.0000   1.0000
     1.0000   1.0000   1.0000   1.0000   1.0000   1.0000   1.0000   1.0000
     1.0000   1.0000   1.0000   1.0000   1.0000   1.0000   1.0000   1.0000
     1.0000   1.0000   1.0000   1.0000   1.0000   1.0000   1.0000   1.0000
     1.0000   1.0000   1.0000   1.0000   1.0000   1.0000   1.0000   1.0000
     1.0000   1.0000   1.0000   1.0000   1.0000   1.0000   1.0000   1.0000
     1.0000   1.0000   1.0000   1.0000   1.0000   1.0000   1.0000   1.0000
     1.0000   1.0000   1.0000   1.0000   1.0000   1.0000   1.0000   1.0000
     1.0000   1.0000   1.0000   1.0000   1.0000   1.0000   1.0000   1.0000
     1.0000   1.0000   1.0000   1.0000   1.0000   1.0000   1.0000   1.0000
     1.0000   1.0000   1.0000   1.0000   1.0000   1.0000   1.0000   1.0000
     1.0000   1.0000   1.0000   1.0000   1.0000   1.0000   1.0000   1.0000
     1.0000   1.0000   1.0000   1.0000   1.0000   1.0000   1.0000   1.0000
     1.0000   1.0000   1.0000   1.0000   1.0000   1.0000   1.0000   1.0000
     1.0000   1.0000   1.0000   1.0000   1.0000   1.0000   1.0000   1.0000
     1.0000   1.0000   1.0000   1.0000   1.0000   1.0000   1.0000   1.0000
     1.0000   1.0000   1.0000   1.0000   1.0000   1.0000   1.0000   1.0000
     1.0000   1.0000   1.0000   1.0000   1.0000   1.0000   1.0000   1.0000
     1.0000   1.0000   1.0000   1.0000   1.0000   1.0000   1.0000   1.0000
     1.0000   1.0000   1.0000   1.0000   1.0000   1.0000   1.0000   1.0000
     1.0000   1.0000   1.0000   1.0000   1.0000   1.0000   1.0000   1.0000
     1.0000   1.0000   1.0000   1.0000   1.0000   1.0000   1.0000   1.0000
     1.0000   1.0000   1.0000   1.0000   1.0000   1.0000   1.0000   1.0000
     1.0000   1.0000   1.0000   1.0000   1.0000   1.0000   1.0000   1.0000
     1.0000   1.0000   1.0000   1.0000   1.0000   1.0000   1.0000   1.0000
     1.0000   1.0000   1.0000   1.0000   1.0000   1.0000   1.0000   1.0000
     1.0000   1.0000   1.0000   1.0000   1.0000   1.0000   1.0000   1.0000
     1.0000   1.0000   1.0000   1.0000   1.0000   1.0000   1.0000   1.0000
     1.0000   1.0000   1.0000   1.0000   1.0000   1.0000   1.0000   1.0000
     1.0000   1.0000   1.0000   1.0000   1.0000   1.0000   1.0000   1.0000
     1.0000   1.0000   1.0000   1.0000   1.0000   1.0000   1.0000   1.0000
     1.0000   1.0000   1.0000   1.0000   1.0000   1.0000   1.0000   1.0000
     1.0000   1.0000   1.0000   1.0000   1.0000   1.0000   1.0000   1.0000
     1.0000   1.0000   1.0000   1.0000   1.0000   1.0000   1.0000   1.0000
     1.0000   1.0000   1.0000   1.0000   1.0000   1.0000   1.0000   1.0000
     1.0000   1.0000   1.0000   1.0000   1.0000   1.0000   1.0000   1.0000
     1.0000   1.0000   1.0000   1.0000   1.0000   1.0000   1.0000   1.0000
     1.0000   1.0000   1.0000   1.0000   1.0000   1.0000   1.0000   1.0000
     1.0000   1.0000   1.0000   1.0000   1.0000   1.0000   1.0000   1.0000
     1.0000   1.0000   1.0000   1.0000   1.0000   1.0000   1.0000   1.0000
     1.0000   1.0000   1.0000   1.0000   1.0000   1.0000   1.0000   1.0000
     1.0000   1.0000   1.0000   1.0000   1.0000   1.0000   1.0000   1.0000
     1.0000   1.0000   1.0000   1.0000   1.0000   1.0000   1.0000   1.0000
     1.0000   1.0000   1.0000   1.0000   1.0000   1.0000   1.0000   1.0000
     1.0000   1.0000   1.0000   1.0000   1.0000   1.0000   1.0000   1.0000
     1.0000   1.0000   1.0000   1.0000   1.0000   1.0000   1.0000   1.0000
     1.0000   1.0000   1.0000   1.0000   1.0000   1.0000   1.0000   1.0000
     1.0001   1.0002   1.0004   1.0021   1.0046   1.0219   1.0644   1.0741
     1.0783   0.9044   0.5782   0.0612   0.0025   0.0000   0.0000   0.0000
     0.0000   0.0000   0.0000   0.0000   0.0000   0.0000   0.0000   0.0000
     0.0000   0.0000   0.0000   0.0000   0.0000   0.0000   0.0000   0.0000
     0.0000   0.0000   0.0000   0.0000   0.0000   0.0000   0.0000   0.0000
     0.0000   0.0000   0.0000   0.0000   0.0000   0.0000   0.0000   0.0000
     0.0000   0.0000   0.0000   0.0000   0.0000   0.0000   0.0000   0.0000
     0.0000   0.0000   0.0000   0.0000   0.0000   0.0000   0.0000   0.0000
     0.0000   0.0000   0.0000   0.0000   0.0000   0.0000   0.0000   0.0000
     0.0000   0.0000   0.0000   0.0000   0.0000   0.0000   0.0000   0.0000
     0.0000   0.0000   0.0000   0.0000   0.0000   0.0000   0.0000   0.0000
     0.0000   0.0000   0.0000   0.0000   0.0000   0.0000   0.0000   0.0000
     0.0000   0.0000   0.0000   0.0000   0.0000   0.0000   0.0000   0.0000
     0.0000   0.0000

     the Fermi energy is    11.2170 ev

!    total energy              =   -9820.04543865 Ry
     estimated scf accuracy    <       0.00000075 Ry
     smearing contrib. (-TS)   =       0.00676554 Ry
     internal energy E=F+TS    =   -9820.05220420 Ry

     The total energy is F=E-TS. E is the sum of the following terms:
     one-electron contribution =   -4719.37756245 Ry
     hartree contribution      =    2607.22522434 Ry
     xc contribution           =   -1065.91502570 Ry
     ewald contribution        =   -6640.84033107 Ry
     DFT-D3 Dispersion         =      -1.14450931 Ry

     convergence has been achieved in  22 iterations

     Writing all to output data dir ./out/sb2te3.save/ :
     XML data file, charge density, pseudopotentials, collected wavefunctions
 
     init_run     :     73.67s CPU     75.53s WALL (       1 calls)
     electrons    :   5562.78s CPU   5607.26s WALL (       1 calls)

     Called by init_run:
     wfcinit      :     72.66s CPU     74.38s WALL (       1 calls)
     wfcinit:atom :      0.37s CPU      0.60s WALL (       2 calls)
     wfcinit:wfcr :     71.25s CPU     72.24s WALL (       2 calls)
     potinit      :      0.51s CPU      0.58s WALL (       1 calls)
     hinit0       :      0.31s CPU      0.33s WALL (       1 calls)

     Called by electrons:
     c_bands      :   5080.66s CPU   5121.79s WALL (      22 calls)
     sum_band     :    444.98s CPU    446.91s WALL (      22 calls)
     v_of_rho     :     10.33s CPU     10.51s WALL (      23 calls)
     v_h          :      0.68s CPU      0.69s WALL (      23 calls)
     v_xc         :      9.65s CPU      9.82s WALL (      23 calls)
     mix_rho      :     25.72s CPU     26.90s WALL (      22 calls)
     energy_dftd3 :      0.39s CPU      0.39s WALL (       1 calls)

     Called by c_bands:
     init_us_2    :     38.32s CPU     38.78s WALL (      90 calls)
     cegterg      :   4718.77s CPU   4758.92s WALL (      44 calls)

     Called by sum_band:
     sum_band:wei :      0.04s CPU      0.04s WALL (      22 calls)
     sum_band:loo :    442.48s CPU    444.31s WALL (      22 calls)
     sum_band:buf :      5.51s CPU      5.57s WALL (      44 calls)
     sum_band:ini :     18.72s CPU     18.82s WALL (      44 calls)

     Called by *egterg:
     cdiaghg      :    155.40s CPU    156.02s WALL (     303 calls)
     cegterg:over :    605.16s CPU    607.48s WALL (     259 calls)
     cegterg:upda :    346.46s CPU    353.21s WALL (     259 calls)
     cegterg:last :    629.18s CPU    631.51s WALL (      90 calls)
     h_psi        :   2791.12s CPU   2813.47s WALL (     305 calls)
     g_psi        :      5.34s CPU      5.37s WALL (     259 calls)

     Called by h_psi:
     h_psi:calbec :    520.04s CPU    522.09s WALL (     305 calls)
     vloc_psi     :   1711.60s CPU   1718.77s WALL (     305 calls)
     add_vuspsi   :    549.26s CPU    551.33s WALL (     305 calls)

     General routines
     calbec       :    520.03s CPU    522.09s WALL (     305 calls)
     fft          :      2.61s CPU      2.62s WALL (     229 calls)
     ffts         :      6.38s CPU      6.40s WALL (     693 calls)
     fftw         :   1644.85s CPU   1651.36s WALL (  138178 calls)
 
     Parallel routines
 
     PWSCF        :      1h33m CPU      1h34m WALL

 
   This run was terminated on:  21:26:30  13Sep2026            

=------------------------------------------------------------------------------=
   JOB DONE.
=------------------------------------------------------------------------------=
