61
Properties=species:S:1:pos:R:3:forces:R:3 mlff_rel_energy_eV=0.0 mlff_fmax_eV_A=2.1502000373168433 calculator_label=/data/pclancy3/yi/flare-data/1-Cr-Sb2Te3/3.fine-tuning/2-layer/MACE-multihead_600K/finetuned_MACE_multihead0804_compiled.model neb_image=0 neb_protocol=mlff_pre_neb repair_mode=idpp repair_image_index=0 migrant_element=Cr energy=-133572.35296361463 pbc="F F F"
Te       2.10710960       1.21488953       3.52649000       0.43472247      -0.32517115       0.60828262
Te       4.21564743       4.86698419       3.52649000      -0.10285938       0.43502754      -0.16945366
Te       6.32132606       1.21654029       3.52156387      -0.48199434       0.25093609      -0.15284610
Te      -0.00142960       4.86698498       3.52649002      -0.21565897       1.04468907       0.66673773
Te      -0.01180600       0.00681620       6.81857495      -0.05515527       0.66219914       0.43829528
Te       2.10710848       3.64961994       6.83386468      -0.38064221       0.71480817      -0.59943606
Te       4.22602382       0.00681570       6.81857476      -0.08988893       0.55540331       0.11179042
Te      -2.10710848       3.63598755       6.81857476      -0.41895456       0.65467413      -0.07710152
Te      -0.00000000      -0.00000000      -0.00000000       0.20775599       0.97169354       0.67250072
Te       2.10710891       3.64961970       0.00000000      -0.75995420       0.47566306       0.68378208
Te       4.21421783      -0.00000000      -0.00000000      -0.25879011       0.76809866       0.59721669
Te      -2.10710891       3.64961970      -0.00000000       0.24600377       0.91064995       0.85811911
Te       0.04001852       2.45618476      13.94811973      -0.58567259      -0.71364969       0.77883097
Te       2.10710870       6.03648994      13.94811973       0.26562513      -1.19710587       0.48866040
Te       4.17419930       2.45618451      13.94812012       0.38664146      -0.39373799       0.01208246
Te      -2.10710870       6.08269937      13.88567260      -0.00308579      -0.96998249      -0.56070926
Te       2.10710913       1.26274946      17.08531749      -0.07021575      -0.81367454      -0.70045041
Te       4.17419930       4.84305463      17.08531749      -0.00899344       0.25217502      -0.32921341
Te       6.32132652       1.21654002      17.14776463       0.00868967      -0.25483574       0.45361749
Te       0.04001852       4.84305488      17.08531710       0.67550892      -0.62906169      -0.42029359
Te       2.10710868       1.20794623      10.36172634       0.02622501      -0.89045350       0.80763541
Te       4.22166004       4.87045663      10.36172634      -0.72324693       0.25440297      -0.49937134
Te       6.32132698       1.21653976      10.35126143      -1.10024047      -0.45638330       0.58837042
Te      -0.00744221       4.87045636      10.36172676      -0.68839104       0.64550587      -0.15721681
Te       0.01180600      -0.00681620      24.21486228       0.57768201       0.34677036      -0.34342116
Te       2.10710934       3.64961945      24.19957255       0.81473639       0.04828602       0.17445254
Te       4.20241183      -0.00681570      24.21486247       0.64429226       0.11936636      -0.02794613
Te      -2.10710934       3.66325184      24.21486247       0.45579772       0.09058459      -0.02046644
Te      -0.00142960       2.43225520      27.50694722       0.08760151      -0.32455830      -0.27871172
Te       2.10710823       6.08434986      27.50694722       0.29954167      -0.08497734       0.25068328
Te       4.21564743       2.43225441      27.50694721      -0.28511631      -0.09887127      -0.97784816
Te      -2.10710823       6.08269910      27.51187335       0.92894718      -0.60581136       0.40592213
Te      -0.00744221       2.42878276      20.67171089      -0.32141520      -0.56990466      -0.43212397
Te       2.10710915       6.09129316      20.67171089       0.66866726      -0.52425957       0.49783388
Te       4.22166004       2.42878303      20.67171047       1.17196842      -0.38989497      -0.14515538
Te      -2.10710915       6.08269963      20.68217579       0.76219672      -0.49310064       0.50197815
Sb      -0.02025832       2.42138195       8.42172512      -0.08903467      -0.58712276      -0.42147152
Sb       2.10711038       6.10609264       8.42172512       0.72503080      -1.18625110       0.81403782
Sb       4.23447615       2.42138364       8.42172551       0.50012520      -0.54179380       0.53862778
Sb      -2.10711038       6.08270034       8.38906352       0.50644100      -1.08428288      -0.00548890
Sb      -0.00022761       2.43294581       1.92166849       0.14508255      -0.79816700      -1.99129121
Sb       2.10711114       6.08296361       1.92166849       0.44671040      -1.24686200      -0.03809740
Sb       4.21444544       2.43294838       1.92166877      -0.14206847      -0.96034560      -0.51400762
Sb      -2.10711114       6.08270078       1.92029170       0.51769529      -1.63807317      -0.81712978
Sb      -0.04294477       0.02479418      18.75264199       0.34364219       1.04247491       0.53393253
Sb       2.10710819       3.64962011      18.70280807      -0.85283622       1.10430896       0.77901373
Sb       4.25716259       0.02479335      18.75264223      -0.05149944       0.53168434      -0.06292326
Sb       6.32132747       3.60003175      18.75264223      -0.84128788      -0.14101465      -0.13268808
Sb       0.04294477      -0.02479418      12.28079524       0.69510330       0.76312943      -0.31107399
Sb       2.10710964       3.64961928      12.33062916       0.68153273       0.69922369      -0.95702891
Sb       4.17127306      -0.02479335      12.28079499       0.31325724       1.55029118      -0.70035367
Sb      -2.10710964       3.69920765      12.28079499       0.33862310       0.99840783       0.49744161
Sb       2.10710669       1.21627579      29.11176874      -0.06555526      -0.02984771       0.38191840
Sb       4.21444544       4.86629358      29.11176874      -0.24590460       0.26634701       0.13209474
Sb       6.32132897       1.21653861      29.11314553      -0.25834964       0.11407694       0.48064208
Sb      -0.00022761       4.86629101      29.11176845      -0.45127069       0.39932924      -0.35415330
Sb       2.10710745       1.19314675      22.61171211      -0.86305629      -0.35519040       0.37299868
Sb       4.23447615       4.87785744      22.61171211      -1.34326551       0.08785318      -0.89195909
Sb       6.32132821       1.21653905      22.64437370      -1.13159036       0.09972448       0.02140584
Sb      -0.02025832       4.87785575      22.61171172      -0.82186370       0.46854850      -1.08195778
Cr       2.10710891       3.64961970      15.51671861      -0.16798911       0.97805165       0.02248461
61
Properties=species:S:1:pos:R:3:forces:R:3 mlff_rel_energy_eV=-16.408528765517985 mlff_fmax_eV_A=0.11830378310679786 calculator_label=/data/pclancy3/yi/flare-data/1-Cr-Sb2Te3/3.fine-tuning/2-layer/MACE-multihead_600K/finetuned_MACE_multihead0804_compiled.model neb_image=1 neb_protocol=mlff_pre_neb repair_mode=idpp repair_image_index=1 migrant_element=Cr energy=-133588.76149238014 pbc="F F F"
Te       1.69194230       1.83262857       4.54084537      -0.01505897       0.01422276       0.04213662
Te       4.45903730       5.52945263       2.95808441       0.00623130       0.04657452      -0.01060173
Te       5.68223409       0.95758191       4.19356738      -0.00569488      -0.00139965       0.02818719
Te      -0.03811126       4.44755917       4.06004339      -0.03114373       0.01203430       0.02026331
Te       0.72394829       0.40811038       7.24636091       0.00519878       0.04196940      -0.01535668
Te       2.34008757       4.27018234       6.74676036      -0.00330297       0.05799919      -0.02748903
Te       3.65980971       0.46392503       6.26227347      -0.03526409      -0.04141931       0.01491617
Te      -2.86743798       3.67966824       6.80165325       0.00035321      -0.00047623      -0.03291098
Te       1.29415873       0.47852254       0.10398491       0.03942259       0.02474661       0.02382836
Te       1.84673543       3.42986097       0.53167194       0.00493687      -0.02460872       0.01619820
Te       3.60565766      -0.04369272       1.79361980      -0.00877504       0.00758162       0.11773403
Te      -1.90639066       3.49499245       0.38546062       0.01467527      -0.01908538       0.01002865
Te       0.40819779       2.03653486      14.67169217       0.00536840      -0.00255369       0.03019218
Te       2.19874447       5.92697946      13.92325817       0.00165609       0.00684138       0.00569419
Te       4.67167018       2.90100317      14.00689909       0.02466286       0.01516457       0.00385836
Te      -1.55368441       5.20255071      13.94177792       0.04194962      -0.04616565       0.01811011
Te       1.33989810       1.02182107      17.41653554      -0.01832619      -0.00906611       0.00902678
Te       4.15074096       4.61043104      17.06850282       0.00443305      -0.01548221      -0.00701880
Te       5.61964175       0.12896433      16.57550248      -0.03611185      -0.02207263      -0.04901366
Te       0.50510466       4.88585255      16.67735880       0.02863409       0.04087579       0.00191382
Te       1.59815413       1.04858010      10.09946240       0.00041282       0.02052962      -0.00782841
Te       4.29650029       4.67032133      10.56493557       0.01051571      -0.00384234      -0.00259581
Te       5.74191751       0.66151023       9.81655972      -0.00733162      -0.04560803      -0.02475548
Te       0.04648884       5.19178355      10.13546204       0.01135017       0.00303289       0.00146291
Te      -0.11645976       0.33259414      24.01384891      -0.00667140      -0.01037060      -0.01038911
Te       1.90794939       3.96817642      24.16180640      -0.01250596       0.01122877       0.01629125
Te       3.99675534      -0.11715308      24.28559894      -0.01332911      -0.01183386      -0.01691491
Te      -0.99844028       3.28902144      24.57580016       0.04307460       0.03061939       0.03941741
Te       0.67274980       1.55133468      26.96602810       0.00234618      -0.07076716      -0.02091186
Te       1.99236307       6.08013169      27.43902640       0.02515339       0.06358282      -0.02961721
Te       5.54037033       3.76475785      25.91144273       0.02748759       0.05120438      -0.07558025
Te      -1.75106722       5.18000440      26.67193699       0.02693530      -0.05344204      -0.02751531
Te      -0.16109378       2.55371042      20.78174600       0.02028245      -0.01523873      -0.01729287
Te       2.21697382       6.13634631      20.63264620      -0.01934833       0.03079904      -0.00358211
Te       4.48659480       2.46109309      20.52375549       0.00521839      -0.00014273      -0.03596082
Te      -2.44513890       6.60615583      21.29235830      -0.00186974      -0.00035942       0.02897954
Sb      -0.24088935       3.14726759       7.84960284       0.01055177       0.01407732       0.00338949
Sb       2.57077573       6.13990136       8.86719377       0.00441639      -0.01089297       0.01402820
Sb       3.77310747       2.37630811       8.56194340       0.02364805       0.00724701      -0.01137940
Sb      -2.37169261       5.78794427       8.56667930      -0.00446475      -0.03937263       0.01252567
Sb      -0.07940960       2.04320651       2.14667326      -0.02014818      -0.01585329       0.00316908
Sb       1.75858482       5.83416179       2.22633572      -0.01293922      -0.01215566       0.02344479
Sb       3.87747641       2.75280853       2.75451309      -0.04873892       0.03213691       0.03939082
Sb      -1.24924118       5.82800290       1.82656994       0.02445095      -0.00990809       0.01415016
Sb       1.07139030      -0.08844797      20.09712248       0.03012305      -0.03157336       0.04554734
Sb       1.94509893       3.77111992      18.93010643      -0.01084451       0.00942051      -0.01981519
Sb       3.68008062       0.05068962      18.70668241      -0.05495365       0.02566111       0.00567392
Sb       5.97565249       2.57502324      17.90922863       0.01817003      -0.05653703      -0.02598014
Sb       1.43609850      -0.09327889      13.02138776       0.03419218      -0.00885039       0.03151962
Sb       2.25626131       3.51659560      12.34696756       0.00644307      -0.00507938       0.01840417
Sb       3.93357530       0.85729209      12.01423954      -0.01635785      -0.00774232      -0.04400825
Sb      -0.76545342       3.21908323      12.20244749       0.04958194      -0.03530424      -0.01770181
Sb       2.25334614       1.97690803      29.35560083      -0.01037977      -0.00871292      -0.02126737
Sb       3.86961612       4.18757172      28.27299252      -0.02528060      -0.01870893      -0.00478387
Sb       3.56813567       1.64811672      26.75146212      -0.08198841       0.04098415      -0.05053246
Sb       0.25508269       4.10461008      28.36085874       0.00099997      -0.01502304      -0.04283598
Sb       2.02609591       1.40855309      22.53961551      -0.03011073       0.04070613      -0.01904981
Sb       4.04291357       4.75662583      22.46220718      -0.01068116      -0.00196117       0.00690650
Sb       5.37051042       2.21857235      23.41711007      -0.01201821       0.02195778       0.02949789
Sb      -0.29019125       5.25839973      22.30662847       0.00644335      -0.00931261      -0.01630395
Cr       2.45769584       3.76017618      15.21398497      -0.00567962       0.00972456       0.01310649
61
Properties=species:S:1:pos:R:3:forces:R:3 mlff_rel_energy_eV=-16.499643943534466 mlff_fmax_eV_A=0.33553967508229354 calculator_label=/data/pclancy3/yi/flare-data/1-Cr-Sb2Te3/3.fine-tuning/2-layer/MACE-multihead_600K/finetuned_MACE_multihead0804_compiled.model neb_image=2 neb_protocol=mlff_pre_neb repair_mode=idpp repair_image_index=2 migrant_element=Cr energy=-133588.85260755816 pbc="F F F"
Te       1.12513723       1.81562732       4.97358298       0.02099892       0.01538472      -0.00383932
Te       4.39801833       5.61980816       3.66202425      -0.01600595       0.00999020       0.01169403
Te       5.37916218       1.09963718       5.17025440       0.00727078       0.01735666       0.03456129
Te       0.03657567       4.52421618       4.29935100      -0.03913868       0.01746603       0.00337023
Te       0.35238342      -0.15003630       7.69509240      -0.01980414      -0.00064475      -0.03584698
Te       1.83627101       4.07495784       7.20646437      -0.01374845      -0.00739761      -0.00066501
Te       2.90577732       0.01914980       6.54580382      -0.00550447       0.00041912       0.00093040
Te      -2.72542480       3.64101386       6.98923172       0.00514776      -0.00996995       0.06521338
Te       1.72787101       0.48015490       0.58848666       0.01567409       0.00408533       0.01333893
Te       2.15459263       3.46474367       0.93405963      -0.01147512      -0.00149264      -0.00126262
Te       3.91257524       0.10270535       2.62251141      -0.01680153      -0.03416202       0.04886804
Te      -2.37994982       3.38867593       0.92082334       0.00018592      -0.02037882       0.01705359
Te      -0.46967775       2.71864570      14.02090322       0.00550335       0.05118031       0.01254728
Te       2.06377261       5.61533041      14.85755642       0.00499952       0.02469695       0.02620962
Te       4.87816102       2.75882110      14.28824340       0.00734277       0.00585837       0.02522941
Te      -2.97786581       5.05489623      12.22651519       0.00613996       0.06099592      -0.32989191
Te       1.26042863       1.20896494      16.07694880      -0.00925710      -0.01849916      -0.01384781
Te       4.96524067       5.14650412      16.63513800       0.01018841       0.02078028       0.02014760
Te       6.72332399       0.97419292      17.16533065       0.00190215       0.00174890      -0.01145410
Te       0.24684581       5.32878696      17.07884932       0.02122483      -0.00140358      -0.00431490
Te       1.37972975       0.93359004      10.32306218       0.00707714       0.01203632       0.03143563
Te       4.56482368       4.24156781      10.57211759       0.01589526       0.00808607      -0.00231254
Te       5.29980570       0.52378393      10.51182545       0.00524929      -0.03472405      -0.00549268
Te       0.50456119       5.59971842      11.27325123       0.05372629      -0.02574827      -0.00346999
Te       0.10179945       0.49676082      23.50165842      -0.02230779       0.02074733      -0.01511984
Te       2.43019514       3.73811417      23.32070255       0.03631011       0.00495050       0.00794581
Te       4.58426610       0.31886836      23.08192767       0.01559412      -0.00897368      -0.02213118
Te      -0.82146389       3.50168783      23.81042301       0.01306902      -0.00887789       0.02031007
Te       1.14654160       2.01798010      26.02690698       0.00659747       0.00919514      -0.00749024
Te       2.74616611       6.13320996      27.79405144      -0.00516837      -0.01480011       0.03053780
Te       4.01078069       1.23764301      25.96272893      -0.03526630      -0.01232596      -0.01944180
Te      -1.64055299       5.33016147      26.13389180       0.00907310       0.01027526       0.00398836
Te       0.30497544       2.39800919      19.81042333      -0.01819635       0.02289752      -0.00404952
Te       2.55526607       6.44173641      20.03653502      -0.02149290      -0.04204954      -0.01469839
Te       4.72695014       2.53453727      20.25534646      -0.00886059      -0.02230991      -0.00141578
Te      -1.51401853       4.96078817      19.81576624      -0.02019984      -0.01582741      -0.03034699
Sb      -0.42228689       2.56859462       8.25600737      -0.03539040      -0.07709353       0.03406443
Sb       2.52816656       5.79026604       9.32596449       0.01585607       0.00643588      -0.01154542
Sb       3.61302364       1.95320665       8.69038968      -0.00875832       0.00256937       0.00566266
Sb      -1.73349311       5.07379412       9.23410821      -0.13613018       0.05563943       0.11172344
Sb      -0.08606806       2.23277395       2.23916610       0.01569250       0.00480882      -0.00719813
Sb       1.86342028       5.89166789       2.47047365      -0.02177173       0.00681237       0.01155426
Sb       3.64012419       2.83962395       3.70889841       0.00002508       0.00369351      -0.00403903
Sb      -1.17322692       5.71714440       1.93190983       0.00438143       0.00787745       0.00388452
Sb       1.82103120       0.09985458      18.85438769      -0.00819399       0.02893997       0.01105274
Sb       2.39398907       4.01013842      18.53737696      -0.00245861      -0.01100478       0.02043427
Sb       3.91998104       1.45994886      17.41951777       0.00518950      -0.00075666      -0.03061679
Sb       6.66026881       3.56529713      18.33119162      -0.00997505       0.00673827       0.02089546
Sb       0.61993846       0.15119290      13.46462102       0.00928513       0.03388884       0.04486177
Sb       2.57850789       3.63045044      12.62294408       0.06761010       0.00416222      -0.00346849
Sb       3.34162264       0.78208970      12.59164994       0.00978647      -0.00186110      -0.03368643
Sb      -1.27340522       3.15281165      11.30099805       0.05649650      -0.09558314       0.05023420
Sb       1.18823959       1.59234087      28.95889724      -0.00476307       0.00092656      -0.01226796
Sb       3.15515395       3.70286455      29.19021348      -0.00271602       0.00031954      -0.00256510
Sb       4.03779000       0.97830852      28.84670211      -0.01328177       0.00195342       0.00727122
Sb       0.38985424       4.49802174      27.85879804      -0.00867311      -0.01073202      -0.00404153
Sb       2.11845361       1.14894667      21.69552083       0.01470343       0.01047747       0.01075845
Sb       4.44403436       5.05856695      21.71926182       0.00862779       0.01148700      -0.00632105
Sb       5.22543586       2.96688978      23.84709200       0.03279951      -0.01005483      -0.03555039
Sb       0.29554183       5.29125994      21.87443511       0.00775277      -0.05925298      -0.02537100
Cr       2.99151324       3.50199627      16.05099971      -0.00203667       0.04104336      -0.00201598
61
Properties=species:S:1:pos:R:3:forces:R:3 mlff_rel_energy_eV=-15.714256819221191 mlff_fmax_eV_A=0.11214031261964623 calculator_label=/data/pclancy3/yi/flare-data/1-Cr-Sb2Te3/3.fine-tuning/2-layer/MACE-multihead_600K/finetuned_MACE_multihead0804_compiled.model neb_image=3 neb_protocol=mlff_pre_neb repair_mode=idpp repair_image_index=3 migrant_element=Cr energy=-133588.06722043385 pbc="F F F"
Te       1.78655199       1.55165943       4.71832183       0.02174636      -0.00129569       0.05860077
Te       4.95222247       4.56156277       4.12847769       0.02747939      -0.01327654       0.00210192
Te       5.55688615       0.39588959       4.43196961       0.02044100      -0.01755698       0.00653637
Te      -0.26002018       5.06816400       4.36140024      -0.00358820       0.00221661       0.01862617
Te       0.77096346       0.24683525       7.46771867      -0.01499549      -0.01405555       0.01966667
Te       2.23802466       4.12184346       6.78943998       0.00925250       0.02401064       0.00158784
Te       3.77615606       0.45070502       6.76512403      -0.00694467      -0.01166825      -0.00686164
Te      -2.49620421       3.63186154       7.25513004      -0.02242384       0.01764948      -0.00281978
Te       0.42637395       0.75906288       0.31515705       0.02300821       0.02159097       0.00878363
Te       2.18893221       4.10229141       1.15045881      -0.00701818       0.00072611       0.03178029
Te       3.01843547      -0.12253206       1.14901617      -0.01866961      -0.01139118       0.02261487
Te      -1.88651659       3.30849960       0.54193544      -0.01332156       0.01042229       0.02427752
Te       0.24978155       2.01140840      14.15013770      -0.01771419      -0.00317469       0.01863577
Te       1.78034410       5.77685421      14.42760516      -0.00842648       0.01169771       0.09729475
Te       4.86470975       3.01561239      14.19879568       0.00050253      -0.00408164      -0.00279482
Te      -2.29842503       5.38115389      14.08623533       0.00356445      -0.02168827       0.05111130
Te       2.29001857       0.52172368      15.95133116       0.02010709      -0.04936393      -0.02002978
Te       3.84334848       5.17569125      16.94492055      -0.02764033       0.01348626      -0.01651645
Te       6.23488733       0.93448807      16.76872400       0.03407896       0.02711146       0.04259895
Te      -0.07613311       4.52456574      16.28627801      -0.03007891      -0.03866665      -0.06166128
Te       1.88213372       1.04124772      10.23364799       0.00391309      -0.00393013       0.01713584
Te       4.36680006       4.71613599      10.87137981       0.02596031      -0.00249703       0.00158015
Te       5.39556429       0.85027976      10.68848877      -0.04199583       0.02182148       0.01640755
Te       0.21524014       5.27315970      10.51240803       0.03023436       0.00685165       0.01704393
Te      -0.27395680       0.45094205      23.14445501      -0.04645010      -0.01108929      -0.06586100
Te       2.15228537       3.63448723      23.99502544       0.04030083       0.00402707      -0.00608794
Te       4.16486913      -0.22025253      24.65852283       0.00486091      -0.03442718      -0.01720060
Te      -1.54818157       3.05269236      24.06158735       0.01453223      -0.06020233      -0.02732716
Te       0.70132133       1.99637245      25.88619559      -0.00492067       0.00987925      -0.05874320
Te       2.21371757       6.52794452      26.97700873       0.00123133      -0.00009443       0.00422936
Te       5.60157062       3.91305743      26.31556167       0.07245235       0.06396322      -0.03846355
Te      -1.91217720       5.49017979      25.70713685       0.06403985      -0.02287638      -0.08916848
Te       0.47444232       1.73303656      20.51716075       0.00849171      -0.04151117      -0.02474292
Te       2.01342847       5.55234652      20.20865294      -0.01502011      -0.03687306      -0.01276860
Te       4.89370045       2.39501724      20.94931976      -0.00709466      -0.03479794      -0.00960611
Te      -1.06102299       6.64906394      20.70392910       0.03021592       0.02404898       0.02141620
Sb       0.07578207       2.88928432       8.32758549      -0.00726309       0.00300446      -0.00160519
Sb       2.63342848       5.94607898       8.97520607       0.02732964       0.01431870       0.01394237
Sb       4.08630844       2.56153248       8.74045112      -0.02206358       0.00267963      -0.00542990
Sb      -2.19666790       5.79915454       9.00222771       0.00925159       0.00970212       0.00457452
Sb       0.14208313       2.59517084       2.47325141       0.00424255      -0.01585361       0.02406687
Sb       2.49432786       5.77469123       3.43070609       0.01385040      -0.00364084       0.02376618
Sb       3.96619366       2.13310042       2.82733286      -0.00560703      -0.01547312       0.02177107
Sb      -2.01721285       5.61756675       2.20827231      -0.00974132      -0.00437072       0.01971970
Sb       1.25436320      -0.30923399      18.59249516       0.04955759      -0.02739373      -0.01098632
Sb       1.69849400       3.36025753      18.25187255      -0.01445925       0.00797749      -0.00903404
Sb       3.96160772       0.64669430      18.54083855       0.00822732       0.02190926       0.00572703
Sb       5.81731653       3.39981429      18.17648278      -0.05284257      -0.01336689      -0.02798102
Sb      -0.52621920       0.65985198      11.78165536       0.02764327       0.02401873      -0.01869954
Sb       2.35368199       3.62861154      12.63159606       0.00458271       0.04568977       0.01026544
Sb       3.50237842       0.91080400      12.72098815      -0.03857324       0.01739718       0.02530149
Sb      -1.45597404       3.40404555      12.32482230       0.01674882       0.00376235       0.02705083
Sb       1.93846253       1.60006501      28.36406972      -0.01900267       0.07176507       0.00802107
Sb       3.49170680       4.20784186      28.14681501       0.02673546       0.00172887      -0.03402982
Sb       4.69372439       1.35926415      27.11570156      -0.06270801       0.01245337      -0.08138866
Sb       0.16876655       4.65715415      27.37758071       0.00714392      -0.01672318      -0.02307117
Sb       2.43723361       1.06705450      22.62399362      -0.02622712      -0.02076277       0.01883410
Sb       3.96785828       4.80994354      22.19579227       0.02044076       0.00725077      -0.04233633
Sb       5.42511020       2.30786342      24.00117614      -0.05629657       0.05045954       0.03742100
Sb       0.05185742       4.90095316      22.40951204      -0.01363285      -0.00404973      -0.00437681
Cr       3.73511911       2.54710645      16.65362389      -0.05744731       0.00253239      -0.00289942
61
Properties=species:S:1:pos:R:3:forces:R:3 mlff_rel_energy_eV=0.45275483117438853 mlff_fmax_eV_A=2.2517237837573436 calculator_label=/data/pclancy3/yi/flare-data/1-Cr-Sb2Te3/3.fine-tuning/2-layer/MACE-multihead_600K/finetuned_MACE_multihead0804_compiled.model neb_image=4 neb_protocol=mlff_pre_neb repair_mode=idpp repair_image_index=4 migrant_element=Cr energy=-133571.90020878345 pbc="F F F"
Te       2.10870921       1.21746383       3.58373571       0.41272087      -0.33764618       0.45615917
Te       4.21421783       4.86431173       3.58373571      -0.12304457       0.43483850      -0.30382938
Te       6.31972645       1.21746383       3.58373571      -0.53592655       0.23161971      -0.10334032
Te       0.00000000       4.86615959       3.57866983      -0.21756194       0.96680090       0.70514227
Te       0.00000000       0.00000000       6.73023730      -0.05210255       0.80669483       0.52246300
Te       2.10235273       3.65236568       6.75807582      -0.46969134       0.70715036      -0.39198469
Te       4.21421783      -0.00549197       6.75807582      -0.03064980       0.63685638       0.01287396
Te      -2.10235273       3.65236568       6.75807582      -0.36580805       0.73663547       0.20297959
Te       0.00000000      -0.00000000      -0.00547728       0.24422164       1.02497415       0.72428876
Te       2.10639568       3.65003148       0.00303373      -0.71333270       0.46268155       0.84030265
Te       4.21421783      -0.00082357       0.00303373      -0.31262973       0.79061322       0.62228110
Te      -2.10639568       3.65003148       0.00303373       0.32631005       0.89598820       0.97054718
Te       0.00000000       2.44262829      13.93275255      -0.52051974      -0.68136075       0.46154500
Te       2.09883967       6.07792524      13.93275255       0.00755207      -0.58350208      -0.16018464
Te       4.21421783       2.43307980      14.11551804       0.15007560      -0.21104073      -0.54735747
Te      -2.09883967       6.07792524      13.93275255       0.09618127      -1.04381730      -0.59310080
Te       1.97104262       1.13798199      16.78172383      -0.75191270      -0.76435426       0.30485762
Te       4.21421783       5.02327541      16.78172383       0.12567712       0.02086050       0.34313669
Te       6.45739304       1.13798199      16.78172383       0.09080629      -0.17299681       0.56170876
Te       0.00000000       4.86615959      17.12044095       0.31702220      -0.40358906      -0.05619774
Te       2.10381612       1.21463880      10.33710037       0.31777831      -0.93028442       0.75258031
Te       4.21421783       4.86996178      10.33710037      -0.61729600       0.11837952      -0.53151408
Te       6.32461953       1.21463880      10.33710037      -1.22591415      -0.45064052       0.67591783
Te       0.00000000       4.86615959      10.32928454      -0.56076794       0.56686010      -0.11344471
Te       0.00000000       0.00000000      24.28644575       0.68309802       0.36886702      -0.57014348
Te       2.09778120       3.65500506      24.33882870       0.95580659      -0.38776042      -0.07162246
Te       4.21421783      -0.01077073      24.33882870       0.63978517       0.43940182      -0.13864361
Te      -2.09778120       3.65500506      24.33882870       0.39521586       0.16614981       0.15877457
Te      -0.00000000       2.43045523      27.43791250       0.07925393      -0.28007857      -0.27300822
Te       2.10938186       6.08401178      27.43791250       0.33170884      -0.03543653       0.30524091
Te       4.21421783       2.43307980      27.43845455      -0.20066562      -0.14350869      -0.71951322
Te      -2.10938186       6.08401178      27.43791250       0.97573389      -0.71450417       0.30067321
Te      -0.00000000       2.40488425      20.72622665      -0.06679095      -0.03088871      -0.56379164
Te       2.13152696       6.09679727      20.72622665       0.44858351      -0.69630499       0.46990808
Te       4.21421783       2.43307980      20.76538085       1.25293589      -0.15338821      -0.06738187
Te      -2.13152696       6.09679727      20.72622665       0.67011923      -0.51439782       0.50001399
Sb       0.00000000       2.42739575       8.39926522      -0.14902840      -0.63777288      -0.59756624
Sb       2.11203144       6.08554151       8.39926522       0.59725830      -1.13192908       0.88685417
Sb       4.21421783       2.43307980       8.35798337       0.50078006      -0.62760937       0.76921557
Sb      -2.11203144       6.08554151       8.39926522       0.48300654      -1.20807348      -0.24515161
Sb      -0.00000000       2.43781189       1.96015735       0.15648462      -0.82681234      -2.08857701
Sb       2.10301080       6.08033345       1.96015735       0.49492594      -1.23318787      -0.07357985
Sb       4.21421783       2.43307980       1.95613627      -0.12668986      -0.98587309      -0.52568217
Sb      -2.10301080       6.08033345       1.96015735       0.48783765      -1.61302728      -0.90193521
Sb       0.00000000      -0.00000000      19.06201668       0.93544049       0.99598706       0.03611621
Sb       2.22100075       3.58386421      18.55653741      -1.03958665       0.89471029       0.11420579
Sb       4.21421783       0.13151097      18.55653741      -0.09414197       0.23338568      -0.21483139
Sb       6.20743491       3.58386421      18.55653741      -0.27513299      -0.04637105      -0.26118100
Sb       0.00000000      -0.00000000      12.28357695       0.46473457       0.73417471      -0.26636411
Sb       2.10119025       3.65303684      12.34092277       0.61373650       0.98188514      -0.20805432
Sb       4.21421783      -0.00683429      12.34092277       0.53575590       1.38562219      -0.89556786
Sb      -2.10119025       3.65303684      12.34092277       0.25675503       1.13396812       0.48731482
Sb       2.10024860       1.21257909      29.07207086       0.01336872       0.02836385       0.30067300
Sb       4.21421783       4.87408121      29.07207086      -0.32658001       0.14424797       0.03408559
Sb       6.32818706       1.21257909      29.07207086      -0.38300550       0.16335858       0.29246737
Sb       0.00000000       4.86615959      29.06316551      -0.52239197       0.41814853      -0.46193392
Sb       2.10126150       1.21316390      22.62920219      -0.72323670      -0.52908364       0.77826430
Sb       4.21421783       4.87291160      22.62920219      -1.21308223      -0.02463118      -0.97591440
Sb       6.32717415       1.21316390      22.62920219      -1.43829749      -0.08718708       0.35598390
Sb       0.00000000       4.86615959      22.86352664      -0.84155966       0.75558989      -1.03143353
Cr       4.21421783       2.43307980      16.71632754      -0.16332295       0.24224451       0.00625560
