61
Lattice="8.428435589532 0.0 0.0 -4.214217794766 7.299235931425 0.0 0.0 0.0 31.033440841609" Properties=species:S:1:pos:R:3:forces:R:3 branch_id=tetradymite__Sb2Te3__Cr1__ingap_1-7__reused_path_s42 image_index=0 system_id=tetradymite__Sb2Te3__Cr1__ingap_1-7__reused_path_s42 mapping_role=material_transfer_reused_path energy=-224.8022610458681 mlff_rel_energy_eV=0.0 mlff_fmax_eV_A=1.1524520367417164 calculator_label=/home/ycao73/.cache/mace/20231203mace128L1_epoch199model neb_image=0 neb_protocol=mlff_pre_neb pbc="T T T"
Te       2.10710960       1.21450109       3.47277178      -0.00000261       0.01009193       0.99880717
Te       4.21598382       4.86717840       3.47277178      -0.00873441      -0.00504274       0.99880138
Te       6.32132606       1.21654029       3.46337882       0.00000244       0.00000641       1.03075308
Te      -0.00176600       4.86717919       3.47277179       0.00873433      -0.00504565       0.99878204
Te      -0.02683937       0.01549573       6.87268349       0.06947001      -0.04010319      -1.10527393
Te       2.10710848       3.64961994       6.92335299       0.00000181      -0.00000425      -0.99000198
Te       4.24105720       0.01549523       6.87268330      -0.06947003      -0.04010123      -1.10525920
Te      -2.10710848       3.61862849       6.87268330      -0.00000161       0.08021295      -1.10525231
Te       0.00000000       0.00000000       0.00000000       0.00000004       0.00000694      -0.00000970
Te       2.10710891       3.64961970       0.00000000      -0.00000001      -0.00000141      -0.00000922
Te       4.21421783       0.00000000       0.00000000      -0.00000006       0.00000692      -0.00000971
Te      -2.10710891       3.64961970       0.00000000       0.00000011      -0.00000141      -0.00000925
Te       0.04960189       2.46171773      13.94762059      -0.21384470      -0.12346061       1.04407469
Te       2.10710870       6.02542401      13.94762059       0.00000052       0.24692315       1.04407984
Te       4.16461594       2.46171748      13.94762098       0.21384571      -0.12346065       1.04407793
Te      -2.10710870       6.08269937      13.89453363      -0.00000023      -0.00000560       1.15245204
Te       2.10710913       1.27381538      17.08581663      -0.00000055      -0.24692420      -1.04407466
Te       4.16461594       4.83752167      17.08581663       0.21384545       0.12345763      -1.04407921
Te       6.32132652       1.21654002      17.13890359       0.00000027       0.00000280      -1.15244504
Te       0.04960189       4.83752192      17.08581625      -0.21384648       0.12345766      -1.04408252
Te       2.10710868       1.19984378      10.38852379       0.00000091      -0.08080033      -0.00399011
Te       4.22867697       4.87450786      10.38852379       0.06998057       0.04039583      -0.00399069
Te       6.32132698       1.21653976      10.39111941      -0.00000131       0.00000669       0.19302548
Te      -0.01445914       4.87450759      10.38852421      -0.06998085       0.04039704      -0.00399157
Te       0.02683937      -0.01549573      24.16075373      -0.06946990       0.04011599       1.10527362
Te       2.10710934       3.64961945      24.11008424      -0.00000184       0.00000186       0.99000243
Te       4.18737845      -0.01549523      24.16075392       0.06946993       0.04011398       1.10525887
Te      -2.10710934       3.68061090      24.16075392       0.00000182      -0.08021541       1.10525275
Te      -0.00176600       2.43206099      27.56066545       0.00873449       0.00503895      -0.99879805
Te       2.10710823       6.08473830      27.56066545       0.00000253      -0.01009117      -0.99880367
Te       4.21598382       2.43206020      27.56066544      -0.00873436       0.00504185      -0.99877871
Te      -2.10710823       6.08269910      27.57005841      -0.00000245      -0.00000562      -1.03074952
Te      -0.01445914       2.42473153      20.64491344      -0.06998057      -0.04040070       0.00398979
Te       2.10710915       6.09939562      20.64491344      -0.00000097       0.08079944       0.00399087
Te       4.22867697       2.42473180      20.64491301       0.06998084      -0.04040192       0.00399070
Te      -2.10710915       6.08269963      20.64231782       0.00000129      -0.00000697      -0.19302531
Sb      -0.03018654       2.41564989       8.46733874       0.13262139       0.07658274       0.44133261
Sb       2.10711038       6.11755676       8.46733874      -0.00001072      -0.15315067       0.44133676
Sb       4.24440436       2.41565158       8.46733912      -0.13262133       0.07657027       0.44132399
Sb      -2.10711038       6.08270034       8.40301845       0.00001057      -0.00001187       0.49967257
Sb       0.00025079       2.43322202       1.88152630       0.01786681       0.01034015      -0.24564015
Sb       2.10711114       6.08241119       1.88152630      -0.00001757      -0.02065074      -0.24563953
Sb       4.21396703       2.43322459       1.88152659      -0.01786674       0.01031982      -0.24565393
Sb      -2.10711114       6.08270078       1.88047883       0.00001773      -0.00001993      -0.23490592
Sb      -0.05023393       0.02900259      18.75787975       0.10017534      -0.05782843       0.38356365
Sb       2.10710819       3.64962011      18.71293056       0.00000517      -0.00000678       0.68165875
Sb       4.26445176       0.02900175      18.75787999      -0.10017528      -0.05782254       0.38356720
Sb       6.32132747       3.59161494      18.75787999      -0.00000515       0.11566589       0.38356805
Sb       0.05023393      -0.02900259      12.27555748      -0.10017632       0.05784246      -0.38356625
Sb       2.10710964       3.64961928      12.32050666      -0.00000514       0.00000122      -0.68165705
Sb       4.16398389      -0.02900175      12.27555723       0.10017627       0.05783659      -0.38356973
Sb      -2.10710964       3.70762446      12.27555723       0.00000513      -0.11567079      -0.38356641
Sb       2.10710669       1.21682820      29.15191093       0.00001756       0.02064918       0.24564707
Sb       4.21396703       4.86601737      29.15191093      -0.01786682      -0.01034156       0.24564489
Sb       6.32132897       1.21653861      29.15295839      -0.00001776       0.00001840       0.23491347
Sb       0.00025079       4.86601480      29.15191064       0.01786675      -0.01032125       0.24565870
Sb       2.10710745       1.18168263      22.56609849       0.00001072       0.15314979      -0.44133344
Sb       4.24440436       4.88358950      22.56609849      -0.13262137      -0.07658988      -0.44133608
Sb       6.32132821       1.21653905      22.63041878      -0.00001059       0.00001120      -0.49966973
Sb      -0.03018654       4.88358781      22.56609810       0.13262121      -0.07657746      -0.44132733
Cr       2.10710891       3.64961970      15.51671861       0.00000002      -0.00000075      -0.00000049
61
Lattice="8.428435589532 0.0 0.0 -4.214217794766 7.299235931425 0.0 0.0 0.0 31.033440841609" Properties=species:S:1:pos:R:3:forces:R:3 branch_id=tetradymite__Sb2Te3__Cr1__ingap_1-7__reused_path_s42 image_index=1 system_id=tetradymite__Sb2Te3__Cr1__ingap_1-7__reused_path_s42 mapping_role=material_transfer_reused_path energy=-227.2992767366398 mlff_rel_energy_eV=-2.49701569077169 mlff_fmax_eV_A=0.9017385880298221 calculator_label=/home/ycao73/.cache/mace/20231203mace128L1_epoch199model neb_image=1 neb_protocol=mlff_pre_neb pbc="T T T"
Te       2.10317224       1.21706720       3.71792518      -0.00315615       0.00197114       0.11209456
Te       4.21179390       4.86930553       3.71792510      -0.00328411       0.00174790       0.11209449
Te       6.32436182       1.21478882       3.71237480      -0.00038763       0.00022497       0.11092090
Te       0.00315548       4.86433748       3.70515801       0.00368219      -0.00212634       0.11320291
Te      -0.02474955       0.01428992       6.64620080       0.00351243      -0.00202720      -0.12428039
Te       2.09658729       3.65569365       6.63869731       0.02045375      -0.01180933      -0.11957442
Te       4.21977578      -0.02087210       6.58844804      -0.04558087      -0.00423331      -0.12703519
Te      -2.08625348       3.65524213       6.58844822      -0.01912360       0.04159091      -0.12703497
Te       0.00031197      -0.00017892      -0.00378275       0.00205267      -0.00118407      -0.00241460
Te       2.10889442       3.64858866       0.00026673       0.00017479      -0.00010106       0.00113530
Te       4.21330573       0.00136131       0.00195553      -0.00119553       0.00218649       0.00155184
Te      -2.10874282       3.64972935       0.00195552      -0.00249040      -0.00005752       0.00155192
Te      -0.23762606       2.29324667      14.09847115      -0.01421514       0.02143094       0.09701212
Te       2.10939554       6.35840569      14.09847113      -0.02566692       0.00159502       0.09701210
Te       4.03788804       2.53488441      14.15109478      -0.07603642       0.04390007       0.13063209
Te      -2.11755567       6.08873015      14.07050899      -0.01593587       0.00919994       0.09268440
Te       2.04791290       1.29814233      16.92191335      -0.02808744       0.01645434      -0.13550752
Te       4.11395028       4.87662265      16.92191343      -0.02829332       0.01609637      -0.13550753
Te       6.27317487       1.24434071      17.02622109      -0.02092595       0.01208206      -0.11411741
Te      -0.02714730       4.88183194      16.93594011      -0.03894802       0.02248555      -0.12207205
Te       2.11719823       1.25166379      10.31901322      -0.01335490       0.05720091      -0.00026709
Te       4.18884504       4.83985972      10.31901304      -0.05621428      -0.01703533      -0.00026735
Te       6.32060777       1.21695574      10.36213550       0.00017990      -0.00010313       0.00508570
Te      -0.06368899       4.90292965      10.40825404      -0.01698886       0.00980769       0.01060631
Te      -0.00149826       0.00086653      24.43217478      -0.01300799       0.00751154       0.12005460
Te       2.10512374       3.65076604      24.40467168      -0.00408051       0.00235594       0.13094123
Te       4.20065429      -0.00188480      24.39989592      -0.00345281       0.00440472       0.12553929
Te      -2.11225707       3.66230935      24.39989584      -0.00553977       0.00078856       0.12553919
Te      -0.00126109       2.43561575      27.32088917      -0.00118659       0.00281483      -0.11713529
Te       2.10428202       6.08252210      27.32088910      -0.00303104      -0.00038117      -0.11713535
Te       4.21436559       2.43299430      27.31687393       0.00040642      -0.00023468      -0.12111988
Te      -2.10536464       6.08169097      27.32318084      -0.00024908       0.00014244      -0.12085157
Te      -0.03659588       2.43284488      20.66883853      -0.02081252       0.00780525      -0.00042924
Te       2.08901461       6.11450879      20.66883846      -0.01716565       0.01412055      -0.00042921
Te       4.20243476       2.43988296      20.69466821      -0.01570932       0.00906993       0.00963459
Te      -2.11916200       6.08965724      20.68965471      -0.00704795       0.00406813       0.00166360
Sb      -0.02018476       2.44497606       8.36053239      -0.00107525       0.01702526      -0.04258988
Sb       2.08671406       6.09423052       8.36053250      -0.01528190      -0.00758235      -0.04258965
Sb       4.24873272       2.41315262       8.27092777      -0.01677275       0.00968376      -0.02136325
Sb      -2.11482533       6.08715328       8.31883934      -0.01131794       0.00653355      -0.04611476
Sb       0.00017030       2.42994760       1.98364357       0.00375093       0.00063792       0.03666216
Sb       2.10990712       6.08411749       1.98364370       0.00132316      -0.00356814       0.03666185
Sb       4.21357679       2.43345048       1.99541134      -0.00297380       0.00171710       0.03695874
Sb      -2.11019390       6.08447971       1.99062624      -0.00065574       0.00037774       0.03826449
Sb      -0.01156110       0.00667575      18.69742598      -0.01807798       0.01043818      -0.04733956
Sb       2.07669801       3.66717683      18.71597981      -0.02497138       0.01441707      -0.04016902
Sb       4.19420600       0.06878730      18.74440576      -0.02235184       0.01165856      -0.03120277
Sb       6.25174989       3.63255673      18.74440611      -0.02127183       0.01352822      -0.03120292
Sb       0.10392200      -0.05999789      12.17127690      -0.02495876       0.01441106       0.03517656
Sb       2.00728809       3.70725146      12.29521495      -0.00573435       0.00331055      -0.06876272
Sb       4.14849146       0.05372843      12.34046622      -0.04164215       0.01745729       0.00214741
Sb      -2.18650099       3.67967682      12.34046632      -0.03593878       0.02733490       0.00214761
Sb       2.10795338       1.21834069      29.04281965       0.00118039      -0.00075151      -0.03937307
Sb       4.21308106       4.86452730      29.04281963       0.00124157      -0.00064669      -0.03937347
Sb       6.32004725       1.21727922      29.04410602      -0.00173774       0.00100392      -0.03844093
Sb       0.00019464       4.86604635      29.04913743       0.00004776      -0.00002808      -0.03618115
Sb       2.08541629       1.21246253      22.69397897      -0.00360113       0.01300513       0.04497223
Sb       4.20690340       4.88698447      22.69397891      -0.01306287      -0.00338429       0.04497177
Sb       6.32555869       1.21409744      22.70490676      -0.01503642       0.00868177       0.03835600
Sb       0.00223287       4.86486984      22.68048420      -0.00773737       0.00446655       0.03307712
Cr       1.52378610       3.98640105      14.95088747       0.74736266      -0.43149050       0.26152911
61
Lattice="8.428435589532 0.0 0.0 -4.214217794766 7.299235931425 0.0 0.0 0.0 31.033440841609" Properties=species:S:1:pos:R:3:forces:R:3 branch_id=tetradymite__Sb2Te3__Cr1__ingap_1-7__reused_path_s42 image_index=2 system_id=tetradymite__Sb2Te3__Cr1__ingap_1-7__reused_path_s42 mapping_role=material_transfer_reused_path energy=-226.86348764796637 mlff_rel_energy_eV=-2.061226602098259 mlff_fmax_eV_A=0.4272950505668671 calculator_label=/home/ycao73/.cache/mace/20231203mace128L1_epoch199model neb_image=2 neb_protocol=mlff_pre_neb pbc="T T T"
Te       2.10365273       1.21585437       3.71364860      -0.00247830       0.00041335       0.11901369
Te       4.21308448       4.86949583       3.71364850      -0.00159612       0.00193978       0.11901368
Te       6.32612100       1.21377316       3.70975451       0.00094551      -0.00054474       0.11848891
Te       0.00342175       4.86418374       3.70233810       0.00563366      -0.00325299       0.11885581
Te      -0.01016977       0.00587228       6.65252811       0.01113305      -0.00642698      -0.13469872
Te       2.11142237       3.64712864       6.62900307       0.04399452      -0.02540055      -0.13795099
Te       4.22261066      -0.02536688       6.58622721      -0.04098055      -0.03232887      -0.14162216
Te      -2.08094345       3.65503443       6.58622742       0.00750801       0.05165465      -0.14162197
Te       0.00024916      -0.00014267      -0.00294603       0.00270470      -0.00156050      -0.00511099
Te       2.10998373       3.64795974       0.00084326       0.00044342      -0.00025613       0.00071993
Te       4.21381637       0.00164464       0.00223553      -0.00072648       0.00250911       0.00052415
Te      -2.10873289       3.64914545       0.00223553      -0.00253525      -0.00062501       0.00052421
Te      -0.21930486       2.15291705      14.10095525       0.03726198      -0.07288475       0.14061762
Te       2.24008523       6.41270382      14.10095516       0.08175156       0.00417215       0.14061764
Te       4.12934722       2.48208052      14.08243747      -0.02468620       0.01425299       0.09203039
Te      -1.90770130       5.96757080      14.10705814       0.10896297      -0.06291030       0.12364483
Te       2.09270344       1.23759501      16.97998510       0.00936136      -0.02850655      -0.08853345
Te       4.18878105       4.86810650      16.97998509       0.02936835       0.00614514      -0.08853344
Te       6.27482949       1.24338538      17.05134679      -0.01997146       0.01153087      -0.09575011
Te      -0.00064060       4.86652805      17.10562952      -0.02735506       0.01579229      -0.03716438
Te       2.14698770       1.24876876      10.30211811       0.03498800       0.06743282      -0.02262544
Te       4.20624692       4.81550873      10.30211788      -0.04090393      -0.06401740      -0.02262570
Te       6.37823110       1.18368699      10.35716992       0.07914391      -0.04569295       0.00165987
Te      -0.02455684       4.88033672      10.37728383       0.01515187      -0.00874871       0.00496538
Te      -0.00160168       0.00092622      24.45717765      -0.01083404       0.00625638       0.15532801
Te       2.10547160       3.65056520      24.40605810      -0.00488784       0.00282206       0.14611430
Te       4.20719222      -0.00142902      24.39913167      -0.00403598       0.00223776       0.13582375
Te      -2.10938283       3.65641946      24.39913157      -0.00395472       0.00237711       0.13582369
Te      -0.00066890       2.43665774      27.32521657      -0.00124009       0.00376926      -0.12156855
Te       2.10367572       6.08148826      27.32521650      -0.00388436      -0.00081207      -0.12156857
Te       4.21427462       2.43304683      27.32070944       0.00183776      -0.00106107      -0.12830770
Te      -2.10337881       6.08054445      27.32691208       0.00099886      -0.00057806      -0.12536014
Te      -0.01519078       2.43142672      20.68808971      -0.00638525       0.00842387       0.01244404
Te       2.10094529       6.09668055      20.68808964      -0.01048780       0.00131686       0.01244406
Te       4.20437513       2.43876261      20.75874809      -0.01143541       0.00660232       0.05844708
Te      -2.11777060       6.08885390      20.70443003      -0.00743903       0.00429386       0.02098270
Sb      -0.00624270       2.44901736       8.35340951       0.01773473       0.00773992      -0.05315071
Sb       2.09018520       6.08013571       8.35340964       0.00216441      -0.01922963      -0.05315051
Sb       4.26616349       2.40308895       8.25412995      -0.00829731       0.00479042      -0.03116389
Sb      -2.10408855       6.08095441       8.34806739       0.00817993      -0.00472362      -0.04417545
Sb      -0.00011957       2.42931639       1.98135225       0.00414020       0.00175664       0.04494375
Sb       2.11030882       6.08468412       1.98135237       0.00054894      -0.00446461       0.04494347
Sb       4.21447555       2.43293157       1.99314746      -0.00181866       0.00105017       0.04710607
Sb      -2.10972464       6.08420878       1.98679657      -0.00027916       0.00016033       0.04558480
Sb       0.00341458      -0.00197042      18.70271552      -0.00591190       0.00341411      -0.04567503
Sb       2.14033281       3.63043729      18.75399773       0.03439238      -0.01985661      -0.02149147
Sb       4.18373748       0.10720243      18.78105617      -0.01314808       0.01208703      -0.01269356
Sb       6.21324715       3.62241512      18.78105651      -0.01704115       0.00534321      -0.01269371
Sb       0.18629411      -0.10755548      12.07905309       0.03449645      -0.01991538      -0.00109483
Sb       2.02566375       3.69664222      12.42334095      -0.01182200       0.00682527       0.00374257
Sb       4.22078284       0.05113854      12.31889748       0.01449635       0.01840483       0.01607983
Sb      -2.14811255       3.61836564      12.31889772      -0.00869014      -0.02175617       0.01608009
Sb       2.10849985       1.21824582      29.04580099       0.00114509      -0.00162305      -0.04600676
Sb       4.21343646       4.86410150      29.04580097       0.00197867      -0.00018038      -0.04600716
Sb       6.32015152       1.21721904      29.04675768      -0.00207483       0.00119851      -0.04484865
Sb       0.00047039       4.86588716      29.05300207       0.00021902      -0.00012698      -0.03994821
Sb       2.07393177       1.20707574      22.70507659      -0.00616039       0.00466021       0.07602574
Sb       4.20582622       4.89962373      22.70507653      -0.00711558       0.00300454       0.07602525
Sb       6.33982303       1.20586192      22.70980292       0.00451479      -0.00260609       0.06358388
Sb       0.00401138       4.86384301      22.67643501      -0.00254120       0.00146657       0.04620903
Cr       0.83308662       4.38517674      14.72322156      -0.28448219       0.16424574      -0.27326595
61
Lattice="8.428435589532 0.0 0.0 -4.214217794766 7.299235931425 0.0 0.0 0.0 31.033440841609" Properties=species:S:1:pos:R:3:forces:R:3 branch_id=tetradymite__Sb2Te3__Cr1__ingap_1-7__reused_path_s42 image_index=3 system_id=tetradymite__Sb2Te3__Cr1__ingap_1-7__reused_path_s42 mapping_role=material_transfer_reused_path energy=-227.44985693530424 mlff_rel_energy_eV=-2.6475958894361327 mlff_fmax_eV_A=0.4320480657403885 calculator_label=/home/ycao73/.cache/mace/20231203mace128L1_epoch199model neb_image=3 neb_protocol=mlff_pre_neb pbc="T T T"
Te       2.10606868       1.21445916       3.74828629      -0.00101029      -0.00163659       0.04387382
Te       4.21550081       4.86810124       3.74828629       0.00091293       0.00169325       0.04387378
Te       6.32458935       1.21465754       3.74093135       0.00284887      -0.00164392       0.04538546
Te       0.00558687       4.86293374       3.73893459       0.00495183      -0.00285935       0.04373286
Te      -0.00760560       0.00439187       6.63451586       0.02553058      -0.01473961      -0.05522940
Te       2.13537162       3.63330142       6.61277393       0.00776126      -0.00448117      -0.07920767
Te       4.23754504      -0.02866048       6.59338766      -0.03158522      -0.04598082      -0.07232075
Te      -2.07062391       3.64374760       6.59338787       0.02402849       0.05034405      -0.07232057
Te       0.00110816      -0.00063847      -0.00122218       0.00233085      -0.00134512      -0.00091525
Te       2.10884114       3.64861942      -0.00050123       0.00138584      -0.00080026       0.00218466
Te       4.21370799       0.00081357       0.00420341       0.00081551       0.00212068       0.00097826
Te      -2.10806722       3.64965493       0.00420336      -0.00142827      -0.00176645       0.00097835
Te      -0.07176426       2.16051570      14.21889278       0.07311833       0.01560399       0.11267447
Te       2.30727539       6.28113043      14.21889301       0.02304633      -0.07112464       0.11267463
Te       4.18191034       2.45173303      14.12949983       0.01375907      -0.00794356       0.01538178
Te      -2.02619976       6.03598548      14.18845906      -0.10586522       0.06112066       0.11220705
Te       2.12060873       1.20445963      16.97852448       0.01003470      -0.00498452      -0.02030090
Te       4.23142978       4.86050733      16.97852452       0.00933441      -0.00619876      -0.02030086
Te       6.27755132       1.24181390      17.03357526       0.00396866      -0.00229095      -0.03906421
Te       0.05703128       4.83323124      16.96446837      -0.02996517       0.01729959      -0.04618832
Te       2.16049078       1.22957149      10.33052468       0.04715874       0.03168387       0.00658761
Te       4.22962376       4.81341343      10.33052443      -0.00385928      -0.05668327       0.00658762
Te       6.38884200       1.17756068      10.36861567       0.01725942      -0.00996418       0.00860077
Te      -0.01008674       4.87198228      10.37960009       0.02783444      -0.01607086      -0.00108149
Te       0.00464564      -0.00268052      24.47017867       0.00294864      -0.00170148       0.05754814
Te       2.10307017       3.65195169      24.44476657      -0.00014704       0.00008487       0.06873939
Te       4.21672111      -0.00082243      24.43255586      -0.00054211       0.00099321       0.06049649
Te      -2.10514358       3.64786401      24.43255584      -0.00113034      -0.00002667       0.06049640
Te      -0.00145404       2.43524613      27.29572220       0.00006481       0.00097162      -0.03978844
Te       2.10450561       6.08287386      27.29572217      -0.00080900      -0.00054285      -0.03978850
Te       4.21523358       2.43249314      27.29132442       0.00072742      -0.00041993      -0.04563957
Te      -2.10393743       6.08086683      27.29335194       0.00149581      -0.00086454      -0.04166723
Te       0.00600763       2.43161524      20.69454409       0.00077736       0.00891465       0.01297305
Te       2.11138125       6.07822781      20.69454404      -0.00733152      -0.00513105       0.01297311
Te       4.22820518       2.42500436      20.72763122       0.00857267      -0.00494934      -0.01052462
Te      -2.12095907       6.09069462      20.71961813       0.00537558      -0.00310426       0.01217669
Sb       0.02625752       2.43867252       8.35769842       0.01631401      -0.00041454      -0.03277791
Sb       2.11539415       6.05716191       8.35769840       0.00851595      -0.01392162      -0.03277786
Sb       4.27083900       2.40038946       8.26580713      -0.01576208       0.00910028      -0.03857737
Sb      -2.10408317       6.08095112       8.35055227       0.01096023      -0.00632839      -0.00708796
Sb       0.00104194       2.42942328       2.00599880       0.00328428       0.00299428       0.01274544
Sb       2.11079707       6.08362479       2.00599900      -0.00095094      -0.00434194       0.01274502
Sb       4.21344265       2.43352798       2.01567540      -0.00101060       0.00058354       0.01245635
Sb      -2.10945800       6.08405480       2.01370586       0.00406229      -0.00234591       0.00993990
Sb       0.00178802      -0.00103129      18.70282919      -0.00585417       0.00338044      -0.00195256
Sb       2.16582434       3.61571974      18.72152529       0.00339529      -0.00196031       0.00227254
Sb       4.19797406       0.04032018      18.74439292       0.00448632      -0.02161081       0.00706582
Sb       6.27828716       3.64352690      18.74439339       0.02095906       0.00692028       0.00706552
Sb       0.13993094      -0.08078750      12.05184248      -0.06084824       0.03513149      -0.02520742
Sb       2.03819457       3.68940747      12.51532295      -0.00187013       0.00107942      -0.04070378
Sb       4.28807795      -0.01311556      12.40851751      -0.00995992      -0.08428534       0.07051799
Sb      -2.05881968       3.59221329      12.40851720       0.06801340       0.05076822       0.07051797
Sb       2.10821891       1.21720538      29.02446553       0.00156648      -0.00141045      -0.00779528
Sb       4.21419702       4.86486489      29.02446550       0.00200508      -0.00065139      -0.00779558
Sb       6.32028417       1.21714243      29.02910306      -0.00170306       0.00098367      -0.00721791
Sb      -0.00061199       4.86651195      29.03146348      -0.00006032       0.00003463      -0.00432400
Sb       2.09233021       1.21414015      22.72455648       0.00633950       0.00611807       0.03722573
Sb       4.20890759       4.88015807      22.72455641      -0.00212845      -0.00854953       0.03722535
Sb       6.34196588       1.20462488      22.72148409       0.00193748      -0.00111840       0.02423015
Sb       0.00442324       4.86360524      22.70484624      -0.00285382       0.00164726       0.02342345
Cr       0.27608695       4.70676103      14.35733618      -0.18120674       0.10462074      -0.37800020
61
Lattice="8.428435589532 0.0 0.0 -4.214217794766 7.299235931425 0.0 0.0 0.0 31.033440841609" Properties=species:S:1:pos:R:3:forces:R:3 branch_id=tetradymite__Sb2Te3__Cr1__ingap_1-7__reused_path_s42 image_index=4 system_id=tetradymite__Sb2Te3__Cr1__ingap_1-7__reused_path_s42 mapping_role=material_transfer_reused_path energy=-225.46993034923182 mlff_rel_energy_eV=-0.6676693033637093 mlff_fmax_eV_A=1.0771270203970924 calculator_label=/home/ycao73/.cache/mace/20231203mace128L1_epoch199model neb_image=4 neb_protocol=mlff_pre_neb pbc="T T T"
Te       2.10098864       1.21300635       3.52044537       0.01023569       0.00591728       0.87609211
Te       4.21421783       4.87322669       3.52044537      -0.00000009      -0.01182230       0.87608631
Te       6.32744702       1.21300635       3.52044537      -0.01023582       0.00591724       0.87609220
Te       0.00000000       4.86615959       3.51368646       0.00000001      -0.00000301       0.86826834
Te       0.00000000       0.00000000       6.80558913       0.00000001       0.00000552      -0.84700417
Te       2.12314963       3.64035858       6.77353864      -0.26855240       0.15504559      -1.03151969
Te       4.21421783       0.01852224       6.77353864      -0.00000007      -0.31009289      -1.03152558
Te      -2.12314963       3.64035858       6.77353864       0.26855258       0.15504566      -1.03151982
Te       0.00000000       0.00000000       0.01304124       0.00000007       0.00000655      -0.05336582
Te       2.10832252       3.64891902       0.00155926       0.01266378      -0.00731292       0.00391933
Te       4.21421783       0.00140136       0.00155926      -0.00000008       0.01462937       0.00391885
Te      -2.10832252       3.64891902       0.00155926      -0.01266367      -0.00731290       0.00391934
Te       0.00000000       2.28878158      14.22382394       0.00000005      -0.29246490       0.26305177
Te       2.23207485       6.15484860      14.22382394       0.25328683       0.14623017       0.26305383
Te       4.21421783       2.43307980      13.80034036      -0.00000013       0.00000295       0.94143619
Te      -2.23207485       6.15484860      14.22382394      -0.25328671       0.14623021       0.26305377
Te       2.10799020       1.21704871      17.17526645       0.04321641       0.02495427      -0.82663282
Te       4.21421783       4.86514198      17.17526645      -0.00000007      -0.04990931      -0.82663904
Te       6.32044546       1.21704871      17.17526645      -0.04321654       0.02495427      -0.82663292
Te       0.00000000       4.86615959      16.93861115       0.00000011      -0.00000722      -0.18658762
Te       2.07669424       1.19897997      10.28149754       0.31074374       0.17941443       0.31016648
Te       4.21421783       4.90127946      10.28149754      -0.00000008      -0.35882547       0.31016340
Te       6.35174142       1.19897997      10.28149754      -0.31074399       0.17941447       0.31016645
Te       0.00000000       4.86615959      10.26823231       0.00000005      -0.00000496       0.36067044
Te       0.00000000       0.00000000      24.24482848       0.00000010       0.00000625       0.69763607
Te       2.11687289       3.64398246      24.19441993      -0.00076016       0.00043976       0.90983726
Te       4.21421783       0.01127447      24.19441993      -0.00000007      -0.00087064       0.90984284
Te      -2.11687289       3.64398246      24.19441993       0.00076023       0.00043975       0.90983737
Te       0.00000000       2.43687328      27.52586254       0.00000011      -0.00913515      -0.93842761
Te       2.10382366       6.08080275      27.52586254       0.00791052       0.00456016      -0.93843301
Te       4.21421783       2.43307980      27.54138885      -0.00000007      -0.00000083      -1.02073172
Te      -2.10382366       6.08080275      27.52586254      -0.00791044       0.00456024      -0.93843311
Te       0.00000000       2.42990033      20.68811130       0.00000012       0.10842575      -0.09752292
Te       2.10986241       6.08428923      20.68811130      -0.09389867      -0.05421892      -0.09752260
Te       4.21421783       2.43307980      20.72632209      -0.00000009       0.00000116      -0.42085855
Te      -2.10986241       6.08428923      20.68811130       0.09389878      -0.05421887      -0.09752261
Sb       0.00000000       2.43230122       8.43536613       0.00000011      -0.09868686       0.14652982
Sb       2.10778318       6.08308878       8.43536613       0.08546621       0.04933769       0.14653280
Sb       4.21421783       2.43307980       8.19671022      -0.00000018       0.00000136       0.81890349
Sb      -2.10778318       6.08308878       8.43536613      -0.08546611       0.04933783       0.14653279
Sb       0.00000000       2.42671799       1.90473875       0.00000012       0.03481444      -0.25198414
Sb       2.11261840       6.08588040       1.90473875      -0.03014646      -0.01741450      -0.25198364
Sb       4.21421783       2.43307980       1.92089496      -0.00000008       0.00000439      -0.27281397
Sb      -2.11261840       6.08588040       1.90473875       0.03014657      -0.01741439      -0.25198367
Sb       0.00000000       0.00000000      18.81923863       0.00000009       0.00000936       0.23833462
Sb       2.10388635       3.65148025      18.72474621      -0.03303767       0.01907003       0.35931966
Sb       4.21421783      -0.00372110      18.72474621      -0.00000005      -0.03814029       0.35931898
Sb       6.32454930       3.65148025      18.72474621       0.03303762       0.01907004       0.35931972
Sb       0.00000000       0.00000000      11.88040369       0.00000014       0.00000595       0.41571453
Sb       1.97849168       3.72387690      12.48317439      -0.18517323       0.10690905      -0.26562339
Sb       4.21421783      -0.14851441      12.48317439      -0.00000010      -0.21381496      -0.26562706
Sb      -1.97849168       3.72387690      12.48317439       0.18517332       0.10690913      -0.26562342
Sb       2.10909386       1.21768591      29.12053626      -0.03699608      -0.02135163       0.34564400
Sb       4.21421783       4.86386757      29.12053626      -0.00000016       0.04271395       0.34564215
Sb       6.31934179       1.21768591      29.12053626       0.03699600      -0.02135173       0.34564399
Sb       0.00000000       4.86615959      29.12384287       0.00000007      -0.00000546       0.32749665
Sb       2.10063901       1.21280450      22.57836874      -0.05315197      -0.03068145      -0.15491857
Sb       4.21421783       4.87363039      22.57836874      -0.00000013       0.06136712      -0.15492005
Sb       6.32779664       1.21280450      22.57836874       0.05315191      -0.03068146      -0.15491863
Sb       0.00000000       4.86615959      22.63293601       0.00000003      -0.00000822      -0.29886312
Cr       0.00000000       4.86615959      14.35116463      -0.00000002      -0.00000016      -0.51200629
