61
Lattice="8.428435589532 0.0 0.0 -4.214217794766 7.299235931425 0.0 0.0 0.0 31.033440841609" Properties=species:S:1:pos:R:3:forces:R:3 branch_id=historical_curvature_warp image_index=0 energy=-222.74578324571658 mlff_rel_energy_eV=0.0 mlff_fmax_eV_A=1.5405109742687801 calculator_label=/home/ycao73/.cache/mace/20231203mace128L1_epoch199model neb_image=0 neb_protocol=mlff_pre_neb pbc="T T T"
Te       2.10744601       1.21354019       3.41254337      -0.00012710       0.01112967       1.12177365
Te       0.00276640      -2.43186842       3.41254337      -0.00969525      -0.00545359       1.12176793
Te      -2.10824211       1.21719419       3.38538356       0.00030710      -0.00016915       1.18945956
Te       4.21320531      -2.43249178       3.41107878       0.00966350      -0.00558203       1.13615550
Te      -0.14767532       0.08526043       6.97789257       0.30390945      -0.17545659      -1.17573581
Te      -2.11172824      -3.64694924       7.05874685       0.02990280      -0.01726768      -1.16375429
Te      -4.07165586       0.02485596       6.97812592      -0.24876063      -0.05861283      -1.22435204
Te      -2.05735384       3.51372943       6.97812592      -0.07361526       0.24473934      -1.22434477
Te       0.00049552      -0.00028609       0.00268288      -0.01163061       0.00672270      -0.00052804
Te      -2.10747599      -3.64940429      -0.00308441      -0.00685737       0.00395787       0.00798740
Te      -4.21389062      -0.00009060       0.00057115       0.00880065      -0.00261343      -0.01549951
Te       2.10735091      -3.64985425       0.00057115       0.00667036      -0.00631236      -0.01549897
Te       0.17741958       2.47897744      13.78975036      -0.31984409      -0.14267983       1.01113974
Te      -2.05814760      -1.39313519      13.78975036      -0.03635475       0.34832980       1.01114588
Te      -4.45714591       2.57333449      13.92253187       0.36219018      -0.20910773       1.00507372
Te       2.10470209      -1.21514688      13.89228571       0.00605120      -0.00349952       0.96936468
Te       2.09440037       1.02354448     -13.88865516       0.02430302      -0.17135632      -0.83696789
Te       0.16078465      -2.32557274     -13.88865516       0.16055674       0.06462801      -0.83697253
Te      -2.04117795       1.17847469     -13.91688198      -0.08660292       0.05000284      -1.12107940
Te       4.35937602      -2.51688351     -14.11593492      -0.35639004       0.20575517      -0.53386442
Te       2.15203410       1.09568677      10.38899708       0.01468956      -0.05970587      -0.13314288
Te       0.12712446      -2.41155614      10.38899708       0.05905805       0.01712752      -0.13314486
Te      -2.10826780       1.21720902      10.47731738      -0.05202414       0.03004263       0.00303884
Te       4.08965336      -2.36115900      10.40810354      -0.05109699       0.02949348      -0.01479662
Te       0.28553338      -0.16485285      -7.04908116      -0.40566821       0.23422155       1.24525426
Te      -2.03979346      -3.68848083      -7.11179535      -0.16466343       0.09506937       1.08713557
Te       4.06405015       0.04552971      -6.91845580       0.40064723      -0.03899558       1.31784078
Te       1.99259517      -3.54233201      -6.91845580       0.23410207      -0.32746990       1.31783418
Te       0.00009101       2.43212971      -3.42495934       0.01400656      -0.00330301      -1.07641824
Te      -2.10624058      -1.21614021      -3.42495934       0.00986293      -0.01048596      -1.07642418
Te      -4.21484012       2.43343912      -3.40284132      -0.02011242       0.01161086      -1.12929803
Te       2.10723896      -1.21661154      -3.38977230      -0.00639839       0.00368684      -1.17544305
Te      -0.02180159       2.47020236     -10.35795495       0.04324243       0.00571488      -0.01655357
Te      -2.15015874      -1.21621698     -10.35795495       0.01667244      -0.04031234      -0.01655042
Te      -3.97507961       2.29501326     -10.43820484       0.05631797      -0.03251326      -0.15935643
Te       2.18215737      -1.25986572     -10.51199702      -0.02449429       0.01413440      -0.04606560
Sb       0.00391944       2.41825669       8.61950618       0.10733306       0.07992916       0.37811251
Sb      -2.09231198      -1.21251922       8.61950618      -0.01555289      -0.13292441       0.37811690
Sb      -4.18832363       2.41812981       8.56502544      -0.05630055       0.03250623       0.27567878
Sb       2.11170727      -1.21919132       8.36203490      -0.04590444       0.02649674       0.09983311
Sb       0.00236690       2.43529918       1.83705735       0.03491451       0.01181722      -0.14965746
Sb      -2.10784747      -1.21969592       1.83705735       0.00722723      -0.03615364      -0.14965648
Sb      -4.21701031       2.43469208       1.83482700      -0.03504976       0.02024055      -0.14489515
Sb       2.10839355      -1.21727814       1.83816743      -0.00574005       0.00330380      -0.13086615
Sb      -0.08898265       0.05137418     -12.14534741       0.04048061      -0.02336290       0.19734885
Sb      -1.90272798      -3.76761564     -12.09002400      -0.26334908       0.15204115       1.19061559
Sb      -4.09522627      -0.12316377     -12.32690286       0.02957341       0.03157155      -0.00535493
Sb      -1.94095023       3.60815187     -12.32690286      -0.01254789      -0.04139678      -0.00535309
Sb       0.03607400      -0.02082734      12.22503296      -0.10569963       0.06103313       0.10833899
Sb      -2.10359106      -3.65164726      12.01283341      -0.04487820       0.02590828      -0.19439942
Sb       4.20386750      -0.00659023      12.32047798       0.13219299       0.09581341       0.09013579
Sb       2.10764103      -3.63735747      12.32047798      -0.01687418      -0.16238616       0.09013867
Sb       2.10500921       1.21538069      -1.82998739      -0.02473271       0.05171420       0.12749256
Sb      -0.00004592      -2.43067834      -1.82998739      -0.05714474      -0.00444027       0.12748970
Sb      -2.10587506       1.21582757      -1.84477976       0.02996243      -0.01729046       0.11897728
Sb       4.21405810      -2.43298414      -1.84149487       0.05831795      -0.03367641       0.12932470
Sb       2.18106995       1.18989441      -8.69963679      -0.05515347       0.24584600      -0.38054793
Sb       0.06005621      -2.48380576      -8.69963679      -0.24048080      -0.07516441      -0.38055236
Sb      -2.04751422       1.18213291      -8.22151382       0.13020377      -0.07516866      -0.42453054
Sb       4.12669097      -2.38254267      -8.46317739       0.29004851      -0.16746825      -0.24804032
Cr      -1.88137911      -3.77994102      16.47228056       0.23253556      -0.13425904      -1.51692972
61
Lattice="8.428435589532 0.0 0.0 -4.214217794766 7.299235931425 0.0 0.0 0.0 31.033440841609" Properties=species:S:1:pos:R:3:forces:R:3 branch_id=historical_curvature_warp image_index=1 energy=-221.13361813139704 mlff_rel_energy_eV=1.612165114319538 mlff_fmax_eV_A=3.070317132033198 calculator_label=/home/ycao73/.cache/mace/20231203mace128L1_epoch199model neb_image=1 neb_protocol=mlff_pre_neb pbc="T T T"
Te       2.10751797       1.21314860       3.37802190      -0.00005786       0.01278714       1.09952299
Te       0.00314164      -2.43173492       3.37802179      -0.01109679      -0.00634231       1.09951889
Te      -2.10865640       1.21743354       3.34217442       0.00083055      -0.00047225       1.19011741
Te       4.21381893      -2.43284611       3.37627247       0.00943268      -0.00544834       1.12124882
Te      -0.20536412       0.11856720       7.03226486       0.38931519      -0.22476653      -1.09242148
Te      -2.11292905      -3.64625602       7.14476296       0.03351562      -0.01935324      -1.16854667
Te      -4.01587895       0.03176186       7.03301677      -0.31849171      -0.07766908      -1.17906800
Te      -2.03544598       3.46197223       7.03301691      -0.09197842       0.31465666      -1.17906207
Te       0.00051101      -0.00029487       0.00384696      -0.01852509       0.01070301       0.00093052
Te      -2.10777769      -3.64923012      -0.00432715      -0.01100683       0.00635398       0.01178995
Te      -4.21343038      -0.00014227       0.00036672       0.01392752      -0.00422163      -0.02221349
Te       2.10762592      -3.65022694       0.00036673       0.01062632      -0.00994798      -0.02221307
Te       0.23391985       2.48582597      13.72836980      -0.41214874      -0.15363615       0.88527068
Te      -2.03582841      -1.44549023      13.72836993      -0.07301897       0.43374602       0.88527623
Te      -4.54874137       2.62621723      13.92300931       0.44275623      -0.25562321       0.88989403
Te       2.10384934      -1.21465465      13.90925013       0.01088034      -0.00628679       0.80485520
Te       2.08944241       0.90020486     -13.87456472       0.06815611       0.11812143      -0.73836190
Te       0.26512103      -2.25960925     -13.87456481      -0.06821188      -0.11808718      -0.73836562
Te      -2.02667597       1.17010202     -13.95123244      -0.03167676       0.01829064      -0.92432666
Te       4.40965045      -2.54590960     -14.20493785       0.16777669      -0.09687156      -0.38987334
Te       2.17422064       1.03980967      10.39815749       0.02556574      -0.08377502      -0.17101759
Te       0.18660883      -2.40283179      10.39815744       0.08534062       0.01974337      -0.17102000
Te      -2.11051564       1.21850694      10.53560356      -0.08608152       0.04970521      -0.12180097
Te       4.03058936      -2.32705852      10.42871527      -0.04808703       0.02775605      -0.00863239
Te       0.40813631      -0.23563754      -7.14122254      -0.56352940       0.32536192       1.14262219
Te      -2.01249777      -3.70423999      -7.22589649      -0.21659016       0.12504938       1.08930764
Te       4.00707486       0.06925087      -6.94277145       0.54616789      -0.02051414       1.25476862
Te       1.94356455      -3.50485047      -6.94277157       0.29085632      -0.46273607       1.25476343
Te       0.00110660       2.43211409      -3.39535562       0.01503549      -0.00427615      -1.03842103
Te      -2.10571927      -1.21701208      -3.39535573       0.01122016      -0.01088981      -1.03842549
Te      -4.21606881       2.43414848      -3.36441073      -0.02250705       0.01299340      -1.11682914
Te       2.10719183      -1.21658447      -3.34821785      -0.01143601       0.00659597      -1.16990536
Te      -0.02960766       2.48968294     -10.35131564      -0.01582037      -0.00785213       0.11694125
Te      -2.17093245      -1.21919713     -10.35131556      -0.00111009       0.01762128       0.11694450
Te      -3.85680331       2.22672642     -10.47655208       0.27668789      -0.15974393      -0.01212627
Te       2.21659785      -1.27975010     -10.58510531      -0.04950133       0.02857245       0.11770692
Sb       0.01820031       2.41820656       8.72342911       0.08222279       0.08133643       0.18192859
Sb      -2.08512810      -1.22486189       8.72342920      -0.02932715      -0.11188144       0.18193178
Sb      -4.18638882       2.41701276       8.64006838      -0.01532953       0.00885109       0.04771346
Sb       2.11136009      -1.21899100       8.34901674      -0.05267370       0.03040555      -0.18719454
Sb       0.00452630       2.43665687       1.79385162       0.03082804       0.00984271       0.08645404
Sb      -2.10794349      -1.22224503       1.79385164       0.00689311      -0.03162622       0.08645505
Sb      -4.21927168       2.43599776       1.79084006      -0.03105553       0.01793349       0.09130767
Sb       2.10895419      -1.21760203       1.79669772      -0.00443295       0.00255079       0.10158486
Sb      -0.11571669       0.06680926     -12.07320635       0.06043495      -0.03488489      -0.23620707
Sb      -1.81111204      -3.82051023     -11.89753984      -0.48968865       0.28271913       2.24862064
Sb      -4.06061769      -0.19804419     -12.34987636       0.04664198       0.08376905      -0.44111054
Sb      -1.85879751       3.61562016     -12.34987630      -0.04921916      -0.08227749      -0.44110825
Sb       0.03079444      -0.01777903      12.20411379      -0.03748209       0.02164744       0.43018582
Sb      -2.10606433      -3.65021936      11.85756377      -0.04668608       0.02695261       0.20612571
Sb       4.22293588       0.00430996      12.34597814       0.07937924       0.11065698       0.42281412
Sb       2.10773551      -3.65932121      12.34597818      -0.05613629      -0.12406990       0.42281616
Sb       2.10338262       1.21614376      -1.78413241      -0.02689226       0.05034928      -0.11890219
Sb      -0.00151990      -2.42965126      -1.78413247      -0.05704386      -0.00188777      -0.11890538
Sb      -2.10438143       1.21496538      -1.80671573       0.03422523      -0.01975317      -0.11144619
Sb       4.21561697      -2.43388429      -1.80078565       0.05989793      -0.03458794      -0.10909882
Sb       2.21698095       1.19578925      -8.84241714      -0.03311558       0.17172625      -0.11129718
Sb       0.07290672      -2.51785314      -8.84241724      -0.16527296      -0.05718826      -0.11130172
Sb      -2.01537163       1.16357545      -8.14844618       0.13149580      -0.07591565      -0.22225123
Sb       4.09976010      -2.36699429      -8.48770720       0.29696449      -0.17145958      -0.00910109
Cr      -1.73065656      -3.86696068      16.85114441      -0.08184311       0.04724708      -3.06886245
61
Lattice="8.428435589532 0.0 0.0 -4.214217794766 7.299235931425 0.0 0.0 0.0 31.033440841609" Properties=species:S:1:pos:R:3:forces:R:3 branch_id=historical_curvature_warp image_index=2 energy=-220.13227975741526 mlff_rel_energy_eV=2.613503488301319 mlff_fmax_eV_A=3.6024101919819276 calculator_label=/home/ycao73/.cache/mace/20231203mace128L1_epoch199model neb_image=2 neb_protocol=mlff_pre_neb pbc="T T T"
Te       2.10687799       1.21309898       3.35868223       0.00199485       0.01188844       1.14055396
Te       0.00286463      -2.43115587       3.35868213      -0.00929208      -0.00767063       1.14054988
Te      -2.10775280       1.21691185       3.32370606      -0.00052213       0.00030878       1.23054633
Te       4.21557344      -2.43385907       3.35651159       0.00630467      -0.00364237       1.16193724
Te      -0.20696273       0.11949015       7.03707078       0.36333374      -0.20976616      -1.10567712
Te      -2.11072329      -3.64752952       7.15811078       0.02674068      -0.01544174      -1.19641848
Te      -4.02195699       0.02964306       7.05371865      -0.30701685      -0.07334881      -1.19940266
Te      -2.03665006       3.46829537       7.05371879      -0.08998245       0.30255899      -1.19939673
Te       0.00192089      -0.00110886       0.00279109      -0.02055672       0.01187617       0.00350561
Te      -2.10676111      -3.64981704      -0.00423371      -0.01055118       0.00609096       0.01219500
Te      -4.21341330       0.00056807       0.00022486       0.01502013      -0.00470602      -0.02121831
Te       2.10701930      -3.65059689       0.00022487       0.01159229      -0.01065188      -0.02121790
Te       0.22182720       2.47872513      13.70518750      -0.37759421      -0.12054204       0.95052870
Te      -2.03572523      -1.43146726      13.70518764      -0.08440199       0.38727378       0.95053456
Te      -4.56669590       2.63658329      13.88052831       0.42356652      -0.24454409       1.17538246
Te       2.10546480      -1.21558733      13.88206832       0.01992946      -0.01151128       0.83759428
Te       2.07955370       0.81938290     -13.85223300      -0.08788512      -0.02019401      -0.68485317
Te       0.33017052      -2.21063436     -13.85223309      -0.02644787       0.08620749      -0.68485656
Te      -2.15505135       1.24421961     -13.93713764       0.24399221      -0.14086722      -0.67256309
Te       4.41662573      -2.54993677     -14.18406868       0.79113993      -0.45677018      -0.26354005
Te       2.17247799       1.04612590      10.39840216       0.03951083      -0.09549392      -0.15592431
Te       0.18026749      -2.40448072      10.39840210       0.10246216       0.01352601      -0.15592698
Te      -2.10906690       1.21767052      10.53258927      -0.09910702       0.05722561      -0.14684003
Te       4.02243357      -2.32234977      10.41784440      -0.08109391       0.04681240      -0.00886111
Te       0.41999250      -0.24248271      -7.18070072      -0.59635598       0.34431454       1.17684086
Te      -2.01883256      -3.70058259      -7.24015474      -0.24101495       0.13915104       1.20359599
Te       3.99692136       0.06030663      -6.96657233       0.57603985       0.02783625       1.33913548
Te       1.94623375      -3.49158515      -6.96657246       0.26391994      -0.51278103       1.33913012
Te       0.00095210       2.43312163      -3.37761556       0.01673555      -0.00573964      -1.06871069
Te      -2.10666908      -1.21738205      -3.37761567       0.01333758      -0.01163042      -1.06871517
Te      -4.21428913       2.43312098      -3.34812717      -0.02447408       0.01412904      -1.14846236
Te       2.10830946      -1.21722974      -3.32897428      -0.01379926       0.00796034      -1.21212193
Te      -0.03341903       2.48697314     -10.33009657       0.03381165       0.03009511       0.13324230
Te      -2.17049139      -1.21454149     -10.33009648      -0.00915752      -0.04433525       0.13324571
Te      -3.85364150       2.22490095     -10.48406410       0.20175018      -0.11647861       0.01764963
Te       2.20018639      -1.27027495     -10.56379363      -0.20071284       0.11587401       0.18565983
Sb       0.02214194       2.41600321       8.73396403       0.06813020       0.07796808       0.12105609
Sb      -2.08124913      -1.22717378       8.73396411      -0.03345630      -0.09799283       0.12105912
Sb      -4.18898463       2.41851145       8.65642719      -0.00348881       0.00201482      -0.00756259
Sb       2.09968642      -1.21225121       8.36539037      -0.05606578       0.03236381      -0.25573361
Sb       0.00506022       2.43631564       1.78012377       0.02624743       0.00773837       0.11904097
Sb      -2.10738101      -1.22253680       1.78012380       0.00642524      -0.02660722       0.11904207
Sb      -4.21892389       2.43579697       1.77860957      -0.02823160       0.01630312       0.12712129
Sb       2.10961259      -1.21798216       1.78397067      -0.00282242       0.00162084       0.13367003
Sb      -0.16245104       0.09379137     -12.01685183      -0.03449138       0.01992075      -0.62019976
Sb      -1.81843554      -3.81628203     -11.92209190      -0.85361000       0.49282925       2.39250659
Sb      -4.08843784      -0.23768721     -12.30482448       0.15108615       0.08772005      -0.69238060
Sb      -1.83837574       3.65953464     -12.30482441      -0.00041922      -0.17470460      -0.69237780
Sb       0.02479777      -0.01431684      12.18906598       0.00110032      -0.00062796       0.45561795
Sb      -2.13346618      -3.63439888      11.83012853      -0.03159439       0.01823944       0.24076448
Sb       4.23168499      -0.00046943      12.33211562       0.04000680       0.11107994       0.43541267
Sb       2.11624914      -3.66450847      12.33211566      -0.07618855      -0.09018376       0.43541460
Sb       2.10389602       1.21600881      -1.77138432      -0.02605318       0.05342923      -0.16337344
Sb      -0.00114633      -2.43002841      -1.77138440      -0.05929159      -0.00415457      -0.16337679
Sb      -2.10371633       1.21458139      -1.79370954       0.03462935      -0.01998643      -0.15058072
Sb       4.21611637      -2.43417262      -1.78549970       0.06051845      -0.03494638      -0.15049047
Sb       2.22794025       1.21813574      -8.85793398      -0.00874610       0.15052145      -0.09915426
Sb       0.05903376      -2.53851742      -8.85793410      -0.13472419      -0.06769023      -0.09915910
Sb      -2.01405656       1.16281620      -8.15803973       0.11389655      -0.06575455      -0.16998944
Sb       4.08970045      -2.36118636      -8.49899444       0.31662538      -0.18281112       0.02741643
Cr      -1.38276246      -4.06781749      16.88580241      -0.34069842       0.19669681      -3.58086500
61
Lattice="8.428435589532 0.0 0.0 -4.214217794766 7.299235931425 0.0 0.0 0.0 31.033440841609" Properties=species:S:1:pos:R:3:forces:R:3 branch_id=historical_curvature_warp image_index=3 energy=-220.76093055140726 mlff_rel_energy_eV=1.9848526943093248 mlff_fmax_eV_A=3.0164846984860314 calculator_label=/home/ycao73/.cache/mace/20231203mace128L1_epoch199model neb_image=3 neb_protocol=mlff_pre_neb pbc="T T T"
Te       2.10534643       1.21361340       3.37275391       0.00714600       0.00730538       1.11943470
Te       0.00165334      -2.43008670       3.37275380      -0.00274749      -0.00984019       1.11943058
Te      -2.10526338       1.21547458       3.35010929      -0.00474397       0.00274614       1.17131393
Te       4.21912530      -2.43590974       3.37020338      -0.00093159       0.00053548       1.13061890
Te      -0.14398421       0.08312947       6.96787174       0.19167119      -0.11065683      -1.06356633
Te      -2.10378940      -3.65153280       7.07564940       0.00568051      -0.00328262      -1.11121533
Te      -4.09909916       0.01636883       7.01941955      -0.17953271      -0.04197603      -1.13211237
Te      -2.06372534       3.54173960       7.01941968      -0.05341003       0.17646785      -1.13210665
Te       0.00493889      -0.00285131      -0.00086526      -0.01557392       0.00899916       0.00816890
Te      -2.10424526      -3.65126957      -0.00256986      -0.00410240       0.00236771       0.00871610
Te      -4.21372118       0.00219885      -0.00018337       0.01022437      -0.00370015      -0.01069140
Te       2.10545305      -3.65114566      -0.00018336       0.00832319      -0.00700168      -0.01069102
Te       0.12774974       2.45166997      13.73461219      -0.19553950      -0.05358514       1.04567416
Te      -2.05933351      -1.33646618      13.73461234      -0.05136087       0.19613147       1.04568021
Te      -4.49922299       2.59762777      13.78720306       0.39005131      -0.22519403       1.46491656
Te       2.11009242      -1.21825910      13.82130292       0.02752110      -0.01589427       0.95826132
Te       2.05737230       0.78124112     -13.83116487      -0.46266007       0.17674521      -0.78738304
Te       0.35211149      -2.17235382     -13.83116493      -0.38439147       0.31230177      -0.78738615
Te      -2.48201633       1.43299301     -13.90544511       0.17029193      -0.09831665      -0.72165955
Te       4.33314390      -2.50173851     -14.06320228       0.43312894      -0.25007295      -0.29152697
Te       2.14532631       1.11838734      10.38629049       0.04723043      -0.06175780      -0.07753084
Te       0.10411143      -2.41709739      10.38629043       0.07710506      -0.01002721      -0.07753351
Te      -2.10409540       1.21480021      10.46493871      -0.07544826       0.04356617      -0.08157465
Te       4.06533390      -2.34711829      10.37027760      -0.12056269       0.06959989      -0.05452705
Te       0.31153434      -0.17986434      -7.14942216      -0.43313224       0.25007705       1.22096301
Te      -2.06510843      -3.67386520      -7.13270942      -0.23173178       0.13379132       1.34540708
Te       4.04071862       0.01428774      -6.96968832       0.43292588       0.12108723       1.43286559
Te       2.00798591      -3.50650524      -6.96968847       0.11160551      -0.43546525       1.43285998
Te      -0.00020778       2.43536194      -3.38935838       0.01780306      -0.00888930      -1.04731401
Te      -2.10918918      -1.21749771      -3.38935849       0.01659903      -0.01098005      -1.04731843
Te      -4.20933366       2.43025994      -3.37339444      -0.02518499       0.01453953      -1.09370807
Te       2.11079184      -1.21866294      -3.35152286      -0.01274148       0.00734971      -1.16115177
Te      -0.03507790       2.46128294     -10.28817461       0.22137544       0.14498496       0.02325762
Te      -2.14907247      -1.20025981     -10.28817455      -0.01487319      -0.26421639       0.02326017
Te      -3.96448039       2.28889383     -10.46412651      -0.15476515       0.08935525      -0.08667424
Te       2.12683866      -1.22792762     -10.44277041      -0.54274933       0.31334830       0.08183744
Sb       0.01824001       2.41264106       8.65640661       0.03592541       0.05578324       0.00947593
Sb      -2.08028839      -1.22211352       8.65640668      -0.03034599      -0.05901002       0.00947873
Sb      -4.19808114       2.42376333       8.62043791      -0.00391757       0.00226246      -0.05036244
Sb       2.07257041      -1.19659577       8.41880301      -0.05156201       0.02976335      -0.21246673
Sb       0.00469667       2.43435362       1.79109957       0.01081430       0.00237967       0.08165729
Sb      -2.10586364      -1.22124095       1.79109960       0.00334943      -0.01056222       0.08165830
Sb      -4.21643767       2.43436155       1.79389255      -0.01637298       0.00945653       0.09534504
Sb       2.11040612      -1.21844030       1.79578003       0.00115890      -0.00067769       0.09470042
Sb      -0.23121412       0.13349177     -11.94982798      -0.02589294       0.01495650      -0.64854142
Sb      -1.87814910      -3.78180634     -12.35064630      -1.17650103       0.67925066       1.55024285
Sb      -4.19116859      -0.24611267     -12.17165935       0.32862669       0.19234209      -0.60425451
Sb      -1.88244446       3.75271485     -12.17165929      -0.00225430      -0.38077014      -0.60425236
Sb       0.01344306      -0.00776120      12.17894151       0.00249090      -0.00143113       0.26716226
Sb      -2.19475272      -3.59901507      11.92793090       0.00060881      -0.00035301       0.13032321
Sb       4.23522103      -0.02044291      12.27627799       0.01502104       0.12111803       0.23409228
Sb       2.13531470      -3.65758404      12.27627804      -0.09737454      -0.07356464       0.23409431
Sb       2.10630035       1.21588263      -1.78770917      -0.01608770       0.05017116      -0.13709549
Sb       0.00016510      -2.43204752      -1.78770924      -0.05148735      -0.01115577      -0.13709865
Sb      -2.10320248       1.21428472      -1.80153176       0.02489987      -0.01436915      -0.12634706
Sb       4.21672366      -2.43452324      -1.79065611       0.04666148      -0.02694595      -0.12473575
Sb       2.21391323       1.26707391      -8.74869032       0.01912606       0.14475275      -0.15159320
Sb       0.00963858      -2.55083874      -8.74869042      -0.11579194      -0.08894367      -0.15159766
Sb      -2.04286873       1.17945094      -8.26294822       0.03531395      -0.02038401      -0.18150005
Sb       4.10080973      -2.36760034      -8.50337667       0.35495540      -0.20494171      -0.05071368
Cr      -0.72563579      -4.44720999      16.74306653       1.50613627      -0.86957037      -2.46466648
61
Lattice="8.428435589532 0.0 0.0 -4.214217794766 7.299235931425 0.0 0.0 0.0 31.033440841609" Properties=species:S:1:pos:R:3:forces:R:3 branch_id=historical_curvature_warp image_index=4 energy=-222.2752579058138 mlff_rel_energy_eV=0.47052533990279244 mlff_fmax_eV_A=1.741558513572137 calculator_label=/home/ycao73/.cache/mace/20231203mace128L1_epoch199model neb_image=4 neb_protocol=mlff_pre_neb pbc="T T T"
Te       2.10678445       1.21409307       3.40441027       0.00454995       0.00538283       1.04818788
Te       0.00195695      -2.43157190       3.40441017      -0.00238063      -0.00663073       1.04818370
Te      -2.10720295       1.21659438       3.38952378      -0.00241880       0.00140354       1.08132432
Te       4.21802041      -2.43527183       3.39827206      -0.00092170       0.00052973       1.07447819
Te      -0.10090563       0.05825802       6.91595101       0.13329851      -0.07695533      -0.94451926
Te      -2.10731467      -3.64949749       6.99536287       0.00067314      -0.00039161      -1.01401011
Te      -4.15152325      -0.00334105       6.96966464      -0.10310421      -0.01106587      -1.03808085
Te      -2.07286814       3.59699515       6.96966477      -0.04196477       0.09482349      -1.03807542
Te       0.00400892      -0.00231440      -0.00336162      -0.00989965       0.00572280       0.01585645
Te      -2.10583869      -3.65034960      -0.00217151      -0.00554450       0.00320021       0.00041912
Te      -4.21321743       0.00102103      -0.00126340       0.00518701      -0.00798968      -0.00838467
Te       2.10672494      -3.65099301      -0.00126339       0.00951905      -0.00049467      -0.00838429
Te       0.06222377       2.42499006      13.76590317      -0.09136391      -0.01693041       1.06480374
Te      -2.06899102      -1.26637903      13.76590331      -0.03101690       0.08758550       1.06480953
Te      -4.42555515       2.55509560      13.85690646       0.36507436      -0.21077347       1.19284848
Te       2.10984243      -1.21811477      13.79171329       0.03529318      -0.02038159       0.98693865
Te       2.01752791       0.80827101     -13.92202402      -0.13455971       0.49821280      -0.90021713
Te       0.30878070      -2.15136251     -13.92202408      -0.49874148      -0.13257584      -0.90022000
Te      -2.38665535       1.37793631     -13.96963767       1.47655767      -0.85248912      -0.35505747
Te       4.32685407      -2.49810709     -13.94314672       0.30218023      -0.17447039      -0.74873146
Te       2.13398891       1.17234588      10.37480973       0.07355477      -0.01650693      -0.01764268
Te       0.05171327      -2.43425817      10.37480968       0.05107831      -0.05545013      -0.01764505
Te      -2.10609611       1.21595532      10.41204938      -0.08627011       0.04981410      -0.01840738
Te       4.11021310      -2.37302931      10.35416844      -0.05730721       0.03307995       0.06685104
Te       0.19212525      -0.11092346      -7.03844895      -0.24128840       0.13931522       1.13348369
Te      -2.11362746      -3.64585271      -7.01236983      -0.08920395       0.05150281       1.27880799
Te       4.09522532      -0.01268734      -6.93298993       0.26662959       0.23332955       1.35618792
Te       2.05860035      -3.54022189      -6.93299009      -0.06874725      -0.34756873       1.35618227
Te       0.00045825       2.43238634      -3.41930361       0.01042665      -0.00403611      -0.99068007
Te      -2.10627922      -1.21658671      -3.41930372       0.00870789      -0.00701840      -0.99068440
Te      -4.20980657       2.43053297      -3.40958958      -0.01750904       0.01010787      -1.00519267
Te       2.10736071      -1.21668197      -3.39573889      -0.00301619       0.00173496      -1.05420348
Te      -0.03539514       2.44979883     -10.26756489       0.17934520       0.37319904      -0.26120201
Te      -2.13928560      -1.19424303     -10.26756487      -0.23352881      -0.34192541      -0.26120117
Te      -4.06773851       2.34850995     -10.38741231      -0.10176299       0.05875405      -0.36085827
Te       2.08382821      -1.20309550     -10.34389036      -0.35237305       0.20343468      -0.27477604
Sb       0.01270005       2.41672803       8.59708820       0.02593985       0.04428710      -0.03212362
Sb      -2.08659779      -1.21935925       8.59708826      -0.02538281      -0.04461396      -0.03212091
Sb      -4.20411707       2.42724818       8.55627149      -0.00062935       0.00036407      -0.04275860
Sb       2.07191436      -1.19621700       8.45737118      -0.06225733       0.03593832      -0.15207161
Sb       0.00343383       2.43354332       1.81469776       0.00689502      -0.00672720       0.02695308
Sb      -2.10579332      -1.21974215       1.81469778       0.00927654      -0.00261435       0.02695394
Sb      -4.21533278       2.43372364       1.81491194      -0.01273385       0.00735543       0.04172244
Sb       2.10957137      -1.21795835       1.81707244      -0.00451923       0.00260079       0.03575284
Sb      -0.23010883       0.13285363     -11.89050460       0.08597094      -0.04962830      -0.51121681
Sb      -1.81023192      -3.82101833     -12.59559682      -0.69680282       0.40229778       1.01496405
Sb      -4.29731272      -0.16808471     -12.21738615       0.47459603       0.26459325      -0.06585013
Sb      -2.00309067       3.80562445     -12.21738614       0.00815938      -0.54330815      -0.06584981
Sb       0.00675122      -0.00389768      12.15909970      -0.00023443       0.00014199       0.10765209
Sb      -2.18849336      -3.60262890      12.05589551      -0.03981616       0.02298654      -0.01941120
Sb       4.23239783      -0.01556232      12.26714008       0.01353159       0.12650328       0.02888035
Sb       2.12967637      -3.65757937      12.26714014      -0.10278338      -0.07496771       0.02888298
Sb       2.10582252       1.21517376      -1.81154608       0.00409365       0.03993729      -0.08766426
Sb       0.00054008      -2.43127927      -1.81154614      -0.03253404      -0.02351618      -0.08766713
Sb      -2.10275726       1.21402766      -1.81991901       0.00400571      -0.00230602      -0.08460316
Sb       4.21624301      -2.43424573      -1.81778368       0.02628215      -0.01517961      -0.07042713
Sb       2.16883367       1.27544875      -8.63337155      -0.03401872       0.10198670      -0.05488648
Sb      -0.02015401      -2.51598609      -8.63337163      -0.10532757      -0.02153592      -0.05489012
Sb      -2.06855707       1.19428214      -8.36149062       0.01253966      -0.00723434      -0.07729680
Sb       4.12251840      -2.38013386      -8.45403528       0.30237732      -0.17458618      -0.21558132
Cr      -0.26810287      -4.71136685      16.71794300      -0.60578038       0.34974670      -1.21853176
61
Lattice="8.428435589532 0.0 0.0 -4.214217794766 7.299235931425 0.0 0.0 0.0 31.033440841609" Properties=species:S:1:pos:R:3:forces:R:3 branch_id=historical_curvature_warp image_index=5 energy=-224.0000357952742 mlff_rel_energy_eV=-1.2542525495576058 mlff_fmax_eV_A=1.1704083474773102 calculator_label=/home/ycao73/.cache/mace/20231203mace128L1_epoch199model neb_image=5 neb_protocol=mlff_pre_neb pbc="T T T"
Te       2.11092567       1.21453061       3.45313025      -0.00665735       0.00581991       0.93084977
Te       0.00364864      -2.43537708       3.45313014      -0.00836296       0.00285644       0.93084554
Te      -2.11319152       1.22005188       3.44073128       0.00649674      -0.00374404       0.96495083
Te       4.21247320      -2.43206915       3.44076722       0.00710582      -0.00410503       0.99148426
Te      -0.08165054       0.04714109       6.88338933       0.16277397      -0.09397289      -0.77334679
Te      -2.12061953      -3.64181592       6.92282427       0.01269407      -0.00733191      -0.91000041
Te      -4.17371600      -0.02638272       6.90664270      -0.07906559       0.02287370      -0.93280754
Te      -2.06400985       3.62773547       6.90664282      -0.05933798       0.05703547      -0.93280239
Te      -0.00071189       0.00041115      -0.00446448      -0.00444260       0.00257171       0.02302498
Te      -2.11115677      -3.64727921      -0.00295316      -0.01147627       0.00662479      -0.01190786
Te      -4.21201585      -0.00269356      -0.00269252       0.00092248      -0.01415133      -0.01341708
Te       2.11054265      -3.65017632      -0.00269251       0.01272249       0.00627899      -0.01341667
Te       0.03303115       2.40414646      13.79744171      -0.04222050       0.04272864       0.92681327
Te      -2.06553625      -1.23067567      13.79744184      -0.05811137       0.01519623       0.92681843
Te      -4.35073324       2.51189714      14.08688858       0.35434150      -0.20457680       0.60700239
Te       2.10527247      -1.21547630      13.80004874       0.05800915      -0.03349696       0.90617367
Te       1.93840430       0.88395323     -14.10936301      -0.00653089       0.45620009      -0.75243982
Te       0.20367619      -2.12068055     -14.10936307      -0.39834322      -0.22244604      -0.75244223
Te      -1.97499798       1.14026572     -14.13829285       0.58499741      -0.33774564      -0.30731263
Te       4.38376533      -2.53096484     -13.82580673       0.07561781      -0.04366471      -0.83053260
Te       2.13857458       1.20159274      10.36461394       0.10225809       0.01598767       0.00913789
Te       0.02867759      -2.45285290      10.36461390       0.03728845      -0.09655527       0.00913602
Te      -2.11416419       1.22061343      10.37921962      -0.11533578       0.06659508       0.03311757
Te       4.15090924      -2.39652523      10.36930469       0.00418900      -0.00242402       0.30922185
Te       0.07322445      -0.04227605      -6.85994711      -0.10836100       0.06256848       0.87924720
Te      -2.15738087      -3.62059165      -6.88696692       0.16681899      -0.09631207       1.08620982
Te       4.15530459      -0.01772900      -6.85690010       0.10536903       0.32477553       1.11949717
Te       2.09300618      -3.58973124      -6.85690025      -0.22857221      -0.25363535       1.11949180
Te       0.00276578       2.42480855      -3.46682704      -0.00540695       0.01220292      -0.89197838
Te      -2.09856290      -1.21479619      -3.46682714      -0.01327227      -0.00142550      -0.89198255
Te      -4.21560865       2.43388281      -3.45578722      -0.00368313       0.00212554      -0.88850836
Te       2.09867002      -1.21166439      -3.45954684       0.01546981      -0.00893776      -0.89920779
Te      -0.03159828       2.44677024     -10.26441520       0.07334176       0.41244752      -0.40685219
Te      -2.13476438      -1.19601692     -10.26441523      -0.32052232      -0.26974786      -0.40685323
Te      -4.15744543       2.40030228     -10.25808034      -0.01983465       0.01145224      -0.55927039
Te       2.06976346      -1.19497518     -10.27309380       0.07371572      -0.04256641      -0.61599631
Sb       0.00588748       2.42740455       8.55881839       0.03605688       0.03650532      -0.00097294
Sb      -2.09925021      -1.21879765       8.55881846      -0.01358512      -0.04948443      -0.00097015
Sb      -4.20661412       2.42868985       8.46943902       0.00336005      -0.00193920       0.02292937
Sb       2.09761498      -1.21105526       8.47491689      -0.08751333       0.05052009      -0.08215447
Sb       0.00134094       2.43402657       1.85042764       0.01406225      -0.01873927      -0.04029149
Sb      -2.10725826      -1.21817126       1.85042766       0.02326288      -0.00281502      -0.04029083
Sb      -4.21565362       2.43390887       1.84172862      -0.01715016       0.00990512      -0.02663039
Sb       2.10731140      -1.21665355       1.84775693      -0.01915930       0.01105356      -0.03581382
Sb      -0.15843430       0.09147228     -11.85483988       0.12832047      -0.07407946      -0.36275774
Sb      -1.67708512      -3.89789068     -12.65793306      -0.54674200       0.31566079       0.79801698
Sb      -4.38385723      -0.01099679     -12.44988573       0.66537822       0.24807398       0.29771366
Sb      -2.18240501       3.80203027     -12.44988577       0.11785634      -0.70027055       0.29771207
Sb       0.00536850      -0.00309937      12.13562322      -0.00962685       0.00556444       0.02306311
Sb      -2.11467073      -3.64525043      12.20263284      -0.10242021       0.05913120      -0.14974744
Sb       4.22352004       0.01363480      12.30682845       0.04727694       0.14931150      -0.10071302
Sb       2.09995203      -3.66448955      12.30682854      -0.10566385      -0.11559656      -0.10070938
Sb       2.10247204       1.21393808      -1.84277466       0.02946797       0.02333658      -0.02260995
Sb      -0.00006503      -2.42775982      -1.84277471      -0.00547048      -0.03719035      -0.02261245
Sb      -2.10235460       1.21379518      -1.84911593      -0.02297252       0.01326967      -0.02719318
Sb       4.21473559      -2.43337540      -1.86593017       0.00313642      -0.00181591       0.00224608
Sb       2.09959390       1.24260603      -8.52563332      -0.08773454       0.06343672       0.04449878
Sb      -0.02633127      -2.43960130      -8.52563336      -0.09879997       0.04425822       0.04449624
Sb      -2.08700100       1.20493077      -8.44209326       0.10572619      -0.06103499       0.06299623
Sb       4.15322518      -2.39786244      -8.35236867       0.13561391      -0.07830538      -0.41988899
Cr       0.09647840      -4.92185792      16.83415063      -0.55727549       0.32174258      -0.14226349
61
Lattice="8.428435589532 0.0 0.0 -4.214217794766 7.299235931425 0.0 0.0 0.0 31.033440841609" Properties=species:S:1:pos:R:3:forces:R:3 branch_id=historical_curvature_warp image_index=6 energy=-226.54744990092811 mlff_rel_energy_eV=-3.801666655211534 mlff_fmax_eV_A=0.7993316706689156 calculator_label=/home/ycao73/.cache/mace/20231203mace128L1_epoch199model neb_image=6 neb_protocol=mlff_pre_neb pbc="T T T"
Te       2.10870921       1.21746383       3.58373571      -0.00303761      -0.00174635       0.74247288
Te       0.00000003      -2.43492420       3.58373571      -0.00000008       0.00350437       0.74246714
Te      -2.10870914       1.21746383       3.58373571       0.00303750      -0.00174639       0.74247297
Te       4.21421779      -2.43307634       3.57866983       0.00000001      -0.00000311       0.79933167
Te      -0.00000000       0.00000000       6.73023730       0.00000002       0.00000548      -0.59206914
Te      -2.11186507      -3.64687025       6.75807582      -0.01109490       0.00640229      -0.72293020
Te      -4.21421776      -0.00549197       6.75807582      -0.00000007      -0.01280590      -0.72293606
Te      -2.10235273       3.65236568       6.75807582       0.01109502       0.00640233      -0.72293029
Te       0.00000000       0.00000000      -0.00547728       0.00000006       0.00000584       0.00165894
Te      -2.10782211      -3.64920445       0.00303373      -0.00552411       0.00318773      -0.03117708
Te      -4.21421776      -0.00082357       0.00303373      -0.00000007      -0.00637290      -0.03117759
Te       2.10782211      -3.64920445       0.00303373       0.00552420       0.00318775      -0.03117707
Te       0.00000000       2.44262829      13.93275255       0.00000006       0.04532592       0.61515507
Te      -2.11537812      -1.22131069      13.93275255      -0.03925026      -0.02266747       0.61516080
Te      -4.21421776       2.43307980      14.11551804      -0.00000010       0.00000316       0.17929583
Te       2.11537812      -1.22131069      13.93275255       0.03925038      -0.02266740       0.61516070
Te       1.97104262       1.13798199     -14.25171701      -0.11908042      -0.06874757      -0.14477600
Te       0.00000003      -2.27596052     -14.25171701      -0.00000005       0.13749876      -0.14477856
Te      -1.97104255       1.13798199     -14.25171701       0.11908038      -0.06874760      -0.14477604
Te       4.21421779      -2.43307634     -13.91299990       0.00000011      -0.00000712      -0.57457032
Te       2.10381612       1.21463880      10.33710037       0.04710739       0.02720321       0.10608764
Te       0.00000003      -2.42927415      10.33710037      -0.00000008      -0.05440066       0.10608771
Te      -2.10381606       1.21463880      10.33710037      -0.04710753       0.02720319       0.10608764
Te       4.21421779      -2.43307634      10.32928454       0.00000005      -0.00000524       0.26239093
Te       0.00000000      -0.00000000      -6.74699509       0.00000011       0.00000631       0.67601773
Te      -2.11643660      -3.64423087      -6.69461214       0.21495588      -0.12410400       0.70257224
Te       4.21421783      -0.01077073      -6.69461214      -0.00000006       0.24821840       0.70257840
Te       2.11643660      -3.64423087      -6.69461214      -0.21495582      -0.12410400       0.70257233
Te      -0.00000000       2.43045523      -3.59552834       0.00000011      -0.00425748      -0.70437223
Te      -2.10483594      -1.21522415      -3.59552834       0.00368651       0.00212160      -0.70437717
Te      -4.21421776       2.43307980      -3.59498629      -0.00000006      -0.00000076      -0.66798592
Te       2.10483594      -1.21522415      -3.59552834      -0.00368644       0.00212167      -0.70437727
Te      -0.00000000       2.40488425     -10.30721420       0.00000009       0.22952776      -0.20456886
Te      -2.08269083      -1.20243866     -10.30721420      -0.19877919      -0.11477062      -0.20456880
Te      -4.21421776       2.43307980     -10.26805999      -0.00000008       0.00000106      -0.29050572
Te       2.08269083      -1.20243866     -10.30721420       0.19877928      -0.11477059      -0.20456880
Sb       0.00000000       2.42739575       8.39926522       0.00000007      -0.03147573       0.24950184
Sb      -2.10218635      -1.21369442       8.39926522       0.02726016       0.01573274       0.24950585
Sb      -4.21421776       2.43307980       8.35798337      -0.00000012       0.00000137       0.34846112
Sb       2.10218635      -1.21369442       8.39926522      -0.02726008       0.01573284       0.24950583
Sb       0.00000000       2.43781189       1.96015735       0.00000011      -0.03369933      -0.37451913
Sb      -2.11120699      -1.21890248       1.96015735       0.02918819       0.01684300      -0.37451906
Sb      -4.21421776       2.43307980       1.95613627      -0.00000007       0.00000422      -0.35576517
Sb       2.11120699      -1.21890248       1.96015735      -0.02918810       0.01684309      -0.37451908
Sb      -0.00000000       0.00000000     -11.97142417       0.00000000       0.00000617      -0.13662230
Sb      -1.99321705      -3.71537172     -12.47690343       0.09231706      -0.05330146       0.13067347
Sb      -4.21421776       0.13151097     -12.47690343      -0.00000002       0.10660471       0.13067523
Sb      -2.22100068       3.58386421     -12.47690343      -0.09231713      -0.05330148       0.13067353
Sb       0.00000000      -0.00000000      12.28357695       0.00000008       0.00000571      -0.35068330
Sb      -2.11302755      -3.64619909      12.34092277       0.03274315      -0.01890566      -0.41066297
Sb       4.21421783      -0.00683429      12.34092277      -0.00000013       0.03781453      -0.41066796
Sb       2.11302755      -3.64619909      12.34092277      -0.03274308      -0.01890559      -0.41066297
Sb       2.10024860       1.21257909      -1.96136998       0.03261846       0.01883987       0.34372316
Sb       0.00000003      -2.42515472      -1.96136998      -0.00000014      -0.03766945       0.34372189
Sb      -2.10024853       1.21257909      -1.96136998      -0.03261856       0.01883978       0.34372316
Sb       4.21421779      -2.43307634      -1.97027533       0.00000006      -0.00000472       0.36594113
Sb       2.10126150       1.21316390      -8.40423866      -0.04870798      -0.02811578      -0.14419448
Sb       0.00000003      -2.42632433      -8.40423866      -0.00000011       0.05623524      -0.14419497
Sb      -2.10126144       1.21316390      -8.40423866       0.04870789      -0.02811579      -0.14419455
Sb       4.21421779      -2.43307634      -8.16991420       0.00000003      -0.00000957      -0.64121835
Cr       0.00000003      -4.86615613      16.71632754       0.00000000      -0.00000033       0.51737058
