61
Lattice="8.42843558953 0 0 -4.21421779477 7.29923593142 0 0 0 31.0334408416" Properties=species:S:1:pos:R:3:forces:R:3 energy=-133601.231885 ionic_step=0 pbc="T T T"
Te 2.1071095967 1.2155922533 3.4697881303 -0.000145010230283 0.000148352664669 -0.000252225240971
Te 4.2150388535 4.8666328255 3.4697881303 -0.000103615465965 -7.09624531173e-05 -0.000251453909959
Te 6.3213260584 1.2165402929 3.4546426597 0.00025531056502 -4.65369710661e-05 -0.00278784738823
Te -0.000821026 4.8666336141 3.4697881419 0.000201060283832 -0.000282050040108 -0.000540960149851
Te -0.3932879804 0.2270650272 7.5221637433 0.00399703730493 -0.00224328769365 0.00143827522731
Te 2.1071084831 3.6496199444 7.7224689782 1.079863417e-05 -4.47371987044e-05 -0.00215766995131
Te 4.6075058077 0.22706453 7.5221635544 -0.00406028644793 -0.00225974275525 0.00168330137884
Te -2.1071084829 3.19548989 7.5221635544 -2.41683717139e-05 0.00486529891427 0.0018673923804
Te 0 0 0 -0.000204916938893 0.000419604070607 -0.0132144429001
Te 2.1071089138 3.6496196957 0 -8.6903294035e-05 -9.59021558433e-05 -0.0137309775679
Te 4.2142178275 0 0 0.00036818200313 0.000388750830121 -0.0133309138829
Te -2.1071089138 3.6496196957 0 2.59681440755e-05 -0.000502393599244 -0.0131195691856
Te 0.5216608809 2.7342612382 13.6680733002 -0.00599272774369 -0.00335631834418 -0.0362139910202
Te 2.1071086966 5.4803369868 13.6680733002 3.0339019811e-05 0.00695123508145 -0.03611474643
Te 3.6925569467 2.7342609875 13.6680736886 0.0058621156923 -0.00328407033938 -0.0362965234385
Te -2.1071086966 6.0826993675 14.8009439732 -9.59021558433e-05 -0.000182291229204 -0.0282507696508
Te 2.107109131 1.8189024046 17.3653639252 -0.000239883944777 -0.00382451626855 -0.00161722402213
Te 3.6925569467 4.5649781531 17.3653639252 0.00341982459751 0.00211961762137 -0.0017318952326
Te 6.3213265241 1.216540024 16.2324932524 0.000145524450958 -3.5738336896e-05 -0.0208966426707
Te 0.521660881 4.5649784036 17.3653635368 -0.00322107830672 0.0017635198041 -0.00149226839816
Te 2.1071086783 0.6769060881 10.8032024964 0.000246054592874 -0.00701165601073 -0.0240079348633
Te 4.6815540807 5.1359767035 10.8032024964 0.00633725559578 0.00309972222747 -0.0240025355463
Te 6.3213269768 1.2165397626 11.3052863363 -6.06780396221e-05 0.00042911715309 -0.0213697256915
Te -0.4673362532 5.1359764316 10.8032029197 -0.00629714638315 0.00332340822099 -0.0240231043733
Te 0.3932879804 -0.2270650273 23.5112734821 6.78771290688e-05 -0.000366382230769 0.0358761480369
Te 2.1071093444 3.6496194471 23.3109682469 -0.000208259373279 0.000324216135438 0.0363438317406
Te 3.8209298472 -0.2270645299 23.5112736709 3.11103508232e-05 -0.000464341269311 0.0358944028708
Te -2.1071093443 4.1037495014 23.5112736709 0.000182548339541 0.000393121705857 0.0356642891189
Te -0.000821026 2.4326065659 27.5636490951 0.00115185431147 0.000529647295006 0.00585543082353
Te 2.1071082308 6.0836471382 27.5636490951 2.72536957625e-05 -0.00106906478283 0.00568882332491
Te 4.2150388535 2.4326057773 27.5636490835 -0.0011747371315 0.000457399290202 0.0059976128401
Te -2.1071082308 6.0826990986 27.5787945656 -2.62252544129e-05 0.000119042086208 0.00589682558785
Te -0.4673362533 2.1632626879 20.230234729 -0.00527153324734 -0.00272408402456 0.0322912586028
Te 2.1071091492 6.6223333036 20.230234729 6.27349223211e-05 0.00570399283481 0.0323097705471
Te 4.6815540806 2.1632629599 20.2302343057 0.00532372664582 -0.00272871201063 0.0323370242428
Te -2.1071091493 6.0826996289 19.7281508896 -3.98521022942e-05 -0.000257881668394 0.0213491568645
Sb -0.0034925528 2.4310616781 9.3841668248 -0.0019499247987 -0.000839722361888 -0.00863839311535
Sb 2.1071103789 6.0867331932 9.3841668248 -8.30466389743e-05 0.00199723310078 -0.00857103020695
Sb 4.2177103803 2.4310633699 9.3841672143 0.00198514891492 -0.000901943063535 -0.00862759448118
Sb -2.1071103789 6.0827003388 8.0356532782 -6.81342394061e-05 -0.000198232070121 -0.000688798593845
Sb 0.0003787553 2.4332958991 1.8868186351 -0.000833037493116 -0.000644318505478 -0.0126855669361
Sb 2.1071111417 6.0822634301 1.8868186351 0.000129326499703 0.000904257056571 -0.0126608843437
Sb 4.2138390723 2.4332984717 1.8868189232 0.000767988577759 -0.000523733757246 -0.0126446863924
Sb -2.1071111417 6.0827007792 1.8920937532 -0.000115185431147 2.57110337382e-05 -0.0129372779564
Sb -0.066743715 0.0385345198 17.916008674 -0.000218543786774 6.7362908394e-05 0.0039438154651
Sb 2.107108188 3.6496201148 19.6536304807 -5.99067086099e-05 0.000197974959784 0.0228121146842
Sb 4.2809615425 0.0385336817 17.9160089192 0.000289506239892 7.63617702023e-05 0.00413690532847
Sb 6.3213274671 3.5725510753 17.9160089192 4.88509641025e-06 -0.000394921478218 0.00414667552129
Sb 0.066743715 -0.0385345198 13.1174285511 -0.00210470522181 0.00117833667622 -0.0328985532197
Sb 2.1071096396 3.6496192767 11.3798067447 6.09351499594e-05 -0.000223685993522 -0.0233422761999
Sb 4.1474741126 -0.0385336817 13.117428306 0.0020874788292 0.00109451870623 -0.0331361231714
Sb -2.1071096396 3.7266883162 13.1174283059 -6.1963591309e-05 -0.00242326492982 -0.0331942301077
Sb 2.1071066858 1.2169759614 29.1466185903 1.38839582186e-05 8.22753079621e-05 -0.00624161055028
Sb 4.2138390722 4.8659434924 29.1466185903 -2.4939702726e-05 0.000151437988718 -0.00617373342121
Sb 6.3213289693 1.2165386123 29.1413434722 -1.7483502942e-05 1.13128548448e-05 -0.005461794897
Sb 0.0003787553 4.8659409197 29.1466183022 9.05028387583e-05 4.73083020782e-05 -0.00631257300339
Sb 2.1071074486 1.2125061983 21.6492704006 -4.9879405452e-05 0.00133260287865 0.0403714651757
Sb 4.2177103803 4.8681777133 21.6492704006 -0.0011747371315 -0.000685199049122 0.0404542547043
Sb 6.3213282064 1.2165390527 22.9977839475 -6.45346946828e-05 -5.29647295006e-05 0.0325409127404
Sb -0.0034925528 4.8681760215 21.6492700114 0.00113025704313 -0.000755904391902 0.0405918087348
Cr 2.1071089138 3.6496196957 15.5167186127 9.82161488798e-05 6.42775843454e-05 -0.0188934960322
61
Lattice="8.42843558953 0 0 -4.21421779477 7.29923593142 0 0 0 31.0334408416" Properties=species:S:1:pos:R:3:forces:R:3 energy=-133601.231901 ionic_step=1 pbc="T T T"
Te 2.107109038 1.215587243 3.4697501665 3.34243438596e-06 -0.00018357678089 0.00655425672053
Te 4.2150434019 4.866635854 3.4697511296 0.000187176325614 0.000133954485776 0.00656839778909
Te 6.3213265208 1.2165408672 3.4545731354 7.19908944669e-06 2.8282137112e-06 0.00635473909872
Te -0.0008261195 4.8666364533 3.4697515647 -0.000164293505587 9.28168317948e-05 0.00655297116885
Te -0.3933142355 0.2270799827 7.5221994242 0.000622978347476 -0.000376409533927 0.00742123277818
Te 2.1071086826 3.6496195535 7.7223574485 2.80250267746e-05 7.71331012145e-07 0.00680365374779
Te 4.6075322433 0.2270797929 7.522200021 -0.000655117139648 -0.000313674611606 0.00746185621149
Te -2.1071080421 3.1954594632 7.5221997507 -9.25597214574e-06 0.000707567648474 0.00739372197208
Te -2.252e-07 -2.91e-08 -9.0647e-06 3.08532404858e-05 -9.51308248312e-06 -0.00120893280637
Te 2.1071091038 3.6496198006 -8.9614e-06 1.79977236167e-05 -3.00819094737e-05 -0.00131923314111
Te 4.2142176078 -3.818e-07 -9.2419e-06 -1.36268478812e-05 1.10557445074e-05 -0.00124055737787
Te -2.1071089278 3.6496204556 -9.1549e-06 -6.17064809716e-06 3.59954472334e-06 -0.00124595669495
Te 0.5215790101 2.7342136335 13.6680519487 0.000636862305694 0.000411890760485 -0.00312826147492
Te 2.1071088447 5.4804310485 13.6680516984 -1.72263926046e-05 -0.000794470942509 -0.00304907149101
Te 3.6926391916 2.7342134755 13.6680518351 -0.000720680275681 0.000403920340027 -0.00299893497522
Te -2.1071084346 6.0826993481 14.8008709922 1.20841858569e-05 1.02844134953e-06 -0.003450677838
Te 2.1071089735 1.8188053288 17.3653599691 6.68486877192e-06 0.0020193445898 -0.00262586787568
Te 3.6926409495 4.5650267951 17.3653596115 -0.00171492595034 -0.000910427704668 -0.00247957209371
Te 6.3213264346 1.2165398512 16.2325324911 1.4141068556e-05 -4.83367434277e-05 -0.00278321940216
Te 0.5215765787 4.5650265623 17.3653593426 0.00175580649398 -0.000935624517732 -0.00250811134116
Te 2.107108406 0.6769526902 10.8032038354 5.27076191632e-05 -0.00108551984443 0.000110557445074
Te 4.6815135357 5.1359533329 10.8032040131 0.00083072350008 0.000565385631902 2.39112613765e-05
Te 6.3213268381 1.2165401043 11.3053010002 -2.08259373279e-05 2.4939702726e-05 -0.000193346973711
Te -0.4672960542 5.1359524649 10.8032042867 -0.000876232029797 0.000574898714385 6.83913497435e-05
Te 0.393321508 -0.227084178 23.5112695893 0.00040160634699 -0.00021211602834 -0.00267523306046
Te 2.1071093679 3.6496197629 23.3111113754 4.65369710661e-05 7.19908944669e-06 -0.00284364033144
Te 3.8208962675 -0.2270833607 23.5112686732 -0.000450200200755 -0.000235255958704 -0.00259372908351
Te -2.1071091321 4.1037879603 23.5112682158 1.46552892308e-05 0.000423974946342 -0.00270402941824
Te -0.0008267959 2.4326033155 27.5636770866 3.39385645344e-05 1.23412961943e-05 -0.00480539220566
Te 2.1071078694 6.083652283 27.5636777074 -3.85665506072e-06 -1.92832753036e-05 -0.00480127844026
Te 4.2150435961 2.4326029645 27.5636766411 -1.31126272065e-05 1.54266202429e-06 -0.0048352170048
Te -2.1071084151 6.0826978503 27.5788557178 1.67121719298e-05 3.54812265587e-05 -0.00485527161111
Te -0.467303272 2.1632818838 20.2302536184 0.000293105784615 0.000145010230283 -0.000480282110229
Te 2.1071090504 6.6222954573 20.2302541424 8.79317353845e-05 -0.00049879405452 -0.000493137627098
Te 4.6815208737 2.1632815071 20.2302534794 -0.00033681454197 0.000233970407017 -0.00052039132286
Te -2.1071095619 6.082699517 19.7281456707 -2.36541510391e-05 -2.59681440755e-05 -0.000915827021753
Sb -0.0034932853 2.4310611364 9.3842067054 -0.000955679124048 -0.00050470759228 0.00270762896297
Sb 2.1071098487 6.0867339719 9.3842055042 -1.90261649662e-05 0.00107060744486 0.00271457094208
Sb 4.2177107688 2.4310632588 9.3842076436 0.000902200173872 -0.000552273004696 0.00267471883978
Sb -2.1071097177 6.0826986045 8.0357077316 -5.14220674763e-06 5.14220674763e-06 0.0053008438258
Sb 0.0003694462 2.4332917201 1.8867833524 -0.000126755396329 -7.09624531173e-05 -2.8282137112e-06
Sb 2.1071108554 6.0822736263 1.8867829975 1.59408409177e-05 0.00016789305031 1.28555168691e-06
Sb 4.2138480266 2.4332936818 1.8867830444 0.000123670072281 -7.12195634547e-05 -1.43981788934e-05
Sb -2.107110582 6.0827003704 1.8920213115 -2.54539234008e-05 7.97042045883e-06 -2.31399303643e-05
Sb -0.0667155606 0.0385186054 17.9160084023 0.000257110337382 -0.000258652999406 5.3221839838e-05
Sb 2.1071081522 3.6496203257 19.6537296887 4.65369710661e-05 0.000136268478812 -0.000964935096193
Sb 4.2809338265 0.0385187655 17.9160090865 -0.000241426606801 -0.000210573366316 5.37360605128e-05
Sb 6.3213277935 3.5725835708 17.9160090963 -1.38839582186e-05 0.000362782686045 7.58475495276e-05
Sb 0.0667185269 -0.0385201207 13.1174091947 -0.000639433409068 0.000366125120431 -0.00444929438839
Sb 2.1071095985 3.6496181604 11.3797417774 -2.95676887989e-05 2.51968130634e-05 -9.48737144938e-05
Sb 4.1474995282 -0.0385197676 13.117409591 0.000654860029311 0.000324473245776 -0.00452077106218
Sb -2.1071097882 3.726659727 13.1174085131 7.2762225479e-05 -0.000695997683292 -0.00446780633268
Sb 2.1071072891 1.2169651077 29.1466172179 8.22753079621e-06 -5.78498259109e-05 -0.000876489140134
Sb 4.2138490399 4.8659497182 29.1466170158 5.6564274224e-05 1.69692822672e-05 -0.000870061381699
Sb 6.3213300559 1.2165382767 29.1413827754 5.14220674763e-06 1.79977236167e-06 -0.000686484600809
Sb 0.0003698453 4.8659471752 29.146617054 -5.50216121997e-05 2.64823647503e-05 -0.000880602905532
Sb 2.1071070243 1.2125052069 21.6492677268 -5.78498259109e-05 -0.000102329914278 -0.000878546022833
Sb 4.2177114003 4.8681780054 21.6492649249 -1.79977236167e-05 6.63344670445e-05 -0.000962363992819
Sb 6.3213281189 1.2165395504 22.9977715396 7.48191081781e-05 1.4141068556e-05 -0.00208105107077
Sb -0.0034930288 4.8681773371 21.64926495 -8.87030663967e-05 4.13947643184e-05 -0.000976505061375
Cr 2.1071083968 3.6496198141 15.5167249198 1.92832753036e-05 4.70511917408e-05 -0.000698054565991
61
Lattice="8.42843558953 0 0 -4.21421779477 7.29923593142 0 0 0 31.0334408416" Properties=species:S:1:pos:R:3:forces:R:3 energy=-133601.231908 ionic_step=2 pbc="T T T"
Te 2.1071088523 1.2155792974 3.4697109542 -3.85665506072e-06 0.000109271893387 0.00438295992134
Te 4.2150505027 4.8666401055 3.4697121154 -0.000101044362591 -6.09351499594e-05 0.00438244570067
Te 6.3213266855 1.2165411774 3.4545045112 5.91353775978e-06 -7.19908944669e-06 0.00506764474979
Te -0.0008334265 4.8666406821 3.4697123773 0.000101815693603 -6.35062533333e-05 0.00438604524539
Te -0.3933554545 0.2271037001 7.5222240266 0.000138068251174 -7.35335564911e-05 0.00137734007735
Te 2.1071086672 3.6496193129 7.7222122805 1.43981788934e-05 -5.14220674763e-07 0.0034823024095
Te 4.6075733732 0.2271036844 7.5222250086 -0.000127269617004 -5.83640465856e-05 0.00137476897398
Te -2.1071079189 3.1954118858 7.5222245531 -8.48464113359e-06 0.000141153575223 0.00138942426321
Te -2.311e-07 -1.227e-07 -1.72051e-05 -4.62798607287e-06 6.17064809716e-06 0.00159742652615
Te 2.1071091233 3.6496198129 -1.54991e-05 -2.57110337382e-06 -1.28555168691e-06 0.00154266202429
Te 4.2142174373 -6.787e-07 -1.74794e-05 1.13128548448e-05 1.13128548448e-05 0.0015984549675
Te -2.107108945 3.6496209393 -1.72855e-05 5.14220674763e-07 -1.97974959784e-05 0.0015943412021
Te 0.521505776 2.7341714121 13.6680397538 0.00198746290796 0.00114645499438 0.00357409079994
Te 2.1071090155 5.4805154261 13.6680393223 -5.6564274224e-06 -0.00228725356135 0.00355969262105
Te 3.692712293 2.7341710004 13.6680400969 -0.00199029112167 0.00115134009079 0.00355300775228
Te -2.107108073 6.0826994746 14.8007989955 -2.05688269905e-06 -9.7701928205e-06 0.00325218865754
Te 2.1071090764 1.8187211617 17.3653632481 -2.31399303643e-06 0.00219983604664 -0.000444286662995
Te 3.6927139735 4.5650687755 17.3653629197 -0.00189824562089 -0.00107729231363 -0.000459456172901
Te 6.3213262922 1.216539865 16.2325900897 7.71331012145e-06 -1.05415238326e-05 0.00048799542035
Te 0.5215036284 4.5650684993 17.3653627202 0.00188539010402 -0.00109040494084 -0.000442229780296
Te 2.1071084435 0.6770002316 10.8032015693 2.57110337382e-06 -0.000742020433683 0.00348564484388
Te 4.6814725547 5.1359298487 10.8032017645 0.000626835002536 0.000354040934575 0.00348127396815
Te 6.3213265592 1.2165402126 11.3053033442 -1.02844134953e-06 1.02844134953e-06 0.00318636841117
Te -0.4672551986 5.1359285814 10.8032018147 -0.000635576754007 0.000373067099541 0.00348513062321
Te 0.3933712839 -0.2271129104 23.5112623167 -0.000870832712712 0.000496737171821 -0.00468223635406
Te 2.1071093837 3.6496199413 23.3112688171 1.54266202429e-06 8.22753079621e-06 -0.00643675729635
Te 3.8208463362 -0.2271115129 23.51126078 0.000864662064614 0.000488509641025 -0.00466860950618
Te -2.1071090592 4.1038453653 23.511260007 7.97042045883e-06 -0.000994245674655 -0.00466089619605
Te -0.0008342084 2.4325990429 27.5637121892 1.4141068556e-05 9.7701928205e-06 -0.00484550141829
Te 2.1071078215 6.0836601088 27.5637129222 -1.54266202429e-06 -8.74175147098e-06 -0.00485218628707
Te 4.21505065 2.4325988281 27.563711949 -1.10557445074e-05 1.54266202429e-06 -0.00484910096302
Te -2.1071085542 6.0826971379 27.5789198287 1.02844134953e-06 1.85119442915e-05 -0.00539083244388
Te -0.4672645016 2.1633044398 20.2302653431 -0.00084640723066 -0.000495451620134 -0.00434850713614
Te 2.1071091268 6.6222509063 20.2302658384 5.91353775978e-06 0.000964677985856 -0.00434027960534
Te 4.6814818521 2.163303729 20.2302650624 0.000842036354925 -0.000476682565506 -0.00433128074353
Te -2.107109822 6.0826990572 19.7281479645 -1.54266202429e-06 6.17064809716e-06 -0.00351624097403
Sb -0.0034942122 2.4310606428 9.384236393 -2.75108060998e-05 -1.20841858569e-05 0.00245308972896
Sb 2.1071094369 6.0867348185 9.3842350026 4.37087573549e-06 1.79977236167e-05 0.00247391566629
Sb 4.2177115304 2.4310626617 9.3842376884 3.93378816194e-05 -3.59954472334e-06 0.00246260281144
Sb -2.1071092024 6.0826978514 8.0357527911 -1.7483502942e-05 1.05415238326e-05 0.00155963130656
Sb 0.000362796 2.4332888315 1.8867719037 8.27895286369e-05 3.23959025101e-05 0.00390422047314
Sb 2.1071104305 6.0822806681 1.8867714587 4.88509641025e-06 -9.51308248312e-05 0.00390216359044
Sb 4.213854575 2.4332900619 1.8867709277 -8.84459560593e-05 4.62798607287e-05 0.0039142477763
Sb -2.1071099326 6.0826996466 1.8919689388 -5.91353775978e-06 -2.57110337382e-07 0.00408908280572
Sb -0.0666964174 0.0385077914 17.9160092389 8.40750803238e-05 -7.37906668285e-05 -0.000590582444966
Sb 2.1071084752 3.649620509 19.653807364 -9.25597214574e-06 2.13401580027e-05 -0.0048647846936
Sb 4.2809150367 0.0385084412 17.9160101358 -7.94470942509e-05 -6.99340117678e-05 -0.00059109666564
Sb 6.3213277112 3.572605539 17.9160100264 1.02844134953e-06 9.43594938191e-05 -0.000588011341592
Sb 0.0667007749 -0.0385099333 13.1174008842 0.000110814555411 -4.52514193792e-05 0.00308326716588
Sb 2.1071093416 3.649618055 11.3796728483 -1.13128548448e-05 -1.28555168691e-06 0.00477531029619
Sb 4.147517365 -0.0385098636 13.1174012556 -9.69305971929e-05 -6.53060256949e-05 0.00307992473149
Sb -2.107109638 3.7266395189 13.1173998999 1.46552892308e-05 0.000109786114062 0.00309432291039
Sb 2.1071078048 1.2169578856 29.1466167786 -1.54266202429e-06 0.00014038224421 -0.00164550615924
Sb 4.2138558729 4.8659533563 29.1466164987 -0.000125469844642 -7.07053427799e-05 -0.00163882129047
Sb 6.3213300888 1.2165385513 29.1414231838 -7.71331012145e-07 7.19908944669e-06 -0.00202885767228
Sb 0.0003632885 4.8659511739 29.1466168366 0.000125469844642 -7.01911221052e-05 -0.00164859148329
Sb 2.1071068963 1.2125041922 21.6492505271 6.42775843454e-06 -3.72809989203e-05 -0.00524865042731
Sb 4.2177125141 4.8681782586 21.6492465667 2.41683717139e-05 2.18543786774e-05 -0.00522885293133
Sb 6.3213277665 1.2165397974 22.9977460035 1.4141068556e-05 -2.31399303643e-06 -0.0043888734591
Sb -0.0034935234 4.8681778351 21.6492467671 -1.38839582186e-05 2.00546063158e-05 -0.00522525338661
Cr 2.1071081627 3.6496197726 15.5167239896 1.25984065317e-05 2.05688269905e-06 0.00121767455784
61
Lattice="8.42843558953 0 0 -4.21421779477 7.29923593142 0 0 0 31.0334408416" Properties=species:S:1:pos:R:3:forces:R:3 energy=-133601.231913 ionic_step=3 pbc="T T T"
Te 2.1071084803 1.2155680976 3.4696772143 8.22753079621e-06 2.77679164372e-05 0.00499693940701
Te 4.2150603736 4.8666459811 3.469678724 -2.69965854251e-05 -2.10830476653e-05 0.00499359697263
Te 6.3213269084 1.2165414886 3.4544289316 -2.31399303643e-06 -3.85665506072e-06 0.0058662294577
Te -0.0008436962 4.8666465113 3.4696789136 3.26530128475e-05 -1.69692822672e-05 0.00500413849646
Te -0.3934084333 0.2271344304 7.5222654346 0.000951565358649 -0.00055484410807 0.00325347420923
Te 2.107108936 3.6496187805 7.7219887273 -7.19908944669e-06 6.17064809716e-06 0.0060526344523
Te 4.6076263154 0.2271344381 7.5222668365 -0.000947194482914 -0.000552530115033 0.00324807489214
Te -2.1071078892 3.195350818 7.5222666873 -6.17064809716e-06 0.00109529003725 0.00322879161684
Te -4.046e-07 2.797e-07 -1.73109e-05 2.21114890148e-05 -2.18543786774e-05 -0.000837922589527
Te 2.1071091448 3.6496197386 -1.66482e-05 -7.71331012145e-07 4.11376539811e-06 -0.000834837265478
Te 4.2142174391 -3.736e-07 -1.76789e-05 -1.79977236167e-05 -2.03117166531e-05 -0.000837922589527
Te -2.1071090425 3.6496208843 -1.76516e-05 2.57110337382e-06 2.33970407017e-05 -0.000831237720755
Te 0.521425111 2.7341244907 13.6680363059 0.00250245491374 0.00143596123428 0.000335528990283
Te 2.1071092045 5.4806075815 13.6680358977 8.22753079621e-06 -0.00287552201328 0.000307503963508
Te 3.6927928148 2.734124499 13.6680362761 -0.00250862556183 0.00145241629587 0.000333214997247
Te -2.107108276 6.0826989813 14.8006841771 4.62798607287e-06 1.33697375438e-05 -0.000130869161727
Te 2.1071087664 1.818627481 17.3653715009 2.8282137112e-06 0.00308403849689 -0.00283181325592
Te 3.692794878 4.5651151324 17.3653708129 -0.0026783183845 -0.00153751981754 -0.00282487127681
Te 6.3213263215 1.2165400046 16.2326971989 0 -3.85665506072e-06 -0.00311977683379
Te 0.5214225536 4.5651150225 17.3653707557 0.00267111929506 -0.00154240491395 -0.00281458686332
Te 2.1071084412 0.6770534183 10.8031977409 -1.33697375438e-05 -0.00109657558893 0.0027119998387
Te 4.6814262347 5.1359030493 10.8031979685 0.000933053414358 0.000551501673684 0.00272305558321
Te 6.3213266669 1.2165406449 11.305312524 6.68486877192e-06 -1.72263926046e-05 0.00171364039865
Te -0.4672089822 5.1359014272 10.8031979678 -0.000946166041564 0.000557929432118 0.00271739915579
Te 0.3934194562 -0.2271403048 23.5112281441 -0.000439401566585 0.000234484627692 -0.00095645045506
Te 2.1071092857 3.6496203622 23.3115049794 5.14220674763e-06 -3.08532404858e-06 -0.00347381776836
Te 3.8207984432 -0.2271390758 23.511226301 0.000437858904561 0.000245026151525 -0.00095542201371
Te -2.1071088167 4.1039008136 23.5112249555 -8.48464113359e-06 -0.000527590412307 -0.000908113711632
Te -0.0008450558 2.4325924721 27.5637333446 0.000108757672712 6.81342394061e-05 -0.00444312374029
Te 2.1071079146 6.0836720435 27.5637341044 -1.28555168691e-06 -0.000119556306882 -0.00443952419557
Te 4.2150614283 2.4325924351 27.5637334884 -0.00010901478305 6.76200187314e-05 -0.00445469370547
Te -2.1071084592 6.0826965401 27.5789831912 -1.54266202429e-06 8.74175147098e-06 -0.00543762652528
Te -0.4672201611 2.1633302117 20.2302765806 -0.000742277544021 -0.000418575629257 -0.00232556300162
Te 2.1071090178 6.6221996807 20.2302774446 -7.45619978407e-06 0.000860291188879 -0.00232607722229
Te 4.6814370717 2.1633293031 20.2302764617 0.000740991992334 -0.000434259359838 -0.00232350611892
Te -2.107109752 6.0826990101 19.7281423932 1.36268478812e-05 4.62798607287e-06 -0.00162905109765
Sb -0.0034896746 2.4310634739 9.3842661065 9.53879351686e-05 3.7023888583e-05 0.00276033658213
Sb 2.1071092615 6.0867292721 9.3842642026 6.17064809716e-06 -7.97042045883e-05 0.00277164943697
Sb 4.2177069767 2.4310655685 9.3842673319 -9.17883904452e-05 5.3221839838e-05 0.00276727856124
Sb -2.1071086028 6.0826967555 8.035819121 -1.15699651822e-05 2.15972683401e-05 0.00270968584566
Sb 0.0003565175 2.4332863969 1.8867544447 0.000189233208313 9.64163765181e-05 0.00267214773641
Sb 2.1071097947 6.0822872354 1.8867538825 8.22753079621e-06 -0.000213915800702 0.00267086218472
Sb 4.2138607724 2.4332868349 1.8867532683 -0.00018949031865 0.000110043224399 0.00268140370855
Sb -2.1071092097 6.0826990811 1.8918921753 -1.10557445074e-05 1.79977236167e-06 0.00314034566078
Sb -0.0666761527 0.0384968335 17.9160160553 -0.000364068237732 0.000210316255978 -0.00148275531568
Sb 2.1071085028 3.6496203228 19.6538885154 -8.48464113359e-06 -6.9419791093e-06 -0.00289814772297
Sb 4.2808949331 0.0384980331 17.9160172017 0.000366382230769 0.000205174049231 -0.00147144246084
Sb 6.3213275381 3.5726285753 17.9160170446 1.079863417e-05 -0.000425260498029 -0.00146038671633
Sb 0.0666808007 -0.0384980184 13.1173915517 0.0002434834895 -0.000148352664669 -8.99886180836e-05
Sb 2.1071092579 3.6496175514 11.3795947309 9.25597214574e-06 1.79977236167e-05 0.00311592017873
Sb 4.1475377195 -0.038498141 13.1173921435 -0.000232941965668 -0.000147581333657 -8.8960176734e-05
Sb -2.1071093878 3.7266164672 13.1173904539 -4.62798607287e-06 0.000266880530202 -8.12468666126e-05
Sb 2.1071085816 1.2169513375 29.1466201392 -1.13128548448e-05 0.000219058007449 -0.0038489417506
Sb 4.2138621746 4.8659563033 29.1466198919 -0.00019643229776 -0.000102844134953 -0.00384662775757
Sb 6.3213297719 1.216539218 29.1414877254 3.59954472334e-06 -3.59954472334e-06 -0.00432202477139
Sb 0.0003571873 4.865954808 29.1466205928 0.000195146746073 -0.000112100107098 -0.00385356973668
Sb 2.1071069128 1.2125092643 21.6492324594 1.18270755196e-05 0.000102587024615 -0.00108089185835
Sb 4.2177085382 4.8681754016 21.6492275587 -9.51308248312e-05 -5.70784948987e-05 -0.00104541063179
Sb 6.3213275942 1.2165401519 22.9976934691 9.51308248312e-06 -5.14220674763e-06 -0.000795242273521
Sb -0.0034897218 4.8681759016 21.6492280466 0.000100530141916 -5.45073915249e-05 -0.00106983611384
Cr 2.107107932 3.6496195549 15.5167201158 4.11376539811e-06 -8.99886180836e-06 -0.000891401539702
61
Lattice="8.42843558953 0 0 -4.21421779477 7.29923593142 0 0 0 31.0334408416" Properties=species:S:1:pos:R:3:forces:R:3 energy=-133601.231917 ionic_step=4 pbc="T T T"
Te 2.1071079473 1.2155484374 3.4696263075 9.25597214574e-06 0.000212373138677 0.00400115107033
Te 4.2150775645 4.8666561018 3.4696281966 -0.000193089863374 -0.000112100107098 0.00399780863595
Te 6.3213271506 1.2165419003 3.4543256823 -4.37087573549e-06 -9.51308248312e-06 0.0049604297391
Te -0.0008614 4.8666565806 3.4696285136 0.000202860056194 -0.000110557445074 0.00400269373236
Te -0.3934798799 0.2271757852 7.5223367554 0.000391064823157 -0.000224200214197 -0.000989103467907
Te 2.1071093104 3.6496182089 7.7216613206 6.42775843454e-06 1.10557445074e-05 0.00186379283568
Te 4.6076977829 0.2271760863 7.5223388599 -0.000380266188987 -0.000228313979595 -0.00101095784658
Te -2.1071078305 3.1952682258 7.5223389815 -6.68486877192e-06 0.000445572214682 -0.00100401586748
Te -5.548e-07 8.072e-07 -2.30529e-05 3.34243438596e-06 -8.48464113359e-06 0.00216666881311
Te 2.1071092307 3.6496196064 -2.40135e-05 -3.34243438596e-06 -5.14220674763e-07 0.00219263695719
Te 4.2142173283 1.38e-08 -2.36104e-05 2.8282137112e-06 -3.34243438596e-06 0.00217155390953
Te -2.1071091622 3.6496209097 -2.38241e-05 1.28555168691e-06 -3.08532404858e-06 0.00217566767492
Te 0.5213488895 2.7340801802 13.6680313842 0.00177920353468 0.00103204089425 0.00254050724367
Te 2.1071092985 5.4806945023 13.6680309891 1.79977236167e-06 -0.00202808634127 0.00255002032615
Te 3.692868911 2.7340805857 13.6680306415 -0.00176377691444 0.00102252781177 0.00255541964324
Te -2.1071085023 6.0826983646 14.8004960296 -1.00273031579e-05 3.34243438596e-06 0.00376280978758
Te 2.1071084326 1.8185407895 17.3653723478 -4.11376539811e-06 0.00176223425241 0.00142104883471
Te 3.6928698492 4.5651580917 17.3653713992 -0.00153109205911 -0.000894743974088 0.00139019559422
Te 6.3213264641 1.2165401642 16.232858929 -2.05688269905e-06 -2.31399303643e-06 0.00122950163336
Te 0.5213474836 4.5651581575 17.3653716093 0.00152492141101 -0.000878288912496 0.00140356533177
Te 2.1071083759 0.6771162131 10.8031931506 -1.13128548448e-05 -0.000875203588447 0.00102998401155
Te 4.6813714933 5.1358712846 10.8031935922 0.000755390171227 0.000438630235573 0.00104258241808
Te 6.3213267823 1.2165411626 11.3053148834 4.11376539811e-06 -1.46552892308e-05 0.000599581306774
Te -0.4671541792 5.135869259 10.8031934399 -0.000752304847179 0.000430402704777 0.00104052553538
Te 0.3934864856 -0.2271785395 23.5111815763 -0.00124749935698 0.000718366282644 -0.00347638887174
Te 2.1071089973 3.6496209912 23.3118592227 -2.57110337382e-06 7.71331012145e-07 -0.00604363559049
Te 3.8207316865 -0.2271773786 23.5111792325 0.00124184292955 0.000709881641511 -0.00347561754072
Te -2.1071084316 4.1039780421 23.5111768703 2.57110337382e-07 -0.00142773370348 -0.00344810673463
Te -0.0008630676 2.4325816969 27.5637692545 7.6104659865e-05 5.34789501754e-05 -0.00395152877522
Te 2.1071080297 6.0836922649 27.563769931 -2.05688269905e-06 -8.02184252631e-05 -0.00395178588556
Te 4.2150794922 2.43258195 27.5637697902 -7.50762185154e-05 4.65369710661e-05 -0.00395847075433
Te -2.1071082981 6.0826958858 27.5790735437 -2.05688269905e-06 9.51308248312e-06 -0.0047740247445
Te -0.4671655542 2.1633620282 20.2302940887 -0.00104669618348 -0.00061372237533 -0.00264823647503
Te 2.1071088783 6.6221364566 20.2302953371 1.28555168691e-06 0.00123155851606 -0.0026549213438
Te 4.6813818389 2.1633609021 20.2302942653 0.00103229800459 -0.000623235457813 -0.00265157890942
Te -2.1071097421 6.0826987801 19.7281465421 6.42775843454e-06 1.67121719298e-05 -0.00143853233765
Sb -0.0034738989 2.4310727486 9.3843047251 -4.21660953306e-05 -2.57110337382e-05 -0.000527076191632
Sb 2.1071088315 6.0867104627 9.384302121 8.74175147098e-06 4.65369710661e-05 -0.000555872549419
Sb 4.2176913444 2.4310748609 9.3843056592 3.80523299325e-05 -2.21114890148e-05 -0.000549701901322
Sb -2.1071080019 6.0826953505 8.0359307729 -9.51308248312e-06 1.02844134953e-05 -0.0014202775037
Sb 0.0003535435 2.4332863912 1.8867225978 7.07053427799e-05 4.4480088367e-05 0.00475525568987
Sb 2.1071090644 6.0822898379 1.886722031 -4.11376539811e-06 -7.71331012145e-05 0.0047567983519
Sb 4.2138636326 2.4332858435 1.8867212444 -6.81342394061e-05 3.93378816194e-05 0.00476065500696
Sb -2.1071083462 6.0826983872 1.891778272 -5.91353775978e-06 7.71331012145e-06 0.00500465271713
Sb -0.0666542043 0.0384848002 17.9160280637 -0.000110043224399 7.53333288528e-05 0.00137682585668
Sb 2.1071085364 3.6496201739 19.6539791804 -2.05688269905e-06 -3.85665506072e-06 -0.00218723764011
Sb 4.2808731179 0.0384867975 17.9160294208 0.000109786114062 5.93924879352e-05 0.00137168364993
Sb 6.3213272878 3.5726537554 17.916029466 7.71331012145e-07 -0.000137554030499 0.00137913984972
Sb 0.0666586776 -0.038484892 13.1173678214 0.000309046625533 -0.000194632525398 0.00157017283039
Sb 2.1071091315 3.6496168389 11.3795116958 -8.48464113359e-06 -3.59954472334e-06 0.00162956531832
Sb 4.1475601612 -0.0384852979 13.1173688375 -0.000315988604642 -0.000189233208313 0.00157171549241
Sb -2.1071092118 3.7265910368 13.117366393 -2.31399303643e-06 0.000368953334143 0.00158302834726
Sb 2.1071095361 1.2169484829 29.1466236438 -9.7701928205e-06 0.000125469844642 -0.00127063928734
Sb 4.2138654006 4.8659571776 29.1466234999 -0.000117242313846 -5.57929432118e-05 -0.00127295328038
Sb 6.3213293765 1.2165399383 29.1415781881 1.28555168691e-06 -2.31399303643e-06 -0.00181519898191
Sb 0.0003542797 4.8659565381 29.1466247178 0.000115699651822 -6.60773567071e-05 -0.00127989525949
Sb 2.1071070062 1.2125284779 21.6492215837 -2.31399303643e-06 -0.000203374276869 -0.00344810673463
Sb 4.2176924003 4.8681653583 21.6492150335 0.000165321946936 0.000102844134953 -0.00344322163821
Sb 6.3213274127 1.2165406235 22.9976169718 -1.79977236167e-06 -1.67121719298e-05 -0.00283207036626
Sb -0.0034737023 4.8681671119 21.6492161377 -0.000162236622888 0.000108243452038 -0.00343499410742
Cr 2.1071077809 3.6496191798 15.5167146785 6.42775843454e-06 -1.28555168691e-06 0.00168741514424
61
Lattice="8.42843558953 0 0 -4.21421779477 7.29923593142 0 0 0 31.0334408416" Properties=species:S:1:pos:R:3:forces:R:3 energy=-133601.231921 ionic_step=5 pbc="T T T"
Te 2.107107248 1.2155162651 3.4695422698 6.42775843454e-06 4.62798607287e-05 0.00188873253841
Te 4.215105639 4.8666725878 3.4695450276 -3.80523299325e-05 -2.85392474494e-05 0.00188564721436
Te 6.3213274928 1.2165423841 3.454180373 -4.62798607287e-06 5.14220674763e-07 0.0017380658807
Te -0.0008901069 4.8666729884 3.4695459343 4.31945366801e-05 -2.54539234008e-05 0.00188281900065
Te -0.3935718867 0.2272288034 7.5224386894 1.02844134953e-05 -4.37087573549e-06 0.00177097600388
Te 2.1071096349 3.6496173394 7.7211861278 3.85665506072e-06 -7.71331012145e-07 0.0022463730177
Te 4.6077898182 0.2272297188 7.5224416634 -1.15699651822e-05 -4.62798607287e-06 0.00177123311422
Te -2.1071078036 3.1951616022 7.5224422733 -3.34243438596e-06 1.38839582186e-05 0.00177071889355
Te -7.206e-07 1.5102e-06 -2.79657e-05 2.4939702726e-05 -1.77406132793e-05 -0.000482338992928
Te 2.1071093996 3.6496194622 -3.14473e-05 -1.28555168691e-06 -2.05688269905e-06 -0.000431174035789
Te 4.2142170857 5.122e-07 -2.88713e-05 -1.7483502942e-05 -1.31126272065e-05 -0.000482338992928
Te -2.1071093236 3.649620993 -2.94671e-05 1.02844134953e-06 1.82548339541e-05 -0.000475397013819
Te 0.5212951206 2.7340486194 13.6680364601 -0.000269451633576 -0.000141153575223 -0.0016789305031
Te 2.1071094556 5.4807552473 13.6680359128 -8.22753079621e-06 0.000303133087773 -0.00166478943455
Te 3.6929224938 2.7340494984 13.6680349441 0.000266366309527 -0.000150409547368 -0.001672759855
Te -2.1071088165 6.0826975047 14.8002150417 6.42775843454e-06 -5.14220674763e-06 -0.000922254780188
Te 2.1071080743 1.8184816874 17.3653741235 7.71331012145e-06 -0.000123412961943 -0.000408034105425
Te 3.6929208612 4.5651873998 17.3653731181 0.000120327637895 6.04209292847e-05 -0.000405977222726
Te 6.3213265992 1.2165404539 16.2331162549 -1.02844134953e-06 4.37087573549e-06 -0.0012572695498
Te 0.5212962298 4.5651878607 17.3653736661 -0.000120841858569 6.47918050202e-05 -0.000416261636221
Te 2.1071082866 0.6771857949 10.8031856973 3.08532404858e-06 -0.000856691644156 4.42229780296e-05
Te 4.6813104521 5.1358358533 10.8031863215 0.000754618840215 0.00042423205668 4.19089849932e-05
Te 6.3213269557 1.216541847 11.3052949852 -3.08532404858e-06 7.45619978407e-06 -0.000670029539217
Te -0.4670931046 5.1358333979 10.8031861947 -0.000748191081781 0.000425517608367 4.03663229689e-05
Te 0.3935703964 -0.2272264819 23.5111044625 0.000536846384453 -0.000316245714979 0.000259681440755
Te 2.1071086856 3.6496218238 23.3123649471 -2.31399303643e-06 2.57110337382e-07 -0.00039183615417
Te 3.8206481498 -0.227225192 23.5111015354 -0.000532989729392 -0.000310589287557 0.000262252544129
Te -2.1071079534 4.104074629 23.5110975826 -2.57110337382e-07 0.000616036368366 0.000268680302564
Te -0.0008933296 2.4325637932 27.56382471 0.000124441403293 8.51035216733e-05 -0.00152080764561
Te 2.1071081758 6.0837265355 27.5638254745 -7.97042045883e-06 -0.000142953347584 -0.00152517852135
Te 4.2151098157 2.4325644057 27.5638254753 -0.000123927182618 7.32764461538e-05 -0.00151617965954
Te -2.107107931 6.0826951188 27.5791911257 5.14220674763e-06 -1.79977236167e-06 -0.00162468022191
Te -0.4671063997 2.163396624 20.2303171835 -0.000511906681727 -0.000292848674278 -8.09897562752e-05
Te 2.1071087459 6.6220678854 20.2303189587 2.57110337382e-07 0.000589296893279 -8.07326459378e-05
Te 4.6813218877 2.1633951348 20.230317828 0.000508050026666 -0.000284106922807 -7.58475495276e-05
Te -2.1071097336 6.082698647 19.7281744915 -7.97042045883e-06 -2.31399303643e-06 0.000412662091498
Sb -0.0034320059 2.4310970475 9.3843410003 -0.000680313952712 -0.000384122844048 0.00138325361511
Sb 2.1071082907 6.086661244 9.3843375723 -4.11376539811e-06 0.000778015880917 0.00138685315984
Sb 4.2176495682 2.4310995535 9.3843420133 0.000675171745964 -0.00038592261641 0.00138299650478
Sb -2.1071071684 6.0826936668 8.0360997073 2.57110337382e-06 -2.57110337382e-06 0.00140227978008
Sb 0.0003583183 2.4332912619 1.8866721552 -0.000187176325614 -0.000102072803941 0.00167635939973
Sb 2.1071082748 6.0822833981 1.8866718978 -5.14220674763e-06 0.000208773593954 0.00168073027546
Sb 4.213858635 2.4332896362 1.8866709831 0.000188718987638 -0.000107729231363 0.00167070297231
Sb -2.1071074753 6.0826977095 1.8916171271 6.17064809716e-06 -8.74175147098e-06 0.00194478259195
Sb -0.0666299863 0.0384714099 17.9160595266 -0.000112614327773 6.11922602968e-05 -8.38179699864e-05
Sb 2.1071084595 3.649620026 19.6540659946 7.97042045883e-06 -7.19908944669e-06 0.000404177450364
Sb 4.2808489057 0.0384743779 17.9160613739 0.000111071665749 6.04209292847e-05 -8.51035216733e-05
Sb 6.3213268875 3.5726817418 17.9160616523 -1.54266202429e-06 -0.000126498285992 -8.53606320107e-05
Sb 0.0666328318 -0.0384696545 13.1173297617 8.66461836976e-05 -4.08805436437e-05 -0.00146167226801
Sb 2.1071090186 3.6496158785 11.3794343519 -2.31399303643e-06 1.28555168691e-06 -0.00071091008286
Sb 4.1475864746 -0.038470521 13.1173314384 -7.89328735762e-05 -4.47371987044e-05 -0.00146398626105
Sb -2.1071088349 3.7265614595 13.1173276826 6.68486877192e-06 8.61319630228e-05 -0.00146372915071
Sb 2.1071106324 1.2169546727 29.1466388659 1.00273031579e-05 -0.000237312841403 -0.00251608176162
Sb 4.2138608041 4.8659534606 29.146639079 0.000215458462726 0.000104386796977 -0.00251428198925
Sb 6.3213290677 1.2165406257 29.1417114946 -1.56837305803e-05 1.33697375438e-05 -0.00282898504221
Sb 0.0003593649 4.8659536235 29.1466407534 -0.000216744014413 0.000117499424183 -0.00250913978251
Sb 2.1071070755 1.2125787224 21.6492143345 6.42775843454e-06 -0.00085232076842 -2.26257096896e-05
Sb 4.2176497361 4.8681399928 21.6492058617 0.000740991992334 0.00042423205668 -1.28555168691e-05
Sb 6.3213272491 1.2165412604 22.997487542 -5.39931708501e-06 7.97042045883e-06 0.000190261649662
Sb -0.0034310501 4.8681432288 21.6492072867 -0.000744077316382 0.00041831851892 -2.57110337382e-06
Cr 2.1071075896 3.6496184045 15.5167103655 -1.28555168691e-06 -6.17064809716e-06 -0.00055381566672
61
Lattice="8.42843558953 0 0 -4.21421779477 7.29923593142 0 0 0 31.0334408416" Properties=species:S:1:pos:R:3:forces:R:3 energy=-133601.231923 ionic_step=6 pbc="T T T"
Te 2.1071067539 1.2154833093 3.4694630759 -2.8282137112e-06 0.000202345835519 0.00162956531832
Te 4.2151343484 4.8666893079 3.4694665657 -0.00017869168448 -9.95017005667e-05 0.00163162220102
Te 6.3213277088 1.2165426652 3.4540684858 3.08532404858e-06 -3.85665506072e-06 0.00170618419886
Te -0.0009192327 4.8666897559 3.4694682306 0.000178177463805 -0.000100273031579 0.00163162220102
Te -0.3936356113 0.227265444 7.5225358936 0.000701397000377 -0.000410605208798 -0.000659230905046
Te 2.1071097526 3.6496167217 7.7207886736 -2.8282137112e-06 7.45619978407e-06 -0.000688541483508
Te 4.6078536531 0.2272669836 7.522539388 -0.000698568786666 -0.000410862319136 -0.000664373111794
Te -2.107107867 3.1950873369 7.5225404489 2.31399303643e-06 0.000812468666126 -0.000665401553144
Te -7.028e-07 2.0139e-06 -3.70019e-05 -4.03663229689e-05 2.08259373279e-05 0.000866461836976
Te 2.1071095888 3.6496193101 -4.24117e-05 7.71331012145e-07 1.79977236167e-06 0.000848721223697
Te 4.2142167439 8.95e-07 -3.81529e-05 4.08805436437e-05 2.21114890148e-05 0.000866718947313
Te -2.1071094849 3.6496211112 -3.91234e-05 -1.79977236167e-06 -4.52514193792e-05 0.000865947616301
Te 0.5213001698 2.734051281 13.6680422894 0.000179977236167 9.64163765181e-05 0.00140639354548
Te 2.1071095871 5.4807486876 13.668041445 4.62798607287e-06 -0.000199003401133 0.00140665065581
Te 3.6929172382 2.7340523672 13.6680403056 -0.000177920353468 0.00010310124529 0.00140716487649
Te -2.1071090532 6.082696987 14.7999555269 -1.54266202429e-06 5.39931708501e-06 0.000855148982131
Te 2.1071078428 1.8184916872 17.3653697884 -1.28555168691e-06 0.000178177463805 4.75654124156e-05
Te 3.6929120734 4.5651822773 17.3653687968 -0.000163265064237 -8.58748526855e-05 4.39658676923e-05
Te 6.3213266351 1.2165409568 16.2333451767 1.54266202429e-06 -8.48464113359e-06 0.000524247977921
Te 0.5213047244 4.5651834411 17.3653696171 0.000162236622888 -8.71604043724e-05 4.49943090418e-05
Te 2.1071082697 0.6772190213 10.8031784084 -7.19908944669e-06 -8.27895286369e-05 -0.000374866871902
Te 4.6812808611 5.1358186059 10.8031791489 6.4020474008e-05 4.83367434277e-05 -0.00037512398224
Te 6.321327134 1.2165421753 11.3052413476 4.88509641025e-06 -6.17064809716e-06 0.00072762225479
Te -0.467063518 5.1358158314 10.8031790717 -6.7362908394e-05 4.29374263427e-05 -0.000377695085614
Te 0.3936299742 -0.2272607446 23.5110402621 -0.00107806364464 0.000627863443886 -0.00160976782235
Te 2.1071083815 3.6496225683 23.3127968729 1.28555168691e-06 -3.85665506072e-06 -0.00171389750899
Te 3.8205887917 -0.227259245 23.5110369897 0.00107754942397 0.000628634774898 -0.00161439580842
Te -2.1071076687 4.1041433277 23.5110317363 -1.54266202429e-06 -0.00124724224664 -0.00161233892572
Te -0.0009236918 2.4325460018 27.5638782979 0.000168407270985 9.64163765181e-05 -0.00132103291347
Te 2.1071083596 6.0837614921 27.5638790018 1.79977236167e-06 -0.000196946518434 -0.00132206135482
Te 4.2151405163 2.432546788 27.5638790434 -0.000169435712334 9.71877075303e-05 -0.00132026158245
Te -2.107107535 6.0826947805 27.5792796414 1.28555168691e-06 2.05688269905e-06 -0.00132026158245
Te -0.467075083 2.1634151398 20.2303383005 -0.000103615465965 -7.01911221052e-05 0.000168407270985
Te 2.1071086897 6.6220315563 20.2303404206 -5.14220674763e-07 0.000128812279028 0.000166350388286
Te 4.6812899564 2.1634133021 20.2303392752 0.000105415238326 -7.17337841295e-05 0.000172521036383
Te -2.1071096468 6.0826985449 19.728234981 2.57110337382e-07 9.7701928205e-06 -0.000550216121997
Sb -0.0033704744 2.4311323298 9.3843574628 0.000709110310499 0.000405463002051 -0.0012806665905
Sb 2.107107986 6.0865896842 9.384353445 4.62798607287e-06 -0.000817867983211 -0.00127938103881
Sb 4.2175882649 2.431135211 9.3843585009 -0.000707567648474 0.000409062546774 -0.00127886681814
Sb -2.1071066446 6.0826927968 8.0362645234 -3.08532404858e-06 1.54266202429e-06 -0.000876489140134
Sb 0.0003723743 2.4333008818 1.886627036 0.000458684841889 0.00026508075784 0.00143416146191
Sb 2.1071077637 6.0822666673 1.8866271311 -5.14220674763e-07 -0.000530675736356 0.00143493279293
Sb 4.2138444663 2.433298499 1.8866261884 -0.000459713283238 0.000265852088853 0.00143081902753
Sb -2.1071069545 6.0826974047 1.8914822961 -5.14220674763e-07 -2.31399303643e-06 0.00171184062629
Sb -0.0666130254 0.0384617828 17.9160955871 -0.000294648446639 0.000170978374359 -0.00022779975892
Sb 2.1071083697 3.6496200038 19.6540947364 -5.14220674763e-07 -1.02844134953e-06 0.00012469851363
Sb 4.2808319968 0.0384652581 17.916097673 0.000295419777651 0.000168664381322 -0.00022882820027
Sb 6.3213265305 3.5727013459 17.9160982362 2.31399303643e-06 -0.000341185417705 -0.00022882820027
Sb 0.0666138345 -0.0384587683 13.1172841406 0.000298247991363 -0.000176120581106 0.0016197951255
Sb 2.1071088857 3.6496152774 11.3794082707 1.54266202429e-06 4.62798607287e-06 0.00029259156394
Sb 4.1476056707 -0.0384597963 13.1172863155 -0.0002985051017 -0.00017380658807 0.0016239088909
Sb -2.1071086317 3.726539893 13.1172815033 -3.59954472334e-06 0.00034761317614 0.00162056645652
Sb 2.1071112535 1.216971763 29.1466514134 7.71331012145e-07 0.000593924879352 0.000159408409177
Sb 4.2138463303 4.8659443296 29.1466520061 -0.000516020447125 -0.000299019322375 0.000162493733225
Sb 6.3213287788 1.2165410013 29.1418183975 5.14220674763e-07 1.54266202429e-06 -8.8960176734e-05
Sb 0.0003740613 4.8659448935 29.1466538785 0.000515249116113 -0.000298247991363 0.000158894188502
Sb 2.1071070667 1.2126526663 21.6492286187 2.31399303643e-06 0.00107369276891 -0.000661544898083
Sb 4.217586466 4.8681030375 21.6492188907 -0.00093382474537 -0.000535303722429 -0.00066283044977
Sb 6.3213272478 1.2165416246 22.997366566 -2.31399303643e-06 -3.34243438596e-06 -0.00140742198683
Sb -0.0033676681 4.8681071912 21.649220326 0.000935367407394 -0.000533246839729 -0.000664373111794
Cr 2.1071076493 3.6496178181 15.5167079631 1.02844134953e-06 5.14220674763e-07 0.000505478923292
61
Lattice="8.42843558953 0 0 -4.21421779477 7.29923593142 0 0 0 31.0334408416" Properties=species:S:1:pos:R:3:forces:R:3 energy=-133601.231927 ionic_step=7 pbc="T T T"
Te 2.1071064977 1.2154467466 3.4693790151 -7.71331012145e-07 -2.08259373279e-05 0.00170258465414
Te 4.2151661476 4.8667077823 3.46938316 1.92832753036e-05 9.7701928205e-06 0.00170181332313
Te 6.3213277859 1.2165426238 3.4539804502 -2.57110337382e-07 2.8282137112e-06 0.00188050500761
Te -0.0009511102 4.8667082956 3.4693859072 -1.87690546289e-05 8.48464113359e-06 0.00170901241258
Te -0.3936695033 0.2272846609 7.5226275367 -0.000299276432712 0.000174063698407 0.00414024776286
Te 2.107109897 3.6496162819 7.7204212682 -5.14220674763e-07 -7.71331012145e-07 0.00387876654974
Te 4.6078877973 0.2272869434 7.5226312285 0.000295676887989 0.000172263926046 0.0041433330869
Te -2.1071080182 3.1950470108 7.5226326555 -5.14220674763e-07 -0.000340671197031 0.00414718974197
Te -3.526e-07 2.281e-06 -4.62709e-05 1.90261649662e-05 -5.14220674763e-06 -0.00111200220918
Te 2.1071097786 3.6496191908 -5.31394e-05 2.05688269905e-06 -7.19908944669e-06 -0.0011238292847
Te 4.2142161763 1.1256e-06 -4.76181e-05 -1.87690546289e-05 -2.57110337382e-06 -0.00111328776086
Te -2.1071096782 3.6496213288 -4.89912e-05 -2.31399303643e-06 1.36268478812e-05 -0.00111894418828
Te 0.5213697519 2.7340914466 13.6680564627 -0.000511649571389 -0.000278193385047 -0.00218003855066
Te 2.1071097407 5.4806682764 13.6680551715 -7.97042045883e-06 0.000576698486747 -0.00218158121268
Te 3.6928475374 2.7340923757 13.6680544189 0.000511649571389 -0.000286420915843 -0.00218055277133
Te -2.1071091549 6.0826967163 14.799704575 5.91353775978e-06 -1.36268478812e-05 -0.000775958998218
Te 2.1071076549 1.8185764034 17.3653696687 2.31399303643e-06 -0.000663858891119 0.00114465522202
Te 3.6928385906 4.5651401277 17.3653689643 0.000585440238218 0.000332700776572 0.00114696921506
Te 6.3213266886 1.2165414728 16.2335809046 -2.05688269905e-06 7.19908944669e-06 0.000272794067962
Te 0.5213778726 4.5651421044 17.3653699727 -0.000586468679567 0.000335271879946 0.00114465522202
Te 2.10710838 0.6772101281 10.8031681305 6.17064809716e-06 0.00019051876 0.00242352204016
Te 4.6812875694 5.1358224859 10.803168854 -0.00015812285749 -0.000106700790013 0.00242712158488
Te 6.3213272679 1.2165419881 11.3051362728 -4.88509641025e-06 1.05415238326e-05 0.00094462337954
Te -0.4670702503 5.1358195567 10.8031688191 0.00016197951255 -0.000102844134953 0.00242943557792
Te 0.3936591607 -0.2272778735 23.5109716096 0.000725051151416 -0.000422175173981 -0.00144521720642
Te 2.1071081345 3.6496232862 23.3131852825 7.71331012145e-07 3.08532404858e-06 -0.00115571096653
Te 3.8205595874 -0.2272758811 23.5109685097 -0.000724536930741 -0.000422175173981 -0.00144598853743
Te -2.1071075709 4.104177257 23.5109621095 -7.71331012145e-07 0.000836122817165 -0.00144933097182
Te -0.0009570461 2.432526674 27.5639326685 2.62252544129e-05 2.08259373279e-05 -0.00257521713921
Te 2.1071085132 6.0838005 27.5639330727 7.71331012145e-07 -3.34243438596e-05 -0.002582673339
Te 4.2151744817 2.4325274549 27.5639328826 -2.46825923886e-05 2.08259373279e-05 -0.00257418869786
Te -2.1071070738 6.0826949264 27.5793405119 -1.54266202429e-06 -3.59954472334e-06 -0.00288940597149
Te -0.4670789868 2.1634132428 20.2303546659 0.000278964716059 0.00017483502942 -0.00218209543336
Te 2.1071088108 6.6220358552 20.2303568871 -2.57110337382e-07 -0.000334243438596 -0.00218286676437
Te 4.6812933724 2.1634112237 20.2303558034 -0.000277679164372 0.000174577919082 -0.00218312387471
Te -2.1071095876 6.0826986228 19.7283439202 2.57110337382e-07 -1.43981788934e-05 -0.00123104429538
Sb -0.003269349 2.4311901123 9.3843400955 -0.000428602932415 -0.000234998848367 0.0043083979235
Sb 2.1071079231 6.0864726188 9.3843358309 -5.91353775978e-06 0.000487224089338 0.00430814081317
Sb 4.2174873344 2.4311934722 9.3843412872 0.000428860042753 -0.000242455048151 0.00430814081317
Sb -2.1071064653 6.0826928083 8.0364379067 4.88509641025e-06 -4.62798607287e-06 0.00421995196744
Sb 0.0003996584 2.4333174279 1.8865834049 0.000127012506667 6.99340117678e-05 0.0013233469065
Sb 2.1071076291 6.0822351328 1.8865842468 3.85665506072e-06 -0.000145524450958 0.00132874622359
Sb 4.2138171511 2.4333147756 1.8865833233 -0.000126498285992 7.53333288528e-05 0.00132463245819
Sb -2.1071069565 6.0826975689 1.8913659542 -4.37087573549e-06 2.57110337382e-06 0.00140459377312
Sb -0.0665958023 0.0384515064 17.9161485105 0.000105415238326 -6.86484600809e-05 4.93651847773e-05
Sb 2.1071081776 3.6496201154 19.6540572033 -0 5.91353775978e-06 -0.00164216372486
Sb 4.2808147267 0.0384550728 17.9161507496 -0.000105672348664 -6.91626807557e-05 4.70511917408e-05
Sb 6.3213262428 3.5727215004 17.9161516502 -0 0.000130354941052 4.9879405452e-05
Sb 0.0665934129 -0.0384475167 13.1172334775 3.83094402699e-05 -2.33970407017e-05 -0.00114954031843
Sb 2.1071087115 3.6496149654 11.3794427612 -3.08532404858e-06 3.85665506072e-06 0.00126961084599
Sb 4.147625969 -0.0384484368 13.1172360213 -3.83094402699e-05 -2.69965854251e-05 -0.00115108298046
Sb -2.1071085539 3.726516783 13.1172302734 2.57110337382e-06 4.62798607287e-05 -0.00115262564248
Sb 2.1071113174 1.2170043628 29.1466753724 -1.28555168691e-06 0.000123927182618 -0.0035270396082
Sb 4.2138179458 4.8659275368 29.1466765664 -9.71877075303e-05 -6.78771290688e-05 -0.00352575405651
Sb 6.3213285756 1.2165409426 29.1419194101 2.57110337382e-07 1.20841858569e-05 -0.00358437521344
Sb 0.0004024394 4.8659279564 29.1466782776 9.74448178676e-05 -6.89055704183e-05 -0.00352832515989
Sb 2.1071069452 1.2127730588 21.6492628493 -1.28555168691e-06 -0.000688798593845 -0.00212475982812
Sb 4.2174828629 4.8680434163 21.64925268 0.000602152410148 0.00034169963838 -0.00212758804183
Sb 6.3213274322 1.2165417023 22.9972265406 5.14220674763e-07 5.39931708501e-06 -0.0014732422332
Sb -0.0032637656 4.8680477044 21.6492536423 -0.000602409520485 0.000340928307368 -0.00212707382116
Cr 2.1071078324 3.6496172527 15.5167075483 -2.31399303643e-06 5.6564274224e-06 -8.81888457219e-05
61
Lattice="8.42843558953 0 0 -4.21421779477 7.29923593142 0 0 0 31.0334408416" Properties=species:S:1:pos:R:3:forces:R:3 energy=-133601.23193 ionic_step=8 pbc="T T T"
Te 2.1071065606 1.2154051614 3.4692858417 -2.57110337382e-06 0.000278964716059 0.00293979959762
Te 4.215202332 4.8667287231 3.4692904541 -0.000246311703212 -0.00013652558915 0.00294211359066
Te 6.3213277309 1.2165424395 3.4539081938 2.31399303643e-06 -2.31399303643e-06 0.00310075066882
Te -0.0009870527 4.8667294233 3.4692942439 0.000245283261862 -0.000138839582186 0.00294314203201
Te -0.3936762346 0.2272880814 7.5227244127 0.000558186542456 -0.000323959025101 -0.001608739381
Te 2.1071096895 3.6496159855 7.7200624874 -2.8282137112e-06 3.59954472334e-06 -0.00147607044691
Te 4.6078948395 0.227291332 7.5227277545 -0.000558443652793 -0.000325244576788 -0.0016107962637
Te -2.1071083981 3.1950376032 7.5227296089 2.05688269905e-06 0.000653831587961 -0.00163033664934
Te 8.047e-07 1.9847e-06 -6.18371e-05 -3.31672335222e-05 1.77406132793e-05 0.00177560398996
Te 2.1071099165 3.6496190425 -6.94031e-05 -2.57110337382e-07 -7.71331012145e-07 0.0018013150237
Te 4.2142151258 9.858e-07 -6.33274e-05 3.18816818353e-05 1.6197951255e-05 0.00177560398996
Te -2.1071098558 3.6496220683 -6.50255e-05 1.28555168691e-06 -3.39385645344e-05 0.00177586110029
Te 0.5214587115 2.7341431527 13.6680691727 0.000639433409068 0.000364068237732 0.00217772455762
Te 2.1071098099 5.4805658925 13.6680675334 3.34243438596e-06 -0.000726850923778 0.00217746744729
Te 3.6927583623 2.7341435047 13.6680677138 -0.000640461850418 0.000369467554817 0.00217952432998
Te -2.1071091819 6.0826966315 14.7994490206 -2.8282137112e-06 2.05688269905e-06 0.00140125133873
Te 2.1071076681 1.8186836216 17.365376186 -3.59954472334e-06 0.000712709855222 0.000827638176031
Te 3.6927456978 4.5650867988 17.3653759857 -0.000627606333549 -0.000354812265587 0.000823524410633
Te 6.32132665 1.21654211 16.2338259166 7.71331012145e-07 -5.6564274224e-06 0.00181159943719
Te 0.521470619 4.5650896277 17.3653769073 0.000628377664561 -0.000357897589635 0.000825067072658
Te 2.1071086861 0.6771623095 10.8031586062 -4.37087573549e-06 -3.00819094737e-05 -0.000565128521565
Te 4.6813279356 5.1358458349 10.8031591108 2.13401580027e-05 1.97974959784e-05 -0.000566671183589
Te 6.3213273387 1.2165413 11.3049600516 2.31399303643e-06 -7.97042045883e-06 0.000514992005775
Te -0.4671105627 5.1358430951 10.8031591081 -2.44254820513e-05 1.67121719298e-05 -0.000567185404264
Te 0.3936652263 -0.2272820238 23.5109012415 -0.00126138331519 0.000734564233899 -0.00283901234537
Te 2.1071078671 3.6496239592 23.3135665733 3.34243438596e-06 -5.14220674763e-06 -0.00285521029662
Te 3.8205532777 -0.2272792726 23.5108987588 0.00125958354283 0.000731736020188 -0.00283875523503
Te -2.1071076378 4.1041849073 23.5108914868 -7.71331012145e-07 -0.00145987249565 -0.00283078481457
Te -0.0009946116 2.4325049809 27.5639926555 0.000208002262942 0.000116213872496 -0.00254822055379
Te 2.1071087927 6.0838450543 27.5639926074 -7.71331012145e-07 -0.000242197937813 -0.00255002032615
Te 4.2152130946 2.4325055622 27.5639923936 -0.000210316255978 0.000117499424183 -0.00254384967805
Te -2.1071065751 6.0826955806 27.5793823311 -2.8282137112e-06 -1.28555168691e-06 -0.00257367447719
Te -0.4671129796 2.163393935 20.2303668911 -0.00026122410278 -0.000156837305803 6.22207016464e-05
Te 2.1071091577 6.6220751378 20.2303688334 2.05688269905e-06 0.000304161529122 5.52787225371e-05
Te 4.6813270532 2.1633919441 20.2303679615 0.000263795206154 -0.00015220931973 6.32491429959e-05
Te -2.1071094511 6.0826988184 19.7285232088 -2.05688269905e-06 2.8282137112e-06 -0.000217772455762
Sb -0.0031216814 2.4312743866 9.3842964036 0.000730450468501 0.000416518746558 -0.00200803173495
Sb 2.1071082396 6.0863019832 9.3842924854 3.08532404858e-06 -0.000835351486153 -0.00200211819719
Sb 4.2173400476 2.4312780439 9.3842978188 -0.000729679137489 0.000419604070607 -0.00200417507989
Sb -2.1071066784 6.082693881 8.0366345943 -4.11376539811e-06 2.8282137112e-06 -0.00153623426586
Sb 0.000433684 2.4333371874 1.886540451 0.000468455034709 0.000261481213117 0.00376075290488
Sb 2.1071077104 6.0821961605 1.8865422046 4.11376539811e-06 -0.000535303722429 0.00375946735319
Sb 4.2137831562 2.4333345355 1.8865413345 -0.000468197924372 0.00026610919919 0.00376049579454
Sb -2.1071073732 6.082698016 1.8912584251 -3.34243438596e-06 6.42775843454e-06 0.00412507825295
Sb -0.0665611311 0.0384307598 17.9162142143 -0.000657688243022 0.000377695085614 0.000848207003022
Sb 2.1071079899 3.6496202971 19.6539735178 -2.57110337382e-07 -1.79977236167e-06 0.000149381106019
Sb 4.2807798653 0.0384340435 17.9162163889 0.000657174022347 0.000375381092577 0.00084743567201
Sb 6.3213258861 3.5727620249 17.9162177036 5.14220674763e-07 -0.000756418612577 0.000848978334034
Sb 0.0665537785 -0.0384253141 13.117175139 0.000620150133764 -0.000363039796383 0.00174372230812
Sb 2.107108501 3.6496151227 11.3795163024 1.54266202429e-06 5.14220674763e-06 0.000204145607881
Sb 4.1476652707 -0.0384259128 13.1171777598 -0.000620407244102 -0.000359954472334 0.00174655052183
Sb -2.1071084975 3.7264712712 13.1171714132 -1.28555168691e-06 0.000716309399945 0.00174500785981
Sb 2.1071108848 1.2170444836 29.1467014875 -1.79977236167e-06 0.000547387908285 -0.00064611827784
Sb 4.2137825491 4.8659068969 29.1467033601 -0.000475911234493 -0.000271508516275 -0.00064611827784
Sb 6.3213280346 1.2165407257 29.1420130159 3.34243438596e-06 -2.8282137112e-06 -0.00108706250645
Sb 0.0004374287 4.8659067863 29.1467047171 0.000476682565506 -0.000273308288637 -0.000649460712226
Sb 2.1071069041 1.2129461529 21.6493210224 -2.8282137112e-06 0.000978561944074 -0.00156657328567
Sb 4.2173334768 4.8679578512 21.6493116823 -0.000853863430444 -0.000492880516761 -0.00156323085128
Sb 6.3213276431 1.2165414755 22.9970642393 4.11376539811e-06 -2.05688269905e-06 -0.00275365171336
Sb -0.003114059 4.8679614405 21.6493116325 0.000854891871794 -0.000496994282159 -0.00156065974791
Cr 2.1071082204 3.6496168895 15.5167099511 -2.57110337382e-07 5.91353775978e-06 0.00127012506667
61
Lattice="8.42843558953 0 0 -4.21421779477 7.29923593142 0 0 0 31.0334408416" Properties=species:S:1:pos:R:3:forces:R:3 energy=-133601.231932 ionic_step=9 pbc="T T T"
Te 2.1071069023 1.2153758149 3.4692189671 1.79977236167e-06 -8.94743974088e-05 -0.00045071442143
Te 4.215227918 4.8667434898 3.46922366 7.86757632388e-05 4.60227503913e-05 -0.000448914649068
Te 6.321327577 1.2165421306 3.4538769731 -4.37087573549e-06 2.57110337382e-07 -0.000378209306288
Te -0.0010120346 4.8667443252 3.4692280554 -7.86757632388e-05 4.93651847773e-05 -0.000448914649068
Te -0.3936528398 0.227274198 7.522784523 5.27076191632e-05 -2.87963577867e-05 -0.00118167911061
Te 2.1071094077 3.6496159649 7.719827712 2.57110337382e-07 -1.79977236167e-06 -0.00127732415611
Te 4.6078717301 0.2272782106 7.5227871923 -5.16791778137e-05 -2.67394750877e-05 -0.00118425021398
Te -2.1071088595 3.1950631412 7.522789402 -1.28555168691e-06 5.60500535492e-05 -0.00118322177263
Te 2.1602e-06 1.3618e-06 -7.48218e-05 1.31126272065e-05 -4.62798607287e-06 -0.000193861194386
Te 2.1071099734 3.6496189586 -8.17638e-05 -1.54266202429e-06 -1.28555168691e-06 -0.000212373138677
Te 4.2142141858 6.056e-07 -7.62646e-05 -1.02844134953e-05 -3.59954472334e-06 -0.000193346973711
Te -2.1071099459 3.6496228112 -7.81535e-05 -2.57110337382e-07 9.7701928205e-06 -0.000195660966747
Te 0.5215142889 2.734175813 13.6680763536 -6.17064809716e-05 -3.49670058839e-05 0.00099270301263
Te 2.107109755 5.480502144 13.6680747796 -5.14220674763e-07 7.01911221052e-05 0.00099373145398
Te 3.692702708 2.7341754547 13.6680757606 6.09351499594e-05 -3.7023888583e-05 0.000995788336679
Te -2.1071090908 6.0826968141 14.7992861755 5.14220674763e-07 1.79977236167e-06 8.56177423481e-05
Te 2.1071077957 1.8187485842 17.3653950074 1.28555168691e-06 9.41023834817e-05 -0.000698311676329
Te 3.6926894701 4.5650544754 17.3653952128 -8.12468666126e-05 -4.73083020782e-05 -0.000697026124642
Te 6.3213266216 1.2165426287 16.2340006437 -5.14220674763e-07 -1.02844134953e-06 -0.00053118995703
Te 0.5215269177 4.5650577944 17.3653957914 8.17610872874e-05 -4.57656400539e-05 -0.000698311676329
Te 2.1071090684 0.6771004546 10.8031429488 -2.57110337382e-07 -0.000295676887989 0.000655117139648
Te 4.6813808587 5.1358764934 10.8031430383 0.000255824785695 0.000149123995681 0.000654860029311
Te 6.3213272883 1.2165403532 11.3047601828 2.57110337382e-07 -2.57110337382e-07 0.0012194743302
Te -0.4671634001 5.1358741191 10.8031429755 -0.000255824785695 0.000148352664669 0.000656145580998
Te 0.3936424383 -0.2272696121 23.5108457941 -0.000133440265101 7.50762185154e-05 0.000725051151416
Te 2.1071077329 3.6496243593 23.3138003284 2.57110337382e-07 7.71331012145e-07 0.000757961274601
Te 3.8205758171 -0.2272661468 23.5108441269 0.000133954485776 7.6104659865e-05 0.000727879365127
Te -2.1071078178 4.1041592915 23.5108366015 -7.71331012145e-07 -0.000153751981754 0.000726336703103
Te -0.0010213754 2.4324896351 27.5640358828 -8.99886180836e-05 -5.01365157894e-05 0.000298247991363
Te 2.1071090339 6.0838772729 27.5640353712 0 0.000103615465965 0.000296705329338
Te 4.2152408438 2.4324899117 27.5640352772 9.46166041564e-05 -5.3221839838e-05 0.000293877115627
Te -2.107106274 6.0826964786 27.579393901 3.59954472334e-06 -0 0.000175092139757
Te -0.4671598874 2.1633669961 20.2303746778 -0.000261995433792 -0.00015220931973 0.000165321946936
Te 2.1071096267 6.62212956 20.2303760071 1.54266202429e-06 0.000303904418785 0.000162750843563
Te 4.6813738861 2.1633652815 20.2303754307 0.000261481213117 -0.000150666657706 0.00016197951255
Te -2.107109337 6.082699117 19.7287200327 -1.02844134953e-06 1.28555168691e-06 -0.00022779975892
Sb -0.0029722971 2.4313596303 9.3842274412 -8.63890733602e-05 -5.16791778137e-05 -0.000854634761457
Sb 2.1071086755 6.0861295319 9.3842242373 1.02844134953e-06 0.000100015921241 -0.000853092099432
Sb 4.2171909466 2.4313633219 9.3842289922 8.63890733602e-05 -5.11649571389e-05 -0.000855663202806
Sb -2.1071071632 6.0826954865 8.0367784936 -5.14220674763e-07 1.79977236167e-06 -0.00108783383746
Sb 0.0004590397 2.4333512208 1.8865201727 -1.00273031579e-05 -7.45619978407e-06 -0.000127012506667
Sb 2.1071079079 6.0821673483 1.8865226828 -1.28555168691e-06 1.36268478812e-05 -0.000123412961943
Sb 4.2137578988 2.4333487951 1.8865218342 1.10557445074e-05 -8.99886180836e-06 -0.000123670072281
Sb -2.1071080742 6.0826985553 1.8912001163 0 1.79977236167e-06 -0.000233199076005
Sb -0.0665094957 0.0384002034 17.9162759823 -0.000143981788934 8.3560859649e-05 -0.00067362908394
Sb 2.1071078948 3.6496204289 19.6538939928 7.71331012145e-07 -2.05688269905e-06 -0.000264823647503
Sb 4.2807279462 0.038402983 17.9162779973 0.000143981788934 8.38179699864e-05 -0.000674914635627
Sb 6.3213256893 3.5728221981 17.9162796285 -7.71331012145e-07 -0.000167121719298 -0.000674143304615
Sb 0.0664977969 -0.0383933925 13.117132231 -5.29647295006e-05 3.21387921727e-05 0.00126421152891
Sb 2.1071083103 3.6496156161 11.3795811635 -1.79977236167e-06 -0 0.00118039355892
Sb 4.1477207946 -0.0383936581 13.1171345636 5.21933984885e-05 3.13674611606e-05 0.00126446863924
Sb -2.1071086203 3.7264066197 13.1171281756 1.02844134953e-06 -6.29920326585e-05 0.00126446863924
Sb 2.1071101705 1.2170745861 29.1467292851 -3.08532404858e-06 1.36268478812e-05 -2.2882820027e-05
Sb 4.2137556344 4.8658914236 29.1467315593 -1.46552892308e-05 -6.17064809716e-06 -2.36541510391e-05
Sb 6.3213273999 1.2165404236 29.1420783182 -2.31399303643e-06 0 3.39385645344e-05
Sb 0.0004637313 4.8658906486 29.1467325873 1.20841858569e-05 -8.48464113359e-06 -2.57110337382e-05
Sb 2.1071069022 1.2131205877 21.6493819203 -1.02844134953e-06 0.000106957900351 0.000842293465262
Sb 4.2171825979 4.8678715976 21.6493743106 -9.25597214574e-05 -5.29647295006e-05 0.000845893009986
Sb 6.3213278163 1.2165409948 22.9969288395 1.02844134953e-06 5.14220674763e-07 0.000541217260188
Sb -0.0029629462 4.867873997 21.6493732426 9.17883904452e-05 -5.42502811875e-05 0.000845893009986
Cr 2.1071085572 3.6496170483 15.5167153737 0 -1.54266202429e-06 -0.000153494871417
61
Lattice="8.42843558953 0 0 -4.21421779477 7.29923593142 0 0 0 31.0334408416" Properties=species:S:1:pos:R:3:forces:R:3 energy=-133601.231934 ionic_step=10 pbc="T T T"
Te 2.1071074578 1.2153512872 3.4691578299 -3.34243438596e-06 0.000302104646423 -0.00198592024594
Te 4.2152494619 4.8667558835 3.4691622416 -0.000264823647503 -0.000147067112982 -0.00198412047357
Te 6.3213274081 1.2165418371 3.4538554611 3.59954472334e-06 -2.57110337382e-07 -0.00194066882656
Te -0.0010326584 4.8667568075 3.4691667471 0.000263023875141 -0.000149638216356 -0.00198026381851
Te -0.3936157855 0.2272524873 7.5228316531 0.000637119416032 -0.000363811127395 -0.000331415224885
Te 2.1071090714 3.6496160693 7.7195991743 2.05688269905e-06 -3.59954472334e-06 0.000139868023536
Te 4.607834985 0.2272571771 7.5228333928 -0.000635833864345 -0.000362525575708 -0.000337585872982
Te -2.1071094068 3.1951045861 7.522835947 3.85665506072e-06 0.000729164916814 -0.000339128535006
Te 3.8588e-06 4.883e-07 -9.04088e-05 -7.45619978407e-06 5.91353775978e-06 2.08259373279e-05
Te 2.1071099537 3.6496189645 -9.53981e-05 2.05688269905e-06 -4.37087573549e-06 -3.59954472334e-06
Te 4.2142132069 5.97e-08 -9.16408e-05 0 5.14220674763e-06 1.85119442915e-05
Te -2.1071099503 3.6496237481 -9.359e-05 -2.05688269905e-06 -2.57110337382e-06 1.43981788934e-05
Te 0.5215242907 2.7341821785 13.6680795753 -0.000232427744993 -0.000136782699487 0.000550216121997
Te 2.1071095989 5.4804912165 13.6680783514 1.02844134953e-06 0.000266880530202 0.000547387908285
Te 3.6926926052 2.7341811362 13.668080158 0.000231399303643 -0.000131126272065 0.0005440454739
Te -2.1071089676 6.0826970614 14.7991447291 -7.71331012145e-07 -1.79977236167e-06 0.000309817956545
Te 2.1071079839 1.8187580925 17.3654209932 -1.02844134953e-06 -0.000284364033144 -0.00126781107363
Te 3.692681158 4.5650496802 17.3654216125 0.000247597254899 0.000146810002645 -0.00126909662532
Te 6.321326584 1.2165430963 16.2341671935 7.71331012145e-07 -2.31399303643e-06 -0.00064611827784
Te 0.5215355003 4.5650529532 17.3654216419 -0.000248882806585 0.000146552892308 -0.00126523997025
Te 2.1071096224 0.6770359256 10.8031236298 -3.85665506072e-06 0.000481567661916 0.00200726040394
Te 4.6814364125 5.1359086041 10.8031231299 -0.000421918063643 -0.000234484627692 0.00200983150731
Te 6.3213271342 1.2165391595 11.3045066436 2.8282137112e-06 -5.6564274224e-06 0.00256570405673
Te -0.4672187577 5.1359067556 10.8031228582 0.000419089849932 -0.000238084172415 0.0020131739417
Te 0.3936070293 -0.2272498502 23.5107931908 -0.00055484410807 0.000314445942618 0.00126035487384
Te 2.1071076348 3.6496246371 23.3140176821 1.79977236167e-06 5.6564274224e-06 0.000762846371011
Te 3.8206109964 -0.227245737 23.510792439 0.000552530115033 0.000314703052955 0.00126061198418
Te -2.1071080473 4.1041191757 23.5107851664 -1.54266202429e-06 -0.000637890747044 0.00126009776351
Te -0.0010438602 2.4324767372 27.5640753023 0.000266623419865 0.000147067112982 0.00174449363913
Te 2.1071092493 6.0839045814 27.564074286 3.08532404858e-06 -0.000306475522159 0.00174346519778
Te 4.2152642752 2.4324766597 27.5640746957 -0.000269194523239 0.000151695099055 0.0017442365288
Te -2.107106172 6.0826974905 27.5793972277 -4.37087573549e-06 -7.97042045883e-06 0.00179154483088
Te -0.4672099633 2.163338203 20.230383737 0.000439144456248 0.000256853227044 -0.00211447541463
Te 2.1071102015 6.6221877728 20.2303841563 -2.57110337382e-07 -0.000510878240377 -0.0021149896353
Te 4.6814239627 2.1633370068 20.2303839865 -0.00043888734591 0.000254539234008 -0.00211318986294
Te -2.1071091888 6.0826994878 19.7289723222 -1.28555168691e-06 -4.62798607287e-06 -0.00299970630623
Sb -0.0028019418 2.4314570006 9.3841379267 0.00107137877587 0.000608580168582 0.0012827234732
Sb 2.1071091478 6.0859329651 9.3841358319 6.68486877192e-06 -0.00122898741268 0.00129197944534
Sb 4.2170208317 2.4314604035 9.3841396036 -0.00107266432756 0.00061269393398 0.00128863701096
Sb -2.1071078116 6.0826974111 8.0369170522 -5.6564274224e-06 7.45619978407e-06 0.000198232070121
Sb 0.0004735931 2.433358682 1.8865030519 0.000327815680162 0.000178177463805 -0.00180954255449
Sb 2.1071080467 6.0821509009 1.8865062104 7.71331012145e-06 -0.000371524437516 -0.00180928544415
Sb 4.2137435179 2.4333564251 1.886505344 -0.000327558569824 0.000186404994602 -0.00180722856146
Sb -2.1071088612 6.0826989749 1.8911432876 -5.6564274224e-06 6.42775843454e-06 -0.00158071435422
Sb -0.0664262621 0.0383515456 17.9163390441 -0.000182034118866 9.95017005667e-05 -0.0024258360332
Sb 2.1071079319 3.6496205524 19.6538303447 -1.54266202429e-06 6.42775843454e-06 -0.00197357894974
Sb 4.2806442938 0.0383537284 17.9163408238 0.000183062560216 9.95017005667e-05 -0.00242609314353
Sb 6.3213255796 3.5729188586 17.9163427304 5.14220674763e-07 -0.000204916938893 -0.00242635025387
Sb 0.0664087819 -0.0383421246 13.1170973477 0.000245283261862 -0.000144238899271 0.00171158351595
Sb 2.1071081463 3.6496163748 11.3796366446 2.57110337382e-07 -7.71331012145e-07 0.00152029342494
Sb 4.1478093613 -0.0383420655 13.1170990753 -0.000245283261862 -0.000145267340621 0.00171389750899
Sb -2.1071088241 3.7263034382 13.1170930726 5.14220674763e-07 0.000286163805506 0.00171646861236
Sb 2.1071093431 1.2170922052 29.146758893 -3.34243438596e-06 0.000372038658191 0.00163984973182
Sb 4.2137395053 4.865882322 29.1467612853 -0.000319588149365 -0.000181777008529 0.00164139239384
Sb 6.3213264217 1.2165402679 29.1421451616 6.17064809716e-06 2.05688269905e-06 0.00140253689042
Sb 0.0004790494 4.8658808997 29.1467620423 0.000320873701052 -0.000185890773927 0.00163804995946
Sb 2.1071070523 1.2133172891 21.6494558435 -3.85665506072e-06 0.00112871438111 -0.000474111462132
Sb 4.2170121505 4.8677741287 21.6494506771 -0.000980618826774 -0.000560500535492 -0.000471283248421
Sb 6.3213278741 1.2165403406 22.9967901144 1.79977236167e-06 -1.28555168691e-06 0.00085720586483
Sb -0.0027924391 4.8677750038 21.6494486469 0.000984732592172 -0.000567699624939 -0.00047334013112
Cr 2.1071088835 3.6496175337 15.5167247503 -1.02844134953e-06 3.34243438596e-06 -4.21660953306e-05
61
Lattice="8.42843558953 0 0 -4.21421779477 7.29923593142 0 0 0 31.0334408416" Properties=species:S:1:pos:R:3:forces:R:3 energy=-133601.231936 ionic_step=11 pbc="T T T"
Te 2.1071081174 1.21533953 3.4691146498 1.02844134953e-06 -0.000110300334737 -0.00091711257344
Te 4.2152599848 4.8667618892 3.4691184364 9.15312801079e-05 5.73356052361e-05 -0.00091325591838
Te 6.3213272567 1.2165415877 3.4538515451 -1.79977236167e-06 -3.59954472334e-06 -0.00104541063179
Te -0.001042055 4.86676276 3.4691224567 -9.10170594331e-05 5.83640465856e-05 -0.000912741697705
Te -0.3935651419 0.2272230535 7.5228546007 4.49943090418e-05 -2.10830476653e-05 -0.00191778600653
Te 2.1071087296 3.6496162887 7.7194169977 -2.8282137112e-06 -3.34243438596e-06 -0.00164499193857
Te 4.6077846221 0.2272282223 7.5228552456 -4.52514193792e-05 -2.21114890148e-05 -0.00191804311687
Te -2.1071099363 3.1951621986 7.5228581535 1.28555168691e-06 4.91080744399e-05 -0.00191932866855
Te 5.8767e-06 -6.97e-07 -0.0001054257 1.92832753036e-05 -8.99886180836e-06 0.00213170180723
Te 2.1071098636 3.6496190803 -0.0001071178 -1.02844134953e-06 -1.28555168691e-06 0.00212218872475
Te 4.2142122332 -7.158e-07 -0.0001062859 -1.90261649662e-05 -8.74175147098e-06 0.00213118758656
Te -2.1071098315 3.6496249703 -0.0001081238 -2.57110337382e-07 2.00546063158e-05 0.00212604537981
Te 0.5214895363 2.734162729 13.6680757663 -0.000498022723508 -0.000290020460566 0.00102047092907
Te 2.1071093156 5.4805320141 13.6680752634 -2.31399303643e-06 0.000574641604048 0.00101918537738
Te 3.6927273556 2.7341610911 13.6680776173 0.000496222951147 -0.00029259156394 0.00102149937042
Te -2.1071088333 6.0826972932 14.7990500624 1.54266202429e-06 3.85665506072e-06 0.00222349019768
Te 2.1071082066 1.8187112911 17.3654528883 -1.28555168691e-06 -0.000828152396706 0.00301693269884
Te 3.6927216013 4.5650728823 17.365453772 0.00071579517927 0.000411633650148 0.00301539003681
Te 6.3213265463 1.2165433821 16.234304281 1.54266202429e-06 2.05688269905e-06 0.00251453909959
Te 0.5214954399 4.5650754878 17.3654531465 -0.000715280958596 0.000408034105425 0.00301539003681
Te 2.1071101976 0.6769874749 10.8031028467 2.05688269905e-06 0.000171235484696 4.13947643184e-05
Te 4.681478564 5.1359328571 10.8031016217 -0.00014629578197 -8.40750803238e-05 4.13947643184e-05
Te 6.3213268539 1.2165379076 11.3042277503 -1.02844134953e-06 2.57110337382e-07 0.000926625655923
Te -0.4672606383 5.1359316347 10.8031010316 0.000147838443994 -8.27895286369e-05 4.08805436437e-05
Te 0.3935600474 -0.227223158 23.5107537827 -0.000671829311578 0.000387979499109 -0.00339179957074
Te 2.1071076975 3.6496246571 23.3141789686 1.02844134953e-06 -2.57110337382e-07 -0.00336171766126
Te 3.820657926 -0.2272186334 23.5107538076 0.000670286649554 0.000388493719784 -0.00339077112939
Te -2.1071082861 4.1040655762 23.5107474356 -1.79977236167e-06 -0.000778530101592 -0.0033915424604
Te -0.0010553803 2.4324701712 27.564102304 -0.00020620249058 -0.000119556306882 0.00111380198154
Te 2.1071093493 6.08391882 27.5641008444 5.14220674763e-07 0.000237312841403 0.00111508753322
Te 4.2152763323 2.4324698333 27.5641019502 0.000206973821592 -0.000119556306882 0.00111483042289
Te -2.1071064187 6.0826983845 27.5793871579 -5.14220674763e-07 -2.57110337382e-07 0.00145370184756
Te -0.4672499873 2.1633151735 20.2303889727 -0.000295676887989 -0.000172006815708 -0.00103178378391
Te 2.107110768 6.6222344516 20.230388202 1.79977236167e-06 0.000345813403778 -0.00103435488729
Te 4.6814641935 2.1633146377 20.2303885433 0.000296705329338 -0.000171492595034 -0.00103615465965
Te -2.1071090834 6.0826999317 19.7292468047 -1.02844134953e-06 2.31399303643e-06 -0.000833808824129
Sb -0.0026327437 2.4315539585 9.3840405197 0.000383608623373 0.000218800897112 -0.0011451694427
Sb 2.1071095804 6.0857377816 9.3840396215 -1.54266202429e-06 -0.000439658676923 -0.00114259833932
Sb 4.2168517161 2.431556697 9.3840422629 -0.000383608623373 0.000215715573063 -0.00114259833932
Sb -2.107108488 6.082699156 8.0370272806 7.71331012145e-07 1.54266202429e-06 -0.00157994302321
Sb 0.0004724117 2.4333567026 1.8864956049 -0.000317788377004 -0.000190261649662 0.00064611827784
Sb 2.1071081445 6.0821524928 1.8864990922 -1.28555168691e-06 0.000374609761565 0.000647403829527
Sb 4.2137448756 2.4333546342 1.8864981807 0.000318816818353 -0.000192318532361 0.00064714671919
Sb -2.1071096775 6.0826992476 1.8911043196 -1.28555168691e-06 7.19908944669e-06 0.000401863457327
Sb -0.0663171927 0.0382882229 17.9163915053 0.00036329690672 -0.000204916938893 0.00244897596356
Sb 2.1071079962 3.6496206667 19.6537913552 -1.28555168691e-06 -5.39931708501e-06 0.000177920353468
Sb 4.2805347553 0.0382898239 17.91639308 -0.000363811127395 -0.000204145607881 0.00244974729457
Sb 6.3213257019 3.5730453084 17.9163951162 5.14220674763e-07 0.000414461863859 0.00244974729457
Sb 0.0662955913 -0.0382764509 13.1170767422 -0.000305447080809 0.000182805449878 0.00104438219044
Sb 2.1071080796 3.6496172502 11.3796709063 -1.02844134953e-06 -4.62798607287e-06 -3.29101231848e-05
Sb 4.1479221701 -0.0382762198 13.1170776194 0.000305704191147 0.000180491456842 0.00104386796977
Sb -2.1071091491 3.7261720097 13.1170724456 1.54266202429e-06 -0.00035944025166 0.00104489641112
Sb 2.1071085503 1.217091371 29.1467863498 -0 -0.000379494857975 0.00319948103838
Sb 4.2137395089 4.8658826665 29.1467883965 0.000325501687125 0.000189747428988 0.00319716704534
Sb 6.3213254194 1.216540196 29.1421994427 -2.57110337382e-06 -1.02844134953e-06 0.00328484167039
Sb 0.0004782911 4.8658807027 29.1467890969 -0.000324473245776 0.00018949031865 0.00319922392804
Sb 2.1071073202 1.2135095085 21.6495324414 -2.31399303643e-06 0.000289249129554 -0.00332777909673
Sb 4.2168452319 4.8676785983 21.6495300389 -0.00024939702726 -0.000145010230283 -0.00332006578661
Sb 6.3213277885 1.216539685 22.9966707678 2.57110337382e-06 4.11376539811e-06 -0.00351341276032
Sb -0.0026257118 4.8676780097 21.649527307 0.000249654137598 -0.000150409547368 -0.00332212266931
Cr 2.1071090637 3.6496184044 15.5167414769 -1.02844134953e-06 -3.08532404858e-06 0.00175503516297
61
Lattice="8.42843558953 0 0 -4.21421779477 7.29923593142 0 0 0 31.0334408416" Properties=species:S:1:pos:R:3:forces:R:3 energy=-133601.231937 ionic_step=12 pbc="T T T"
Te 2.1071084551 1.2153426601 3.469099564 -6.17064809716e-06 -0.000101044362591 0.00219058007449
Te 4.2152575444 4.8667604109 3.4691027927 7.99613149257e-05 4.73083020782e-05 0.00219932182596
Te 6.3213273009 1.2165416538 3.4538556405 -5.14220674763e-07 -2.8282137112e-06 0.00211550385598
Te -0.0010388943 4.8667610511 3.4691059842 -9.53879351686e-05 5.34789501754e-05 0.00221397711519
Te -0.3935365764 0.2272066467 7.5228562045 -0.000899886180836 0.000518077329824 -0.00204197029948
Te 2.1071086674 3.6496163544 7.7192784773 7.71331012145e-07 1.28555168691e-06 -0.00183885313295
Te 4.6077563181 0.2272119044 7.5228562865 0.000895258194763 0.000514992005775 -0.00203271432734
Te -2.1071101529 3.1951951228 7.5228594019 3.85665506072e-06 -0.00103615465965 -0.00203631387206
Te 6.9644e-06 -1.4081e-06 -0.0001118046 -5.75927155735e-05 3.41956748718e-05 0.000252482351309
Te 2.1071097889 3.6496192724 -0.0001106213 3.34243438596e-06 -5.91353775978e-06 0.000200803173495
Te 4.2142118973 -1.2246e-06 -0.0001123408 3.21387921727e-05 2.75108060998e-05 0.000243226379163
Te -2.1071096268 3.6496257945 -0.0001139009 -7.19908944669e-06 -5.01365157894e-05 0.000233456186343
Te 0.521430443 2.734128742 13.6680711903 0.00133851641641 0.000774416336193 0.00168227293749
Te 2.1071091418 5.4806005695 13.6680713911 -2.57110337382e-07 -0.00154291913463 0.00167918761344
Te 3.6927865945 2.7341271317 13.6680733572 -0.00134108751978 0.000772873674169 0.00168201582715
Te -2.1071087841 6.0826972639 14.7989957642 5.14220674763e-07 1.02844134953e-06 0.00140947886953
Te 2.107108266 1.8186354514 17.3654731961 -7.71331012145e-07 0.00139148114591 0.000303647308448
Te 3.6927872437 4.5651104882 17.3654739732 -0.00120687592367 -0.000693426579918 0.000303647308448
Te 6.3213265375 1.2165433903 16.2344036595 0 -2.31399303643e-06 0.00118450732432
Te 0.521429982 4.56511212 17.3654730414 0.00120918991671 -0.000689569924858 0.00030441863946
Te 2.1071104697 0.6769846766 10.8030853696 -4.62798607287e-06 -7.07053427799e-05 -0.000963649544506
Te 4.6814815364 5.1359342751 10.8030836081 5.29647295006e-05 3.47098955465e-05 -0.000956193344722
Te 6.3213266759 1.2165373008 11.3040137659 1.02844134953e-06 2.8282137112e-06 -0.000921740559513
Te -0.4672634232 5.1359334815 10.8030826258 -5.50216121997e-05 2.75108060998e-05 -0.000948994255276
Te 0.3935326549 -0.2272072457 23.5107269917 0.000512678012739 -0.00029362000529 0.00113154259482
Te 2.1071078209 3.6496244703 23.3142926057 -5.14220674763e-07 -2.05688269905e-06 0.000706282096787
Te 3.8206854674 -0.2272028579 23.5107270727 -0.000514477785101 -0.000293105784615 0.00113102837414
Te -2.1071083221 4.104034198 23.510721879 -5.14220674763e-07 0.000584668907206 0.00111174509884
Te -0.0010539867 2.4324709819 27.56411022 -0.000102587024615 -5.75927155735e-05 -0.00303878707751
Te 2.1071091943 6.0839170327 27.5641087092 2.57110337382e-06 0.000122641630931 -0.0030380157465
Te 4.2152746022 2.4324706903 27.5641101983 0.000107215010688 -5.8621156923e-05 -0.00304572905662
Te -2.1071069436 6.0826985025 27.5793797447 1.23412961943e-05 -1.54266202429e-06 -0.00300973360939
Te -0.4672555249 2.1633120336 20.2303953514 -0.000327815680162 -0.000190261649662 0.00157274393376
Te 2.1071110157 6.6222412024 20.2303938253 -3.34243438596e-06 0.000373581320216 0.00158251412658
Te 4.6814699574 2.1633119159 20.2303945258 0.000326273018137 -0.000195660966747 0.00157891458186
Te -2.1071090589 6.082700311 19.729456807 -1.79977236167e-06 -1.79977236167e-06 0.00134237307147
Sb -0.0025358424 2.431609904 9.3839695205 -0.000160951071201 -9.15312801079e-05 -0.00262175411028
Sb 2.107109656 6.0856259563 9.3839691182 0 0.00018460522224 -0.00262303966197
Sb 4.2167546115 2.4316119637 9.3839711811 0.000160951071201 -9.05028387583e-05 -0.00262278255163
Sb -2.1071087295 6.082699454 8.0370834503 1.54266202429e-06 -1.79977236167e-06 -0.00264823647503
Sb 0.0004529295 2.4333447138 1.8864940235 0.000164293505587 9.66734868555e-05 0.00279273248464
Sb 2.1071080576 6.0821748356 1.8864972543 3.08532404858e-06 -0.000185119442915 0.00279556069835
Sb 4.2137644073 2.4333425997 1.8864963503 -0.000165064836599 0.000100787252254 0.002794532257
Sb -2.1071099992 6.0826991921 1.8910795882 3.34243438596e-06 3.08532404858e-06 0.00308043895217
Sb -0.0662234617 0.0382343065 17.9164265023 -0.000376409533927 0.000217515345425 0.000812211555789
Sb 2.1071080024 3.6496206621 19.653809925 -2.57110337382e-07 -7.71331012145e-07 0.000553558556383
Sb 4.2804407766 0.0382356608 17.9164280099 0.000377437975276 0.000218543786774 0.000812468666126
Sb 6.3213260271 3.57315374 17.9164300347 -1.54266202429e-06 -0.000437344683886 0.000814782659162
Sb 0.0662001878 -0.0382207267 13.1170695094 0.000609094389257 -0.000353012493225 0.00095645045506
Sb 2.1071081844 3.6496175634 11.3796658074 -1.28555168691e-06 -2.8282137112e-06 -0.00014141068556
Sb 4.1480175179 -0.0382206067 13.1170697922 -0.000609351499594 -0.000354298044912 0.000958507337759
Sb -2.1071094802 3.7260611745 13.1170653217 2.31399303643e-06 0.000705510765775 0.000954907793035
Sb 2.1071083009 1.217068937 29.1468034309 3.85665506072e-06 0.000206459600917 -0.00281432975298
Sb 4.2137588474 4.8658942137 29.1468046844 -0.000176634801781 -0.000108757672712 -0.00280893043589
Sb 6.3213250197 1.2165402583 29.1422359199 4.37087573549e-06 5.14220674763e-07 -0.00305832746315
Sb 0.0004587771 4.8658921267 29.1468056209 0.000177149022456 -0.000105158127989 -0.00281227287028
Sb 2.1071075924 1.2136169172 21.6495822635 -1.02844134953e-06 -0.00023859839309 0.0018715061458
Sb 4.2167517264 4.8676248802 21.649581238 0.000210059145641 0.00011878497587 0.00186893504243
Sb 6.3213276118 1.2165394384 22.9965969329 1.28555168691e-06 2.31399303643e-06 0.00173780877036
Sb -0.0025326502 4.867623839 21.6495785475 -0.000210059145641 0.000119042086208 0.00186816371141
Cr 2.1071089407 3.6496191141 15.5167623397 2.05688269905e-06 -5.39931708501e-06 0.00134211596113
61
Lattice="8.42843558953 0 0 -4.21421779477 7.29923593142 0 0 0 31.0334408416" Properties=species:S:1:pos:R:3:forces:R:3 energy=-133601.231938 ionic_step=13 pbc="T T T"
Te 2.1071084293 1.215350544 3.4690965754 5.14220674763e-07 -0.000117756534521 -0.000495965840809
Te 4.2152507932 4.8667564639 3.4690995654 9.59021558433e-05 5.88782672604e-05 -0.000491594965074
Te 6.3213274487 1.2165418648 3.453856388 -2.8282137112e-06 -8.48464113359e-06 -8.17610872874e-05
Te -0.0010320136 4.8667568745 3.4691021164 -9.69305971929e-05 6.29920326585e-05 -0.00047334013112
Te -0.3935331917 0.2272048622 7.5228524066 -0.000563585859541 0.000324473245776 -0.000756932833252
Te 2.1071087558 3.6496162375 7.7191721263 -1.02844134953e-06 2.57110337382e-07 -0.000708338979486
Te 4.6077531346 0.2272099755 7.5228524455 0.000562300307854 0.000328329900836 -0.000757447053926
Te -2.1071100962 3.1951994243 7.5228557027 -1.28555168691e-06 -0.000666944215168 -0.00076104659865
Te 7.1654e-06 -1.594e-06 -0.0001136994 -3.05961301484e-05 2.10830476653e-05 0.00248214319708
Te 2.1071097666 3.6496194294 -0.0001115635 2.05688269905e-06 -5.14220674763e-06 0.00245000440491
Te 4.2142119568 -1.4219e-06 -0.0001140518 2.44254820513e-05 2.31399303643e-05 0.00247340144561
Te -2.1071094578 3.6496261707 -0.0001154191 -4.62798607287e-06 -4.19089849932e-05 0.00246337414245
Te 0.5214027551 2.734112583 13.668071811 0.00052733330197 0.00030930373587 0.00168612959255
Te 2.1071090643 5.4806325852 13.6680723259 -1.79977236167e-06 -0.000610379940944 0.00168458693052
Te 3.6928143991 2.7341113103 13.6680736336 -0.000529133074331 0.000305704191147 0.00169152890963
Te -2.1071088259 6.0826970352 14.7989467586 1.28555168691e-06 1.02844134953e-06 0.00239806811676
Te 2.1071082329 1.8185974942 17.3654759849 1.54266202429e-06 0.000448657538731 0.00198617735627
Te 3.6928201124 4.565129319 17.3654764845 -0.000389522161133 -0.000220857779811 0.00198823423897
Te 6.3213265424 1.2165432985 16.2344824472 -5.14220674763e-07 -2.05688269905e-06 0.00263820917187
Te 0.5213970525 4.5651303196 17.3654756238 0.000393635926531 -0.000214944242051 0.00198720579762
Te 2.1071104543 0.6770114133 10.803073813 -2.05688269905e-06 -0.000313674611606 0.000833294603454
Te 4.6814588279 5.1359208695 10.8030718633 0.000266623419865 0.000158637078164 0.000838179699864
Te 6.3213265985 1.2165372933 11.3039001376 1.28555168691e-06 -7.71331012145e-07 0.000314703052955
Te -0.467240652 5.1359201431 10.8030705988 -0.000265337868178 0.000156580195465 0.000843579016949
Te 0.3935297426 -0.2272050848 23.51071715 -0.000140639354548 7.07053427799e-05 -0.003344748379
Te 2.107107926 3.649624271 23.3143930108 -1.54266202429e-06 0 -0.00355352197295
Te 3.8206886174 -0.2272010882 23.5107168051 0.000133697375438 7.94470942509e-05 -0.0033344639655
Te -2.1071081955 4.1040306495 23.5107123955 -3.34243438596e-06 -0.000155808864453 -0.00334834792372
Te -0.0010480204 2.43247437 27.5641085087 -0.000191547201349 -0.000106957900351 0.000690598366207
Te 2.10710894 6.0839093502 27.5641071613 4.88509641025e-06 0.000241940827476 0.000681856614736
Te 4.2152679081 2.4324743161 27.564108664 0.000210830476653 -0.000115699651822 0.000685713269797
Te -2.1071073907 6.0826980581 27.5793769856 2.05688269905e-06 1.54266202429e-06 0.000291820232928
Te -0.4672379103 2.1633222649 20.2304067855 -0.000638147857381 -0.000370753106504 -0.00274542418256
Te 2.1071109579 6.6222209588 20.2304049971 2.57110337382e-06 0.000736364006261 -0.0027456812929
Te 4.6814524981 2.1633222331 20.2304058918 0.000637119416032 -0.000370495996167 -0.00274850950661
Te -2.1071090817 6.0827005137 19.7295722778 -2.05688269905e-06 -5.14220674763e-07 -0.00147941288129
Sb -0.0025083635 2.4316261478 9.3839378939 -0.000357640479298 -0.000209030704291 -0.000344270741754
Sb 2.1071094521 6.0855941627 9.3839372944 1.02844134953e-06 0.000414718974197 -0.000338614314332
Sb 4.2167268684 2.4316278673 9.383939514 0.000359697361997 -0.000206459600917 -0.000343756521079
Sb -2.1071085713 6.0826986836 8.0371104224 -3.85665506072e-06 9.51308248312e-06 -0.000970334413278
Sb 0.0004343734 2.4333339397 1.8864873154 0.000471540358758 0.000266880530202 0.00112408639503
Sb 2.1071079361 6.0821959833 1.8864900805 6.42775843454e-06 -0.000536332163778 0.00113334236718
Sb 4.2137829299 2.4333316952 1.8864892712 -0.000470511917408 0.000274079619649 0.00113025704313
Sb -2.1071098911 6.0826989965 1.891059121 -4.62798607287e-06 5.6564274224e-06 0.00156631617533
Sb -0.0661746135 0.0382064497 17.9164403931 -0.000495194509797 0.00028179292977 0.000872118264398
Sb 2.1071079237 3.6496206713 19.6538474832 5.14220674763e-07 5.14220674763e-07 -0.00235333091805
Sb 4.280391928 0.0382078935 17.916442004 0.000496222951147 0.000283335591795 0.000871089823049
Sb 6.3213263201 3.5732101606 17.9164439236 -3.59954472334e-06 -0.000571556279999 0.000872889595411
Sb 0.0661520186 -0.0381924626 13.1170667776 0.000858748526855 -0.000500079606207 0.00168972913727
Sb 2.1071083757 3.6496174006 11.3796483764 -4.37087573549e-06 5.6564274224e-06 0.00106649367946
Sb 4.1480658265 -0.0381925589 13.1170669191 -0.00085823430618 -0.000501108047557 0.00169230024065
Sb -2.1071096637 3.7260052257 13.1170627012 2.8282137112e-06 0.000997073888366 0.00168818647525
Sb 2.1071084609 1.2170472764 29.1468039896 -1.54266202429e-06 0.000561786087179 0.0027649645682
Sb 4.2137778865 4.865905497 29.1468045685 -0.000486452758326 -0.000287963577867 0.002773192099
Sb 6.3213251746 1.2165403194 29.1422488569 -7.71331012145e-07 3.59954472334e-06 0.00231245037441
Sb 0.0004399637 4.8659035364 29.1468057676 0.000483367434277 -0.000289763350229 0.0027670214509
Sb 2.1071077668 1.2136454299 21.649612497 -3.34243438596e-06 -0.000527847522644 -0.00365919432162
Sb 4.2167266603 4.8676102713 21.6496113022 0.000458684841889 0.000267651861214 -0.00365765165959
Sb 6.3213274608 1.2165396436 22.9965664545 3.85665506072e-06 -1.02844134953e-06 -0.00301024783006
Sb -0.0025079555 4.8676095777 21.6496090489 -0.000458684841889 0.000261738323454 -0.00366022276296
Cr 2.1071087457 3.6496193665 15.5167742399 2.57110337382e-06 -5.14220674763e-07 0.00212553115913
61
Lattice="8.42843558953 0 0 -4.21421779477 7.29923593142 0 0 0 31.0334408416" Properties=species:S:1:pos:R:3:forces:R:3 energy=-133601.231939 ionic_step=14 pbc="T T T"
Te 2.1071082088 1.2153607428 3.4690885848 4.11376539811e-06 -0.000320616590715 0.00318148331476
Te 4.2152419355 4.8667512693 3.4690913885 0.000275622281673 0.0001630079539 0.00318508285948
Te 6.3213276871 1.2165421679 3.4538554973 -6.9419791093e-06 -1.10557445074e-05 0.00329564030456
Te -0.0010232904 4.8667513798 3.4690932016 -0.000272279847287 0.000168407270985 0.00319793837635
Te -0.3935390676 0.2272085314 7.5228554532 -0.000127526727341 7.2762225479e-05 -0.00123387250909
Te 2.107109058 3.6496159468 7.7189911857 5.14220674763e-07 -1.79977236167e-06 -0.00115442541484
Te 4.6077593856 0.2272133469 7.522855611 0.000123155851606 8.09897562752e-05 -0.00123824338483
Te -2.1071099011 3.195193233 7.5228590915 -4.62798607287e-06 -0.000166350388286 -0.00124389981225
Te 7.0602e-06 -1.6607e-06 -0.0001156635 -2.57110337382e-07 2.31399303643e-06 0.00123490095044
Te 2.1071097731 3.649619637 -0.0001121829 -1.54266202429e-06 -2.05688269905e-06 0.0012428713709
Te 4.2142121526 -1.604e-06 -0.0001157795 1.28555168691e-06 6.17064809716e-06 0.00122693052999
Te -2.107109253 3.6496265664 -0.0001168955 -4.37087573549e-06 -1.4141068556e-05 0.00121998855088
Te 0.5213937104 2.7341070596 13.6680729555 0.0006795426217 0.000400063684966 0.000746648419756
Te 2.1071090097 5.4806431134 13.6680736535 -1.02844134953e-06 -0.000788300294412 0.000743048875033
Te 3.6928235823 2.7341063415 13.6680739953 -0.000684170607773 0.00039080771282 0.000759246826288
Te -2.1071089983 6.0826966477 14.7988387654 2.05688269905e-06 -5.14220674763e-07 0.000357640479298
Te 2.1071081658 1.8185812496 17.3654772053 2.31399303643e-06 0.000854891871794 -0.000610894161619
Te 3.6928341706 4.5651374152 17.3654772929 -0.00073944933031 -0.000427831601403 -0.000606523285883
Te 6.3213265414 1.216543161 16.2346263773 -2.05688269905e-06 2.8282137112e-06 5.27076191632e-05
Te 0.521382739 4.5651377276 17.3654767274 0.000744591537057 -0.000416775856896 -0.000610637051281
Te 2.1071103101 0.6770576676 10.8030602384 5.14220674763e-07 -0.000459713283238 -0.000815811100512
Te 4.681419278 5.1358975513 10.803058169 0.000395435698893 0.000231913524318 -0.000811440224776
Te 6.3213265684 1.2165375275 11.3037400304 1.02844134953e-06 5.14220674763e-07 -0.000648432270876
Te -0.4672010416 5.135896796 10.8030565477 -0.000393893036869 0.000230370862294 -0.000805783797354
Te 0.3935355878 -0.2272075728 23.5106976321 7.53333288528e-05 -5.68213845613e-05 0.000323959025101
Te 2.1071080709 3.6496240122 23.3145674988 -1.79977236167e-06 7.71331012145e-07 5.6564274224e-05
Te 3.8206831706 -0.2272042778 23.5106964909 -7.99613149257e-05 -4.75654124156e-05 0.000336300321295
Te -2.1071079705 4.1040370021 23.5106929755 -3.08532404858e-06 9.48737144938e-05 0.000323701914763
Te -0.0010401791 2.4324787854 27.5641137032 -0.000284106922807 -0.000159665519514 -0.00281767218737
Te 2.1071085449 6.0838990024 27.5641126595 2.57110337382e-06 0.000344270741754 -0.00282101462175
Te 4.2152588903 2.4324791655 27.564113903 0.000299276432712 -0.000169178601997 -0.00281561530467
Te -2.1071079195 6.0826972623 27.5793787276 1.43981788934e-05 1.6197951255e-05 -0.00296808173473
Te -0.4672050697 2.1633414002 20.230425591 -0.000479253668879 -0.000278450495384 0.000188718987638
Te 2.1071107124 6.6221829868 20.2304236692 5.14220674763e-07 0.000555615439082 0.000187947656626
Te 4.6814198987 2.1633413304 20.2304247876 0.000479253668879 -0.000278964716059 0.000184348111903
Te -2.1071091247 6.0827007919 19.7297375372 1.02844134953e-06 1.28555168691e-06 0.000125212734305
Sb -0.0024790454 2.4316437479 9.3839017733 -0.000188976097975 -0.000111071665749 -0.00186662104939
Sb 2.1071090502 6.0855601603 9.3839005302 1.54266202429e-06 0.000216486904075 -0.00186302150467
Sb 4.2166971465 2.4316451442 9.3839033641 0.000190004539325 -0.000110043224399 -0.00186790660108
Sb -2.1071081301 6.0826971283 8.0371633366 -2.8282137112e-06 4.62798607287e-06 -0.00176917623152
Sb 0.0004117929 2.4333210666 1.8864684944 7.43048875033e-05 4.11376539811e-05 0.00423357881533
Sb 2.1071078486 6.0822217011 1.886470569 0 -8.22753079621e-05 0.00424309189781
Sb 4.2138054988 2.433318678 1.8864699394 -7.35335564911e-05 4.16518746558e-05 0.00423846391174
Sb -2.1071096069 6.0826987044 1.8910239587 -2.05688269905e-06 3.59954472334e-06 0.00444620906434
Sb -0.0661137111 0.0381717299 17.9164648402 -0.000225485765884 0.000128812279028 -0.000300304874062
Sb 2.1071077124 3.649620676 19.6538957078 1.28555168691e-06 -1.79977236167e-06 -0.000679285511362
Sb 4.2803310854 0.0381733514 17.9164666151 0.000230885082969 0.000132926044426 -0.000302618867098
Sb 6.3213266544 3.5732804092 17.9164684296 -2.57110337382e-06 -0.000281021598758 -0.000302875977436
Sb 0.0660928605 -0.0381578591 13.11705489 0.000282050040108 -0.000163522174575 0.000399549464291
Sb 2.1071086781 3.6496169657 11.3796334674 -4.88509641025e-06 5.6564274224e-06 -1.79977236167e-05
Sb 4.1481252336 -0.0381582064 13.1170550524 -0.000283592702132 -0.000164807726262 0.000400063684966
Sb -2.1071098116 3.725936614 13.1170509389 2.31399303643e-06 0.000327815680162 0.000399806574628
Sb 2.1071087764 1.2170219729 29.146805159 -5.14220674763e-07 5.42502811875e-05 -0.0021232171661
Sb 4.2138002688 4.865918801 29.1468048767 -5.37360605128e-05 -3.39385645344e-05 -0.00211396119395
Sb 6.3213256467 1.2165403132 29.1422652197 -6.17064809716e-06 -2.57110337382e-07 -0.00228442534764
Sb 0.0004180349 4.8659170485 29.1468063759 4.93651847773e-05 -3.31672335222e-05 -0.00211961762137
Sb 2.107107955 1.2136755007 21.6496481455 -7.71331012145e-07 -0.000297733770688 0.000658973794709
Sb 4.2167001878 4.8675946883 21.6496460824 0.00026122410278 0.000151952209393 0.000664116001457
Sb 6.3213273245 1.2165401601 22.9965102428 -0 -1.54266202429e-06 0.000609865720269
Sb -0.0024820291 4.8675948289 21.6496445383 -0.000259938551093 0.000148095554332 0.000662059118758
Cr 2.1071084394 3.6496194537 15.5167917505 3.08532404858e-06 -2.31399303643e-06 0.00023962683444
61
Lattice="8.42843558953 0 0 -4.21421779477 7.29923593142 0 0 0 31.0334408416" Properties=species:S:1:pos:R:3:forces:R:3 energy=-133601.231939 ionic_step=15 pbc="T T T"
Te 2.1071078757 1.2153840747 3.4691014383 1.54266202429e-06 -0.000288220688205 -0.00012958361004
Te 4.2152215026 4.8667392693 3.4691038787 0.000252225240971 0.000148352664669 -0.000130097830715
Te 6.3213279729 1.2165425294 3.4538880251 -1.02844134953e-06 -2.31399303643e-06 -0.000353783824237
Te -0.0010032467 4.8667390116 3.4691046047 -0.000251711020297 0.000151437988718 -0.000128812279028
Te -0.3935400765 0.227209553 7.5228277499 0.000203888497544 -0.000121613189582 0.00157480081646
Te 2.1071094294 3.6496155895 7.7188350453 -2.57110337382e-07 4.11376539811e-06 0.00127552438375
Te 4.6077609043 0.2272137148 7.522828155 -0.000207745152604 -0.00011878497587 0.00157454370613
Te -2.1071095054 3.1951931311 7.5228317931 -3.34243438596e-06 0.000235513069042 0.00157428659579
Te 6.5327e-06 -1.6919e-06 -0.0001137675 1.00273031579e-05 -8.48464113359e-06 -0.00136217056745
Te 2.1071097506 3.6496199499 -0.0001087058 -3.08532404858e-06 4.62798607287e-06 -0.00140073711806
Te 4.2142126341 -1.8766e-06 -0.0001135514 -9.25597214574e-06 -8.22753079621e-06 -0.00136422745015
Te -2.1071089457 3.6496269343 -0.0001142335 -5.14220674763e-07 8.74175147098e-06 -0.00136499878116
Te 0.5213990842 2.7341097183 13.6680746809 0.000634805422995 0.000366896451444 -0.00184065290532
Te 2.1071089637 5.4806371514 13.6680754638 2.8282137112e-06 -0.000735592675249 -0.00184142423633
Te 3.6928184111 2.7341097749 13.6680745149 -0.000635062533333 0.00035944025166 -0.00183448225722
Te -2.1071091706 6.082696156 14.7987357807 -2.31399303643e-06 3.59954472334e-06 -0.00179488726526
Te 2.1071081098 1.8185798313 17.3654719544 -2.05688269905e-06 0.000862605181915 -0.000114671210472
Te 3.6928354593 4.5651381971 17.3654713973 -0.000747419750768 -0.000433230918488 -0.000110814555411
Te 6.321326516 1.216542843 16.2347734955 1.02844134953e-06 4.11376539811e-06 -0.000708853200161
Te 0.521381093 4.5651376836 17.3654713436 0.000749990854142 -0.000425774718704 -0.000111842996761
Te 2.1071099468 0.6771191929 10.8030439521 4.88509641025e-06 -0.000245540372199 -0.0015963980848
Te 4.6813667892 5.1358665966 10.8030418473 0.000218286676437 0.000119042086208 -0.00159742652615
Te 6.3213265447 1.2165380074 11.303547173 -5.14220674763e-06 4.88509641025e-06 -0.00198334914256
Te -0.4671484966 5.1358657502 10.8030397529 -0.0002180295661 0.000124955623967 -0.0016005118502
Te 0.3935384347 -0.2272078685 23.5107012277 0.000280507378083 -0.000172006815708 0.00100041632275
Te 2.1071083402 3.6496234485 23.3147140965 -3.08532404858e-06 -2.31399303643e-06 0.00108629117544
Te 3.8206808856 -0.2272056818 23.5106988958 -0.000282564260782 -0.000160436850526 0.00100812963287
Te -2.1071077164 4.1040396315 23.5106968042 7.71331012145e-07 0.000328329900836 0.000996816778029
Te -0.0010204036 2.4324901076 27.5641059878 -0.000193346973711 -0.00010901478305 0.000261995433792
Te 2.1071079287 6.0838743219 27.5641054617 2.8282137112e-06 0.000225742876221 0.000262766764804
Te 4.2152373688 2.4324910539 27.5641061411 0.000197203628772 -0.000110043224399 0.000257110337382
Te -2.1071086501 6.0826961734 27.5793551185 6.9419791093e-06 1.02844134953e-05 0.00042320361533
Te -0.4671618961 2.1633664764 20.2304507933 -5.24505088259e-05 -2.93105784615e-05 0.00207436620199
Te 2.1071102378 6.6221330404 20.230448851 -5.14220674763e-06 6.11922602968e-05 0.00207693730537
Te 4.6813772076 2.1633662714 20.2304502129 5.21933984885e-05 -3.5738336896e-05 0.00207770863638
Te -2.1071092152 6.0827011146 19.7299365721 3.85665506072e-06 3.08532404858e-06 0.00227156983077
Sb -0.002472952 2.4316483793 9.3838493604 -0.000221629110823 -0.00012469851363 0.000494166068447
Sb 2.1071084786 6.0855530304 9.3838470896 -1.79977236167e-06 0.000251968130634 0.000502393599244
Sb 4.2166904649 2.4316493719 9.3838509211 0.000221372000486 -0.000126755396329 0.000490566523724
Sb -2.107107485 6.0826949052 8.0371873412 1.54266202429e-06 4.11376539811e-06 0.0010412968664
Sb 0.0003782719 2.4333017837 1.8864548685 -0.000241940827476 -0.000131640492739 -0.00135677125036
Sb 2.1071079307 6.0822601127 1.8864558596 -4.37087573549e-06 0.000275108060998 -0.00135574280901
Sb 4.2138390809 2.4332994186 1.8864555398 0.000242197937813 -0.000136782699487 -0.00135651414003
Sb -2.1071091768 6.082698376 1.8910176864 5.39931708501e-06 -5.14220674763e-06 -0.00153546293484
Sb -0.066046194 0.0381333298 17.9164829018 -0.000101815693603 6.37633636706e-05 0.00123567228146
Sb 2.1071074194 3.6496207237 19.6539571855 -3.34243438596e-06 -4.11376539811e-06 0.00173240945328
Sb 4.2802636832 0.0381350485 17.9164848894 0.000102329914278 5.96495982725e-05 0.00123824338483
Sb 6.3213271011 3.5733583006 17.9164865047 3.34243438596e-06 -0.000122898741268 0.00123567228146
Sb 0.06602973 -0.0381209353 13.1170479036 -7.19908944669e-05 4.4480088367e-05 -0.00276650723023
Sb 2.1071091474 3.6496163839 11.3796179713 1.28555168691e-06 -1.54266202429e-06 -0.00148224109501
Sb 4.1481886752 -0.0381215644 13.1170481707 7.09624531173e-05 4.96222951147e-05 -0.00277190654731
Sb -2.1071099996 3.7258633415 13.1170442406 -3.85665506072e-06 -8.79317353845e-05 -0.00277164943697
Sb 2.1071091402 1.2169843804 29.1467958239 -2.05688269905e-06 -0.000263538095816 -0.000952593799999
Sb 4.2138334269 4.8659386521 29.1467943398 0.000220600669473 0.000136011368475 -0.000952593799999
Sb 6.3213265728 1.2165401614 29.1422448853 -2.57110337382e-07 -8.22753079621e-06 -0.000710138751848
Sb 0.0003854996 4.8659371459 29.1467961618 -0.000221372000486 0.000133183154764 -0.000951822468987
Sb 2.107108158 1.2136776783 21.6496993609 3.08532404858e-06 -0.000313160390931 0.00150101014963
Sb 4.2166976428 4.8675927728 21.6496959226 0.000270737185263 0.000153751981754 0.00150049592896
Sb 6.3213272125 1.2165409702 22.9964775681 -4.11376539811e-06 -2.31399303643e-06 0.00113591347055
Sb -0.0024802202 4.8675940961 21.6496954316 -0.000270222964588 0.000155808864453 0.00150023881862
Cr 2.1071080481 3.649619437 15.5168110448 -0 -4.37087573549e-06 -0.00100890096389
61
Lattice="8.42843558953 0 0 -4.21421779477 7.29923593142 0 0 0 31.0334408416" Properties=species:S:1:pos:R:3:forces:R:3 energy=-133601.23194 ionic_step=16 pbc="T T T"
Te 2.1071075831 1.2154059218 3.4691086095 5.39931708501e-06 -0.000389779271471 0.000643547174466
Te 4.2152021513 4.8667278524 3.4691106203 0.000339128535006 0.000204402718218 0.000653317367287
Te 6.3213281076 1.2165426243 3.4539330471 -1.28555168691e-06 -4.11376539811e-06 0.000739963550984
Te -0.0009843906 4.8667273656 3.4691105475 -0.000332443666234 0.000210316255978 0.000660516456733
Te -0.3935362785 0.2272077075 7.5227945338 0.000237312841403 -0.00014038224421 0.00189181786245
Te 2.1071097241 3.6496152731 7.7186819347 -1.02844134953e-06 1.02844134953e-06 0.00150178148065
Te 4.6077576508 0.2272112709 7.5227950898 -0.000235770179379 -0.000133954485776 0.00189207497279
Te -2.1071091653 3.195198205 7.5227988337 -3.34243438596e-06 0.000265852088853 0.00187896234558
Te 5.737e-06 -1.6622e-06 -0.0001138715 3.34243438596e-05 -2.05688269905e-06 0.000660516456733
Te 2.1071097245 3.649620197 -0.000107535 -1.02844134953e-06 -7.71331012145e-06 0.000590582444966
Te 4.2142132076 -2.0636e-06 -0.0001133975 -2.18543786774e-05 5.6564274224e-06 0.000651260484588
Te -2.1071087407 3.6496269803 -0.0001137066 -4.62798607287e-06 1.28555168691e-06 0.000635833864345
Te 0.521434921 2.7341301423 13.6680756386 -0.000746134199081 -0.000432202477139 -0.00120070527557
Te 2.1071089624 5.4805961467 13.6680762372 -2.05688269905e-06 0.000862090961241 -0.00120199082726
Te 3.692782606 2.7341307814 13.6680745591 0.000745877088744 -0.000436830463211 -0.00119659151017
Te -2.1071092937 6.0826957406 14.798607061 1.02844134953e-06 1.15699651822e-05 -0.00304675749797
Te 2.1071081312 1.8186182095 17.3654717884 1.28555168691e-06 -0.000479767889554 -0.00467863680933
Te 3.6928023398 4.5651192665 17.3654707674 0.000409319657112 0.000236798620728 -0.00467657992663
Te 6.3213264651 1.2165425728 16.2349417603 -1.79977236167e-06 -1.079863417e-05 -0.00410039566056
Te 0.5214139366 4.565118396 17.3654711525 -0.000409576767449 0.000239112613765 -0.004678379699
Te 2.1071094903 0.6771649259 10.8030282186 -2.57110337382e-07 -0.000481053441241 0.00220060737765
Te 4.6813277281 5.1358435625 10.8030261507 0.000415747415546 0.000242455048151 0.00219777916394
Te 6.3213265797 1.2165383908 11.303336368 -3.85665506072e-06 -2.31399303643e-06 0.00186842082175
Te -0.4671093416 5.1358425593 10.8030236526 -0.000413947643184 0.000240398165452 0.00220343559136
Te 0.3935372665 -0.2272059419 23.5107192293 0.000698054565991 -0.000416261636221 0.000976762171713
Te 2.1071085466 3.6496228913 23.3148632181 -3.34243438596e-06 -6.42775843454e-06 0.00113308525684
Te 3.8206824805 -0.2272048318 23.5107159358 -0.000704225214088 -0.000399806574628 0.000990131909257
Te -2.107107581 4.1040377914 23.5107151113 -7.71331012145e-07 0.000809897562752 0.000978304833737
Te -0.0010013884 2.4325010295 27.5641005149 -0.000131897603077 -7.07053427799e-05 0.00176686223849
Te 2.1071074327 6.0838511591 27.5641003119 4.37087573549e-06 0.000158379967827 0.00176120581106
Te 4.2152170307 2.4325023541 27.5641005444 0.000144753119946 -7.58475495276e-05 0.0017696904522
Te -2.1071091256 6.082695466 27.5793149704 4.62798607287e-06 2.31399303643e-06 0.00159794074683
Te -0.46712972 2.1633851501 20.2304794111 0.000167635939973 9.53879351686e-05 -0.00341236839773
Te 2.1071097569 6.6220957547 20.2304774774 7.71331012145e-07 -0.000194118304723 -0.00341828193549
Te 4.6813455443 2.1633848311 20.2304790627 -0.000175606360432 9.92445902293e-05 -0.00341751060448
Te -2.1071092986 6.0827013781 19.7301567398 7.71331012145e-07 5.6564274224e-06 -0.00332392244167
Sb -0.0024590355 2.431657405 9.3837885316 -0.000281535819433 -0.000164807726262 0.00212501693846
Sb 2.1071080137 6.0855369139 9.3837851638 2.57110337382e-06 0.000327044349149 0.00211858918002
Sb 4.216676135 2.4316581023 9.3837901308 0.000284106922807 -0.000163522174575 0.00212167450407
Sb -2.1071068713 6.0826930786 8.0372211749 -5.14220674763e-06 3.85665506072e-06 0.00137785429803
Sb 0.0003567675 2.4332892167 1.8864342683 0.000195660966747 0.000114414100135 0.000296448219001
Sb 2.1071082728 6.0822850564 1.8864344846 -5.14220674763e-06 -0.000226514207233 0.000310846397894
Sb 4.2138607747 2.4332871507 1.8864344556 -0.000196175187422 0.000109786114062 0.000299276432712
Sb -2.107108842 6.0826982451 1.891022086 -3.08532404858e-06 3.85665506072e-06 0.000217515345425
Sb -0.0659842461 0.0380978334 17.9165057929 -0.000413947643184 0.000238084172415 -0.0048606709282
Sb 2.1071071526 3.6496208147 19.6539962248 1.54266202429e-06 -2.31399303643e-06 -0.00336248899228
Sb 4.2802018563 0.0380994637 17.9165078915 0.000413690532847 0.000238855503428 -0.00486092803854
Sb 6.3213272978 3.5734297328 17.9165093601 -1.02844134953e-06 -0.000477968117192 -0.00485835693516
Sb 0.0659731556 -0.0380881501 13.1170346882 5.50216121997e-05 -2.59681440755e-05 -0.000107215010688
Sb 2.1071095112 3.649616034 11.3796163023 -9.25597214574e-06 6.17064809716e-06 0.0016280226563
Sb 4.1482453432 -0.0380888702 13.1170351452 -5.27076191632e-05 -2.62252544129e-05 -0.000108243452038
Sb -2.1071100688 3.7257978115 13.1170313223 2.57110337382e-06 6.7362908394e-05 -0.000112357217436
Sb 2.1071093029 1.2169606306 29.1467839749 7.71331012145e-07 0.000206716711255 0.00123027296437
Sb 4.2138543376 4.8659513136 29.1467816489 -0.000178177463805 -0.000112871438111 0.00123207273673
Sb 6.3213273977 1.2165399898 29.1422066265 -1.02844134953e-05 8.22753079621e-06 0.00143210457922
Sb 0.0003649593 4.8659499042 29.146783561 0.000175606360432 -0.000111328776086 0.00123130140572
Sb 2.107108302 1.2136917256 21.6497628866 -1.28555168691e-06 -0.000304161529122 -0.000531447067368
Sb 4.2166850551 4.8675852034 21.6497583629 0.000268166081889 0.000153494871417 -0.000543531253225
Sb 6.3213272684 1.2165418327 22.9964431316 1.79977236167e-06 -7.71331012145e-07 0.000832780382779
Sb -0.0024681882 4.8675873943 21.6497586656 -0.000266366309527 0.000147581333657 -0.000541474370526
Cr 2.1071078249 3.6496192508 15.5168244553 -2.57110337382e-07 -4.37087573549e-06 -0.00286035250337
61
Lattice="8.42843558953 0 0 -4.21421779477 7.29923593142 0 0 0 31.0334408416" Properties=species:S:1:pos:R:3:forces:R:3 energy=-133601.23194 ionic_step=17 pbc="T T T"
Te 2.1071074397 1.2154260641 3.4691420573 4.37087573549e-06 -0.000337328762645 0.00114491233236
Te 4.2151842042 4.8667172799 3.4691437933 0.000298762212037 0.000180491456842 0.00116008184227
Te 6.3213279851 1.2165424001 3.4539978632 2.57110337382e-07 3.34243438596e-06 0.000240141055114
Te -0.0009670073 4.8667168899 3.4691435179 -0.000285649584831 0.000179205905155 0.00115776784923
Te -0.3935292343 0.2272038502 7.522739131 0.000116728093171 -6.83913497435e-05 0.0031521727363
Te 2.1071098145 3.6496152618 7.7187667573 -1.79977236167e-06 -3.08532404858e-06 0.000828152396706
Te 4.6077508039 0.2272069028 7.522739788 -0.000117242313846 -5.55358328744e-05 0.00314857319158
Te -2.1071089086 3.1952065509 7.5227433931 -5.39931708501e-06 0.000121098968907 0.00314985874326
Te 4.4903e-06 -1.3375e-06 -0.0001080595 0.000100530141916 -3.9080771282e-05 -0.00191727178585
Te 2.1071096689 3.6496201926 -0.0001019167 0 -3.08532404858e-06 -0.00190750159303
Te 4.2142138953 -1.8984e-06 -0.0001075853 -7.97042045883e-05 -3.34243438596e-05 -0.00191881444788
Te -2.1071087798 3.6496261885 -0.0001077885 1.54266202429e-06 8.84459560593e-05 -0.00192524220631
Te 0.5214745948 2.7341530678 13.6680717035 -0.000416775856896 -0.000244769041187 -0.000275365171336
Te 2.1071090025 5.4805504753 13.6680718312 -2.57110337382e-06 0.000479767889554 -0.000268166081889
Te 3.6927428059 2.7341537554 13.6680703627 0.00041729007757 -0.000245283261862 -0.000270737185263
Te -2.1071093064 6.0826956882 14.79860878 -1.79977236167e-06 7.71331012145e-07 -0.000769788350121
Te 2.107108251 1.8186691473 17.3654698599 -2.31399303643e-06 -0.000628120554223 -0.000109529003725
Te 3.6927584063 4.5650941042 17.3654687288 0.000540445929176 0.000308532404858 -0.000105929459001
Te 6.3213263913 1.2165423606 16.2349419325 4.11376539811e-06 8.22753079621e-06 -0.000652546036275
Te 0.5214578905 4.5650936394 17.3654693221 -0.00054301703255 0.000296962439676 -0.000109271893387
Te 2.1071090336 0.6771746989 10.8030302707 1.079863417e-05 -0.000278193385047 -0.000702939662401
Te 4.6813194387 5.1358387908 10.803028579 0.000237569951741 0.000140896464885 -0.000712452744884
Te 6.3213267046 1.2165388445 11.3033167347 -2.05688269905e-06 -1.10557445074e-05 0.000386951057759
Te -0.467101037 5.1358375632 10.8030261154 -0.000236798620728 0.000145267340621 -0.000710652972523
Te 0.3935325186 -0.2272027141 23.5107741896 -1.4141068556e-05 -2.05688269905e-06 -0.00131409093436
Te 2.1071086244 3.6496224855 23.3147799639 -1.02844134953e-06 5.14220674763e-06 0.000641747402105
Te 3.8206872559 -0.2272021347 23.5107706721 1.46552892308e-05 1.05415238326e-05 -0.00130792028626
Te -2.1071076962 4.1040321767 23.5107701772 1.79977236167e-06 -1.079863417e-05 -0.00131589070672
Te -0.0009824243 2.4325120053 27.5640802526 -0.00032010237004 -0.000181519898191 -0.00202037303114
Te 2.1071073062 6.0838291732 27.5640800402 1.54266202429e-06 0.000369724665155 -0.00202294413452
Te 4.2151977338 2.4325133295 27.5640801 0.000329872562861 -0.000184091001565 -0.00201265972102
Te -2.1071090452 6.0826954892 27.5792629076 -1.54266202429e-06 -2.05688269905e-06 -0.00104515352146
Te -0.4671222896 2.163389298 20.2304866994 4.42229780296e-05 2.59681440755e-05 0.00168073027546
Te 2.1071093982 6.6220869906 20.2304851662 1.20841858569e-05 -4.60227503913e-05 0.00167301696534
Te 4.681338485 2.1633889045 20.2304866025 -5.19362881511e-05 2.87963577867e-05 0.001672759855
Te -2.1071093702 6.0827012398 19.7301808698 -5.14220674763e-07 3.08532404858e-06 0.000610894161619
Sb -0.0025081847 2.43162953 9.3837765127 0.000555872549419 0.000311874839244 0.00092893964896
Sb 2.1071079099 6.0855939024 9.3837726581 3.59954472334e-06 -0.000640976071092 0.000937167179756
Sb 4.2167252095 2.4316303114 9.3837781068 -0.000554072777057 0.000311874839244 0.000929453869635
Sb -2.1071065735 6.0826925259 8.0371736221 -7.45619978407e-06 9.7701928205e-06 0.00249628426564
Sb 0.000356121 2.4332885624 1.8864387165 -9.25597214574e-05 -5.60500535492e-05 0.000291820232928
Sb 2.107108764 6.0822862783 1.8864387571 -7.45619978407e-06 0.000100015921241 0.00029953354305
Sb 4.2138616445 2.4332870252 1.8864388322 9.33310524695e-05 -6.06780396221e-05 0.000290277570904
Sb -2.1071086616 6.0826983379 1.8910882596 -1.28555168691e-06 3.34243438596e-06 -0.000105672348664
Sb -0.0659951115 0.0381040285 17.9164889146 0.00028873490888 -0.000167378829635 0.00110917399546
Sb 2.1071071436 3.6496208693 19.6539971282 1.54266202429e-06 -2.31399303643e-06 0.00190750159303
Sb 4.2802128892 0.0381054616 17.9164909449 -0.00029259156394 -0.0001630079539 0.00110891688513
Sb 6.321327104 3.5734169553 17.916492282 2.05688269905e-06 0.000335014769608 0.0011094311058
Sb 0.0659897449 -0.0380980593 13.1170422227 -0.000495708730472 0.000293362894952 -0.00138222517376
Sb 2.1071095908 3.6496160853 11.3796181894 -3.85665506072e-06 -2.8282137112e-06 -0.000841779244587
Sb 4.1482286752 -0.0380986144 13.1170429318 0.000496994282159 0.000290791791579 -0.0013865960495
Sb -2.1071098985 3.725817099 13.1170391494 -2.57110337382e-07 -0.00057541293506 -0.00138479627714
Sb 2.1071092693 1.216960314 29.1467643367 2.57110337382e-06 -0.000162493733225 -0.00298607945835
Sb 4.2138546112 4.8659515793 29.1467620964 0.000144753119946 7.63617702023e-05 -0.00299353565813
Sb 6.3213279159 1.2165398795 29.1421265764 -7.97042045883e-06 6.42775843454e-06 -0.00282512838715
Sb 0.0003646474 4.8659502033 29.1467637767 -0.000144496009608 7.94470942509e-05 -0.00298787923071
Sb 2.10710821 1.213637411 21.6497753853 -7.71331012145e-07 0.000784186529014 0.00106546523811
Sb 4.2167321269 4.8676122062 21.6497703319 -0.0006795426217 -0.000388750830121 0.00107240721722
Sb 6.3213274755 1.2165423269 22.9964900515 -7.71331012145e-07 -7.45619978407e-06 -0.000683142166423
Sb -0.0025152932 4.8676146029 21.6497708374 0.000679799732037 -0.000397235471255 0.00107060744486
Cr 2.107107883 3.6496189363 15.5168174906 -7.71331012145e-07 1.54266202429e-06 -0.000981390157786
61
Lattice="8.42843558953 0 0 -4.21421779477 7.29923593142 0 0 0 31.0334408416" Properties=species:S:1:pos:R:3:forces:R:3 energy=-133601.231941 ionic_step=18 pbc="T T T"
Te 2.1071073387 1.2154558335 3.469174533 0 -0.000103615465965 0.000466655262348
Te 4.2151577109 4.8667015996 3.469175632 9.71877075303e-05 6.11922602968e-05 0.000471026138083
Te 6.3213278055 1.2165420215 3.4540945381 2.05688269905e-06 1.28555168691e-06 0.000432202477139
Te -0.0009411679 4.8667013221 3.4691747225 -8.92172870714e-05 5.88782672604e-05 0.000476682565506
Te -0.3935096615 0.2271928381 7.5226565174 -0.000446343545695 0.000254025013333 -0.00155706020318
Te 2.1071099312 3.6496151984 7.7187608141 -3.34243438596e-06 4.62798607287e-06 -0.00161465291876
Te 4.6077317754 0.2271952132 7.5226570912 0.00044968598008 0.000258395889069 -0.00153983381058
Te -2.1071086433 3.1952292306 7.5226605005 -1.02844134953e-06 -0.000520905543535 -0.00154369046564
Te 2.8224e-06 -1.0321e-06 -0.0001038952 1.36268478812e-05 7.71331012145e-07 0.000894743974088
Te 2.1071095505 3.6496202133 -9.70826e-05 7.71331012145e-07 1.54266202429e-06 0.000888316215654
Te 4.2142148757 -1.7771e-06 -0.0001033096 -5.14220674763e-07 4.37087573549e-06 0.000895258194763
Te -2.1071088015 3.6496251066 -0.0001032977 5.14220674763e-07 2.8282137112e-06 0.000892172870714
Te 0.5215239742 2.7341817182 13.6680610932 4.19089849932e-05 2.8282137112e-05 0.00158662789198
Te 2.1071089789 5.4804937716 13.6680606332 1.79977236167e-06 -4.67940814035e-05 0.00159202720907
Te 3.6926932298 2.7341824049 13.6680595136 -3.88236609446e-05 2.98247991363e-05 0.00158971321603
Te -2.1071093285 6.0826955343 14.798523032 -7.71331012145e-07 -3.08532404858e-06 0.00144496009608
Te 2.1071084933 1.8187331604 17.3654845678 -1.28555168691e-06 -9.82161488798e-05 -0.000319073928691
Te 3.6927031337 4.565062519 17.3654832016 8.12468666126e-05 4.7822522753e-05 -0.000318559708016
Te 6.3213262811 1.216542042 16.2350534697 -5.14220674763e-07 -2.57110337382e-06 0.000325758797463
Te 0.5215132822 4.565062485 17.3654840213 -8.33037493116e-05 4.55085297165e-05 -0.000319588149365
Te 2.1071083863 0.6771888797 10.8030183725 5.6564274224e-06 8.63890733602e-05 3.49670058839e-05
Te 4.6813074794 5.1358318013 10.8030171447 -7.89328735762e-05 -4.57656400539e-05 3.34243438596e-05
Te 6.3213268462 1.2165392853 11.3031396457 5.14220674763e-07 1.79977236167e-06 0.000610122830607
Te -0.4670889525 5.1358303762 10.8030145585 7.79044322266e-05 -4.49943090418e-05 3.41956748718e-05
Te 0.3935172085 -0.2271930055 23.5108497575 4.26803160054e-05 -2.2882820027e-05 -0.000240398165452
Te 2.1071087685 3.649621833 23.3147830453 -4.62798607287e-06 6.9419791093e-06 6.45346946828e-05
Te 3.8207026785 -0.2271932821 23.5108459736 -4.03663229689e-05 -2.03117166531e-05 -0.000232427744993
Te -2.1071079275 4.1040144734 23.5108464059 3.08532404858e-06 5.01365157894e-05 -0.000248368585911
Te -0.0009547387 2.4325279937 27.5640589806 -0.000180491456842 -0.000108500562375 -0.000628634774898
Te 2.1071070814 6.083797173 27.564058585 3.08532404858e-06 0.000210059145641 -0.000626320781862
Te 4.2151695173 2.4325293088 27.5640586253 0.000186662104939 -0.000107729231363 -0.000628634774898
Te -2.1071090326 6.082695698 27.5791795962 -2.31399303643e-06 2.57110337382e-07 -0.000497765613171
Te -0.4671116449 2.1633952837 20.2305126138 -0.000100015921241 -5.75927155735e-05 -0.000647660939864
Te 2.1071088996 6.6220745659 20.2305113819 3.08532404858e-06 0.000119042086208 -0.000660002236059
Te 4.6813285379 2.1633949823 20.2305127879 9.48737144938e-05 -6.17064809716e-05 -0.000655117139648
Te -2.1071094483 6.0827011631 19.7303674796 5.14220674763e-07 5.14220674763e-07 -0.000997845219378
Sb -0.0025221423 2.4316222102 9.3837098209 -3.49670058839e-05 -1.87690546289e-05 -0.00111045954715
Sb 2.1071078038 6.0856103202 9.3837053328 7.71331012145e-07 3.26530128475e-05 -0.00110377467838
Sb 4.2167390053 2.4316229113 9.383711367 3.47098955465e-05 -1.82548339541e-05 -0.00111045954715
Sb -2.1071061454 6.0826918179 8.0371544742 2.57110337382e-07 -2.8282137112e-06 -0.0015771148095
Sb 0.0003508787 2.433284824 1.8864369097 6.60773567071e-05 4.13947643184e-05 0.00197152206704
Sb 2.1071095502 6.082293087 1.8864367203 -3.08532404858e-06 -8.07326459378e-05 0.00197280761873
Sb 4.2138673008 2.4332841453 1.8864369544 -6.86484600809e-05 3.83094402699e-05 0.00197306472907
Sb -2.1071084962 6.0826984822 1.8911694422 -3.59954472334e-06 2.57110337382e-07 0.00177946064502
Sb -0.0659583695 0.0380827067 17.9164937306 -3.39385645344e-05 1.59408409177e-05 -0.000100787252254
Sb 2.1071071116 3.6496209657 19.654009017 -1.28555168691e-06 -2.31399303643e-06 -0.000563071638866
Sb 4.2801762967 0.0380836704 17.9164956583 3.29101231848e-05 1.90261649662e-05 -9.97588109041e-05
Sb 6.3213268212 3.5734590727 17.9164968027 7.71331012145e-07 -3.44527852091e-05 -0.000101558583266
Sb 0.0659618615 -0.0380822736 13.1170367648 8.38179699864e-05 -5.47645018623e-05 0.0011114879885
Sb 2.1071097335 3.6496163289 11.3796152239 -1.02844134953e-06 3.59954472334e-06 0.000250682578947
Sb 4.1482563606 -0.0380825521 13.1170376751 -8.48464113359e-05 -5.42502811875e-05 0.0011114879885
Sb -2.107109717 3.7257848207 13.1170341134 -2.57110337382e-06 9.48737144938e-05 0.00110377467838
Sb 2.107109102 1.2169554398 29.1467382877 -3.59954472334e-06 0.000103615465965 -0.000414976084534
Sb 4.213858739 4.8659541814 29.1467359761 -8.94743974088e-05 -4.75654124156e-05 -0.000413947643184
Sb 6.3213284779 1.2165397292 29.1420187292 2.8282137112e-06 -2.05688269905e-06 -0.000392350374844
Sb 0.0003602687 4.8659528097 29.1467373294 9.17883904452e-05 -5.27076191632e-05 -0.000415233194871
Sb 2.1071081831 1.2136244954 21.6498368254 5.14220674763e-07 -9.48737144938e-05 -0.000191032980675
Sb 4.2167433124 4.8676185554 21.6498315841 8.12468666126e-05 4.83367434277e-05 -0.00018460522224
Sb 6.3213277774 1.2165431053 22.9965053047 1.28555168691e-06 1.28555168691e-06 0.000133697375438
Sb -0.002526662 4.8676210336 21.649832319 -8.07326459378e-05 4.65369710661e-05 -0.000187433435951
Cr 2.1071079653 3.6496186615 15.5168133109 1.28555168691e-06 6.68486877192e-06 0.000594439100026
61
Lattice="8.42843558953 0 0 -4.21421779477 7.29923593142 0 0 0 31.0334408416" Properties=species:S:1:pos:R:3:forces:R:3 energy=-133601.231941 ionic_step=19 pbc="T T T"
Te 2.1071074905 1.2154560233 3.4691706227 -4.88509641025e-06 -2.00546063158e-05 0.000120841858569
Te 4.2151574837 4.866701362 3.4691715342 2.15972683401e-05 1.33697375438e-05 0.000122898741268
Te 6.3213276397 1.216541781 3.4541076026 4.37087573549e-06 6.42775843454e-06 -0.000401092126315
Te -0.0009408856 4.8667012437 3.469170665 -2.23685993522e-05 8.48464113359e-06 0.000118527865533
Te -0.3935031785 0.2271890687 7.5226359531 -0.000208516483617 0.00011878497587 0.000966477758218
Te 2.1071098266 3.6496152695 7.7187177126 7.71331012145e-07 1.54266202429e-06 0.000833808824129
Te 4.6077254198 0.2271915605 7.5226362552 0.000204916938893 0.000115185431147 0.000970591523616
Te -2.10710877 3.195236035 7.5226396935 2.57110337382e-06 -0.000220343559136 0.000973933958002
Te 2.5105e-06 -9.768e-07 -0.000104979 3.59954472334e-06 -1.28555168691e-06 0.00103024112189
Te 2.1071094963 3.6496200874 -9.82001e-05 -0 5.6564274224e-06 0.00104386796977
Te 4.2142149665 -1.6787e-06 -0.000104442 2.57110337382e-06 -3.59954472334e-06 0.00103692599066
Te -2.107108945 3.6496245906 -0.0001045901 4.88509641025e-06 1.18270755196e-05 0.00104566774213
Te 0.5215183255 2.734178679 13.6680530194 -0.000265852088853 -0.000158379967827 -0.000248625696248
Te 2.1071089292 5.4805002025 13.6680524464 1.79977236167e-06 0.000311617728907 -0.000245797482537
Te 3.6926987578 2.7341790346 13.6680518975 0.000269708743913 -0.000150152437031 -0.000256596116707
Te -2.1071092739 6.082695617 14.7984690194 -1.79977236167e-06 -0 0.000284621143481
Te 2.1071085958 1.8187319539 17.3655043583 -5.14220674763e-07 -0.000566156962914 -0.000345042072766
Te 3.692704175 4.5650631453 17.3655031016 0.000488509641025 0.000283849812469 -0.000353269603562
Te 6.3213262449 1.2165421116 16.2351107149 7.71331012145e-07 -1.79977236167e-06 -0.000354298044912
Te 0.5215124363 4.5650634393 17.3655037384 -0.000491852075411 0.000279221826396 -0.000347098955465
Te 2.1071083106 0.677172445 10.8030099091 2.57110337382e-06 0.00041729007757 0.000833037493116
Te 4.6813215304 5.1358400829 10.8030088219 -0.000355583596599 -0.000214944242051 0.000829180838056
Te 6.3213268806 1.2165391081 11.3030749156 -1.54266202429e-06 3.08532404858e-06 0.000666944215168
Te -0.4671029348 5.1358386818 10.8030062901 0.000353783824237 -0.00021211602834 0.000825324182995
Te 0.3935117779 -0.2271899988 23.5108719558 0.000172006815708 -9.64163765181e-05 -0.00156425929263
Te 2.1071086922 3.6496218325 23.3148242753 7.71331012145e-07 -1.54266202429e-06 -0.00152440719034
Te 3.8207079929 -0.2271901278 23.5108686198 -0.00016892149166 -9.79590385424e-05 -0.00157017283039
Te -2.1071081341 4.1040085936 23.5108689008 2.31399303643e-06 0.000194375415061 -0.00156400218229
Te -0.000953778 2.4325285303 27.5640589598 -5.91353775978e-05 -3.67667782456e-05 0.00077081679147
Te 2.107107242 6.0837968381 27.5640582527 -2.8282137112e-06 5.06507364642e-05 0.000784443639351
Te 4.2151690637 2.4325296186 27.5640586406 4.60227503913e-05 -2.87963577867e-05 0.000769274129446
Te -2.1071087715 6.0826962523 27.5791636945 -6.9419791093e-06 -1.02844134953e-05 0.00123412961943
Te -0.4671223832 2.1633889889 20.2305220166 0.000262766764804 0.000153237761079 -0.00189593162785
Te 2.1071089304 6.6220870095 20.2305208369 -3.34243438596e-06 -0.000298247991363 -0.00189130364178
Te 4.6813393467 2.1633889044 20.2305221852 -0.000262252544129 0.000145524450958 -0.00189258919347
Te -2.1071094027 6.0827009901 19.7304323254 1.54266202429e-06 1.79977236167e-06 -0.00160385428459
Sb -0.0024958541 2.4316371472 9.3836776044 -0.000274336729986 -0.000152980650742 0.000795756494196
Sb 2.1071080398 6.0855801014 9.3836733725 -2.31399303643e-06 0.000313674611606 0.000793956721834
Sb 4.2167129188 2.431637877 9.3836791154 0.000273565398974 -0.000154780423104 0.00079729915622
Sb -2.1071061908 6.0826925217 8.0371710174 2.05688269905e-06 -1.28555168691e-05 0.000295162667314
Sb 0.0003580006 2.4332885849 1.8864403873 -0.000200546063158 -0.000110043224399 0.000355840706936
Sb 2.1071097404 6.0822851814 1.8864405972 -4.11376539811e-06 0.000226257096896 0.000348384507152
Sb 4.2138603158 2.4332881582 1.8864407354 0.000198746290796 -0.00011492832081 0.000350955610526
Sb -2.1071086051 6.0826986108 1.8911888362 1.79977236167e-06 -2.05688269905e-06 0.000118270755196
Sb -0.0659393497 0.0380716268 17.9165048852 -9.7701928205e-06 7.97042045883e-06 -0.000626063671524
Sb 2.1071072719 3.6496209947 19.6540055032 -3.59954472334e-06 -2.57110337382e-06 -0.00109786114062
Sb 4.2801572067 0.0380723506 17.9165066884 1.079863417e-05 9.51308248312e-06 -0.000621949906126
Sb 6.3213265396 3.5734810315 17.9165078779 4.62798607287e-06 -1.20841858569e-05 -0.000626320781862
Sb 0.0659449086 -0.0380726233 13.1170294361 1.43981788934e-05 -8.48464113359e-06 0.00019540385641
Sb 2.1071096069 3.6496166917 11.3796044134 3.85665506072e-06 -3.59954472334e-06 0.000525533529608
Sb 4.1482730803 -0.0380727246 13.1170303211 -1.28555168691e-05 -8.74175147098e-06 0.000193604084048
Sb -2.1071096186 3.7257652335 13.1170268283 -4.37087573549e-06 1.69692822672e-05 0.000190775870337
Sb 2.1071089418 1.2169643923 29.1467365182 -1.54266202429e-06 -0.000222400441835 0.00153134916944
Sb 4.2138507191 4.8659492479 29.1467345501 0.000190775870337 0.000120327637895 0.00152517852135
Sb 6.3213281218 1.2165398443 29.1420028243 4.62798607287e-06 -5.39931708501e-06 0.00173266656361
Sb 0.0003678413 4.8659478679 29.1467357377 -0.000186147884264 0.000116985203509 0.00152749251438
Sb 2.1071081453 1.2136576186 21.649860996 1.79977236167e-06 -0.000369981775492 -0.00197897826683
Sb 4.2167149662 4.8676023369 21.6498565278 0.000318816818353 0.000185119442915 -0.00198206359087
Sb 6.3213278995 1.2165430919 22.9964867128 -4.37087573549e-06 -3.85665506072e-06 -0.00114491233236
Sb -0.0024981418 4.8676042984 21.6498568658 -0.000319073928691 0.000187947656626 -0.00198129225986
Cr 2.1071081448 3.6496187214 15.5168058481 -1.28555168691e-06 2.05688269905e-06 -7.91899839135e-05
61
Lattice="8.42843558953 0 0 -4.21421779477 7.29923593142 0 0 0 31.0334408416" Properties=species:S:1:pos:R:3:forces:R:3 energy=-133601.231941 ionic_step=20 pbc="T T T"
Te 2.1071079812 1.215438976 3.4691506146 -7.97042045883e-06 0.000324216135438 0.00155191799644
Te 4.2151725334 4.8667100808 3.4691515958 -0.000283592702132 -0.000168664381322 0.00155011822407
Te 6.3213273134 1.2165413638 3.4540814115 6.42775843454e-06 1.31126272065e-05 0.00155860286521
Te -0.0009554585 4.8667104195 3.4691512549 0.000274079619649 -0.000176377691444 0.00154471890699
Te -0.3935052549 0.2271900074 7.5226243655 -0.000129326499703 7.32764461538e-05 -0.00172495325349
Te 2.1071094543 3.6496155923 7.7186536478 3.34243438596e-06 1.02844134953e-06 -0.00167224563433
Te 4.6077274421 0.2271932518 7.5226241975 0.000126755396329 5.3221839838e-05 -0.00171389750899
Te -2.1071092905 3.1952316694 7.5226275197 1.20841858569e-05 -8.76746250471e-05 -0.00171389750899
Te 2.5329e-06 -8.304e-07 -0.0001084984 -1.00273031579e-05 -5.14220674763e-07 0.00203220010666
Te 2.10710942 3.6496196229 -0.000102459 3.85665506072e-06 8.99886180836e-06 0.00207642308469
Te 4.2142146483 -1.2911e-06 -0.0001082542 1.46552892308e-05 -7.45619978407e-06 0.00204634117522
Te -2.1071094081 3.6496236178 -0.000108981 1.13128548448e-05 1.92832753036e-05 0.00206536734019
Te 0.5214687519 2.7341504623 13.6680313951 0.000752047736841 0.000427831601403 0.0016341933044
Te 2.1071088267 5.4805568977 13.6680307654 2.8282137112e-06 -0.000862862292253 0.00163650729743
Te 3.6927481176 2.7341499332 13.668031694 -0.000749990854142 0.000436830463211 0.00162673710461
Te -2.1071090979 6.0826959655 14.7983976897 -2.8282137112e-06 -2.05688269905e-06 0.0022587143139
Te 2.107108701 1.818687639 17.3655485002 -3.08532404858e-06 0.000432973808151 0.00114054145662
Te 3.6927423657 4.5650851041 17.3655477166 -0.000375381092577 -0.000213401580027 0.00113668480156
Te 6.3213262248 1.2165424035 16.2351612053 2.05688269905e-06 -2.8282137112e-06 0.00196329453625
Te 0.5214747087 4.5650860975 17.3655477075 0.000371781547854 -0.000222143331498 0.00114028434629
Te 2.1071084898 0.6771217468 10.8029974921 7.71331012145e-07 0.000312903280593 -0.00111071665749
Te 4.6813647141 5.1358656407 10.8029966589 -0.000259424330418 -0.000158637078164 -0.00111688730559
Te 6.3213269259 1.2165385478 11.3030740772 -2.31399303643e-06 1.20841858569e-05 -0.00111277354019
Te -0.4671460519 5.1358643938 10.8029944927 0.000258138778731 -0.000155037533441 -0.00112331506402
Te 0.3935142894 -0.2271923771 23.5108994836 -0.000368953334143 0.000222400441835 -0.00191547201349
Te 2.1071083517 3.6496222927 23.3148901451 4.88509641025e-06 -2.05688269905e-06 -0.0016617041105
Te 3.8207050766 -0.2271914976 23.5108976587 0.000372038658191 0.000214687131714 -0.00192884175104
Te -2.107108583 4.1040126357 23.5108966097 3.08532404858e-06 -0.00043888734591 -0.00191598623417
Te -0.0009671577 2.4325207005 27.5640646275 0.000207745152604 0.000116470982834 -0.00141384974526
Te 2.1071079131 6.0838145249 27.5640631115 -9.7701928205e-06 -0.000277422054035 -0.00139765179401
Te 4.2151843548 2.4325211098 27.5640646015 -0.000244254820513 0.000132926044426 -0.00142079172437
Te -2.1071079683 6.0826976732 27.5791761401 -1.87690546289e-05 -2.72536957625e-05 -0.00123335828842
Te -0.4671544071 2.1633702716 20.2305295169 0.000102329914278 6.29920326585e-05 -0.000106186569339
Te 2.1071092842 6.6221241027 20.2305284378 -3.59954472334e-06 -0.000121098968907 -0.00010310124529
Te 4.6813710401 2.1633707211 20.2305295354 -0.000100787252254 5.93924879352e-05 -9.95017005667e-05
Te -2.1071093137 6.0827004502 19.730432457 -2.05688269905e-06 1.05415238326e-05 0.000358154699973
Sb -0.0024468481 2.4316643702 9.3836513644 -0.000215458462726 -0.000120584748232 -0.00200571774191
Sb 2.1071087836 6.085523517 9.3836481977 -4.62798607287e-06 0.000249139916923 -0.0020152308244
Sb 4.2166645964 2.4316653344 9.3836527318 0.000211601807665 -0.000121613189582 -0.00200314663854
Sb -2.1071065466 6.0826949542 8.0372036964 6.17064809716e-06 -2.46825923886e-05 -0.0023178496915
Sb 0.0003816766 2.4333018845 1.8864559056 -0.000151437988718 -8.22753079621e-05 0.00266623419865
Sb 2.1071096489 6.0822581576 1.8864573993 2.57110337382e-07 0.000168664381322 0.00265157890942
Sb 4.2138366646 2.4333015358 1.886457104 0.000148609775007 -8.25324182995e-05 0.00265877799886
Sb -2.1071089036 6.0826988043 1.8912026584 5.14220674763e-07 -3.34243438596e-06 0.00251453909959
Sb -0.0659304929 0.0380663051 17.916523494 -9.05028387583e-05 5.57929432118e-05 0.00103949709403
Sb 2.1071078151 3.6496209202 19.6539986077 -7.45619978407e-06 3.08532404858e-06 9.25597214574e-05
Sb 4.280148114 0.0380667767 17.9165250515 9.38452731443e-05 5.83640465856e-05 0.00104283952842
Sb 6.3213258832 3.5734913705 17.9165264271 8.22753079621e-06 -0.000106700790013 0.00103975420437
Sb 0.0659369165 -0.0380682673 13.1170134291 0.000281021598758 -0.000160951071201 0.00109323315455
Sb 2.1071091064 3.6496175088 11.3795616702 7.71331012145e-06 -1.25984065317e-05 -0.00018949031865
Sb 4.1482805746 -0.0380680462 13.1170141551 -0.000276136502348 -0.00016197951255 0.00109349026488
Sb -2.1071094163 3.7257561264 13.1170105732 -5.39931708501e-06 0.000322416363077 0.00109271893387
Sb 2.1071087515 1.2169928098 29.1467425699 -7.71331012145e-07 -0.00017972012583 0.000271765626612
Sb 4.2138255602 4.8659335376 29.1467417738 0.000156323085128 0.000101301472928 0.000263795206154
Sb 6.3213267246 1.2165403124 29.1420129654 6.9419791093e-06 -7.19908944669e-06 0.000329101231848
Sb 0.0003919817 4.8659323036 29.1467426765 -0.000150409547368 9.87303695545e-05 0.000267651861214
Sb 2.1071080479 1.2137218837 21.6498729831 2.31399303643e-06 -0.000230370862294 -0.00104361085943
Sb 4.2166603196 4.8675711853 21.6498706143 0.000194632525398 0.000110814555411 -0.00105055283854
Sb 6.3213280496 1.2165426423 22.9964519107 -3.08532404858e-06 2.57110337382e-06 -0.000913513028717
Sb -0.0024427984 4.8675717294 21.6498697777 -0.000195918077085 0.000118270755196 -0.00104746751449
Cr 2.1071085779 3.6496189059 15.5167850526 -4.88509641025e-06 2.05688269905e-06 0.00163239353204
61
Lattice="8.42843558953 0 0 -4.21421779477 7.29923593142 0 0 0 31.0334408416" Properties=species:S:1:pos:R:3:forces:R:3 energy=-133601.231941 ionic_step=21 pbc="T T T"
Te 2.1071081513 1.215443373 3.4691568407 -2.05688269905e-06 -5.8621156923e-05 0.0012133036821
Te 4.2151687399 4.8667077772 3.469157812 5.45073915249e-05 2.98247991363e-05 0.0012133036821
Te 6.3213271635 1.2165411639 3.4540904177 1.54266202429e-06 6.42775843454e-06 0.00101661427401
Te -0.0009516933 4.8667083747 3.4691574827 -5.37360605128e-05 2.59681440755e-05 0.00121407501312
Te -0.3935129422 0.2271945359 7.5225738638 0.000365353789419 -0.000213144469689 0.00310923530996
Te 2.1071093535 3.6496156967 7.7185745575 -5.14220674763e-07 7.71331012145e-07 0.00284389744178
Te 4.6077353802 0.2271980103 7.5225735649 -0.000366382230769 -0.000215201352388 0.00311052086164
Te -2.1071094395 3.1952215402 7.522576736 1.54266202429e-06 0.000428860042753 0.00311077797198
Te 1.6051e-06 -3.733e-07 -0.0001072432 1.59408409177e-05 -5.91353775978e-06 0.00116779515239
Te 2.1071093502 3.6496193069 -0.0001018603 2.05688269905e-06 3.34243438596e-06 0.00118450732432
Te 4.2142149813 -7.968e-07 -0.0001071999 -2.8282137112e-06 -4.37087573549e-06 0.00117293735913
Te -2.1071097453 3.6496223435 -0.0001083037 5.39931708501e-06 1.90261649662e-05 0.00118219333128
Te 0.5214561532 2.7341432272 13.6680112814 -0.00124955623967 -0.000722994268717 -0.0010646939071
Te 2.1071087506 5.4805710863 13.6680104466 1.02844134953e-06 0.00144675986845 -0.0010626370244
Te 3.6927606356 2.7341424384 13.6680119928 0.00124981335001 -0.000719137613656 -0.00106726501047
Te -2.1071090457 6.0826960101 14.798295353 -5.14220674763e-07 0 -0.000371524437516
Te 2.1071087486 1.8186837265 17.3655788875 -5.14220674763e-07 -0.0015007530393 -0.000476682565506
Te 3.6927457135 4.5650871002 17.365578207 0.00130020697614 0.000750762185154 -0.000476939675843
Te 6.3213261653 1.216542361 16.2352607001 5.14220674763e-07 0 -0.000982675709473
Te 0.5214714749 4.5650884367 17.3655780146 -0.00130123541749 0.000748191081781 -0.000475911234493
Te 2.1071082408 0.677116691 10.8029798035 2.8282137112e-06 -0.000285392474494 0.00288914886116
Te 4.6813688082 5.1358683091 10.8029794482 0.000252739461646 0.00014141068556 0.00288272110272
Te 6.3213270352 1.216538548 11.3030249702 -5.14220674763e-07 -1.02844134953e-06 0.00242480759185
Te -0.4671501393 5.1358670035 10.8029774788 -0.000253253682321 0.000142953347584 0.00287886444766
Te 0.3935237088 -0.2271977676 23.5109561925 -8.48464113359e-05 4.83367434277e-05 -0.00318045487341
Te 2.1071081866 3.6496223008 23.3149709234 2.31399303643e-06 -5.14220674763e-07 -0.00308738093128
Te 3.8206955904 -0.2271967591 23.5109549874 8.45893009986e-05 4.96222951147e-05 -0.0031817404251
Te -2.1071088706 4.1040241075 23.5109534041 -5.14220674763e-07 -0.000101815693603 -0.00317916932172
Te -0.0009617118 2.4325237565 27.5640516089 -4.55085297165e-05 -2.69965854251e-05 0.000247083034224
Te 2.1071081772 6.0838091215 27.5640496586 -2.05688269905e-06 4.21660953306e-05 0.000253767902996
Te 4.2151796162 2.4325238437 27.5640517621 3.75381092577e-05 -2.15972683401e-05 0.000245540372199
Te -2.1071075294 6.0826982999 27.5791621623 -6.17064809716e-06 -7.19908944669e-06 0.000354555155249
Te -0.4671548454 2.1633698056 20.2305535696 -7.17337841295e-05 -3.9080771282e-05 -0.00444723750569
Te 2.1071091821 6.6221245261 20.2305528996 1.28555168691e-06 8.20181976247e-05 -0.00444775172636
Te 4.6813715184 2.163370556 20.2305537123 7.14766737921e-05 -4.06234333063e-05 -0.004445951954
Te -2.107109351 6.0826999509 19.7304888863 -5.14220674763e-07 1.54266202429e-06 -0.00393095994823
Sb -0.0024426937 2.4316665758 9.3836102387 -0.000319331039028 -0.000184091001565 0.00332855042774
Sb 2.1071091133 6.0855187254 9.3836072256 -1.28555168691e-06 0.00037023888583 0.00332597932437
Sb 4.2166607289 2.4316677028 9.383611477 0.000317788377004 -0.00018460522224 0.00332983597943
Sb -2.1071063866 6.0826956887 8.0372092916 -7.71331012145e-07 -7.19908944669e-06 0.00274259596885
Sb 0.0003869796 2.4333046593 1.8864650347 -7.19908944669e-06 -7.71331012145e-07 0.000982418599135
Sb 2.1071097164 6.0822523407 1.8864670209 -1.02844134953e-06 5.14220674763e-06 0.000975733730363
Sb 4.2138313793 2.4333045338 1.8864665426 6.42775843454e-06 -3.08532404858e-06 0.000979333275087
Sb -2.1071088536 6.0826988191 1.8912381547 -7.71331012145e-07 -5.14220674763e-07 0.000877517581484
Sb -0.0659128762 0.0380562055 17.9165389959 -0.000116213872496 6.65915773818e-05 -0.0018969600692
Sb 2.1071081881 3.6496208959 19.6540294287 -1.28555168691e-06 0 -0.00314651630888
Sb 4.2801304715 0.038056596 17.9165404323 0.000116470982834 6.81342394061e-05 -0.00189541740718
Sb 6.3213255124 3.5735116397 17.9165417879 3.08532404858e-06 -0.000133954485776 -0.00189516029684
Sb 0.0659246128 -0.0380613441 13.1169978559 6.04209292847e-05 -3.39385645344e-05 0.000532989729392
Sb 2.1071089357 3.6496178411 11.3795135215 1.54266202429e-06 -3.08532404858e-06 0.00179257327222
Sb 4.1482926003 -0.0380610046 13.1169986852 -5.8621156923e-05 -3.47098955465e-05 0.000532475508717
Sb -2.1071092582 3.7257420487 13.116995036 -1.54266202429e-06 6.9419791093e-05 0.000532989729392
Sb 2.1071088933 1.2170008402 29.1467328839 2.57110337382e-07 -4.11376539811e-06 0.00117885089689
Sb 4.2138184807 4.8659287441 29.1467325557 6.17064809716e-06 6.9419791093e-06 0.0011747371315
Sb 6.3213262396 1.2165406795 29.1419774872 2.57110337382e-06 -1.79977236167e-06 0.00129840720378
Sb 0.0003986203 4.8659278688 29.1467332918 -2.8282137112e-06 6.42775843454e-06 0.00117782245555
Sb 2.1071079765 1.2137318482 21.6499066082 1.02844134953e-06 -0.000389007940458 -0.00446549233964
Sb 4.2166523141 4.8675665342 21.649904865 0.000334243438596 0.000191804311687 -0.00446806344302
Sb 6.3213281934 1.2165429038 22.9964413936 -1.54266202429e-06 -2.57110337382e-07 -0.00321285077592
Sb -0.0024344935 4.8675666743 21.649903666 -0.00033578610062 0.000194375415061 -0.00446703500167
Cr 2.1071087458 3.6496188333 15.5167744243 -1.02844134953e-06 5.14220674763e-07 -0.000515763336788
61
Lattice="8.42843558953 0 0 -4.21421779477 7.29923593142 0 0 0 31.0334408416" Properties=species:S:1:pos:R:3:forces:R:3 energy=-133601.231942 ionic_step=22 pbc="T T T"
Te 2.1071082472 1.2154615895 3.4691901726 -1.54266202429e-06 -0.000182291229204 -0.000501622268232
Te 4.2151528999 4.8666984596 3.4691910787 0.000160693960864 9.41023834817e-05 -0.000499051164858
Te 6.3213271194 1.2165411323 3.4541191766 -5.14220674763e-07 2.05688269905e-06 -0.000363554017058
Te -0.0009360421 4.8666992057 3.4691904072 -0.000156065974791 9.07599490957e-05 -0.000492366296086
Te -0.3935251258 0.2272019014 7.5224888315 -0.000333472107584 0.000186404994602 -0.00115134009079
Te 2.1071093695 3.6496158035 7.7184931106 -5.14220674763e-07 1.28555168691e-06 -0.000735592675249
Te 4.6077479866 0.227205367 7.5224885974 0.000332443666234 0.000187690546289 -0.00115288275282
Te -2.1071094223 3.1952065252 7.5224914855 -2.57110337382e-07 -0.00037512398224 -0.00114388389101
Te 4e-10 3.136e-07 -0.0001035377 5.11649571389e-05 -2.2882820027e-05 0.00219597939158
Te 2.1071092701 3.6496190254 -9.81297e-05 7.71331012145e-07 7.97042045883e-06 0.00220600669473
Te 4.2142158074 -1.585e-07 -0.0001036108 -2.98247991363e-05 -2.13401580027e-05 0.00220060737765
Te -2.1071100316 3.649620683 -0.000104989 7.71331012145e-06 5.19362881511e-05 0.00220909201878
Te 0.5214605466 2.7341455193 13.6679803871 0.000331415224885 0.000192318532361 0.00386179726747
Te 2.107108644 5.4805657385 13.6679793397 2.05688269905e-06 -0.000376666644264 0.0038653968122
Te 3.6927562603 2.7341448276 13.6679811186 -0.000330643893873 0.000192061422024 0.00386025460545
Te -2.1071090429 6.0826959342 14.7981688852 -1.28555168691e-06 7.71331012145e-07 0.00392016131406
Te 2.1071087406 1.818697524 17.3656077516 -0 -4.88509641025e-05 -0.000362011355033
Te 3.6927337793 4.5650803542 17.3656069636 4.16518746558e-05 2.44254820513e-05 -0.00036329690672
Te 6.3213260769 1.2165420933 16.2353855822 1.54266202429e-06 2.05688269905e-06 0.000923797442212
Te 0.5214833189 4.5650816894 17.3656068223 -4.19089849932e-05 2.31399303643e-05 -0.000362268465371
Te 2.1071078044 0.677136205 10.8029503584 7.45619978407e-06 -6.71057980566e-05 0.00179591570661
Te 4.6813519319 5.1358587223 10.8029506449 6.24778119837e-05 3.16245714979e-05 0.00178640262413
Te 6.3213271559 1.2165388787 11.3029584126 -1.54266202429e-06 -2.05688269905e-06 0.00233893273916
Te -0.4671333074 5.1358573175 10.8029488061 -6.17064809716e-05 3.49670058839e-05 0.00178434574143
Te 0.3935396263 -0.2272063765 23.5110468271 -0.000432459587476 0.000245540372199 -0.00339719888782
Te 2.1071080663 3.649622055 23.3150586117 2.57110337382e-06 2.31399303643e-06 -0.00341931037684
Te 3.8206798151 -0.2272056289 23.511045897 0.000430659815114 0.000246054592874 -0.00339899866019
Te -2.107109117 4.1040429675 23.511044191 3.08532404858e-06 -0.000498536944183 -0.00339822732917
Te -0.0009436756 2.4325339847 27.5640172893 -0.00029953354305 -0.000171492595034 0.000329872562861
Te 2.1071082555 6.0837885825 27.5640152113 -0 0.000342470969392 0.000333986328259
Te 4.2151616811 2.4325338972 27.5640175796 0.000300047763724 -0.00016789305031 0.000326530128475
Te -2.107107341 6.0826984687 27.5791353306 -5.6564274224e-06 -7.71331012145e-07 0.000326787238812
Te -0.4671381949 2.1633792012 20.2305951887 -0.000412662091498 -0.000238341282753 -0.00339874154985
Te 2.1071088187 6.622105064 20.230595141 3.08532404858e-06 0.000426288939379 -0.00333343552415
Te 4.6813550994 2.1633801973 20.2305955862 0.000383351513036 -0.000223685993522 -0.00337868694353
Te -2.1071094482 6.0826993269 19.7305677178 1.54266202429e-06 7.71331012145e-06 -0.00313906010909
Sb -0.0024708736 2.4316505349 9.3835564415 0.000106700790013 6.55631360323e-05 -0.000432716697813
Sb 2.1071093657 6.0855511998 9.3835532447 -1.54266202429e-06 -0.000128555168691 -0.000454056855816
Sb 4.2166890457 2.4316517724 9.3835575118 -0.000108500562375 6.55631360323e-05 -0.000436830463211
Sb -2.1071059047 6.0826957245 8.0371896999 -6.42775843454e-06 -3.85665506072e-06 -0.0012806665905
Sb 0.0003805674 2.4333006396 1.8864787111 -7.71331012145e-07 3.08532404858e-06 0.00186584971838
Sb 2.1071097679 6.0822598184 1.8864807871 -1.54266202429e-06 0 0.001863278615
Sb 4.213837686 2.4333007922 1.8864802301 2.57110337382e-06 -7.71331012145e-07 0.00186610682872
Sb -2.1071086642 6.0826986988 1.8912962322 -2.57110337382e-06 2.57110337382e-07 0.00158842766434
Sb -0.0658900696 0.0380433244 17.9165572046 8.99886180836e-06 -6.42775843454e-06 -0.000578498259109
Sb 2.1071085555 3.6496209032 19.6540899659 -1.79977236167e-06 -1.28555168691e-06 -0.00270428652858
Sb 4.2801077672 0.0380437365 17.9165585706 -1.079863417e-05 -6.9419791093e-06 -0.000578241148771
Sb 6.3213253356 3.5735377679 17.9165596801 3.08532404858e-06 9.25597214574e-06 -0.000575927155735
Sb 0.0659110266 -0.0380536052 13.1169730692 0.000111071665749 -6.32491429959e-05 0.00334757659271
Sb 2.1071089407 3.6496179411 11.3794494948 5.14220674763e-07 -4.88509641025e-06 0.00216075527536
Sb 4.1483059845 -0.0380532905 13.116974061 -0.000109786114062 -6.17064809716e-05 0.003344748379
Sb -2.1071091348 3.7257265158 13.1169704254 -1.79977236167e-06 0.000127269617004 0.00334629104102
Sb 2.107109258 1.2169947177 29.1467104603 -4.37087573549e-06 -1.49123995681e-05 0.00171184062629
Sb 4.2138239754 4.8659313279 29.1467101556 1.02844134953e-05 1.23412961943e-05 0.00171106929527
Sb 6.321326123 1.2165410004 29.1419117514 1.54266202429e-06 -3.34243438596e-06 0.00180182924437
Sb 0.0003929598 4.8659310262 29.1467108669 -6.9419791093e-06 5.91353775978e-06 0.00171415461932
Sb 2.1071079805 1.213704286 21.6499570308 2.05688269905e-06 -6.60773567071e-05 -0.00325681664361
Sb 4.216676709 4.8675804342 21.6499553949 5.73356052361e-05 3.62525575708e-05 -0.00325167443687
Sb 6.3213282631 1.2165435622 22.9964546195 -5.14220674763e-07 -1.10557445074e-05 -0.0027119998387
Sb -0.0024587471 4.8675805383 21.6499542211 -7.48191081781e-05 4.55085297165e-05 -0.00324010447168
Cr 2.1071087674 3.649618724 15.5167688571 -1.02844134953e-06 1.54266202429e-06 0.00175194983892
61
Lattice="8.42843558953 0 0 -4.21421779477 7.29923593142 0 0 0 31.0334408416" Properties=species:S:1:pos:R:3:forces:R:3 energy=-133601.231942 ionic_step=23 pbc="T T T"
Te 2.1071083964 1.2154791731 3.4692221387 -1.54266202429e-06 -0.000227285538245 0.000658973794709
Te 4.2151376509 4.8666894777 3.4692229518 0.000198746290796 0.000116213872496 0.000660516456733
Te 6.3213270746 1.2165411092 3.4541474148 -7.71331012145e-07 2.05688269905e-06 0.000581583583157
Te -0.0009208787 4.8666903513 3.469221913 -0.00019643229776 0.000113642769123 0.000668229766855
Te -0.3935328975 0.2272067306 7.5223997312 0.000140125133873 -8.71604043724e-05 0.00256904649112
Te 2.1071093527 3.6496159503 7.7183946946 -5.14220674763e-07 -2.57110337382e-07 0.0027608508028
Te 4.6077562195 0.2272102469 7.5223994891 -0.000142953347584 -8.58748526855e-05 0.00257136048415
Te -2.1071094402 3.1951964769 7.5224020951 1.02844134953e-06 0.00017380658807 0.00257084626348
Te -1.5316e-06 9.48e-07 -0.0001003017 5.52787225371e-05 -2.4939702726e-05 -0.00112511483638
Te 2.1071091809 3.6496187509 -9.45596e-05 1.54266202429e-06 6.68486877192e-06 -0.00110351756804
Te 4.2142166349 4.673e-07 -0.0001004576 -3.67667782456e-05 -2.41683717139e-05 -0.00112125818132
Te -2.1071103147 3.6496190236 -0.0001020909 6.9419791093e-06 5.83640465856e-05 -0.00111457331255
Te 0.5214652916 2.7341480378 13.667947914 0.000636862305694 0.000371010216842 0.00128863701096
Te 2.1071085132 5.4805600587 13.6679467349 2.05688269905e-06 -0.000732764461538 0.00129172233501
Te 3.6927515459 2.7341474124 13.6679487587 -0.000637376526369 0.000371010216842 0.00128632301792
Te -2.1071090329 6.0826958973 14.798033095 -7.71331012145e-07 5.14220674763e-07 0.00211730362834
Te 2.1071087414 1.818710561 17.365640709 -5.14220674763e-07 0.000446343545695 0.000730707578839
Te 3.6927225151 4.5650739928 17.3656398481 -0.000385665506072 -0.000224457324534 0.000731478909851
Te 6.321325984 1.2165418412 16.2355246965 2.57110337382e-06 1.79977236167e-06 0.000789328735762
Te 0.5214945025 4.5650752537 17.3656397202 0.00038592261641 -0.000225485765884 0.000730707578839
Te 2.1071074173 0.67715158 10.8029160807 6.42775843454e-06 -0.000135240037463 0.000919940787151
Te 4.6813386847 5.1358512158 10.8029169487 0.000119299196545 6.53060256949e-05 0.000910170594331
Te 6.3213272545 1.2165391163 11.3028702076 -7.71331012145e-07 -1.28555168691e-06 0.000851806547745
Te -0.4671201001 5.1358497757 10.8029152169 -0.000118270755196 6.58202463697e-05 0.000908370821969
Te 0.3935513995 -0.2272126241 23.5111388128 -0.000234998848367 0.000130097830715 -0.00269863010116
Te 2.1071079435 3.6496217926 23.3151596983 2.05688269905e-06 2.57110337382e-06 -0.00275159483066
Te 3.8206681779 -0.2272120925 23.5111382278 0.000233199076005 0.000132926044426 -0.00270248675622
Te -2.107109385 4.1040571291 23.5111364851 3.34243438596e-06 -0.000272279847287 -0.00269837299082
Te -0.0009262654 2.432543855 27.5639830431 -0.00030441863946 -0.000174320808745 -0.0018928463038
Te 2.1071083388 6.0837688259 27.5639808377 -2.57110337382e-07 0.000347356065803 -0.00189027520043
Te 4.2151443931 2.4325435763 27.5639834425 0.000303647308448 -0.000170207043347 -0.00189567451751
Te -2.1071071891 6.0826986847 27.5791082808 -4.37087573549e-06 -2.8282137112e-06 -0.00195763810882
Te -0.4671251405 2.1633865237 20.2306400194 -0.000329872562861 -0.000187690546289 -0.000347870286477
Te 2.1071084878 6.6220898314 20.2306404291 6.17064809716e-06 0.000386951057759 -0.00035738336896
Te 4.6813423429 2.1633878032 20.230640592 0.000326787238812 -0.000193346973711 -0.000349927169176
Te -2.1071095428 6.0826987167 19.7306684951 1.02844134953e-06 6.42775843454e-06 -5.09078468016e-05
Sb -0.0024872643 2.4316412346 9.383489858 0.000104386796977 6.06780396221e-05 0.00158868477468
Sb 2.1071096703 6.0855700745 9.3834866302 -2.57110337382e-06 -0.000120070527557 0.00158662789198
Sb 4.2167055799 2.4316425382 9.3834907706 -0.000106186569339 5.78498259109e-05 0.00158919899536
Sb -2.1071054705 6.0826958963 8.0371726745 -4.37087573549e-06 -3.85665506072e-06 0.001926527758
Sb 0.0003742329 2.4332965552 1.8864930273 3.13674611606e-05 2.18543786774e-05 0.000682370835411
Sb 2.1071098166 6.0822671996 1.8864952043 -1.02844134953e-06 -3.77952195951e-05 0.000680828173387
Sb 4.2138438997 2.4332969998 1.8864945791 -3.00819094737e-05 1.90261649662e-05 0.000681342394061
Sb -2.1071085646 6.0826986016 1.8913529291 -2.05688269905e-06 7.71331012145e-07 0.000386436837085
Sb -0.0658596177 0.0380259896 17.9165819917 0.000103872576302 -6.14493706342e-05 0.00190878714472
Sb 2.1071089268 3.649620933 19.6541483019 -1.79977236167e-06 -7.71331012145e-07 0.000190004539325
Sb 4.2800773908 0.0380263692 17.9165832628 -0.000110814555411 -6.37633636706e-05 0.00191264379978
Sb 6.3213251887 3.5735727855 17.9165841174 2.57110337382e-06 0.000134468706451 0.00191932866855
Sb 0.0658891382 -0.0380410691 13.116944761 -2.00546063158e-05 1.25984065317e-05 0.000142439126909
Sb 2.107108946 3.6496181011 11.3793873133 -2.57110337382e-07 -3.59954472334e-06 0.000682885056086
Sb 4.1483276346 -0.0380407634 13.1169458359 2.15972683401e-05 1.31126272065e-05 0.00014141068556
Sb -2.1071090497 3.7257013404 13.1169422807 -5.14220674763e-07 -2.44254820513e-05 0.000141153575223
Sb 2.1071095489 1.2169887852 29.1466906313 -3.59954472334e-06 6.17064809716e-06 -0.00232504878094
Sb 4.2138292447 4.8659338237 29.1466903042 -6.42775843454e-06 1.02844134953e-06 -0.00232582011195
Sb 6.321325957 1.2165412782 29.1418497574 5.14220674763e-07 -2.05688269905e-06 -0.00212347427643
Sb 0.0003874922 4.8659340382 29.1466909716 8.74175147098e-06 -3.85665506072e-06 -0.00232324900858
Sb 2.1071080121 1.2136901264 21.6500172746 2.05688269905e-06 -7.53333288528e-05 -0.00160102607088
Sb 4.2166894487 4.8675876983 21.650015967 5.81069362482e-05 3.59954472334e-05 -0.00160102607088
Sb 6.321328314 1.2165441696 22.9964616783 -5.14220674763e-07 -6.9419791093e-06 -0.00180440034774
Sb -0.0024713452 4.8675876278 21.6500147464 -6.09351499594e-05 3.65096679082e-05 -0.00160076896054
Cr 2.1071088022 3.6496186778 15.516764743 -1.54266202429e-06 -7.71331012145e-07 0.00121921721986
61
Lattice="8.42843558953 0 0 -4.21421779477 7.29923593142 0 0 0 31.0334408416" Properties=species:S:1:pos:R:3:forces:R:3 energy=-133601.231942 ionic_step=24 pbc="T T T"
Te 2.1071087346 1.2154980189 3.4692635828 0 -0.000111585886424 0.000725565372091
Te 4.2151214841 4.8666799232 3.4692642935 9.66734868555e-05 5.39931708501e-05 0.000726850923778
Te 6.3213270411 1.2165411646 3.454169085 -2.31399303643e-06 7.71331012145e-07 0.0010605801417
Te -0.0009045195 4.8666808827 3.469262713 -9.7701928205e-05 5.45073915249e-05 0.0007325073512
Te -0.3935383813 0.2272103883 7.5222801588 -0.00057052783865 0.000328072790499 -0.00317685532869
Te 2.1071092314 3.6496162794 7.718236773 0 -2.31399303643e-06 -0.00285186786224
Te 4.6077624545 0.2272141837 7.5222797698 0.000566928293926 0.000325758797463 -0.00317891221139
Te -2.1071096229 3.1951884751 7.5222820329 1.54266202429e-06 -0.000645604057165 -0.00318405441813
Te -2.9209e-06 1.5532e-06 -0.0001041015 -1.00273031579e-05 1.079863417e-05 0.00289866194364
Te 2.1071090722 3.6496184297 -9.69191e-05 3.85665506072e-06 3.59954472334e-06 0.00284415455212
Te 4.2142174753 1.1846e-06 -0.0001042829 2.18543786774e-05 1.10557445074e-05 0.00290097593668
Te -2.1071106135 3.6496172045 -0.0001062092 3.85665506072e-06 -9.51308248312e-06 0.00290791791579
Te 0.5214807897 2.7341566882 13.6678981978 -0.000200546063158 -0.000116213872496 0.00396978360917
Te 2.1071082903 5.4805421175 13.6678971166 2.57110337382e-06 0.000239112613765 0.00395924208534
Te 3.6927361544 2.7341561455 13.6678993616 0.000198489180459 -0.000116728093171 0.00397029782985
Te -2.1071090131 6.0826959406 14.7978401206 -0 2.57110337382e-06 0.00349155838164
Te 2.1071087284 1.8187327048 17.3656928862 -1.02844134953e-06 -0.000341185417705 -0.00088471667093
Te 3.6927033796 4.5650631054 17.3656919961 0.000291306012253 0.000170721264021 -0.000885488001942
Te 6.3213258389 1.2165415336 16.2357293241 5.14220674763e-07 -0 0.00104181108707
Te 0.5215134715 4.5650639729 17.3656918542 -0.000290791791579 0.000174063698407 -0.000884973781268
Te 2.1071071341 0.6771650089 10.8028573391 2.05688269905e-06 0.00012469851363 0.00102844134953
Te 4.6813272804 5.1358447738 10.8028588244 -0.000106443679676 -6.35062533333e-05 0.00102921268054
Te 6.3213272906 1.2165392009 11.3027439974 -2.57110337382e-07 -6.42775843454e-06 0.00182394073339
Te -0.4671087627 5.1358435165 10.8028571851 0.0001079863417 -6.32491429959e-05 0.0010268986875
Te 0.3935628607 -0.2272186041 23.5112615292 -0.000168664381322 9.59021558433e-05 -0.00168175871681
Te 2.1071077619 3.6496214639 23.3153227993 2.8282137112e-06 2.57110337382e-07 -0.00171518306067
Te 3.8206569335 -0.2272182265 23.5112615355 0.000167635939973 9.74448178676e-05 -0.00168201582715
Te -2.1071097569 4.1040713145 23.5112598913 2.57110337382e-07 -0.000203374276869 -0.0016768736204
Te -0.0009072218 2.4325546257 27.5639278844 -0.000171492595034 -8.58748526855e-05 -0.000443772442321
Te 2.1071084756 6.083747268 27.5639255719 -8.48464113359e-06 0.000185376553252 -0.00042808871174
Te 4.2151255518 2.4325540625 27.5639284073 0.000173549477733 -9.38452731443e-05 -0.000458427731551
Te -2.1071071432 6.0826989663 27.5790775319 1.02844134953e-06 -3.85665506072e-06 -0.000533761060404
Te -0.4671155601 2.1633918461 20.2307139057 -0.000279221826396 -0.000156323085128 -0.00269194523239
Te 2.1071081497 6.6220783918 20.2307150345 1.28555168691e-06 0.00032113081139 -0.0026947734461
Te 4.6813330372 2.1633936056 20.2307146297 0.000279221826396 -0.000158379967827 -0.00268988834969
Te -2.1071096679 6.0826978493 19.7308164687 0 5.14220674763e-06 -0.00281741507703
Sb -0.0024893588 2.4316400409 9.3833866566 -0.000193346973711 -0.000116470982834 -0.00213375868993
Sb 2.1071102246 6.0855724169 9.3833836588 -1.79977236167e-06 0.000227285538245 -0.00213787245533
Sb 4.2167078649 2.4316413459 9.3833873575 0.000193346973711 -0.000118013644858 -0.00213221602791
Sb -2.1071050041 6.0826964741 8.0371569975 -3.08532404858e-06 -3.85665506072e-06 -0.00321799298267
Sb 0.0003658761 2.4332909912 1.886515291 -1.72263926046e-05 -6.42775843454e-06 0.00391321933495
Sb 2.1071097212 6.0822767063 1.8865175814 -2.57110337382e-07 2.23685993522e-05 0.00391270511427
Sb 4.2138519347 2.4332917364 1.8865168651 2.00546063158e-05 -9.51308248312e-06 0.00391321933495
Sb -2.1071086815 6.0826984624 1.8914178294 1.54266202429e-06 -5.14220674763e-07 0.00357614768264
Sb -0.0658108424 0.0379980915 17.9166389501 -0.000216744014413 0.000123155851606 -0.00106572234845
Sb 2.1071094796 3.6496210092 19.6542289442 -3.59954472334e-06 2.05688269905e-06 -0.00230216596092
Sb 4.2800286811 0.0379984063 17.9166400478 0.000217772455762 0.000123155851606 -0.00106623656912
Sb 6.3213251424 3.5736289997 17.9166404923 1.02844134953e-06 -0.000257881668394 -0.00106649367946
Sb 0.0658511684 -0.038019255 13.1168908323 0.000288220688205 -0.000167378829635 0.0034658473479
Sb 2.107108997 3.649618352 11.3793065344 7.71331012145e-07 -5.6564274224e-06 0.00138582471849
Sb 4.1483652547 -0.0380190151 13.1168917395 -0.000286163805506 -0.000166350388286 0.00346687578925
Sb -2.1071090369 3.7256575984 13.1168885636 -2.57110337382e-07 0.000336043210958 0.00346327624453
Sb 2.1071098304 1.2169809226 29.1466619977 3.08532404858e-06 2.57110337382e-05 0.000740734881996
Sb 4.2138361405 4.8659371607 29.1466613634 -1.90261649662e-05 -1.33697375438e-05 0.000741763323346
Sb 6.3213255894 1.2165416062 29.1417755035 3.08532404858e-06 -1.02844134953e-06 0.00107112166553
Sb 0.0003803426 4.8659379936 29.1466620546 2.62252544129e-05 -1.36268478812e-05 0.000738677999297
Sb 2.107108192 1.2136919574 21.6501193048 -0 -0.000294134225965 -0.00179797258931
Sb 4.2166883673 4.8675872025 21.6501189666 0.000255567675357 0.000146810002645 -0.00179977236167
Sb 6.3213282445 1.2165448829 22.9964633794 -1.02844134953e-06 6.68486877192e-06 -0.000950794027637
Sb -0.0024701354 4.8675866477 21.6501176396 -0.000256853227044 0.000147838443994 -0.00180182924437
Cr 2.1071088271 3.6496187877 15.5167620837 -5.14220674763e-07 -2.57110337382e-07 0.00191212957911
61
Lattice="8.42843558953 0 0 -4.21421779477 7.29923593142 0 0 0 31.0334408416" Properties=species:S:1:pos:R:3:forces:R:3 energy=-133601.231942 ionic_step=25 pbc="T T T"
Te 2.1071092535 1.2155235465 3.4693338697 5.14220674763e-07 -0.000106443679676 0.00115725362855
Te 4.215099619 4.8666670116 3.4693343759 8.74175147098e-05 5.63071638866e-05 0.00116522404901
Te 6.3213270029 1.2165412676 3.4542058296 -0 -4.62798607287e-06 0.00105980881069
Te -0.0008821923 4.8666679634 3.46933202 -8.61319630228e-05 5.60500535492e-05 0.00116342427665
Te -0.3935325305 0.2272076906 7.5221078559 -9.35881628069e-05 5.83640465856e-05 0.000408034105425
Te 2.1071090332 3.6496168663 7.7180798107 2.31399303643e-06 -2.8282137112e-06 0.000443001111309
Te 4.6077576388 0.2272118863 7.5221072042 9.5645045506e-05 6.01638189473e-05 0.000405463002051
Te -2.1071098928 3.195193206 7.5221089666 -0 -0.00011492832081 0.000411376539811
Te -4.437e-06 2.1759e-06 -0.0001095662 -1.33697375438e-05 1.72263926046e-05 -0.000264309426828
Te 2.1071089354 3.6496181383 -9.93546e-05 3.34243438596e-06 -1.02844134953e-05 -0.000270222964588
Te 4.2142185996 2.042e-06 -0.0001096381 1.36268478812e-05 2.03117166531e-05 -0.000269451633576
Te -2.1071108938 3.6496149397 -0.0001118429 -2.8282137112e-06 -2.67394750877e-05 -0.000281278709096
Te 0.5215027501 2.73416899 13.667829262 5.96495982725e-05 3.21387921727e-05 -0.00155500332048
Te 2.1071079662 5.4805169557 13.6678287044 -2.57110337382e-07 -6.71057980566e-05 -0.00155191799644
Te 3.6927144432 2.7341686001 13.6678308396 -5.73356052361e-05 3.11103508232e-05 -0.00155294643779
Te -2.1071089834 6.0826961402 14.7976360414 -5.14220674763e-07 -0 -0.000815553990175
Te 2.1071087266 1.8187600119 17.3657599058 1.02844134953e-06 2.39112613765e-05 0.000792928280485
Te 3.6926798066 4.5650496738 17.3657590054 -1.82548339541e-05 -1.28555168691e-05 0.000794985163184
Te 6.3213256505 1.2165410766 16.2359544141 -2.8282137112e-06 -1.79977236167e-06 0.00023962683444
Te 0.5215368449 4.5650497441 17.3657588845 1.9540385641e-05 -1.28555168691e-05 0.000792156949473
Te 2.1071069365 0.6771748306 10.8027722506 -2.57110337382e-06 9.53879351686e-05 -0.000106443679676
Te 4.6813192855 5.1358403113 10.8027743372 -8.43321906612e-05 -4.80796330904e-05 -0.000108757672712
Te 6.3213272612 1.2165392303 11.3025933832 1.02844134953e-06 0 -0.000720423165343
Te -0.4671008661 5.1358394647 10.8027727456 8.22753079621e-05 -4.91080744399e-05 -0.000104901017652
Te 0.3935651052 -0.2272191416 23.5114327656 0.000266623419865 -0.000154266202429 0.000817353762536
Te 2.1071075737 3.6496209304 23.3154808364 -2.57110337382e-07 -7.71331012145e-07 0.000736106895924
Te 3.8206549585 -0.2272189689 23.5114335064 -0.000266366309527 -0.000152466430067 0.000820439086585
Te -2.1071102113 4.1040752304 23.5114324073 -2.05688269905e-06 0.000305447080809 0.000819410645235
Te -0.0008815359 2.4325691774 27.5638426703 -8.84459560593e-05 -4.85938537651e-05 -0.00138093962208
Te 2.1071086512 6.0837180936 27.5638402725 -1.28555168691e-06 0.00010310124529 -0.00138402494613
Te 4.2150999726 2.4325682983 27.563843341 8.84459560593e-05 -5.01365157894e-05 -0.00137476897398
Te -2.1071073512 6.0826992595 27.5790325503 2.57110337382e-07 1.79977236167e-06 -0.00129943564513
Te -0.4671101613 2.1633947101 20.2308138805 0.000197974959784 0.00011492832081 0.00017483502942
Te 2.1071077702 6.6220716718 20.2308157538 3.34243438596e-06 -0.000229856641619 0.000174320808745
Te 4.6813280561 2.1633971111 20.2308146251 -0.000197974959784 0.00011878497587 0.000175349250094
Te -2.1071098392 6.082696725 19.7309947283 -4.11376539811e-06 -5.6564274224e-06 0.000508564247341
Sb -0.0024955355 2.4316364834 9.3832388161 -0.000208002262942 -0.000122641630931 0.000886259332954
Sb 2.1071110168 6.0855795085 9.3832363146 3.85665506072e-06 0.000239369724102 0.00089063020869
Sb 4.2167142136 2.4316376634 9.3832392513 0.000208259373279 -0.000117242313846 0.000887287774304
Sb -2.107104528 6.082697319 8.0371002658 -6.17064809716e-06 2.57110337382e-06 0.000420632511956
Sb 0.0003535573 2.4332826433 1.8865569476 -0.000277679164372 -0.00017869168448 0.00107035033452
Sb 2.1071095965 6.08229067 1.8865592431 2.05688269905e-06 0.000335014769608 0.00107035033452
Sb 4.2138637498 2.4332838441 1.8865584465 0.000282307150445 -0.000179463015492 0.00106855056216
Sb -2.1071090438 6.0826982972 1.891518038 5.14220674763e-07 1.46552892308e-05 0.000745619978407
Sb -0.0657498701 0.037963168 17.9167161274 -0.000100273031579 5.52787225371e-05 0.000585954458893
Sb 2.1071101653 3.6496210962 19.6543294828 5.14220674763e-07 -2.57110337382e-07 0.000147067112982
Sb 4.2799677718 0.037963306 17.916716953 0.000101815693603 5.91353775978e-05 0.000582097803832
Sb 6.3213252574 3.5736993602 17.9167167041 -1.79977236167e-06 -0.000110043224399 0.000592896438002
Sb 0.0658015651 -0.0379906769 13.1168177588 8.25324182995e-05 -4.60227503913e-05 -0.00136371322947
Sb 2.1071091371 3.6496187409 11.3792102381 2.57110337382e-07 2.57110337382e-07 -0.00033192944556
Sb 4.1484143995 -0.0379905479 13.1168182106 -8.20181976247e-05 -4.52514193792e-05 -0.00136139923644
Sb -2.1071090994 3.7256003329 13.116815851 -1.02844134953e-06 9.17883904452e-05 -0.00136165634677
Sb 2.1071099831 1.2169688222 29.1466251072 6.42775843454e-06 -0.000323187694089 -0.00186302150467
Sb 4.2138466422 4.865942672 29.1466237622 0.000284878253819 0.000155551754116 -0.00186816371141
Sb 6.3213251221 1.2165419185 29.1416739708 -6.42775843454e-06 5.91353775978e-06 -0.00150229570132
Sb 0.0003695425 4.8659441469 29.1466245245 -0.000286678026181 0.000163265064237 -0.0018653354977
Sb 2.1071085253 1.2136890195 21.6502613548 -2.05688269905e-06 -0.000259938551093 0.000115699651822
Sb 4.2166912703 4.8675892352 21.6502625168 0.000226514207233 0.000130097830715 0.000111071665749
Sb 6.3213280603 1.2165456755 22.9964893783 7.71331012145e-07 2.57110337382e-07 0.00072273715838
Sb -0.0024729836 4.8675879129 21.6502611469 -0.000225485765884 0.000129069389366 0.000112357217436
Cr 2.1071087955 3.6496190107 15.5167638712 7.71331012145e-07 -0 -0.000188461877301
61
Lattice="8.42843558953 0 0 -4.21421779477 7.29923593142 0 0 0 31.0334408416" Properties=species:S:1:pos:R:3:forces:R:3 energy=-133601.231942 ionic_step=26 pbc="T T T"
Te 2.1071089803 1.2155101083 3.4692968694 -2.57110337382e-07 9.53879351686e-05 0.00186147884264
Te 4.2151111292 4.8666738085 3.4692974833 -8.09897562752e-05 -4.62798607287e-05 0.00185402264286
Te 6.321327023 1.2165412134 3.4541864866 5.14220674763e-07 1.54266202429e-06 0.0019244708753
Te -0.0008939457 4.8666747644 3.4692955355 8.150397695e-05 -4.75654124156e-05 0.00185068020847
Te -0.3935356105 0.2272091107 7.5221985592 0.00023268485533 -0.000134725816788 0.000351212720863
Te 2.1071091376 3.6496165574 7.7181624384 -7.71331012145e-07 2.57110337382e-06 0.000353269603562
Te 4.6077601739 0.2272130957 7.5221980458 -0.00023268485533 -0.000134725816788 0.000350955610526
Te -2.1071097507 3.1951907156 7.5222000717 -2.57110337382e-07 0.000268680302564 0.000350698500189
Te -3.6389e-06 1.8481e-06 -0.0001066895 -1.25984065317e-05 2.57110337382e-06 0.00125212734305
Te 2.1071090074 3.6496182917 -9.80725e-05 -2.31399303643e-06 2.05688269905e-06 0.001270382177
Te 4.2142180078 1.5907e-06 -0.0001068191 9.7701928205e-06 2.57110337382e-06 0.00125367000507
Te -2.1071107462 3.6496161319 -0.0001088772 -7.71331012145e-07 -1.49123995681e-05 0.00125341289474
Te 0.5214911897 2.7341625141 13.667865551 -0.000502136488906 -0.00028873490888 0.000177406132793
Te 2.1071081368 5.4805302013 13.6678647178 -2.05688269905e-06 0.000578755369446 0.000178434574143
Te 3.6927258724 2.7341620438 13.6678669108 0.000501879378569 -0.000289506239892 0.000177920353468
Te -2.107108999 6.0826960351 14.7977434723 7.71331012145e-07 -5.14220674763e-07 0.000658202463697
Te 2.1071087276 1.818745637 17.3657246255 2.57110337382e-07 -0.00064123318143 0.00100375875714
Te 3.6926922158 4.5650567444 17.3657237305 0.00055484410807 0.00032113081139 0.00100324453646
Te 6.3213257497 1.2165413172 16.2358359227 -5.14220674763e-07 -7.71331012145e-07 0.000770559681133
Te 0.5215245407 4.5650572344 17.3657235986 -0.000556129659756 0.000320359480378 0.0010035016468
Te 2.1071070405 0.6771696603 10.8028170427 5.14220674763e-07 -0.000173035257058 -9.53879351686e-05
Te 4.6813234941 5.1358426604 10.8028188128 0.000150409547368 8.61319630228e-05 -9.53879351686e-05
Te 6.3213272767 1.2165392148 11.3026726692 -0 1.02844134953e-06 0.000251711020297
Te -0.467105023 5.1358415976 10.802817196 -0.000149638216356 8.6903294035e-05 -9.5645045506e-05
Te 0.3935639236 -0.2272188587 23.5113426237 -0.000441972669959 0.000255567675357 -0.00250811134116
Te 2.1071076728 3.6496212112 23.3153976428 -1.28555168691e-06 2.57110337382e-07 -0.00244254820513
Te 3.8206559982 -0.2272185781 23.5113429779 0.000442229780296 0.00025428212367 -0.00250862556183
Te -2.1071099721 4.104073169 23.5113415918 7.71331012145e-07 -0.000505993143967 -0.00250605445846
Te -0.0008950574 2.4325615171 27.5638875286 6.55631360323e-05 3.77952195951e-05 -0.00139610913198
Te 2.1071085587 6.0837334515 27.5638851756 1.02844134953e-06 -7.53333288528e-05 -0.00138916715287
Te 4.2151134379 2.4325608043 27.5638881214 -6.76200187314e-05 3.95949919568e-05 -0.0014058793248
Te -2.1071072417 6.0826991052 27.5790562294 -1.28555168691e-06 -5.14220674763e-07 -0.00141050731088
Te -0.4671130034 2.1633932024 20.230761252 -0.000205945380243 -0.00011981341722 -0.000825324182995
Te 2.10710797 6.6220752093 20.2307627334 -1.54266202429e-06 0.000237569951741 -0.000824552851983
Te 4.6813306782 2.1633952657 20.2307619858 0.000205945380243 -0.000120841858569 -0.000825581293332
Te -2.107109749 6.0826973169 19.7309008893 1.02844134953e-06 -2.57110337382e-07 -0.000729164916814
Sb -0.002492284 2.4316383562 9.3833166419 0.000203631387206 0.000120841858569 -4.19089849932e-05
Sb 2.1071105998 6.0855757753 9.3833138792 -1.28555168691e-06 -0.000237055731066 -4.29374263427e-05
Sb 4.2167108715 2.4316396019 9.383317217 -0.000203374276869 0.000119042086208 -4.2423205668e-05
Sb -2.1071047786 6.0826968742 8.0371301304 3.08532404858e-06 -7.71331012145e-07 0.000241683717139
Sb 0.0003600421 2.4332870378 1.8865350188 0.000167635939973 0.000101044362591 0.0020998201254
Sb 2.1071096622 6.0822833193 1.8865373117 -7.71331012145e-07 -0.000199774732146 0.00210110567708
Sb 4.2138575301 2.4332879987 1.8865365573 -0.000169435712334 0.000101815693603 0.00210033434607
Sb -2.1071088531 6.0826983841 1.8914652864 -5.14220674763e-07 -5.91353775978e-06 0.00231990657419
Sb -0.065781967 0.0379815523 17.9166754999 2.13401580027e-05 -1.25984065317e-05 0.000199260511471
Sb 2.1071098043 3.6496210504 19.6542765575 -2.57110337382e-07 7.71331012145e-07 -0.000359954472334
Sb 4.2799998355 0.0379817834 17.9166764687 -2.10830476653e-05 -1.31126272065e-05 0.000199003401133
Sb 6.3213251969 3.5736623212 17.9166765849 5.14220674763e-07 2.54539234008e-05 0.000197203628772
Sb 0.0658276771 -0.038005721 13.1168562259 4.93651847773e-05 -2.85392474494e-05 0.000675428856302
Sb 2.1071090633 3.6496185362 11.3792609302 -1.02844134953e-06 1.28555168691e-06 -5.52787225371e-05
Sb 4.1483885288 -0.0380055336 13.1168569175 -4.93651847773e-05 -2.95676887989e-05 0.000674657525289
Sb -2.1071090665 3.7256304784 13.1168541282 7.71331012145e-07 5.68213845613e-05 0.000674914635627
Sb 2.1071099027 1.2169751921 29.146644527 -2.05688269905e-06 0.000208516483617 0.000124184292955
Sb 4.2138411139 4.8659397707 29.1466435561 -0.000181519898191 -0.000103872576302 0.000124441403293
Sb 6.3213253681 1.2165417541 29.1417274194 1.79977236167e-06 -7.71331012145e-07 -0.000120327637895
Sb 0.0003752279 4.8659409077 29.146644281 0.000181005677517 -0.000105158127989 0.000123927182618
Sb 2.1071083499 1.2136905661 21.6501865771 2.57110337382e-07 0.000224200214197 -0.00198694868729
Sb 4.2166897421 4.8675881651 21.6501869494 -0.00019540385641 -0.000111071665749 -0.00198694868729
Sb 6.3213281572 1.2165452583 22.996475692 -2.57110337382e-07 -0 -0.00239961077878
Sb -0.0024714843 4.8675872469 21.6501856021 0.000195660966747 -0.000110814555411 -0.00198720579762
Cr 2.1071088121 3.6496188933 15.5167629302 -5.14220674763e-07 2.31399303643e-06 0.000552787225371
61
Lattice="8.42843558953 0 0 -4.21421779477 7.29923593142 0 0 0 31.0334408416" Properties=species:S:1:pos:R:3:forces:R:3 energy=-133601.231942 ionic_step=27 pbc="T T T"
Te 2.1071090419 1.2155021328 3.4692986622 -2.8282137112e-06 0.000314703052955 0.00185967907028
Te 4.2151182485 4.8666780149 3.4692993506 -0.000276393612685 -0.000166607498623 0.00185170864982
Te 6.3213271115 1.2165414129 3.4541652004 -1.02844134953e-06 -5.14220674763e-06 0.00303133087773
Te -0.0009006807 4.8666787255 3.4692974299 0.000263023875141 -0.000157865747152 0.00185170864982
Te -0.3935240519 0.2272024124 7.522215167 -8.74175147098e-05 4.60227503913e-05 0.0028750077926
Te 2.1071090669 3.6496166934 7.718199188 5.14220674763e-07 6.42775843454e-06 0.00200983150731
Te 4.6077485738 0.227206573 7.5222145936 8.51035216733e-05 3.5738336896e-05 0.00287552201328
Te -2.1071098387 3.1952044374 7.5222166373 3.59954472334e-06 -0.000101301472928 0.00288092133036
Te -2.5985e-06 1.4455e-06 -0.0001106244 -8.76746250471e-05 3.9080771282e-05 -0.0025867871044
Te 2.1071090502 3.6496184961 -0.0001007887 2.05688269905e-06 -1.079863417e-05 -0.00270274386656
Te 4.2142176877 1.323e-06 -0.0001105596 4.9879405452e-05 3.23959025101e-05 -0.002604013497
Te -2.1071105088 3.649616973 -0.0001124212 -1.31126272065e-05 -8.07326459378e-05 -0.00261481213117
Te 0.5214985099 2.734166726 13.6678687077 -0.000793185390822 -0.000444286662995 -0.000630177436922
Te 2.1071081207 5.4805221359 13.6678683537 -3.85665506072e-06 0.000896286636112 -0.00064020474008
Te 3.6927186998 2.7341663792 13.667870046 0.000784443639351 -0.000453799745479 -0.000618864582078
Te -2.1071090153 6.0826961858 14.7978070655 4.62798607287e-06 -5.6564274224e-06 -0.0028577814
Te 2.1071086827 1.8187435017 17.3657146908 6.9419791093e-06 3.67667782456e-05 -0.00160128318121
Te 3.6926940595 4.5650577486 17.3657138332 -3.21387921727e-05 -1.92832753036e-05 -0.00160154029155
Te 6.3213257977 1.2165413187 16.2357765539 -4.37087573549e-06 -1.79977236167e-06 -0.00149638216356
Te 0.5215226007 4.5650577303 17.3657137683 4.06234333063e-05 1.54266202429e-06 -0.00160616827762
Te 2.1071074344 0.6771618835 10.8028086572 -2.00546063158e-05 -0.000785214970363 0.00181211365787
Te 4.6813305105 5.1358465414 10.8028100062 0.000666944215168 0.000391321933495 0.00182368362305
Te 6.3213271031 1.2165389399 11.3027120467 8.74175147098e-06 5.39931708501e-06 0.000419604070607
Te -0.4671120637 5.1358457431 10.80280825 -0.000663087560107 0.000372809989203 0.00182959716081
Te 0.3935518985 -0.2272121262 23.5113199292 0.000422432284318 -0.000234998848367 0.00092405455255
Te 2.1071077386 3.6496212008 23.3153566305 -1.28555168691e-06 -5.39931708501e-06 0.00106032303136
Te 3.8206680353 -0.2272116959 23.5113201394 -0.00042423205668 -0.000240912386127 0.000929968090309
Te -2.1071098364 4.1040592319 23.511319233 -3.85665506072e-06 0.000482853213603 0.000910427704668
Te -0.00090285 2.4325571132 27.5638834705 0.000439658676923 0.000256853227044 -0.00183036849182
Te 2.1071084861 6.0837419906 27.5638813918 0 -0.00049879405452 -0.00184656644307
Te 4.2151209736 2.4325565196 27.5638839479 -0.000434259359838 0.000251453909959 -0.00182008407832
Te -2.1071076252 6.082698798 27.5790752289 1.69692822672e-05 6.17064809716e-06 -0.00315885760507
Te -0.467122312 2.1633879931 20.2307616261 0.000141924906235 7.89328735762e-05 0.000578755369446
Te 2.1071081517 6.622086007 20.2307627381 -6.42775843454e-06 -0.000164807726262 0.000578755369446
Te 4.6813399359 2.1633899624 20.2307620947 -0.000139868023536 8.58748526855e-05 0.000579526700458
Te -2.107109735 6.0826974927 19.7308592543 -1.02844134953e-06 -5.6564274224e-06 0.00116291005598
Sb -0.0024814913 2.4316444631 9.3833179582 -0.000762332150337 -0.00042808871174 0.00269785877015
Sb 2.1071106113 6.0855632812 9.3833155434 -1.79977236167e-06 0.000869804271362 0.00268988834969
Sb 4.2166999266 2.4316455254 9.3833185994 0.000766188805397 -0.000425260498029 0.00268808857732
Sb -2.1071050364 6.0826969297 8.0371119729 8.48464113359e-06 -5.91353775978e-06 0.00337791561252
Sb 0.0003590036 2.4332863987 1.8865406967 0.000658716684372 0.000389779271471 -0.00101224339827
Sb 2.1071094409 6.0822841377 1.8865427456 7.71331012145e-06 -0.000763103481349 -0.000999130771065
Sb 4.2138583684 2.4332871399 1.8865420566 -0.000655374249986 0.000399035243616 -0.00100915807422
Sb -2.1071091815 6.0826983556 1.8914441989 5.14220674763e-06 -1.15699651822e-05 -0.000231913524318
Sb -0.065789513 0.0379857874 17.9166869393 -0.000541217260188 0.000311103508232 -0.00174706474251
Sb 2.1071096646 3.6496210783 19.6542639158 5.91353775978e-06 -5.14220674763e-07 0.000183833891228
Sb 4.2800073211 0.0379860246 17.9166879067 0.000543274142887 0.000312646170256 -0.00174937873554
Sb 6.3213255732 3.5736538089 17.9166879141 -1.20841858569e-05 -0.000626577892199 -0.00174397941846
Sb 0.0658297762 -0.0380067832 13.1168494499 0.000578241148771 -0.000341442528043 -6.68486877192e-06
Sb 2.1071091735 3.6496184515 11.379283689 -1.05415238326e-05 1.56837305803e-05 0.000906056828933
Sb 4.1483865261 -0.0380067212 13.1168497685 -0.000580812252145 -0.000346070514116 5.91353775978e-06
Sb -2.1071092524 3.7256327701 13.1168473076 1.079863417e-05 0.000676971518326 -5.6564274224e-06
Sb 2.1071096779 1.2169730442 29.1466531546 1.00273031579e-05 0.000852577878757 -0.00354272333878
Sb 4.2138428816 4.8659412577 29.1466516667 -0.000721965827368 -0.000443515331983 -0.00352472561516
Sb 6.3213254662 1.2165415006 29.1417588 -3.85665506072e-06 1.9540385641e-05 -0.00400217951168
Sb 0.0003737109 4.8659421036 29.1466525542 0.00071682362062 -0.000430659815114 -0.0035270396082
Sb 2.1071085168 1.2136985567 21.6501883497 -5.91353775978e-06 -0.000344270741754 0.000338871424669
Sb 4.2166823208 4.8675841783 21.6501889814 0.000314445942618 0.000166864608961 0.000332443666234
Sb 6.3213279238 1.2165449504 22.9964869331 6.68486877192e-06 1.31126272065e-05 -1.02844134953e-06
Sb -0.0024642386 4.8675831646 21.6501877404 -0.00030930373587 0.000170978374359 0.000329872562861
Cr 2.1071086839 3.6496191164 15.5167725824 3.34243438596e-06 1.54266202429e-06 -0.00126472574958
61
Lattice="8.42843558953 0 0 -4.21421779477 7.29923593142 0 0 0 31.0334408416" Properties=species:S:1:pos:R:3:forces:R:3 energy=-133601.231943 ionic_step=28 pbc="T T T"
Te 2.1071090345 1.2154927144 3.4692929611 5.14220674763e-07 0.000300304874062 -0.00320616590715
Te 4.2151265481 4.8666829153 3.469293734 -0.000263023875141 -0.000154523312766 -0.00321053678288
Te 6.3213271868 1.2165415642 3.4541422211 -1.02844134953e-06 -3.85665506072e-06 -0.00253716480928
Te -0.0009087208 4.8666834259 3.4692919232 0.000256853227044 -0.000149123995681 -0.00321207944491
Te -0.3935163258 0.2271978688 7.5222446173 -0.00053710349479 0.000310589287557 -0.000889858877678
Te 2.1071090302 3.6496167439 7.7182423389 0 2.31399303643e-06 -0.00148301242602
Te 4.6077407183 0.2272021468 7.5222440315 0.000538646156815 0.000305189970472 -0.000891915760377
Te -2.1071098857 3.195213845 7.522246136 2.31399303643e-06 -0.000627863443886 -0.00089063020869
Te -1.6023e-06 1.0629e-06 -0.0001140531 -7.12195634547e-05 3.59954472334e-05 -0.000943080717516
Te 2.107109101 3.6496186927 -0.000103516 1.54266202429e-06 -7.19908944669e-06 -0.000977790613062
Te 4.2142173195 1.0338e-06 -0.0001138452 5.3221839838e-05 3.47098955465e-05 -0.000952593799999
Te -2.1071102897 3.6496178605 -0.0001155274 -7.45619978407e-06 -7.53333288528e-05 -0.000959792889446
Te 0.5215026101 2.7341691147 13.6678771178 -0.000143724678596 -7.55904391902e-05 -0.000194118304723
Te 2.1071081422 5.4805176883 13.6678771229 -3.34243438596e-06 0.000155037533441 -0.00019643229776
Te 3.6927146914 2.734168854 13.6678783962 0.000139353802861 -8.02184252631e-05 -0.000186147884264
Te -2.1071090333 6.0826962907 14.7978770182 3.34243438596e-06 -2.31399303643e-06 -0.00223480305252
Te 2.1071086423 1.8187394439 17.365700348 4.88509641025e-06 0.000458427731551 -0.00127732415611
Te 3.6926975637 4.565059699 17.365699532 -0.000397235471255 -0.000229599531282 -0.00127706704577
Te 6.3213258496 1.2165413663 16.2357069648 -4.11376539811e-06 -2.57110337382e-06 -0.000751533516167
Te 0.5215190391 4.565059364 17.3656995273 0.000401863457327 -0.0002180295661 -0.00128169503185
Te 2.1071077803 0.6771550877 10.8028103107 -1.10557445074e-05 -0.000227285538245 0.000792671170148
Te 4.6813365682 5.135849895 10.802811254 0.000181005677517 0.000114156989797 0.000792671170148
Te 6.3213269658 1.2165387282 11.3027624852 7.19908944669e-06 3.59954472334e-06 -0.000405720112388
Te -0.4671181355 5.1358492745 10.802809381 -0.000181777008529 0.000100787252254 0.000796270714871
Te 0.3935429421 -0.2272072044 23.5112873742 0.000545588135924 -0.00030441863946 0.00284441166245
Te 2.1071078062 3.6496212494 23.3153116645 -1.54266202429e-06 -5.39931708501e-06 0.00279710336037
Te 3.8206769722 -0.2272066248 23.5112873996 -0.000546616577273 -0.000311617728907 0.00284929675886
Te -2.1071096772 4.1040487358 23.5112868076 -2.05688269905e-06 0.000627349223211 0.00283849812469
Te -0.0009120046 2.4325519202 27.5638881229 0.000337842983319 0.000195918077085 0.00302850266402
Te 2.1071084227 6.0837521659 27.563886275 -1.02844134953e-06 -0.000381294630337 0.00302027513322
Te 4.215129919 2.4325514551 27.5638884807 -0.000337585872982 0.000192318532361 0.00303415909144
Te -2.1071079209 6.0826985199 27.579096447 8.22753079621e-06 3.59954472334e-06 0.00235024559401
Te -0.4671299439 2.1633837495 20.2307530643 0.000167635939973 8.97315077462e-05 0.000901171732523
Te 2.1071083357 6.622094901 20.2307537973 -1.54266202429e-06 -0.000196946518434 0.000911713256355
Te 4.6813474804 2.1633855731 20.2307533077 -0.000161722402213 9.64163765181e-05 0.000893715532739
Te -2.1071097039 6.0826977248 19.730805011 -1.54266202429e-06 -4.88509641025e-06 0.00134365862316
Sb -0.0024733697 2.4316490481 9.3833341445 -0.000661287787746 -0.000376666644264 0.000644575615816
Sb 2.1071105465 6.085553876 9.3833319745 2.57110337382e-07 0.000756675722914 0.000641747402105
Sb 4.2166916713 2.4316499806 9.3833348662 0.000663601780782 -0.000374352651228 0.000637633636706
Sb -2.1071052821 6.0826968878 8.0371013706 5.91353775978e-06 5.14220674763e-07 0.000226514207233
Sb 0.0003598139 2.4332869677 1.8865403235 0.000318045487341 0.000186147884264 -0.00419784047843
Sb 2.107109265 6.0822829094 1.8865421845 4.37087573549e-06 -0.000367153561781 -0.00419064138898
Sb 4.2138574397 2.4332874799 1.8865415524 -0.000317274156329 0.000191547201349 -0.00419604070607
Sb -2.1071094058 6.0826983454 1.891415886 2.8282137112e-06 -5.14220674763e-06 -0.00379854812448
Sb -0.0658028662 0.0379933752 17.9166885068 -0.000340671197031 0.000195918077085 -0.00128709434893
Sb 2.1071094878 3.6496210892 19.6542443518 5.39931708501e-06 -2.57110337382e-07 0.000161722402213
Sb 4.2800206264 0.0379936319 17.9166895 0.00034169963838 0.000197974959784 -0.00128992256264
Sb 6.3213258534 3.5736385516 17.9166894735 -8.48464113359e-06 -0.000394407257543 -0.00128503746623
Sb 0.0658375087 -0.0380111262 13.1168504677 0.00038592261641 -0.000226514207233 3.08532404858e-06
Sb 2.1071092464 3.6496183478 11.3793113127 -6.68486877192e-06 1.02844134953e-05 0.000568470955951
Sb 4.1483789183 -0.0380111504 13.1168505281 -0.000387208168097 -0.000229856641619 1.25984065317e-05
Sb -2.1071093845 3.7256415934 13.1168482586 6.42775843454e-06 0.000450200200755 4.88509641025e-06
Sb 2.1071094822 1.2169730804 29.1466630874 8.22753079621e-06 0.000419604070607 0.00206433889884
Sb 4.2138427859 4.8659416059 29.1466612521 -0.000352241162213 -0.000222657552172 0.00207616597436
Sb 6.3213255683 1.2165412754 29.1417940371 -4.62798607287e-06 1.38839582186e-05 0.00180157213403
Sb 0.0003740298 4.8659421655 29.1466622608 0.000349155838164 -0.000212887359352 0.00207410909166
Sb 2.1071086246 1.2137041226 21.6501770847 -3.34243438596e-06 -0.000379494857975 0.00158045724388
Sb 4.2166770702 4.8675813549 21.6501777723 0.000337842983319 0.00018563366359 0.00157454370613
Sb 6.3213277494 1.2165446288 22.9964960325 5.6564274224e-06 1.079863417e-05 0.00159485542278
Sb -0.0024591323 4.8675803409 21.6501766261 -0.000342985190067 0.000191804311687 0.00157994302321
Cr 2.1071085842 3.6496192541 15.5167798387 2.31399303643e-06 7.71331012145e-07 -0.000882916898569
61
Lattice="8.42843558953 0 0 -4.21421779477 7.29923593142 0 0 0 31.0334408416" Properties=species:S:1:pos:R:3:forces:R:3 energy=-133601.231943 ionic_step=29 pbc="T T T"
Te 2.1071090282 1.2154618357 3.4692742472 -2.31399303643e-06 6.9419791093e-05 8.92172870714e-05
Te 4.2151535994 4.866698779 3.4692752326 -6.50489153576e-05 -3.9080771282e-05 8.56177423481e-05
Te 6.3213272862 1.2165418853 3.4540593229 1.54266202429e-06 -3.34243438596e-06 0.000282564260782
Te -0.0009351097 4.8666987624 3.4692737257 6.04209292847e-05 -3.83094402699e-05 8.30466389743e-05
Te -0.3935037861 0.2271905379 7.5222906515 -1.87690546289e-05 1.25984065317e-05 -0.00058029803147
Te 2.1071088684 3.6496169189 7.7182404097 2.8282137112e-06 -3.34243438596e-06 -5.91353775978e-05
Te 4.607728192 0.2271954306 7.5222900053 1.72263926046e-05 1.18270755196e-05 -0.000579526700458
Te -2.1071101558 3.1952289013 7.5222922275 -1.02844134953e-06 -2.67394750877e-05 -0.000579783810796
Te 1.0864e-06 8.34e-08 -0.0001261196 -2.57110337382e-06 -6.9419791093e-06 0.000543788363562
Te 2.1071092019 3.6496191422 -0.0001127179 -3.59954472334e-06 -4.62798607287e-06 0.000535560832766
Te 4.2142163048 3.921e-07 -0.0001255032 -1.87690546289e-05 -1.49123995681e-05 0.000541217260188
Te -2.1071097623 3.6496200175 -0.0001268097 -3.59954472334e-06 8.74175147098e-06 0.000536846384453
Te 0.5215122035 2.7341746984 13.6678789363 0.000227285538245 0.000128040948016 7.19908944669e-05
Te 2.1071081702 5.4805072967 13.6678799299 -0 -0.000266880530202 6.71057980566e-05
Te 3.6927052707 2.7341745612 13.6678802696 -0.000227542648583 0.000125469844642 7.17337841295e-05
Te -2.1071091015 6.0826965974 14.7979639976 7.71331012145e-07 7.71331012145e-07 0.000213401580027
Te 2.1071085328 1.8187282541 17.3656856617 0 0.000249654137598 0.000344527852091
Te 3.6927071598 4.5650650721 17.3656849672 -0.000217772455762 -0.000122384520594 0.000344527852091
Te 6.3213259757 1.2165414612 16.2356192673 5.14220674763e-07 -2.57110337382e-07 0.00049879405452
Te 0.5215093341 4.565064058 17.3656851853 0.000219572228124 -0.000116985203509 0.000344784962429
Te 2.1071087199 0.6771408714 10.8027802498 -1.54266202429e-06 0.000640976071092 -0.000142953347584
Te 4.6813493717 5.1358569535 10.8027802382 -0.00055484410807 -0.000318816818353 -0.000142182016572
Te 6.321326562 1.2165381567 11.3028488046 -5.14220674763e-07 2.05688269905e-06 -0.000402891898677
Te -0.4671308992 5.135856882 10.8027780432 0.000554072777057 -0.000318302597678 -0.000142182016572
Te 0.3935270357 -0.227198609 23.5112425867 -9.0245728421e-05 5.37360605128e-05 -6.01638189473e-05
Te 2.1071078883 3.6496213492 23.3153196314 -1.54266202429e-06 5.14220674763e-07 -0.00047231168977
Te 3.8206928273 -0.2271975102 23.5112423829 8.99886180836e-05 5.01365157894e-05 -6.01638189473e-05
Te -2.1071093445 4.1040304809 23.5112425534 5.14220674763e-07 -0.000101815693603 -6.29920326585e-05
Te -0.0009408194 2.4325354286 27.5638916763 6.17064809716e-05 3.65096679082e-05 9.84732592172e-05
Te 2.1071083957 6.0837847221 27.5638903712 2.05688269905e-06 -6.76200187314e-05 9.61592661807e-05
Te 4.2151585116 2.4325351568 27.5638915839 -6.11922602968e-05 3.77952195951e-05 9.7701928205e-05
Te -2.1071086255 6.0826979864 27.5791647908 2.8282137112e-06 4.37087573549e-06 -6.06780396221e-05
Te -0.4671457469 2.1633751281 20.2307673851 0.00034761317614 0.000193346973711 -0.000243997710175
Te 2.1071087715 6.6221132337 20.2307672364 -4.37087573549e-06 -0.000405463002051 -0.000234998848367
Te 4.6813630231 2.1633766384 20.2307670159 -0.000343756521079 0.000196689408097 -0.00023859839309
Te -2.1071096327 6.0826980425 19.7307157786 2.57110337382e-07 -1.02844134953e-06 3.62525575708e-05
Sb -0.0024351955 2.4316707072 9.3833326648 0.000420118291282 0.000239112613765 -0.00034272807973
Sb 2.1071105533 6.0855096529 9.383331316 5.14220674763e-07 -0.000482081882591 -0.000345556293441
Sb 4.2166532292 2.4316712996 9.3833335298 -0.000418575629257 0.000241169496464 -0.000342470969392
Sb -2.1071056951 6.0826970151 8.0370800228 2.31399303643e-06 3.08532404858e-06 -0.000270480074925
Sb 0.0003679859 2.4332919244 1.8865387436 -8.45893009986e-05 -5.01365157894e-05 0.00026713764054
Sb 2.1071086876 6.0822725698 1.8865403356 2.8282137112e-06 0.000111328776086 0.000268423192226
Sb 4.2138488987 2.4332918169 1.8865397777 8.76746250471e-05 -4.7822522753e-05 0.000268680302564
Sb -2.1071100345 6.0826982436 1.8913366391 3.34243438596e-06 4.62798607287e-06 0.000314960163292
Sb -0.0658216926 0.0380039384 17.9167259659 8.8960176734e-05 -5.01365157894e-05 -1.54266202429e-06
Sb 2.1071091607 3.6496211038 19.6542245074 5.14220674763e-07 2.05688269905e-06 3.65096679082e-05
Sb 4.2800392698 0.0380041343 17.9167269378 -8.81888457219e-05 -5.21933984885e-05 -2.05688269905e-06
Sb 6.3213263978 3.5736173183 17.9167266514 -5.14220674763e-07 0.000102329914278 -1.28555168691e-06
Sb 0.06584262 -0.0380138732 13.1168197283 1.54266202429e-06 1.02844134953e-06 0.00027202273695
Sb 2.1071093816 3.6496182211 11.3793459472 1.54266202429e-06 -3.34243438596e-06 -0.000441458449284
Sb 4.1483739928 -0.038014058 13.1168189551 -2.31399303643e-06 3.08532404858e-06 0.000274850950661
Sb -2.1071096089 3.7256472625 13.1168173635 -2.57110337382e-07 -7.71331012145e-07 0.000273822509311
Sb 2.1071089674 1.2169808368 29.1466866537 -1.28555168691e-06 -0.000129840720378 0.000447114876707
Sb 4.2138358064 4.8659382245 29.1466839443 0.000107215010688 6.86484600809e-05 0.00044582932502
Sb 6.3213255307 1.2165407804 29.1418838546 4.62798607287e-06 -4.88509641025e-06 0.000453542635141
Sb 0.0003813788 4.8659382174 29.1466852357 -0.000109271893387 6.7362908394e-05 0.000445057994008
Sb 2.1071090401 1.2137401578 21.6501985902 -1.79977236167e-06 0.000229599531282 -0.000295162667314
Sb 4.216644966 4.8675635181 21.6501999258 -0.000199774732146 -0.000114414100135 -0.000297219550013
Sb 6.3213272535 1.2165440588 22.9965188328 2.57110337382e-06 -7.71331012145e-07 -0.00032498746645
Sb -0.0024273448 4.8675622704 21.6501989437 0.00020131739417 -0.000112614327773 -0.000298247991363
Cr 2.1071083711 3.6496195442 15.5167926416 1.02844134953e-06 -1.79977236167e-06 0.000243740599838
61
Lattice="8.42843558953 0 0 -4.21421779477 7.29923593142 0 0 0 31.0334408416" Properties=species:S:1:pos:R:3:forces:R:3 energy=-133601.231943 ionic_step=30 pbc="T T T"
Te 2.107108914 1.2154596268 3.4692718176 1.02844134953e-06 -6.14493706342e-05 0.00132154713414
Te 4.2151553305 4.8666998102 3.4692727345 5.63071638866e-05 4.34516470175e-05 0.00133234576831
Te 6.3213272291 1.2165417904 3.4540608166 5.14220674763e-06 -3.85665506072e-06 0.000724794041079
Te -0.0009370299 4.8666997855 3.4692712828 -4.93651847773e-05 4.03663229689e-05 0.00132668934089
Te -0.3935029423 0.2271900154 7.5222881674 0.000311617728907 -0.000172521036383 0.00143159035854
Te 2.1071088851 3.6496168515 7.7182385102 2.05688269905e-06 -4.11376539811e-06 0.00210959031822
Te 4.6077274218 0.227194841 7.5222875698 -0.000311617728907 -0.000164807726262 0.00142824792415
Te -2.1071100914 3.1952300949 7.5222897982 -5.14220674763e-06 0.000334757659271 0.00142464837943
Te 1.1348e-06 2.6e-08 -0.0001257009 3.41956748718e-05 -1.079863417e-05 0.00102149937042
Te 2.1071091931 3.6496192078 -0.0001121585 -2.57110337382e-06 -7.45619978407e-06 0.00102407047379
Te 4.2142163652 3.266e-07 -0.0001250467 -3.59954472334e-05 -1.33697375438e-05 0.00101687138434
Te -2.107109672 3.6496202006 -0.0001262449 0 2.72536957625e-05 0.0010076154122
Te 0.521508142 2.7341724405 13.6678805201 -0.000519877102186 -0.00031521727363 -0.00358308966175
Te 2.1071082007 5.4805119701 13.6678814297 -1.02844134953e-06 0.000609094389257 -0.00357974722736
Te 3.6927092512 2.734172259 13.6678817767 0.000524247977921 -0.000313160390931 -0.00358386099276
Te -2.1071091199 6.0826965722 14.7979687678 1.54266202429e-06 8.22753079621e-06 -0.0015159225492
Te 2.1071085707 1.8187247907 17.3656863583 -4.11376539811e-06 -0.00109529003725 0.000757704164264
Te 3.692710107 4.5650667815 17.3656855964 0.000946937372577 0.000548416349635 0.000763874812361
Te 6.3213259941 1.2165414344 16.2356164518 -2.57110337382e-07 -5.14220674763e-07 -0.000944109158865
Te 0.5215064519 4.5650659632 17.3656858862 -0.000951308248312 0.000537617715465 0.000761303708987
Te 2.1071086953 0.6771424553 10.8027742953 -2.57110337382e-07 0.00100067343309 0.000173292367395
Te 4.6813480678 5.1358561628 10.8027742272 -0.000866718947313 -0.000492109185748 0.000174320808745
Te 6.3213265556 1.2165382182 11.3028455315 -5.14220674763e-07 -4.11376539811e-06 -5.14220674763e-07
Te -0.4671295137 5.1358560097 10.8027719501 0.000861319630228 -0.0004890238617 0.000178948794818
Te 0.3935246087 -0.2271971608 23.511243092 4.29374263427e-05 -2.95676887989e-05 -0.000566156962914
Te 2.1071079297 3.649621251 23.3153209808 -4.11376539811e-06 9.25597214574e-06 -0.00101070073625
Te 3.8206952086 -0.2271961328 23.5112427664 -4.21660953306e-05 -2.8282137112e-05 -0.00055870076313
Te -2.1071093189 4.1040276369 23.5112430481 2.57110337382e-07 6.06780396221e-05 -0.00056461430089
Te -0.0009426137 2.4325343542 27.5638955336 -1.10557445074e-05 -9.25597214574e-06 7.2762225479e-05
Te 2.1071083574 6.0837867773 27.5638942395 -1.02844134953e-06 1.20841858569e-05 6.89055704183e-05
Te 4.2151602626 2.4325340848 27.5638953037 1.00273031579e-05 -1.05415238326e-05 7.6104659865e-05
Te -2.1071086183 6.0826979512 27.5791660323 1.28555168691e-06 4.62798607287e-06 0.000555101218407
Te -0.4671434089 2.1633765617 20.230772565 0.00036921044448 0.000203374276869 -0.00162493733225
Te 2.1071087452 6.6221105508 20.2307722857 3.85665506072e-06 -0.000421918063643 -0.00163162220102
Te 4.6813607214 2.1633779451 20.2307721659 -0.000367924892793 0.00020620249058 -0.00162468022191
Te -2.1071096294 6.0826981301 19.7307178734 -1.28555168691e-06 -7.71331012145e-07 -0.00165090547633
Sb -0.0024359971 2.4316703737 9.383328201 0.00106777923115 0.0005970102034 0.00109246182353
Sb 2.1071104365 6.0855105996 9.3833267401 7.71331012145e-06 -0.00122050277155 0.00109246182353
Sb 4.2166539489 2.4316709655 9.3833290871 -0.00106623656912 0.000604209292847 0.00109374737522
Sb -2.1071056422 6.0826967514 8.0370691032 -5.6564274224e-06 1.56837305803e-05 0.00114774054607
Sb 0.0003729249 2.4332949115 1.8865364927 -0.000445572214682 -0.000276136502348 0.00121793166818
Sb 2.1071087652 6.0822670686 1.8865381241 -2.05688269905e-06 0.000530161515681 0.00121201813042
Sb 4.2138441245 2.4332948183 1.8865375396 0.000444029552658 -0.00027793627471 0.00121613189582
Sb -2.10710995 6.0826982656 1.8913346649 -2.57110337382e-07 1.54266202429e-05 0.000990903240269
Sb -0.0658250684 0.0380058362 17.9167286903 4.37087573549e-05 -2.18543786774e-05 -0.00100941518456
Sb 2.1071090627 3.6496210714 19.6542242325 -1.02844134953e-06 2.31399303643e-06 -0.00080321269398
Sb 4.2800426267 0.0380059686 17.9167296505 -4.39658676923e-05 -2.33970407017e-05 -0.00101224339827
Sb 6.3213262875 3.5736134122 17.9167293396 4.62798607287e-06 5.09078468016e-05 -0.00101147206726
Sb 0.0658444854 -0.0380150103 13.11681819 4.11376539811e-06 7.97042045883e-06 -0.00124364270191
Sb 2.1071093631 3.6496182459 11.3793437321 4.88509641025e-06 -1.20841858569e-05 -0.00076593169506
Sb 4.1483721224 -0.0380151198 13.1168174313 -3.85665506072e-06 8.48464113359e-06 -0.00124055737787
Sb -2.1071095478 3.7256493749 13.1168158599 -3.34243438596e-06 -4.88509641025e-06 -0.00123850049517
Sb 2.1071088715 1.2169857907 29.1466888666 1.28555168691e-06 -0.000597267313738 0.000789842956436
Sb 4.2138314836 4.8659357288 29.1466862196 0.000509849799028 0.000301590425749 0.000781358315303
Sb 6.3213256277 1.216540679 29.1418852883 -1.79977236167e-06 -1.28555168691e-06 0.00108243452038
Sb 0.0003856697 4.8659356393 29.1466874521 -0.000509849799028 0.000302361756761 0.000781872535978
Sb 2.107109053 1.2137392465 21.6502018777 -3.85665506072e-06 0.000540188818839 -0.00129763587277
Sb 4.2166456966 4.8675639169 21.6502030689 -0.000472568800107 -0.000263538095816 -0.00129635032108
Sb 6.3213272933 1.2165441546 22.9965277085 1.79977236167e-06 -9.51308248312e-06 -0.00082583840367
Sb -0.0024281325 4.8675627762 21.6502021584 0.000474111462132 -0.000268680302564 -0.00129686454175
Cr 2.1071083673 3.6496194329 15.5167909811 -2.05688269905e-06 -4.62798607287e-06 -0.00124672802596
61
Lattice="8.42843558953 0 0 -4.21421779477 7.29923593142 0 0 0 31.0334408416" Properties=species:S:1:pos:R:3:forces:R:3 energy=-133601.231943 ionic_step=31 pbc="T T T"
Te 2.107108914 1.2154596268 3.4692718176 -7.71331012145e-07 -2.57110337382e-07 -3.7023888583e-05
Te 4.2151553305 4.8666998102 3.4692727345 -1.28555168691e-06 5.14220674763e-07 -3.44527852091e-05
Te 6.3213272291 1.2165417904 3.4540608166 2.57110337382e-07 -1.54266202429e-06 -1.92832753036e-05
Te -0.0009370299 4.8666997855 3.4692712828 1.02844134953e-06 -5.14220674763e-07 -3.54812265587e-05
Te -0.3935029423 0.2271900154 7.5222881674 -0.000131897603077 7.66188805397e-05 -9.07599490957e-05
Te 2.1071088851 3.6496168515 7.7182385102 7.71331012145e-07 -7.71331012145e-07 -4.9879405452e-05
Te 4.6077274218 0.227194841 7.5222875698 0.000132926044426 7.68759908771e-05 -8.99886180836e-05
Te -2.1071100914 3.1952300949 7.5222897982 2.57110337382e-07 -0.000152980650742 -8.99886180836e-05
Te 1.1348e-06 2.6e-08 -0.0001257009 1.4141068556e-05 -6.17064809716e-06 -0.000500336716545
Te 2.1071091931 3.6496192078 -0.0001121585 -5.14220674763e-07 -5.14220674763e-07 -0.000525790639945
Te 4.2142163652 3.266e-07 -0.0001250467 -1.36268478812e-05 -6.68486877192e-06 -0.000500850937219
Te -2.107109672 3.6496202006 -0.0001262449 7.71331012145e-07 1.49123995681e-05 -0.000502393599244
Te 0.521508142 2.7341724405 13.6678805201 0.00067851418035 0.000391321933495 0.00132668934089
Te 2.1071082007 5.4805119701 13.6678814297 5.14220674763e-07 -0.000785214970363 0.00132463245819
Te 3.6927092512 2.734172259 13.6678817767 -0.000679028401025 0.000392607485182 0.00132797489258
Te -2.1071091199 6.0826965722 14.7979687678 2.57110337382e-07 -7.71331012145e-07 -5.14220674763e-05
Te 2.1071085707 1.8187247907 17.3656863583 -2.57110337382e-07 0.000820439086585 -0.00146038671633
Te 3.692710107 4.5650667815 17.3656855964 -0.000707824758812 -0.000411119429473 -0.00145935827498
Te 6.3213259941 1.2165414344 16.2356164518 -2.57110337382e-07 2.31399303643e-06 -0.000730450468501
Te 0.5215064519 4.5650659632 17.3656858862 0.000707310538137 -0.000410348098461 -0.00145935827498
Te 2.1071086953 0.6771424553 10.8027742953 -7.71331012145e-07 2.57110337382e-06 0.00102175648075
Te 4.6813480678 5.1358561628 10.8027742272 -2.31399303643e-06 -2.57110337382e-07 0.00102201359109
Te 6.3213265556 1.2165382182 11.3028455315 0 -2.57110337382e-07 0.00096622064788
Te -0.4671295137 5.1358560097 10.8027719501 2.31399303643e-06 -1.02844134953e-06 0.00102175648075
Te 0.3935246087 -0.2271971608 23.511243092 0.000159151298839 -9.25597214574e-05 0.000636605195357
Te 2.1071079297 3.649621251 23.3153209808 5.14220674763e-07 2.57110337382e-07 0.000533503950067
Te 3.8206952086 -0.2271961328 23.5112427664 -0.000159408409177 -9.17883904452e-05 0.000635833864345
Te -2.1071093189 4.1040276369 23.5112430481 -7.71331012145e-07 0.000184348111903 0.000635576754007
Te -0.0009426137 2.4325343542 27.5638955336 3.9080771282e-05 2.31399303643e-05 -0.000297990881025
Te 2.1071083574 6.0837867773 27.5638942395 -5.14220674763e-07 -4.49943090418e-05 -0.000299790653387
Te 4.2151602626 2.4325340848 27.5638953037 -3.85665506072e-05 2.23685993522e-05 -0.000297990881025
Te -2.1071086183 6.0826979512 27.5791660323 2.57110337382e-07 -0 -0.000308018184183
Te -0.4671434089 2.1633765617 20.230772565 0.000119299196545 6.91626807557e-05 -0.000260966992442
Te 2.1071087452 6.6221105508 20.2307722857 5.14220674763e-07 -0.000137554030499 -0.000258652999406
Te 4.6813607214 2.1633779451 20.2307721659 -0.000119556306882 6.96769014304e-05 -0.000261995433792
Te -2.1071096294 6.0826981301 19.7307178734 -2.57110337382e-07 -7.71331012145e-07 -0.000373581320216
Sb -0.0024359971 2.4316703737 9.383328201 -5.24505088259e-05 -3.13674611606e-05 0.000429888484102
Sb 2.1071104365 6.0855105996 9.3833267401 5.14220674763e-07 6.11922602968e-05 0.000430659815114
Sb 4.2166539489 2.4316709655 9.3833290871 5.21933984885e-05 -3.0339019811e-05 0.000430402704777
Sb -2.1071056422 6.0826967514 8.0370691032 -2.57110337382e-07 1.02844134953e-06 0.000142696237247
Sb 0.0003729249 2.4332949115 1.8865364927 -7.99613149257e-05 -4.83367434277e-05 -0.00023268485533
Sb 2.1071087652 6.0822670686 1.8865381241 -5.14220674763e-07 9.28168317948e-05 -0.000231656413981
Sb 4.2138441245 2.4332948183 1.8865375396 7.91899839135e-05 -4.88509641025e-05 -0.000233199076005
Sb -2.10710995 6.0826982656 1.8913346649 2.57110337382e-07 1.54266202429e-06 -0.000290534681241
Sb -0.0658250684 0.0380058362 17.9167286903 -0.000105672348664 6.22207016464e-05 -0.00105518082461
Sb 2.1071090627 3.6496210714 19.6542242325 2.57110337382e-07 -1.02844134953e-06 -0.000747933971443
Sb 4.2800426267 0.0380059686 17.9167296505 0.000105929459001 6.17064809716e-05 -0.00105518082461
Sb 6.3213262875 3.5736134122 17.9167293396 7.71331012145e-07 -0.000122384520594 -0.00105543793495
Sb 0.0658444854 -0.0380150103 13.11681819 0.000129069389366 -7.40477771659e-05 0.00113051415347
Sb 2.1071093631 3.6496182459 11.3793437321 -2.57110337382e-07 2.57110337382e-07 0.0015262069627
Sb 4.1483721224 -0.0380151198 13.1168174313 -0.000128812279028 -7.30193358164e-05 0.00113179970515
Sb -2.1071095478 3.7256493749 13.1168158599 -1.02844134953e-06 0.000148352664669 0.0011328281465
Sb 2.1071088715 1.2169857907 29.1466888666 2.57110337382e-07 -8.97315077462e-05 -0.000653060256949
Sb 4.2138314836 4.8659357288 29.1466862196 7.89328735762e-05 4.4480088367e-05 -0.000655117139648
Sb 6.3213256277 1.216540679 29.1418852883 -0 7.71331012145e-07 -0.000582097803832
Sb 0.0003856697 4.8659356393 29.1466874521 -7.89328735762e-05 4.4480088367e-05 -0.000655117139648
Sb 2.107109053 1.2137392465 21.6502018777 2.57110337382e-07 7.91899839135e-05 0.00038489417506
Sb 4.2166456966 4.8675639169 21.6502030689 -6.76200187314e-05 -3.93378816194e-05 0.000385151285398
Sb 6.3213272933 1.2165441546 22.9965277085 -0 -7.71331012145e-07 0.000458427731551
Sb -0.0024281325 4.8675627762 21.6502021584 6.91626807557e-05 -3.98521022942e-05 0.000384379954386
Cr 2.1071083673 3.6496194329 15.5167909811 1.28555168691e-06 -2.05688269905e-06 -0.000326273018137
